# vtk DataFile Version 2.0
               (MEGA VTK FILE)
ASCII
DATASET UNSTRUCTURED_GRID
POINTS       1950    double
  0.10378E-02  0.67292E-03 -0.17273E-01
  0.17452E-02  0.12308E-02 -0.17263E-01
  0.23177E-02  0.59151E-03 -0.17261E-01
  0.16698E-02 -0.33775E-03 -0.17280E-01
  0.10379E-02  0.67237E-03 -0.11750E-01
  0.17453E-02  0.12301E-02 -0.11750E-01
  0.23178E-02  0.59098E-03 -0.11750E-01
  0.16700E-02 -0.33851E-03 -0.11750E-01
  0.30377E-02  0.14882E-03 -0.17242E-01
  0.27791E-02 -0.67643E-03 -0.17265E-01
  0.30377E-02  0.14846E-03 -0.11750E-01
  0.27788E-02 -0.67692E-03 -0.11750E-01
  0.12850E-02  0.18412E-02 -0.17251E-01
  0.65139E-03  0.14576E-02 -0.17266E-01
  0.12851E-02  0.18410E-02 -0.11750E-01
  0.65164E-03  0.14566E-02 -0.11750E-01
  0.12757E-03  0.29933E-03 -0.17274E-01
 -0.12822E-03  0.11672E-02 -0.17277E-01
  0.12783E-03  0.29819E-03 -0.11750E-01
 -0.12804E-03  0.11655E-02 -0.11750E-01
  0.94500E-03  0.22748E-02 -0.17243E-01
  0.11327E-02  0.28286E-02 -0.17235E-01
  0.17490E-02  0.24238E-02 -0.17239E-01
  0.94533E-03  0.22746E-02 -0.11750E-01
  0.11330E-02  0.28291E-02 -0.11750E-01
  0.17494E-02  0.24236E-02 -0.11750E-01
  0.40588E-03  0.21685E-02 -0.17262E-01
  0.39779E-03  0.29366E-02 -0.17256E-01
  0.40594E-03  0.21684E-02 -0.11750E-01
  0.39781E-03  0.29369E-02 -0.11750E-01
 -0.76303E-03 -0.10033E-02 -0.17282E-01
 -0.86604E-03  0.78969E-04 -0.17287E-01
  0.46119E-03 -0.70318E-03 -0.17278E-01
 -0.76268E-03 -0.10032E-02 -0.11750E-01
 -0.86593E-03  0.78160E-04 -0.11750E-01
  0.46164E-03 -0.70391E-03 -0.11750E-01
 -0.18300E-02 -0.71196E-03 -0.17261E-01
 -0.18440E-02  0.82749E-04 -0.17282E-01
 -0.18297E-02 -0.71210E-03 -0.11750E-01
 -0.18441E-02  0.82626E-04 -0.11750E-01
 -0.27238E-02 -0.77865E-03 -0.17255E-01
 -0.28028E-02  0.40713E-04 -0.17273E-01
 -0.27238E-02 -0.77882E-03 -0.11750E-01
 -0.28031E-02  0.40439E-04 -0.11750E-01
 -0.25365E-02 -0.15195E-02 -0.17239E-01
 -0.19287E-02 -0.13230E-02 -0.17247E-01
 -0.25363E-02 -0.15195E-02 -0.11750E-01
 -0.19283E-02 -0.13231E-02 -0.11750E-01
 -0.99363E-03  0.98847E-03 -0.17288E-01
 -0.99377E-03  0.98712E-03 -0.11750E-01
 -0.14380E-02 -0.17325E-02 -0.17259E-01
 -0.14377E-02 -0.17325E-02 -0.11750E-01
 -0.31574E-03  0.20220E-02 -0.17281E-01
 -0.31594E-03  0.20217E-02 -0.11750E-01
 -0.11068E-02  0.18615E-02 -0.17287E-01
 -0.11071E-02  0.18616E-02 -0.11750E-01
 -0.18845E-02  0.17175E-02 -0.17270E-01
 -0.18713E-02  0.90940E-03 -0.17283E-01
 -0.18846E-02  0.17175E-02 -0.11750E-01
 -0.18714E-02  0.90916E-03 -0.11750E-01
 -0.15871E-03 -0.19800E-02 -0.17277E-01
 -0.94089E-03 -0.23489E-02 -0.17259E-01
 -0.15844E-03 -0.19800E-02 -0.11750E-01
 -0.94029E-03 -0.23489E-02 -0.11750E-01
  0.78856E-03 -0.17074E-02 -0.17276E-01
  0.78922E-03 -0.17074E-02 -0.11750E-01
  0.17211E-02 -0.14894E-02 -0.17268E-01
  0.17211E-02 -0.14892E-02 -0.11750E-01
  0.32050E-02  0.76036E-03 -0.17213E-01
  0.28046E-02  0.12477E-02 -0.17235E-01
  0.32047E-02  0.75936E-03 -0.11750E-01
  0.28047E-02  0.12473E-02 -0.11750E-01
  0.23059E-02  0.18665E-02 -0.17244E-01
  0.23060E-02  0.18664E-02 -0.11750E-01
 -0.40614E-03  0.29038E-02 -0.17268E-01
 -0.40627E-03  0.29049E-02 -0.11750E-01
 -0.12092E-02  0.27207E-02 -0.17266E-01
 -0.12092E-02  0.27212E-02 -0.11750E-01
 -0.19448E-02  0.24642E-02 -0.17244E-01
 -0.19448E-02  0.24645E-02 -0.11750E-01
 -0.25029E-02  0.22359E-02 -0.17220E-01
 -0.26371E-02  0.16503E-02 -0.17250E-01
 -0.25029E-02  0.22359E-02 -0.11750E-01
 -0.26372E-02  0.16503E-02 -0.11750E-01
 -0.27671E-02  0.87493E-03 -0.17275E-01
 -0.27674E-02  0.87466E-03 -0.11750E-01
 -0.21123E-02 -0.21373E-02 -0.17241E-01
 -0.21122E-02 -0.21373E-02 -0.11750E-01
 -0.16087E-02 -0.26931E-02 -0.17232E-01
 -0.16087E-02 -0.26931E-02 -0.11750E-01
 -0.11939E-02 -0.31291E-02 -0.17210E-01
 -0.58641E-03 -0.30382E-02 -0.17240E-01
 -0.11937E-02 -0.31291E-02 -0.11750E-01
 -0.58606E-03 -0.30382E-02 -0.11750E-01
  0.20912E-03 -0.28748E-02 -0.17260E-01
  0.20952E-03 -0.28748E-02 -0.11750E-01
  0.10586E-02 -0.26423E-02 -0.17258E-01
  0.10589E-02 -0.26420E-02 -0.11750E-01
  0.18413E-02 -0.23707E-02 -0.17241E-01
  0.18413E-02 -0.23705E-02 -0.11750E-01
  0.24544E-02 -0.21445E-02 -0.17218E-01
  0.26022E-02 -0.15105E-02 -0.17245E-01
  0.24543E-02 -0.21439E-02 -0.11750E-01
  0.26021E-02 -0.15106E-02 -0.11750E-01
  0.37964E-02  0.93572E-03 -0.17151E-01
  0.39100E-02  0.00000E+00 -0.17161E-01
  0.37964E-02  0.93572E-03 -0.11750E-01
  0.39100E-02  0.00000E+00 -0.11750E-01
  0.34621E-02  0.18171E-02 -0.17160E-01
  0.34621E-02  0.18171E-02 -0.11750E-01
  0.29267E-02  0.25928E-02 -0.17152E-01
  0.29267E-02  0.25928E-02 -0.11750E-01
  0.22211E-02  0.32179E-02 -0.17153E-01
  0.22211E-02  0.32179E-02 -0.11750E-01
  0.13865E-02  0.36559E-02 -0.17152E-01
  0.13865E-02  0.36559E-02 -0.11750E-01
  0.47130E-03  0.38815E-02 -0.17158E-01
  0.47130E-03  0.38815E-02 -0.11750E-01
 -0.47130E-03  0.38815E-02 -0.17161E-01
 -0.47130E-03  0.38815E-02 -0.11750E-01
 -0.13865E-02  0.36559E-02 -0.17159E-01
 -0.13865E-02  0.36559E-02 -0.11750E-01
 -0.22211E-02  0.32179E-02 -0.17158E-01
 -0.22211E-02  0.32179E-02 -0.11750E-01
 -0.29267E-02  0.25928E-02 -0.17149E-01
 -0.29267E-02  0.25928E-02 -0.11750E-01
 -0.34621E-02  0.18171E-02 -0.17161E-01
 -0.34621E-02  0.18171E-02 -0.11750E-01
 -0.37964E-02  0.93572E-03 -0.17165E-01
 -0.37964E-02  0.93572E-03 -0.11750E-01
 -0.39100E-02  0.22152E-17 -0.17164E-01
 -0.39100E-02 -0.47884E-18 -0.11750E-01
 -0.37964E-02 -0.93572E-03 -0.17159E-01
 -0.37964E-02 -0.93572E-03 -0.11750E-01
 -0.34621E-02 -0.18171E-02 -0.17154E-01
 -0.34621E-02 -0.18171E-02 -0.11750E-01
 -0.29267E-02 -0.25928E-02 -0.17152E-01
 -0.29267E-02 -0.25928E-02 -0.11750E-01
 -0.22211E-02 -0.32179E-02 -0.17159E-01
 -0.22211E-02 -0.32179E-02 -0.11750E-01
 -0.13865E-02 -0.36559E-02 -0.17152E-01
 -0.13865E-02 -0.36559E-02 -0.11750E-01
 -0.47130E-03 -0.38815E-02 -0.17163E-01
 -0.47130E-03 -0.38815E-02 -0.11750E-01
  0.47130E-03 -0.38815E-02 -0.17159E-01
  0.47130E-03 -0.38815E-02 -0.11750E-01
  0.13865E-02 -0.36559E-02 -0.17156E-01
  0.13865E-02 -0.36559E-02 -0.11750E-01
  0.22211E-02 -0.32179E-02 -0.17162E-01
  0.22211E-02 -0.32179E-02 -0.11750E-01
  0.29267E-02 -0.25928E-02 -0.17153E-01
  0.29267E-02 -0.25928E-02 -0.11750E-01
  0.34621E-02 -0.18171E-02 -0.17162E-01
  0.34621E-02 -0.18171E-02 -0.11750E-01
  0.37964E-02 -0.93572E-03 -0.17162E-01
  0.37964E-02 -0.93572E-03 -0.11750E-01
  0.10376E-02  0.67348E-03 -0.18956E-01
  0.17450E-02  0.12314E-02 -0.18954E-01
  0.23175E-02  0.59203E-03 -0.18954E-01
  0.16696E-02 -0.33700E-03 -0.18957E-01
  0.30377E-02  0.14918E-03 -0.18951E-01
  0.27795E-02 -0.67594E-03 -0.18955E-01
  0.12849E-02  0.18414E-02 -0.18953E-01
  0.65115E-03  0.14586E-02 -0.18955E-01
  0.12731E-03  0.30048E-03 -0.18957E-01
 -0.12841E-03  0.11690E-02 -0.18957E-01
  0.94467E-03  0.22749E-02 -0.18952E-01
  0.11323E-02  0.28282E-02 -0.18950E-01
  0.17487E-02  0.24239E-02 -0.18951E-01
  0.40583E-03  0.21685E-02 -0.18954E-01
  0.39777E-03  0.29364E-02 -0.18953E-01
 -0.76338E-03 -0.10035E-02 -0.18957E-01
 -0.86615E-03  0.79778E-04 -0.18958E-01
  0.46074E-03 -0.70245E-03 -0.18957E-01
 -0.18303E-02 -0.71182E-03 -0.18954E-01
 -0.18439E-02  0.82873E-04 -0.18958E-01
 -0.27238E-02 -0.77848E-03 -0.18953E-01
 -0.28025E-02  0.40986E-04 -0.18956E-01
 -0.25366E-02 -0.15194E-02 -0.18951E-01
 -0.19292E-02 -0.13228E-02 -0.18952E-01
 -0.99349E-03  0.98983E-03 -0.18958E-01
 -0.14384E-02 -0.17324E-02 -0.18954E-01
 -0.31554E-03  0.20223E-02 -0.18957E-01
 -0.11064E-02  0.18614E-02 -0.18958E-01
 -0.18845E-02  0.17175E-02 -0.18955E-01
 -0.18712E-02  0.90964E-03 -0.18958E-01
 -0.15899E-03 -0.19800E-02 -0.18957E-01
 -0.94149E-03 -0.23489E-02 -0.18954E-01
  0.78790E-03 -0.17074E-02 -0.18957E-01
  0.17210E-02 -0.14896E-02 -0.18955E-01
  0.32053E-02  0.76137E-03 -0.18947E-01
  0.28046E-02  0.12481E-02 -0.18950E-01
  0.23058E-02  0.18665E-02 -0.18951E-01
 -0.40600E-03  0.29027E-02 -0.18956E-01
 -0.12092E-02  0.27202E-02 -0.18955E-01
 -0.19447E-02  0.24640E-02 -0.18952E-01
 -0.25028E-02  0.22359E-02 -0.18948E-01
 -0.26370E-02  0.16503E-02 -0.18952E-01
 -0.27668E-02  0.87519E-03 -0.18956E-01
 -0.21125E-02 -0.21373E-02 -0.18951E-01
 -0.16088E-02 -0.26932E-02 -0.18950E-01
 -0.11940E-02 -0.31291E-02 -0.18947E-01
 -0.58676E-03 -0.30382E-02 -0.18951E-01
  0.20871E-03 -0.28748E-02 -0.18954E-01
  0.10583E-02 -0.26426E-02 -0.18954E-01
  0.18413E-02 -0.23709E-02 -0.18951E-01
  0.24545E-02 -0.21450E-02 -0.18948E-01
  0.26022E-02 -0.15104E-02 -0.18952E-01
  0.37964E-02  0.93572E-03 -0.18941E-01
  0.39100E-02  0.00000E+00 -0.18942E-01
  0.34621E-02  0.18171E-02 -0.18942E-01
  0.29267E-02  0.25928E-02 -0.18941E-01
  0.22211E-02  0.32179E-02 -0.18941E-01
  0.13865E-02  0.36559E-02 -0.18941E-01
  0.47130E-03  0.38815E-02 -0.18942E-01
 -0.47130E-03  0.38815E-02 -0.18943E-01
 -0.13865E-02  0.36559E-02 -0.18942E-01
 -0.22211E-02  0.32179E-02 -0.18942E-01
 -0.29267E-02  0.25928E-02 -0.18940E-01
 -0.34621E-02  0.18171E-02 -0.18942E-01
 -0.37964E-02  0.93572E-03 -0.18943E-01
 -0.39100E-02 -0.47884E-18 -0.18943E-01
 -0.37964E-02 -0.93572E-03 -0.18942E-01
 -0.34621E-02 -0.18171E-02 -0.18942E-01
 -0.29267E-02 -0.25928E-02 -0.18941E-01
 -0.22211E-02 -0.32179E-02 -0.18942E-01
 -0.13865E-02 -0.36559E-02 -0.18941E-01
 -0.47130E-03 -0.38815E-02 -0.18943E-01
  0.47130E-03 -0.38815E-02 -0.18943E-01
  0.13865E-02 -0.36559E-02 -0.18942E-01
  0.22211E-02 -0.32179E-02 -0.18942E-01
  0.29267E-02 -0.25928E-02 -0.18941E-01
  0.34621E-02 -0.18171E-02 -0.18943E-01
  0.37964E-02 -0.93572E-03 -0.18943E-01
  0.10375E-02  0.67403E-03 -0.18195E-01
  0.17448E-02  0.12321E-02 -0.18195E-01
  0.23174E-02  0.59255E-03 -0.18195E-01
  0.16694E-02 -0.33624E-03 -0.18195E-01
  0.30377E-02  0.14955E-03 -0.18195E-01
  0.27798E-02 -0.67544E-03 -0.18195E-01
  0.12848E-02  0.18415E-02 -0.18195E-01
  0.65090E-03  0.14596E-02 -0.18195E-01
  0.12705E-03  0.30163E-03 -0.18195E-01
 -0.12859E-03  0.11707E-02 -0.18195E-01
  0.94434E-03  0.22750E-02 -0.18195E-01
  0.11320E-02  0.28277E-02 -0.18195E-01
  0.17483E-02  0.24241E-02 -0.18195E-01
  0.40577E-03  0.21685E-02 -0.18195E-01
  0.39776E-03  0.29361E-02 -0.18195E-01
 -0.76374E-03 -0.10036E-02 -0.18195E-01
 -0.86626E-03  0.80588E-04 -0.18195E-01
  0.46029E-03 -0.70173E-03 -0.18195E-01
 -0.18306E-02 -0.71168E-03 -0.18195E-01
 -0.18438E-02  0.82996E-04 -0.18195E-01
 -0.27238E-02 -0.77831E-03 -0.18195E-01
 -0.28022E-02  0.41259E-04 -0.18195E-01
 -0.25368E-02 -0.15194E-02 -0.18195E-01
 -0.19296E-02 -0.13227E-02 -0.18195E-01
 -0.99334E-03  0.99119E-03 -0.18195E-01
 -0.14387E-02 -0.17324E-02 -0.18195E-01
 -0.31534E-03  0.20226E-02 -0.18195E-01
 -0.11061E-02  0.18613E-02 -0.18195E-01
 -0.18844E-02  0.17175E-02 -0.18195E-01
 -0.18710E-02  0.90988E-03 -0.18195E-01
 -0.15926E-03 -0.19801E-02 -0.18195E-01
 -0.94209E-03 -0.23490E-02 -0.18195E-01
  0.78724E-03 -0.17074E-02 -0.18195E-01
  0.17210E-02 -0.14899E-02 -0.18195E-01
  0.32056E-02  0.76237E-03 -0.18195E-01
  0.28046E-02  0.12485E-02 -0.18195E-01
  0.23057E-02  0.18666E-02 -0.18195E-01
 -0.40586E-03  0.29017E-02 -0.18195E-01
 -0.12092E-02  0.27198E-02 -0.18195E-01
 -0.19447E-02  0.24638E-02 -0.18195E-01
 -0.25028E-02  0.22359E-02 -0.18195E-01
 -0.26369E-02  0.16503E-02 -0.18195E-01
 -0.27665E-02  0.87545E-03 -0.18195E-01
 -0.21126E-02 -0.21374E-02 -0.18195E-01
 -0.16088E-02 -0.26932E-02 -0.18195E-01
 -0.11941E-02 -0.31291E-02 -0.18195E-01
 -0.58711E-03 -0.30382E-02 -0.18195E-01
  0.20830E-03 -0.28748E-02 -0.18195E-01
  0.10580E-02 -0.26428E-02 -0.18195E-01
  0.18414E-02 -0.23711E-02 -0.18195E-01
  0.24546E-02 -0.21456E-02 -0.18195E-01
  0.26023E-02 -0.15103E-02 -0.18195E-01
  0.37964E-02  0.93572E-03 -0.18195E-01
  0.39100E-02  0.00000E+00 -0.18195E-01
  0.34621E-02  0.18171E-02 -0.18195E-01
  0.29267E-02  0.25928E-02 -0.18195E-01
  0.22211E-02  0.32179E-02 -0.18195E-01
  0.13865E-02  0.36559E-02 -0.18195E-01
  0.47130E-03  0.38815E-02 -0.18195E-01
 -0.47130E-03  0.38815E-02 -0.18195E-01
 -0.13865E-02  0.36559E-02 -0.18195E-01
 -0.22211E-02  0.32179E-02 -0.18195E-01
 -0.29267E-02  0.25928E-02 -0.18195E-01
 -0.34621E-02  0.18171E-02 -0.18195E-01
 -0.37964E-02  0.93572E-03 -0.18195E-01
 -0.39100E-02  0.39516E-17 -0.18195E-01
 -0.37964E-02 -0.93572E-03 -0.18195E-01
 -0.34621E-02 -0.18171E-02 -0.18195E-01
 -0.29267E-02 -0.25928E-02 -0.18195E-01
 -0.22211E-02 -0.32179E-02 -0.18195E-01
 -0.13865E-02 -0.36559E-02 -0.18195E-01
 -0.47130E-03 -0.38815E-02 -0.18195E-01
  0.47130E-03 -0.38815E-02 -0.18195E-01
  0.13865E-02 -0.36559E-02 -0.18195E-01
  0.22211E-02 -0.32179E-02 -0.18195E-01
  0.29267E-02 -0.25928E-02 -0.18195E-01
  0.34621E-02 -0.18171E-02 -0.18195E-01
  0.37964E-02 -0.93572E-03 -0.18195E-01
  0.10374E-02  0.67459E-03 -0.17216E-01
  0.17446E-02  0.12328E-02 -0.17216E-01
  0.23173E-02  0.59308E-03 -0.17216E-01
  0.16692E-02 -0.33549E-03 -0.17216E-01
  0.30376E-02  0.14991E-03 -0.17216E-01
  0.27801E-02 -0.67495E-03 -0.17216E-01
  0.12847E-02  0.18417E-02 -0.17216E-01
  0.65065E-03  0.14606E-02 -0.17216E-01
  0.12678E-03  0.30278E-03 -0.17216E-01
 -0.12878E-03  0.11725E-02 -0.17216E-01
  0.94401E-03  0.22752E-02 -0.17216E-01
  0.11316E-02  0.28273E-02 -0.17216E-01
  0.17479E-02  0.24242E-02 -0.17216E-01
  0.40572E-03  0.21686E-02 -0.17216E-01
  0.39774E-03  0.29359E-02 -0.17216E-01
 -0.76409E-03 -0.10038E-02 -0.17216E-01
 -0.86637E-03  0.81397E-04 -0.17216E-01
  0.45985E-03 -0.70100E-03 -0.17216E-01
 -0.18309E-02 -0.71154E-03 -0.17216E-01
 -0.18437E-02  0.83120E-04 -0.17216E-01
 -0.27237E-02 -0.77814E-03 -0.17216E-01
 -0.28020E-02  0.41533E-04 -0.17216E-01
 -0.25369E-02 -0.15193E-02 -0.17216E-01
 -0.19300E-02 -0.13227E-02 -0.17216E-01
 -0.99320E-03  0.99254E-03 -0.17216E-01
 -0.14391E-02 -0.17324E-02 -0.17216E-01
 -0.31514E-03  0.20228E-02 -0.17216E-01
 -0.11057E-02  0.18611E-02 -0.17216E-01
 -0.18844E-02  0.17175E-02 -0.17216E-01
 -0.18709E-02  0.91012E-03 -0.17216E-01
 -0.15954E-03 -0.19801E-02 -0.17216E-01
 -0.94269E-03 -0.23490E-02 -0.17216E-01
  0.78658E-03 -0.17074E-02 -0.17216E-01
  0.17209E-02 -0.14901E-02 -0.17216E-01
  0.32060E-02  0.76338E-03 -0.17216E-01
  0.28046E-02  0.12490E-02 -0.17216E-01
  0.23056E-02  0.18666E-02 -0.17216E-01
 -0.40572E-03  0.29006E-02 -0.17216E-01
 -0.12092E-02  0.27193E-02 -0.17216E-01
 -0.19446E-02  0.24636E-02 -0.17216E-01
 -0.25028E-02  0.22359E-02 -0.17216E-01
 -0.26368E-02  0.16503E-02 -0.17216E-01
 -0.27662E-02  0.87571E-03 -0.17216E-01
 -0.21128E-02 -0.21374E-02 -0.17216E-01
 -0.16088E-02 -0.26932E-02 -0.17216E-01
 -0.11942E-02 -0.31291E-02 -0.17216E-01
 -0.58746E-03 -0.30382E-02 -0.17216E-01
  0.20790E-03 -0.28748E-02 -0.17216E-01
  0.10577E-02 -0.26431E-02 -0.17216E-01
  0.18414E-02 -0.23713E-02 -0.17216E-01
  0.24548E-02 -0.21461E-02 -0.17216E-01
  0.26024E-02 -0.15102E-02 -0.17216E-01
  0.37964E-02  0.93572E-03 -0.17216E-01
  0.39100E-02  0.00000E+00 -0.17216E-01
  0.34621E-02  0.18171E-02 -0.17216E-01
  0.29267E-02  0.25928E-02 -0.17216E-01
  0.22211E-02  0.32179E-02 -0.17216E-01
  0.13865E-02  0.36559E-02 -0.17216E-01
  0.47130E-03  0.38815E-02 -0.17216E-01
 -0.47130E-03  0.38815E-02 -0.17216E-01
 -0.13865E-02  0.36559E-02 -0.17216E-01
 -0.22211E-02  0.32179E-02 -0.17216E-01
 -0.29267E-02  0.25928E-02 -0.17216E-01
 -0.34621E-02  0.18171E-02 -0.17216E-01
 -0.37964E-02  0.93572E-03 -0.17216E-01
 -0.39100E-02 -0.47884E-18 -0.17216E-01
 -0.37964E-02 -0.93572E-03 -0.17216E-01
 -0.34621E-02 -0.18171E-02 -0.17216E-01
 -0.29267E-02 -0.25928E-02 -0.17216E-01
 -0.22211E-02 -0.32179E-02 -0.17216E-01
 -0.13865E-02 -0.36559E-02 -0.17216E-01
 -0.47130E-03 -0.38815E-02 -0.17216E-01
  0.47130E-03 -0.38815E-02 -0.17216E-01
  0.13865E-02 -0.36559E-02 -0.17216E-01
  0.22211E-02 -0.32179E-02 -0.17216E-01
  0.29267E-02 -0.25928E-02 -0.17216E-01
  0.34621E-02 -0.18171E-02 -0.17216E-01
  0.37964E-02 -0.93572E-03 -0.17216E-01
  0.10373E-02  0.67514E-03 -0.16237E-01
  0.17445E-02  0.12334E-02 -0.16237E-01
  0.23172E-02  0.59360E-03 -0.16237E-01
  0.16689E-02 -0.33474E-03 -0.16237E-01
  0.30376E-02  0.15027E-03 -0.16237E-01
  0.27805E-02 -0.67446E-03 -0.16237E-01
  0.12846E-02  0.18419E-02 -0.16237E-01
  0.65041E-03  0.14616E-02 -0.16237E-01
  0.12652E-03  0.30393E-03 -0.16237E-01
 -0.12896E-03  0.11742E-02 -0.16237E-01
  0.94367E-03  0.22753E-02 -0.16237E-01
  0.11313E-02  0.28269E-02 -0.16237E-01
  0.17475E-02  0.24244E-02 -0.16237E-01
  0.40566E-03  0.21686E-02 -0.16237E-01
  0.39772E-03  0.29356E-02 -0.16237E-01
 -0.76444E-03 -0.10039E-02 -0.16237E-01
 -0.86648E-03  0.82206E-04 -0.16237E-01
  0.45940E-03 -0.70028E-03 -0.16237E-01
 -0.18312E-02 -0.71140E-03 -0.16237E-01
 -0.18436E-02  0.83243E-04 -0.16237E-01
 -0.27237E-02 -0.77797E-03 -0.16237E-01
 -0.28017E-02  0.41806E-04 -0.16237E-01
 -0.25371E-02 -0.15193E-02 -0.16237E-01
 -0.19305E-02 -0.13226E-02 -0.16237E-01
 -0.99305E-03  0.99390E-03 -0.16237E-01
 -0.14394E-02 -0.17323E-02 -0.16237E-01
 -0.31494E-03  0.20231E-02 -0.16237E-01
 -0.11054E-02  0.18610E-02 -0.16237E-01
 -0.18843E-02  0.17175E-02 -0.16237E-01
 -0.18708E-02  0.91036E-03 -0.16237E-01
 -0.15981E-03 -0.19801E-02 -0.16237E-01
 -0.94328E-03 -0.23490E-02 -0.16237E-01
  0.78592E-03 -0.17074E-02 -0.16237E-01
  0.17209E-02 -0.14904E-02 -0.16237E-01
  0.32063E-02  0.76439E-03 -0.16237E-01
  0.28045E-02  0.12494E-02 -0.16237E-01
  0.23055E-02  0.18666E-02 -0.16237E-01
 -0.40558E-03  0.28995E-02 -0.16237E-01
 -0.12092E-02  0.27188E-02 -0.16237E-01
 -0.19446E-02  0.24633E-02 -0.16237E-01
 -0.25027E-02  0.22359E-02 -0.16237E-01
 -0.26367E-02  0.16503E-02 -0.16237E-01
 -0.27658E-02  0.87597E-03 -0.16237E-01
 -0.21129E-02 -0.21374E-02 -0.16237E-01
 -0.16089E-02 -0.26932E-02 -0.16237E-01
 -0.11943E-02 -0.31291E-02 -0.16237E-01
 -0.58781E-03 -0.30382E-02 -0.16237E-01
  0.20749E-03 -0.28748E-02 -0.16237E-01
  0.10574E-02 -0.26434E-02 -0.16237E-01
  0.18415E-02 -0.23715E-02 -0.16237E-01
  0.24549E-02 -0.21467E-02 -0.16237E-01
  0.26025E-02 -0.15101E-02 -0.16237E-01
  0.37964E-02  0.93572E-03 -0.16237E-01
  0.39100E-02  0.00000E+00 -0.16237E-01
  0.34621E-02  0.18171E-02 -0.16237E-01
  0.29267E-02  0.25928E-02 -0.16237E-01
  0.22211E-02  0.32179E-02 -0.16237E-01
  0.13865E-02  0.36559E-02 -0.16237E-01
  0.47130E-03  0.38815E-02 -0.16237E-01
 -0.47130E-03  0.38815E-02 -0.16237E-01
 -0.13865E-02  0.36559E-02 -0.16237E-01
 -0.22211E-02  0.32179E-02 -0.16237E-01
 -0.29267E-02  0.25928E-02 -0.16237E-01
 -0.34621E-02  0.18171E-02 -0.16237E-01
 -0.37964E-02  0.93572E-03 -0.16237E-01
 -0.39100E-02 -0.47884E-18 -0.16237E-01
 -0.37964E-02 -0.93572E-03 -0.16237E-01
 -0.34621E-02 -0.18171E-02 -0.16237E-01
 -0.29267E-02 -0.25928E-02 -0.16237E-01
 -0.22211E-02 -0.32179E-02 -0.16237E-01
 -0.13865E-02 -0.36559E-02 -0.16237E-01
 -0.47130E-03 -0.38815E-02 -0.16237E-01
  0.47130E-03 -0.38815E-02 -0.16237E-01
  0.13865E-02 -0.36559E-02 -0.16237E-01
  0.22211E-02 -0.32179E-02 -0.16237E-01
  0.29267E-02 -0.25928E-02 -0.16237E-01
  0.34621E-02 -0.18171E-02 -0.16237E-01
  0.37964E-02 -0.93572E-03 -0.16237E-01
  0.10372E-02  0.67570E-03 -0.15258E-01
  0.17443E-02  0.12341E-02 -0.15258E-01
  0.23171E-02  0.59412E-03 -0.15258E-01
  0.16687E-02 -0.33398E-03 -0.15258E-01
  0.30376E-02  0.15064E-03 -0.15258E-01
  0.27808E-02 -0.67396E-03 -0.15258E-01
  0.12845E-02  0.18421E-02 -0.15258E-01
  0.65016E-03  0.14626E-02 -0.15258E-01
  0.12626E-03  0.30507E-03 -0.15258E-01
 -0.12915E-03  0.11760E-02 -0.15258E-01
  0.94334E-03  0.22754E-02 -0.15258E-01
  0.11310E-02  0.28264E-02 -0.15258E-01
  0.17471E-02  0.24245E-02 -0.15258E-01
  0.40561E-03  0.21686E-02 -0.15258E-01
  0.39770E-03  0.29353E-02 -0.15258E-01
 -0.76480E-03 -0.10040E-02 -0.15258E-01
 -0.86659E-03  0.83015E-04 -0.15258E-01
  0.45895E-03 -0.69955E-03 -0.15258E-01
 -0.18315E-02 -0.71126E-03 -0.15258E-01
 -0.18435E-02  0.83367E-04 -0.15258E-01
 -0.27237E-02 -0.77780E-03 -0.15258E-01
 -0.28014E-02  0.42080E-04 -0.15258E-01
 -0.25372E-02 -0.15192E-02 -0.15258E-01
 -0.19309E-02 -0.13224E-02 -0.15258E-01
 -0.99291E-03  0.99526E-03 -0.15258E-01
 -0.14398E-02 -0.17323E-02 -0.15258E-01
 -0.31474E-03  0.20234E-02 -0.15258E-01
 -0.11051E-02  0.18609E-02 -0.15258E-01
 -0.18843E-02  0.17175E-02 -0.15258E-01
 -0.18706E-02  0.91060E-03 -0.15258E-01
 -0.16009E-03 -0.19801E-02 -0.15258E-01
 -0.94388E-03 -0.23490E-02 -0.15258E-01
  0.78526E-03 -0.17074E-02 -0.15258E-01
  0.17208E-02 -0.14906E-02 -0.15258E-01
  0.32066E-02  0.76539E-03 -0.15258E-01
  0.28045E-02  0.12498E-02 -0.15258E-01
  0.23053E-02  0.18667E-02 -0.15258E-01
 -0.40545E-03  0.28984E-02 -0.15258E-01
 -0.12092E-02  0.27184E-02 -0.15258E-01
 -0.19446E-02  0.24631E-02 -0.15258E-01
 -0.25027E-02  0.22359E-02 -0.15258E-01
 -0.26366E-02  0.16503E-02 -0.15258E-01
 -0.27655E-02  0.87623E-03 -0.15258E-01
 -0.21130E-02 -0.21374E-02 -0.15258E-01
 -0.16089E-02 -0.26932E-02 -0.15258E-01
 -0.11944E-02 -0.31291E-02 -0.15258E-01
 -0.58816E-03 -0.30382E-02 -0.15258E-01
  0.20709E-03 -0.28748E-02 -0.15258E-01
  0.10571E-02 -0.26436E-02 -0.15258E-01
  0.18415E-02 -0.23717E-02 -0.15258E-01
  0.24550E-02 -0.21472E-02 -0.15258E-01
  0.26025E-02 -0.15100E-02 -0.15258E-01
  0.37964E-02  0.93572E-03 -0.15258E-01
  0.39100E-02  0.00000E+00 -0.15258E-01
  0.34621E-02  0.18171E-02 -0.15258E-01
  0.29267E-02  0.25928E-02 -0.15258E-01
  0.22211E-02  0.32179E-02 -0.15258E-01
  0.13865E-02  0.36559E-02 -0.15258E-01
  0.47130E-03  0.38815E-02 -0.15258E-01
 -0.47130E-03  0.38815E-02 -0.15258E-01
 -0.13865E-02  0.36559E-02 -0.15258E-01
 -0.22211E-02  0.32179E-02 -0.15258E-01
 -0.29267E-02  0.25928E-02 -0.15258E-01
 -0.34621E-02  0.18171E-02 -0.15258E-01
 -0.37964E-02  0.93572E-03 -0.15258E-01
 -0.39100E-02 -0.47884E-18 -0.15258E-01
 -0.37964E-02 -0.93572E-03 -0.15258E-01
 -0.34621E-02 -0.18171E-02 -0.15258E-01
 -0.29267E-02 -0.25928E-02 -0.15258E-01
 -0.22211E-02 -0.32179E-02 -0.15258E-01
 -0.13865E-02 -0.36559E-02 -0.15258E-01
 -0.47130E-03 -0.38815E-02 -0.15258E-01
  0.47130E-03 -0.38815E-02 -0.15258E-01
  0.13865E-02 -0.36559E-02 -0.15258E-01
  0.22211E-02 -0.32179E-02 -0.15258E-01
  0.29267E-02 -0.25928E-02 -0.15258E-01
  0.34621E-02 -0.18171E-02 -0.15258E-01
  0.37964E-02 -0.93572E-03 -0.15258E-01
  0.10371E-02  0.67625E-03 -0.14278E-01
  0.17441E-02  0.12348E-02 -0.14278E-01
  0.23169E-02  0.59465E-03 -0.14278E-01
  0.16685E-02 -0.33323E-03 -0.14278E-01
  0.30376E-02  0.15100E-03 -0.14278E-01
  0.27812E-02 -0.67347E-03 -0.14278E-01
  0.12844E-02  0.18423E-02 -0.14278E-01
  0.64992E-03  0.14636E-02 -0.14278E-01
  0.12600E-03  0.30622E-03 -0.14278E-01
 -0.12933E-03  0.11777E-02 -0.14278E-01
  0.94301E-03  0.22755E-02 -0.14278E-01
  0.11306E-02  0.28260E-02 -0.14278E-01
  0.17467E-02  0.24247E-02 -0.14278E-01
  0.40556E-03  0.21687E-02 -0.14278E-01
  0.39769E-03  0.29351E-02 -0.14278E-01
 -0.76515E-03 -0.10042E-02 -0.14278E-01
 -0.86670E-03  0.83825E-04 -0.14278E-01
  0.45850E-03 -0.69882E-03 -0.14278E-01
 -0.18318E-02 -0.71112E-03 -0.14278E-01
 -0.18434E-02  0.83490E-04 -0.14278E-01
 -0.27236E-02 -0.77763E-03 -0.14278E-01
 -0.28011E-02  0.42353E-04 -0.14278E-01
 -0.25374E-02 -0.15192E-02 -0.14278E-01
 -0.19313E-02 -0.13223E-02 -0.14278E-01
 -0.99277E-03  0.99661E-03 -0.14278E-01
 -0.14401E-02 -0.17322E-02 -0.14278E-01
 -0.31454E-03  0.20237E-02 -0.14278E-01
 -0.11047E-02  0.18607E-02 -0.14278E-01
 -0.18842E-02  0.17175E-02 -0.14278E-01
 -0.18705E-02  0.91084E-03 -0.14278E-01
 -0.16036E-03 -0.19801E-02 -0.14278E-01
 -0.94448E-03 -0.23491E-02 -0.14278E-01
  0.78460E-03 -0.17074E-02 -0.14278E-01
  0.17208E-02 -0.14909E-02 -0.14278E-01
  0.32070E-02  0.76640E-03 -0.14278E-01
  0.28045E-02  0.12503E-02 -0.14278E-01
  0.23052E-02  0.18667E-02 -0.14278E-01
 -0.40531E-03  0.28974E-02 -0.14278E-01
 -0.12092E-02  0.27179E-02 -0.14278E-01
 -0.19445E-02  0.24629E-02 -0.14278E-01
 -0.25027E-02  0.22359E-02 -0.14278E-01
 -0.26366E-02  0.16503E-02 -0.14278E-01
 -0.27652E-02  0.87650E-03 -0.14278E-01
 -0.21132E-02 -0.21374E-02 -0.14278E-01
 -0.16090E-02 -0.26933E-02 -0.14278E-01
 -0.11946E-02 -0.31291E-02 -0.14278E-01
 -0.58851E-03 -0.30382E-02 -0.14278E-01
  0.20668E-03 -0.28749E-02 -0.14278E-01
  0.10567E-02 -0.26439E-02 -0.14278E-01
  0.18416E-02 -0.23719E-02 -0.14278E-01
  0.24551E-02 -0.21478E-02 -0.14278E-01
  0.26026E-02 -0.15099E-02 -0.14278E-01
  0.37964E-02  0.93572E-03 -0.14278E-01
  0.39100E-02  0.00000E+00 -0.14278E-01
  0.34621E-02  0.18171E-02 -0.14278E-01
  0.29267E-02  0.25928E-02 -0.14278E-01
  0.22211E-02  0.32179E-02 -0.14278E-01
  0.13865E-02  0.36559E-02 -0.14278E-01
  0.47130E-03  0.38815E-02 -0.14278E-01
 -0.47130E-03  0.38815E-02 -0.14278E-01
 -0.13865E-02  0.36559E-02 -0.14278E-01
 -0.22211E-02  0.32179E-02 -0.14278E-01
 -0.29267E-02  0.25928E-02 -0.14278E-01
 -0.34621E-02  0.18171E-02 -0.14278E-01
 -0.37964E-02  0.93572E-03 -0.14278E-01
 -0.39100E-02 -0.47884E-18 -0.14278E-01
 -0.37964E-02 -0.93572E-03 -0.14278E-01
 -0.34621E-02 -0.18171E-02 -0.14278E-01
 -0.29267E-02 -0.25928E-02 -0.14278E-01
 -0.22211E-02 -0.32179E-02 -0.14278E-01
 -0.13865E-02 -0.36559E-02 -0.14278E-01
 -0.47130E-03 -0.38815E-02 -0.14278E-01
  0.47130E-03 -0.38815E-02 -0.14278E-01
  0.13865E-02 -0.36559E-02 -0.14278E-01
  0.22211E-02 -0.32179E-02 -0.14278E-01
  0.29267E-02 -0.25928E-02 -0.14278E-01
  0.34621E-02 -0.18171E-02 -0.14278E-01
  0.37964E-02 -0.93572E-03 -0.14278E-01
  0.10370E-02  0.67680E-03 -0.13299E-01
  0.17439E-02  0.12354E-02 -0.13299E-01
  0.23168E-02  0.59517E-03 -0.13299E-01
  0.16683E-02 -0.33247E-03 -0.13299E-01
  0.30375E-02  0.15136E-03 -0.13299E-01
  0.27815E-02 -0.67298E-03 -0.13299E-01
  0.12843E-02  0.18425E-02 -0.13299E-01
  0.64967E-03  0.14646E-02 -0.13299E-01
  0.12573E-03  0.30737E-03 -0.13299E-01
 -0.12952E-03  0.11795E-02 -0.13299E-01
  0.94268E-03  0.22757E-02 -0.13299E-01
  0.11303E-02  0.28255E-02 -0.13299E-01
  0.17463E-02  0.24248E-02 -0.13299E-01
  0.40550E-03  0.21687E-02 -0.13299E-01
  0.39767E-03  0.29348E-02 -0.13299E-01
 -0.76551E-03 -0.10043E-02 -0.13299E-01
 -0.86680E-03  0.84634E-04 -0.13299E-01
  0.45806E-03 -0.69810E-03 -0.13299E-01
 -0.18321E-02 -0.71098E-03 -0.13299E-01
 -0.18433E-02  0.83614E-04 -0.13299E-01
 -0.27236E-02 -0.77746E-03 -0.13299E-01
 -0.28009E-02  0.42626E-04 -0.13299E-01
 -0.25375E-02 -0.15191E-02 -0.13299E-01
 -0.19317E-02 -0.13223E-02 -0.13299E-01
 -0.99262E-03  0.99797E-03 -0.13299E-01
 -0.14405E-02 -0.17322E-02 -0.13299E-01
 -0.31434E-03  0.20240E-02 -0.13299E-01
 -0.11044E-02  0.18606E-02 -0.13299E-01
 -0.18842E-02  0.17175E-02 -0.13299E-01
 -0.18704E-02  0.91108E-03 -0.13299E-01
 -0.16064E-03 -0.19802E-02 -0.13299E-01
 -0.94508E-03 -0.23491E-02 -0.13299E-01
  0.78394E-03 -0.17074E-02 -0.13299E-01
  0.17208E-02 -0.14911E-02 -0.13299E-01
  0.32073E-02  0.76740E-03 -0.13299E-01
  0.28045E-02  0.12507E-02 -0.13299E-01
  0.23051E-02  0.18668E-02 -0.13299E-01
 -0.40517E-03  0.28963E-02 -0.13299E-01
 -0.12092E-02  0.27174E-02 -0.13299E-01
 -0.19445E-02  0.24627E-02 -0.13299E-01
 -0.25026E-02  0.22358E-02 -0.13299E-01
 -0.26365E-02  0.16503E-02 -0.13299E-01
 -0.27649E-02  0.87676E-03 -0.13299E-01
 -0.21133E-02 -0.21374E-02 -0.13299E-01
 -0.16090E-02 -0.26933E-02 -0.13299E-01
 -0.11947E-02 -0.31291E-02 -0.13299E-01
 -0.58886E-03 -0.30382E-02 -0.13299E-01
  0.20627E-03 -0.28749E-02 -0.13299E-01
  0.10564E-02 -0.26442E-02 -0.13299E-01
  0.18416E-02 -0.23721E-02 -0.13299E-01
  0.24553E-02 -0.21483E-02 -0.13299E-01
  0.26027E-02 -0.15097E-02 -0.13299E-01
  0.37964E-02  0.93572E-03 -0.13299E-01
  0.39100E-02  0.00000E+00 -0.13299E-01
  0.34621E-02  0.18171E-02 -0.13299E-01
  0.29267E-02  0.25928E-02 -0.13299E-01
  0.22211E-02  0.32179E-02 -0.13299E-01
  0.13865E-02  0.36559E-02 -0.13299E-01
  0.47130E-03  0.38815E-02 -0.13299E-01
 -0.47130E-03  0.38815E-02 -0.13299E-01
 -0.13865E-02  0.36559E-02 -0.13299E-01
 -0.22211E-02  0.32179E-02 -0.13299E-01
 -0.29267E-02  0.25928E-02 -0.13299E-01
 -0.34621E-02  0.18171E-02 -0.13299E-01
 -0.37964E-02  0.93572E-03 -0.13299E-01
 -0.39100E-02 -0.47884E-18 -0.13299E-01
 -0.37964E-02 -0.93572E-03 -0.13299E-01
 -0.34621E-02 -0.18171E-02 -0.13299E-01
 -0.29267E-02 -0.25928E-02 -0.13299E-01
 -0.22211E-02 -0.32179E-02 -0.13299E-01
 -0.13865E-02 -0.36559E-02 -0.13299E-01
 -0.47130E-03 -0.38815E-02 -0.13299E-01
  0.47130E-03 -0.38815E-02 -0.13299E-01
  0.13865E-02 -0.36559E-02 -0.13299E-01
  0.22211E-02 -0.32179E-02 -0.13299E-01
  0.29267E-02 -0.25928E-02 -0.13299E-01
  0.34621E-02 -0.18171E-02 -0.13299E-01
  0.37964E-02 -0.93572E-03 -0.13299E-01
  0.10368E-02  0.67736E-03 -0.12320E-01
  0.17438E-02  0.12361E-02 -0.12320E-01
  0.23167E-02  0.59570E-03 -0.12320E-01
  0.16681E-02 -0.33172E-03 -0.12320E-01
  0.30375E-02  0.15173E-03 -0.12320E-01
  0.27819E-02 -0.67248E-03 -0.12320E-01
  0.12842E-02  0.18427E-02 -0.12320E-01
  0.64943E-03  0.14656E-02 -0.12320E-01
  0.12547E-03  0.30852E-03 -0.12320E-01
 -0.12970E-03  0.11812E-02 -0.12320E-01
  0.94235E-03  0.22758E-02 -0.12320E-01
  0.11300E-02  0.28251E-02 -0.12320E-01
  0.17459E-02  0.24249E-02 -0.12320E-01
  0.40545E-03  0.21688E-02 -0.12320E-01
  0.39766E-03  0.29345E-02 -0.12320E-01
 -0.76586E-03 -0.10044E-02 -0.12320E-01
 -0.86691E-03  0.85443E-04 -0.12320E-01
  0.45761E-03 -0.69737E-03 -0.12320E-01
 -0.18324E-02 -0.71084E-03 -0.12320E-01
 -0.18432E-02  0.83737E-04 -0.12320E-01
 -0.27236E-02 -0.77729E-03 -0.12320E-01
 -0.28006E-02  0.42899E-04 -0.12320E-01
 -0.25377E-02 -0.15191E-02 -0.12320E-01
 -0.19322E-02 -0.13222E-02 -0.12320E-01
 -0.99248E-03  0.99932E-03 -0.12320E-01
 -0.14408E-02 -0.17322E-02 -0.12320E-01
 -0.31414E-03  0.20243E-02 -0.12320E-01
 -0.11040E-02  0.18605E-02 -0.12320E-01
 -0.18841E-02  0.17175E-02 -0.12320E-01
 -0.18703E-02  0.91132E-03 -0.12320E-01
 -0.16091E-03 -0.19802E-02 -0.12320E-01
 -0.94568E-03 -0.23491E-02 -0.12320E-01
  0.78328E-03 -0.17074E-02 -0.12320E-01
  0.17207E-02 -0.14914E-02 -0.12320E-01
  0.32076E-02  0.76841E-03 -0.12320E-01
  0.28044E-02  0.12511E-02 -0.12320E-01
  0.23050E-02  0.18668E-02 -0.12320E-01
 -0.40503E-03  0.28952E-02 -0.12320E-01
 -0.12092E-02  0.27170E-02 -0.12320E-01
 -0.19445E-02  0.24624E-02 -0.12320E-01
 -0.25026E-02  0.22358E-02 -0.12320E-01
 -0.26364E-02  0.16503E-02 -0.12320E-01
 -0.27646E-02  0.87702E-03 -0.12320E-01
 -0.21134E-02 -0.21374E-02 -0.12320E-01
 -0.16091E-02 -0.26933E-02 -0.12320E-01
 -0.11948E-02 -0.31291E-02 -0.12320E-01
 -0.58921E-03 -0.30382E-02 -0.12320E-01
  0.20587E-03 -0.28749E-02 -0.12320E-01
  0.10561E-02 -0.26444E-02 -0.12320E-01
  0.18416E-02 -0.23723E-02 -0.12320E-01
  0.24554E-02 -0.21489E-02 -0.12320E-01
  0.26027E-02 -0.15096E-02 -0.12320E-01
  0.37964E-02  0.93572E-03 -0.12320E-01
  0.39100E-02  0.00000E+00 -0.12320E-01
  0.34621E-02  0.18171E-02 -0.12320E-01
  0.29267E-02  0.25928E-02 -0.12320E-01
  0.22211E-02  0.32179E-02 -0.12320E-01
  0.13865E-02  0.36559E-02 -0.12320E-01
  0.47130E-03  0.38815E-02 -0.12320E-01
 -0.47130E-03  0.38815E-02 -0.12320E-01
 -0.13865E-02  0.36559E-02 -0.12320E-01
 -0.22211E-02  0.32179E-02 -0.12320E-01
 -0.29267E-02  0.25928E-02 -0.12320E-01
 -0.34621E-02  0.18171E-02 -0.12320E-01
 -0.37964E-02  0.93572E-03 -0.12320E-01
 -0.39100E-02 -0.47884E-18 -0.12320E-01
 -0.37964E-02 -0.93572E-03 -0.12320E-01
 -0.34621E-02 -0.18171E-02 -0.12320E-01
 -0.29267E-02 -0.25928E-02 -0.12320E-01
 -0.22211E-02 -0.32179E-02 -0.12320E-01
 -0.13865E-02 -0.36559E-02 -0.12320E-01
 -0.47130E-03 -0.38815E-02 -0.12320E-01
  0.47130E-03 -0.38815E-02 -0.12320E-01
  0.13865E-02 -0.36559E-02 -0.12320E-01
  0.22211E-02 -0.32179E-02 -0.12320E-01
  0.29267E-02 -0.25928E-02 -0.12320E-01
  0.34621E-02 -0.18171E-02 -0.12320E-01
  0.37964E-02 -0.93572E-03 -0.12320E-01
  0.10367E-02  0.67791E-03 -0.11341E-01
  0.17436E-02  0.12368E-02 -0.11341E-01
  0.23166E-02  0.59622E-03 -0.11341E-01
  0.16679E-02 -0.33096E-03 -0.11341E-01
  0.30375E-02  0.15209E-03 -0.11341E-01
  0.27822E-02 -0.67199E-03 -0.11341E-01
  0.12841E-02  0.18429E-02 -0.11341E-01
  0.64918E-03  0.14666E-02 -0.11341E-01
  0.12521E-03  0.30967E-03 -0.11341E-01
 -0.12989E-03  0.11830E-02 -0.11341E-01
  0.94202E-03  0.22759E-02 -0.11341E-01
  0.11296E-02  0.28247E-02 -0.11341E-01
  0.17455E-02  0.24251E-02 -0.11341E-01
  0.40539E-03  0.21688E-02 -0.11341E-01
  0.39764E-03  0.29343E-02 -0.11341E-01
 -0.76621E-03 -0.10046E-02 -0.11341E-01
 -0.86702E-03  0.86253E-04 -0.11341E-01
  0.45716E-03 -0.69665E-03 -0.11341E-01
 -0.18326E-02 -0.71070E-03 -0.11341E-01
 -0.18431E-02  0.83861E-04 -0.11341E-01
 -0.27235E-02 -0.77712E-03 -0.11341E-01
 -0.28003E-02  0.43173E-04 -0.11341E-01
 -0.25379E-02 -0.15190E-02 -0.11341E-01
 -0.19326E-02 -0.13220E-02 -0.11341E-01
 -0.99233E-03  0.10007E-02 -0.11341E-01
 -0.14412E-02 -0.17321E-02 -0.11341E-01
 -0.31394E-03  0.20245E-02 -0.11341E-01
 -0.11037E-02  0.18603E-02 -0.11341E-01
 -0.18841E-02  0.17175E-02 -0.11341E-01
 -0.18701E-02  0.91156E-03 -0.11341E-01
 -0.16119E-03 -0.19802E-02 -0.11341E-01
 -0.94628E-03 -0.23491E-02 -0.11341E-01
  0.78262E-03 -0.17074E-02 -0.11341E-01
  0.17207E-02 -0.14916E-02 -0.11341E-01
  0.32079E-02  0.76941E-03 -0.11341E-01
  0.28044E-02  0.12515E-02 -0.11341E-01
  0.23049E-02  0.18668E-02 -0.11341E-01
 -0.40490E-03  0.28942E-02 -0.11341E-01
 -0.12093E-02  0.27165E-02 -0.11341E-01
 -0.19444E-02  0.24622E-02 -0.11341E-01
 -0.25026E-02  0.22358E-02 -0.11341E-01
 -0.26363E-02  0.16503E-02 -0.11341E-01
 -0.27643E-02  0.87728E-03 -0.11341E-01
 -0.21136E-02 -0.21374E-02 -0.11341E-01
 -0.16091E-02 -0.26933E-02 -0.11341E-01
 -0.11949E-02 -0.31291E-02 -0.11341E-01
 -0.58956E-03 -0.30382E-02 -0.11341E-01
  0.20546E-03 -0.28749E-02 -0.11341E-01
  0.10558E-02 -0.26447E-02 -0.11341E-01
  0.18417E-02 -0.23725E-02 -0.11341E-01
  0.24555E-02 -0.21494E-02 -0.11341E-01
  0.26028E-02 -0.15095E-02 -0.11341E-01
  0.37964E-02  0.93572E-03 -0.11341E-01
  0.39100E-02  0.00000E+00 -0.11341E-01
  0.34621E-02  0.18171E-02 -0.11341E-01
  0.29267E-02  0.25928E-02 -0.11341E-01
  0.22211E-02  0.32179E-02 -0.11341E-01
  0.13865E-02  0.36559E-02 -0.11341E-01
  0.47130E-03  0.38815E-02 -0.11341E-01
 -0.47130E-03  0.38815E-02 -0.11341E-01
 -0.13865E-02  0.36559E-02 -0.11341E-01
 -0.22211E-02  0.32179E-02 -0.11341E-01
 -0.29267E-02  0.25928E-02 -0.11341E-01
 -0.34621E-02  0.18171E-02 -0.11341E-01
 -0.37964E-02  0.93572E-03 -0.11341E-01
 -0.39100E-02 -0.47884E-18 -0.11341E-01
 -0.37964E-02 -0.93572E-03 -0.11341E-01
 -0.34621E-02 -0.18171E-02 -0.11341E-01
 -0.29267E-02 -0.25928E-02 -0.11341E-01
 -0.22211E-02 -0.32179E-02 -0.11341E-01
 -0.13865E-02 -0.36559E-02 -0.11341E-01
 -0.47130E-03 -0.38815E-02 -0.11341E-01
  0.47130E-03 -0.38815E-02 -0.11341E-01
  0.13865E-02 -0.36559E-02 -0.11341E-01
  0.22211E-02 -0.32179E-02 -0.11341E-01
  0.29267E-02 -0.25928E-02 -0.11341E-01
  0.34621E-02 -0.18171E-02 -0.11341E-01
  0.37964E-02 -0.93572E-03 -0.11341E-01
  0.10366E-02  0.67847E-03 -0.10362E-01
  0.17434E-02  0.12374E-02 -0.10362E-01
  0.23164E-02  0.59674E-03 -0.10362E-01
  0.16677E-02 -0.33021E-03 -0.10362E-01
  0.30375E-02  0.15245E-03 -0.10362E-01
  0.27825E-02 -0.67150E-03 -0.10362E-01
  0.12840E-02  0.18430E-02 -0.10362E-01
  0.64894E-03  0.14676E-02 -0.10362E-01
  0.12495E-03  0.31081E-03 -0.10362E-01
 -0.13007E-03  0.11847E-02 -0.10362E-01
  0.94169E-03  0.22761E-02 -0.10362E-01
  0.11293E-02  0.28242E-02 -0.10362E-01
  0.17451E-02  0.24252E-02 -0.10362E-01
  0.40534E-03  0.21688E-02 -0.10362E-01
  0.39762E-03  0.29340E-02 -0.10362E-01
 -0.76657E-03 -0.10047E-02 -0.10362E-01
 -0.86713E-03  0.87062E-04 -0.10362E-01
  0.45671E-03 -0.69592E-03 -0.10362E-01
 -0.18329E-02 -0.71056E-03 -0.10362E-01
 -0.18430E-02  0.83985E-04 -0.10362E-01
 -0.27235E-02 -0.77695E-03 -0.10362E-01
 -0.28001E-02  0.43446E-04 -0.10362E-01
 -0.25380E-02 -0.15190E-02 -0.10362E-01
 -0.19330E-02 -0.13219E-02 -0.10362E-01
 -0.99219E-03  0.10020E-02 -0.10362E-01
 -0.14415E-02 -0.17321E-02 -0.10362E-01
 -0.31374E-03  0.20248E-02 -0.10362E-01
 -0.11033E-02  0.18602E-02 -0.10362E-01
 -0.18840E-02  0.17175E-02 -0.10362E-01
 -0.18700E-02  0.91180E-03 -0.10362E-01
 -0.16146E-03 -0.19803E-02 -0.10362E-01
 -0.94687E-03 -0.23491E-02 -0.10362E-01
  0.78195E-03 -0.17073E-02 -0.10362E-01
  0.17207E-02 -0.14919E-02 -0.10362E-01
  0.32083E-02  0.77042E-03 -0.10362E-01
  0.28044E-02  0.12520E-02 -0.10362E-01
  0.23048E-02  0.18669E-02 -0.10362E-01
 -0.40476E-03  0.28931E-02 -0.10362E-01
 -0.12093E-02  0.27160E-02 -0.10362E-01
 -0.19444E-02  0.24620E-02 -0.10362E-01
 -0.25026E-02  0.22358E-02 -0.10362E-01
 -0.26362E-02  0.16503E-02 -0.10362E-01
 -0.27640E-02  0.87754E-03 -0.10362E-01
 -0.21137E-02 -0.21374E-02 -0.10362E-01
 -0.16091E-02 -0.26933E-02 -0.10362E-01
 -0.11950E-02 -0.31291E-02 -0.10362E-01
 -0.58991E-03 -0.30382E-02 -0.10362E-01
  0.20505E-03 -0.28749E-02 -0.10362E-01
  0.10555E-02 -0.26450E-02 -0.10362E-01
  0.18417E-02 -0.23727E-02 -0.10362E-01
  0.24556E-02 -0.21500E-02 -0.10362E-01
  0.26029E-02 -0.15094E-02 -0.10362E-01
  0.37964E-02  0.93572E-03 -0.10362E-01
  0.39100E-02  0.00000E+00 -0.10362E-01
  0.34621E-02  0.18171E-02 -0.10362E-01
  0.29267E-02  0.25928E-02 -0.10362E-01
  0.22211E-02  0.32179E-02 -0.10362E-01
  0.13865E-02  0.36559E-02 -0.10362E-01
  0.47130E-03  0.38815E-02 -0.10362E-01
 -0.47130E-03  0.38815E-02 -0.10362E-01
 -0.13865E-02  0.36559E-02 -0.10362E-01
 -0.22211E-02  0.32179E-02 -0.10362E-01
 -0.29267E-02  0.25928E-02 -0.10362E-01
 -0.34621E-02  0.18171E-02 -0.10362E-01
 -0.37964E-02  0.93572E-03 -0.10362E-01
 -0.39100E-02  0.39516E-17 -0.10362E-01
 -0.37964E-02 -0.93572E-03 -0.10362E-01
 -0.34621E-02 -0.18171E-02 -0.10362E-01
 -0.29267E-02 -0.25928E-02 -0.10362E-01
 -0.22211E-02 -0.32179E-02 -0.10362E-01
 -0.13865E-02 -0.36559E-02 -0.10362E-01
 -0.47130E-03 -0.38815E-02 -0.10362E-01
  0.47130E-03 -0.38815E-02 -0.10362E-01
  0.13865E-02 -0.36559E-02 -0.10362E-01
  0.22211E-02 -0.32179E-02 -0.10362E-01
  0.29267E-02 -0.25928E-02 -0.10362E-01
  0.34621E-02 -0.18171E-02 -0.10362E-01
  0.37964E-02 -0.93572E-03 -0.10362E-01
  0.10365E-02  0.67902E-03 -0.93826E-02
  0.17432E-02  0.12381E-02 -0.93826E-02
  0.23163E-02  0.59727E-03 -0.93826E-02
  0.16675E-02 -0.32945E-03 -0.93826E-02
  0.30374E-02  0.15282E-03 -0.93826E-02
  0.27829E-02 -0.67100E-03 -0.93826E-02
  0.12839E-02  0.18432E-02 -0.93826E-02
  0.64869E-03  0.14686E-02 -0.93826E-02
  0.12468E-03  0.31196E-03 -0.93826E-02
 -0.13026E-03  0.11865E-02 -0.93826E-02
  0.94135E-03  0.22762E-02 -0.93826E-02
  0.11289E-02  0.28238E-02 -0.93826E-02
  0.17447E-02  0.24254E-02 -0.93826E-02
  0.40528E-03  0.21688E-02 -0.93826E-02
  0.39760E-03  0.29337E-02 -0.93826E-02
 -0.76692E-03 -0.10049E-02 -0.93826E-02
 -0.86724E-03  0.87871E-04 -0.93826E-02
  0.45626E-03 -0.69519E-03 -0.93826E-02
 -0.18332E-02 -0.71042E-03 -0.93826E-02
 -0.18430E-02  0.84108E-04 -0.93826E-02
 -0.27235E-02 -0.77678E-03 -0.93826E-02
 -0.27998E-02  0.43720E-04 -0.93826E-02
 -0.25382E-02 -0.15189E-02 -0.93826E-02
 -0.19334E-02 -0.13219E-02 -0.93826E-02
 -0.99205E-03  0.10034E-02 -0.93826E-02
 -0.14419E-02 -0.17320E-02 -0.93826E-02
 -0.31354E-03  0.20251E-02 -0.93826E-02
 -0.11030E-02  0.18601E-02 -0.93826E-02
 -0.18840E-02  0.17175E-02 -0.93826E-02
 -0.18699E-02  0.91204E-03 -0.93826E-02
 -0.16174E-03 -0.19803E-02 -0.93826E-02
 -0.94747E-03 -0.23492E-02 -0.93826E-02
  0.78129E-03 -0.17073E-02 -0.93826E-02
  0.17206E-02 -0.14921E-02 -0.93826E-02
  0.32086E-02  0.77142E-03 -0.93826E-02
  0.28044E-02  0.12524E-02 -0.93826E-02
  0.23047E-02  0.18669E-02 -0.93826E-02
 -0.40462E-03  0.28920E-02 -0.93826E-02
 -0.12093E-02  0.27155E-02 -0.93826E-02
 -0.19444E-02  0.24618E-02 -0.93826E-02
 -0.25025E-02  0.22358E-02 -0.93826E-02
 -0.26361E-02  0.16503E-02 -0.93826E-02
 -0.27637E-02  0.87781E-03 -0.93826E-02
 -0.21139E-02 -0.21374E-02 -0.93826E-02
 -0.16092E-02 -0.26934E-02 -0.93826E-02
 -0.11951E-02 -0.31291E-02 -0.93826E-02
 -0.59025E-03 -0.30382E-02 -0.93826E-02
  0.20465E-03 -0.28749E-02 -0.93826E-02
  0.10552E-02 -0.26452E-02 -0.93826E-02
  0.18418E-02 -0.23729E-02 -0.93826E-02
  0.24558E-02 -0.21505E-02 -0.93826E-02
  0.26030E-02 -0.15093E-02 -0.93826E-02
  0.37964E-02  0.93572E-03 -0.93826E-02
  0.39100E-02  0.00000E+00 -0.93826E-02
  0.34621E-02  0.18171E-02 -0.93826E-02
  0.29267E-02  0.25928E-02 -0.93826E-02
  0.22211E-02  0.32179E-02 -0.93826E-02
  0.13865E-02  0.36559E-02 -0.93826E-02
  0.47130E-03  0.38815E-02 -0.93826E-02
 -0.47130E-03  0.38815E-02 -0.93826E-02
 -0.13865E-02  0.36559E-02 -0.93826E-02
 -0.22211E-02  0.32179E-02 -0.93826E-02
 -0.29267E-02  0.25928E-02 -0.93826E-02
 -0.34621E-02  0.18171E-02 -0.93826E-02
 -0.37964E-02  0.93572E-03 -0.93826E-02
 -0.39100E-02 -0.47884E-18 -0.93826E-02
 -0.37964E-02 -0.93572E-03 -0.93826E-02
 -0.34621E-02 -0.18171E-02 -0.93826E-02
 -0.29267E-02 -0.25928E-02 -0.93826E-02
 -0.22211E-02 -0.32179E-02 -0.93826E-02
 -0.13865E-02 -0.36559E-02 -0.93826E-02
 -0.47130E-03 -0.38815E-02 -0.93826E-02
  0.47130E-03 -0.38815E-02 -0.93826E-02
  0.13865E-02 -0.36559E-02 -0.93826E-02
  0.22211E-02 -0.32179E-02 -0.93826E-02
  0.29267E-02 -0.25928E-02 -0.93826E-02
  0.34621E-02 -0.18171E-02 -0.93826E-02
  0.37964E-02 -0.93572E-03 -0.93826E-02
  0.10364E-02  0.67958E-03 -0.84035E-02
  0.17430E-02  0.12387E-02 -0.84035E-02
  0.23162E-02  0.59779E-03 -0.84035E-02
  0.16672E-02 -0.32870E-03 -0.84035E-02
  0.30374E-02  0.15318E-03 -0.84035E-02
  0.27832E-02 -0.67051E-03 -0.84035E-02
  0.12838E-02  0.18434E-02 -0.84035E-02
  0.64845E-03  0.14696E-02 -0.84035E-02
  0.12442E-03  0.31311E-03 -0.84035E-02
 -0.13044E-03  0.11882E-02 -0.84035E-02
  0.94102E-03  0.22763E-02 -0.84035E-02
  0.11286E-02  0.28233E-02 -0.84035E-02
  0.17443E-02  0.24255E-02 -0.84035E-02
  0.40523E-03  0.21689E-02 -0.84035E-02
  0.39759E-03  0.29335E-02 -0.84035E-02
 -0.76727E-03 -0.10050E-02 -0.84035E-02
 -0.86735E-03  0.88681E-04 -0.84035E-02
  0.45582E-03 -0.69447E-03 -0.84035E-02
 -0.18335E-02 -0.71028E-03 -0.84035E-02
 -0.18429E-02  0.84232E-04 -0.84035E-02
 -0.27235E-02 -0.77661E-03 -0.84035E-02
 -0.27995E-02  0.43993E-04 -0.84035E-02
 -0.25383E-02 -0.15189E-02 -0.84035E-02
 -0.19339E-02 -0.13218E-02 -0.84035E-02
 -0.99190E-03  0.10048E-02 -0.84035E-02
 -0.14422E-02 -0.17320E-02 -0.84035E-02
 -0.31334E-03  0.20254E-02 -0.84035E-02
 -0.11026E-02  0.18599E-02 -0.84035E-02
 -0.18839E-02  0.17175E-02 -0.84035E-02
 -0.18697E-02  0.91228E-03 -0.84035E-02
 -0.16201E-03 -0.19803E-02 -0.84035E-02
 -0.94807E-03 -0.23492E-02 -0.84035E-02
  0.78063E-03 -0.17073E-02 -0.84035E-02
  0.17206E-02 -0.14923E-02 -0.84035E-02
  0.32089E-02  0.77243E-03 -0.84035E-02
  0.28043E-02  0.12528E-02 -0.84035E-02
  0.23046E-02  0.18670E-02 -0.84035E-02
 -0.40448E-03  0.28910E-02 -0.84035E-02
 -0.12093E-02  0.27151E-02 -0.84035E-02
 -0.19443E-02  0.24615E-02 -0.84035E-02
 -0.25025E-02  0.22358E-02 -0.84035E-02
 -0.26360E-02  0.16503E-02 -0.84035E-02
 -0.27633E-02  0.87807E-03 -0.84035E-02
 -0.21140E-02 -0.21374E-02 -0.84035E-02
 -0.16092E-02 -0.26934E-02 -0.84035E-02
 -0.11953E-02 -0.31291E-02 -0.84035E-02
 -0.59060E-03 -0.30382E-02 -0.84035E-02
  0.20424E-03 -0.28749E-02 -0.84035E-02
  0.10549E-02 -0.26455E-02 -0.84035E-02
  0.18418E-02 -0.23732E-02 -0.84035E-02
  0.24559E-02 -0.21511E-02 -0.84035E-02
  0.26030E-02 -0.15092E-02 -0.84035E-02
  0.37964E-02  0.93572E-03 -0.84035E-02
  0.39100E-02  0.00000E+00 -0.84035E-02
  0.34621E-02  0.18171E-02 -0.84035E-02
  0.29267E-02  0.25928E-02 -0.84035E-02
  0.22211E-02  0.32179E-02 -0.84035E-02
  0.13865E-02  0.36559E-02 -0.84035E-02
  0.47130E-03  0.38815E-02 -0.84035E-02
 -0.47130E-03  0.38815E-02 -0.84035E-02
 -0.13865E-02  0.36559E-02 -0.84035E-02
 -0.22211E-02  0.32179E-02 -0.84035E-02
 -0.29267E-02  0.25928E-02 -0.84035E-02
 -0.34621E-02  0.18171E-02 -0.84035E-02
 -0.37964E-02  0.93572E-03 -0.84035E-02
 -0.39100E-02  0.22152E-17 -0.84035E-02
 -0.37964E-02 -0.93572E-03 -0.84035E-02
 -0.34621E-02 -0.18171E-02 -0.84035E-02
 -0.29267E-02 -0.25928E-02 -0.84035E-02
 -0.22211E-02 -0.32179E-02 -0.84035E-02
 -0.13865E-02 -0.36559E-02 -0.84035E-02
 -0.47130E-03 -0.38815E-02 -0.84035E-02
  0.47130E-03 -0.38815E-02 -0.84035E-02
  0.13865E-02 -0.36559E-02 -0.84035E-02
  0.22211E-02 -0.32179E-02 -0.84035E-02
  0.29267E-02 -0.25928E-02 -0.84035E-02
  0.34621E-02 -0.18171E-02 -0.84035E-02
  0.37964E-02 -0.93572E-03 -0.84035E-02
  0.10363E-02  0.68013E-03 -0.74243E-02
  0.17429E-02  0.12394E-02 -0.74243E-02
  0.23161E-02  0.59831E-03 -0.74243E-02
  0.16670E-02 -0.32794E-03 -0.74243E-02
  0.30374E-02  0.15354E-03 -0.74243E-02
  0.27836E-02 -0.67002E-03 -0.74243E-02
  0.12837E-02  0.18436E-02 -0.74243E-02
  0.64820E-03  0.14706E-02 -0.74243E-02
  0.12416E-03  0.31426E-03 -0.74243E-02
 -0.13063E-03  0.11900E-02 -0.74243E-02
  0.94069E-03  0.22765E-02 -0.74243E-02
  0.11282E-02  0.28229E-02 -0.74243E-02
  0.17439E-02  0.24257E-02 -0.74243E-02
  0.40518E-03  0.21689E-02 -0.74243E-02
  0.39757E-03  0.29332E-02 -0.74243E-02
 -0.76763E-03 -0.10051E-02 -0.74243E-02
 -0.86746E-03  0.89490E-04 -0.74243E-02
  0.45537E-03 -0.69374E-03 -0.74243E-02
 -0.18338E-02 -0.71013E-03 -0.74243E-02
 -0.18428E-02  0.84355E-04 -0.74243E-02
 -0.27234E-02 -0.77644E-03 -0.74243E-02
 -0.27992E-02  0.44266E-04 -0.74243E-02
 -0.25385E-02 -0.15188E-02 -0.74243E-02
 -0.19343E-02 -0.13216E-02 -0.74243E-02
 -0.99176E-03  0.10061E-02 -0.74243E-02
 -0.14425E-02 -0.17320E-02 -0.74243E-02
 -0.31314E-03  0.20257E-02 -0.74243E-02
 -0.11023E-02  0.18598E-02 -0.74243E-02
 -0.18839E-02  0.17175E-02 -0.74243E-02
 -0.18696E-02  0.91252E-03 -0.74243E-02
 -0.16229E-03 -0.19803E-02 -0.74243E-02
 -0.94867E-03 -0.23492E-02 -0.74243E-02
  0.77997E-03 -0.17073E-02 -0.74243E-02
  0.17205E-02 -0.14926E-02 -0.74243E-02
  0.32092E-02  0.77343E-03 -0.74243E-02
  0.28043E-02  0.12533E-02 -0.74243E-02
  0.23044E-02  0.18670E-02 -0.74243E-02
 -0.40434E-03  0.28899E-02 -0.74243E-02
 -0.12093E-02  0.27146E-02 -0.74243E-02
 -0.19443E-02  0.24613E-02 -0.74243E-02
 -0.25025E-02  0.22358E-02 -0.74243E-02
 -0.26359E-02  0.16503E-02 -0.74243E-02
 -0.27630E-02  0.87833E-03 -0.74243E-02
 -0.21141E-02 -0.21374E-02 -0.74243E-02
 -0.16093E-02 -0.26934E-02 -0.74243E-02
 -0.11954E-02 -0.31291E-02 -0.74243E-02
 -0.59095E-03 -0.30382E-02 -0.74243E-02
  0.20384E-03 -0.28750E-02 -0.74243E-02
  0.10546E-02 -0.26458E-02 -0.74243E-02
  0.18419E-02 -0.23734E-02 -0.74243E-02
  0.24560E-02 -0.21516E-02 -0.74243E-02
  0.26031E-02 -0.15091E-02 -0.74243E-02
  0.37964E-02  0.93572E-03 -0.74243E-02
  0.39100E-02  0.00000E+00 -0.74243E-02
  0.34621E-02  0.18171E-02 -0.74243E-02
  0.29267E-02  0.25928E-02 -0.74243E-02
  0.22211E-02  0.32179E-02 -0.74243E-02
  0.13865E-02  0.36559E-02 -0.74243E-02
  0.47130E-03  0.38815E-02 -0.74243E-02
 -0.47130E-03  0.38815E-02 -0.74243E-02
 -0.13865E-02  0.36559E-02 -0.74243E-02
 -0.22211E-02  0.32179E-02 -0.74243E-02
 -0.29267E-02  0.25928E-02 -0.74243E-02
 -0.34621E-02  0.18171E-02 -0.74243E-02
 -0.37964E-02  0.93572E-03 -0.74243E-02
 -0.39100E-02 -0.47884E-18 -0.74243E-02
 -0.37964E-02 -0.93572E-03 -0.74243E-02
 -0.34621E-02 -0.18171E-02 -0.74243E-02
 -0.29267E-02 -0.25928E-02 -0.74243E-02
 -0.22211E-02 -0.32179E-02 -0.74243E-02
 -0.13865E-02 -0.36559E-02 -0.74243E-02
 -0.47130E-03 -0.38815E-02 -0.74243E-02
  0.47130E-03 -0.38815E-02 -0.74243E-02
  0.13865E-02 -0.36559E-02 -0.74243E-02
  0.22211E-02 -0.32179E-02 -0.74243E-02
  0.29267E-02 -0.25928E-02 -0.74243E-02
  0.34621E-02 -0.18171E-02 -0.74243E-02
  0.37964E-02 -0.93572E-03 -0.74243E-02
  0.10362E-02  0.68068E-03 -0.64451E-02
  0.17427E-02  0.12401E-02 -0.64451E-02
  0.23160E-02  0.59884E-03 -0.64451E-02
  0.16668E-02 -0.32719E-03 -0.64451E-02
  0.30373E-02  0.15391E-03 -0.64451E-02
  0.27839E-02 -0.66953E-03 -0.64451E-02
  0.12836E-02  0.18438E-02 -0.64451E-02
  0.64796E-03  0.14716E-02 -0.64451E-02
  0.12390E-03  0.31541E-03 -0.64451E-02
 -0.13082E-03  0.11917E-02 -0.64451E-02
  0.94036E-03  0.22766E-02 -0.64451E-02
  0.11279E-02  0.28225E-02 -0.64451E-02
  0.17435E-02  0.24258E-02 -0.64451E-02
  0.40512E-03  0.21690E-02 -0.64451E-02
  0.39755E-03  0.29330E-02 -0.64451E-02
 -0.76798E-03 -0.10053E-02 -0.64451E-02
 -0.86756E-03  0.90299E-04 -0.64451E-02
  0.45492E-03 -0.69302E-03 -0.64451E-02
 -0.18341E-02 -0.70999E-03 -0.64451E-02
 -0.18427E-02  0.84479E-04 -0.64451E-02
 -0.27234E-02 -0.77627E-03 -0.64451E-02
 -0.27990E-02  0.44540E-04 -0.64451E-02
 -0.25386E-02 -0.15188E-02 -0.64451E-02
 -0.19347E-02 -0.13215E-02 -0.64451E-02
 -0.99161E-03  0.10075E-02 -0.64451E-02
 -0.14429E-02 -0.17319E-02 -0.64451E-02
 -0.31294E-03  0.20260E-02 -0.64451E-02
 -0.11019E-02  0.18597E-02 -0.64451E-02
 -0.18838E-02  0.17175E-02 -0.64451E-02
 -0.18695E-02  0.91276E-03 -0.64451E-02
 -0.16256E-03 -0.19804E-02 -0.64451E-02
 -0.94927E-03 -0.23493E-02 -0.64451E-02
  0.77931E-03 -0.17073E-02 -0.64451E-02
  0.17205E-02 -0.14928E-02 -0.64451E-02
  0.32096E-02  0.77444E-03 -0.64451E-02
  0.28043E-02  0.12537E-02 -0.64451E-02
  0.23043E-02  0.18670E-02 -0.64451E-02
 -0.40420E-03  0.28888E-02 -0.64451E-02
 -0.12093E-02  0.27141E-02 -0.64451E-02
 -0.19443E-02  0.24611E-02 -0.64451E-02
 -0.25024E-02  0.22358E-02 -0.64451E-02
 -0.26358E-02  0.16503E-02 -0.64451E-02
 -0.27627E-02  0.87859E-03 -0.64451E-02
 -0.21143E-02 -0.21374E-02 -0.64451E-02
 -0.16093E-02 -0.26934E-02 -0.64451E-02
 -0.11955E-02 -0.31291E-02 -0.64451E-02
 -0.59130E-03 -0.30382E-02 -0.64451E-02
  0.20343E-03 -0.28750E-02 -0.64451E-02
  0.10543E-02 -0.26460E-02 -0.64451E-02
  0.18419E-02 -0.23736E-02 -0.64451E-02
  0.24561E-02 -0.21521E-02 -0.64451E-02
  0.26032E-02 -0.15090E-02 -0.64451E-02
  0.37964E-02  0.93572E-03 -0.64451E-02
  0.39100E-02  0.00000E+00 -0.64451E-02
  0.34621E-02  0.18171E-02 -0.64451E-02
  0.29267E-02  0.25928E-02 -0.64451E-02
  0.22211E-02  0.32179E-02 -0.64451E-02
  0.13865E-02  0.36559E-02 -0.64451E-02
  0.47130E-03  0.38815E-02 -0.64451E-02
 -0.47130E-03  0.38815E-02 -0.64451E-02
 -0.13865E-02  0.36559E-02 -0.64451E-02
 -0.22211E-02  0.32179E-02 -0.64451E-02
 -0.29267E-02  0.25928E-02 -0.64451E-02
 -0.34621E-02  0.18171E-02 -0.64451E-02
 -0.37964E-02  0.93572E-03 -0.64451E-02
 -0.39100E-02  0.22152E-17 -0.64451E-02
 -0.37964E-02 -0.93572E-03 -0.64451E-02
 -0.34621E-02 -0.18171E-02 -0.64451E-02
 -0.29267E-02 -0.25928E-02 -0.64451E-02
 -0.22211E-02 -0.32179E-02 -0.64451E-02
 -0.13865E-02 -0.36559E-02 -0.64451E-02
 -0.47130E-03 -0.38815E-02 -0.64451E-02
  0.47130E-03 -0.38815E-02 -0.64451E-02
  0.13865E-02 -0.36559E-02 -0.64451E-02
  0.22211E-02 -0.32179E-02 -0.64451E-02
  0.29267E-02 -0.25928E-02 -0.64451E-02
  0.34621E-02 -0.18171E-02 -0.64451E-02
  0.37964E-02 -0.93572E-03 -0.64451E-02
  0.10360E-02  0.68124E-03 -0.54660E-02
  0.17425E-02  0.12407E-02 -0.54660E-02
  0.23158E-02  0.59936E-03 -0.54660E-02
  0.16666E-02 -0.32643E-03 -0.54660E-02
  0.30373E-02  0.15427E-03 -0.54660E-02
  0.27842E-02 -0.66903E-03 -0.54660E-02
  0.12835E-02  0.18440E-02 -0.54660E-02
  0.64771E-03  0.14727E-02 -0.54660E-02
  0.12363E-03  0.31656E-03 -0.54660E-02
 -0.13100E-03  0.11935E-02 -0.54660E-02
  0.94003E-03  0.22767E-02 -0.54660E-02
  0.11276E-02  0.28220E-02 -0.54660E-02
  0.17432E-02  0.24260E-02 -0.54660E-02
  0.40507E-03  0.21690E-02 -0.54660E-02
  0.39754E-03  0.29327E-02 -0.54660E-02
 -0.76834E-03 -0.10054E-02 -0.54660E-02
 -0.86767E-03  0.91108E-04 -0.54660E-02
  0.45447E-03 -0.69229E-03 -0.54660E-02
 -0.18344E-02 -0.70985E-03 -0.54660E-02
 -0.18426E-02  0.84602E-04 -0.54660E-02
 -0.27234E-02 -0.77610E-03 -0.54660E-02
 -0.27987E-02  0.44813E-04 -0.54660E-02
 -0.25388E-02 -0.15187E-02 -0.54660E-02
 -0.19352E-02 -0.13215E-02 -0.54660E-02
 -0.99147E-03  0.10088E-02 -0.54660E-02
 -0.14433E-02 -0.17319E-02 -0.54660E-02
 -0.31274E-03  0.20262E-02 -0.54660E-02
 -0.11016E-02  0.18595E-02 -0.54660E-02
 -0.18838E-02  0.17175E-02 -0.54660E-02
 -0.18694E-02  0.91300E-03 -0.54660E-02
 -0.16284E-03 -0.19804E-02 -0.54660E-02
 -0.94986E-03 -0.23493E-02 -0.54660E-02
  0.77865E-03 -0.17073E-02 -0.54660E-02
  0.17205E-02 -0.14931E-02 -0.54660E-02
  0.32099E-02  0.77544E-03 -0.54660E-02
  0.28042E-02  0.12541E-02 -0.54660E-02
  0.23042E-02  0.18671E-02 -0.54660E-02
 -0.40407E-03  0.28877E-02 -0.54660E-02
 -0.12093E-02  0.27137E-02 -0.54660E-02
 -0.19442E-02  0.24609E-02 -0.54660E-02
 -0.25024E-02  0.22358E-02 -0.54660E-02
 -0.26358E-02  0.16503E-02 -0.54660E-02
 -0.27624E-02  0.87885E-03 -0.54660E-02
 -0.21144E-02 -0.21374E-02 -0.54660E-02
 -0.16094E-02 -0.26934E-02 -0.54660E-02
 -0.11956E-02 -0.31291E-02 -0.54660E-02
 -0.59165E-03 -0.30382E-02 -0.54660E-02
  0.20302E-03 -0.28750E-02 -0.54660E-02
  0.10540E-02 -0.26463E-02 -0.54660E-02
  0.18419E-02 -0.23738E-02 -0.54660E-02
  0.24563E-02 -0.21527E-02 -0.54660E-02
  0.26033E-02 -0.15088E-02 -0.54660E-02
  0.37964E-02  0.93572E-03 -0.54660E-02
  0.39100E-02  0.00000E+00 -0.54660E-02
  0.34621E-02  0.18171E-02 -0.54660E-02
  0.29267E-02  0.25928E-02 -0.54660E-02
  0.22211E-02  0.32179E-02 -0.54660E-02
  0.13865E-02  0.36559E-02 -0.54660E-02
  0.47130E-03  0.38815E-02 -0.54660E-02
 -0.47130E-03  0.38815E-02 -0.54660E-02
 -0.13865E-02  0.36559E-02 -0.54660E-02
 -0.22211E-02  0.32179E-02 -0.54660E-02
 -0.29267E-02  0.25928E-02 -0.54660E-02
 -0.34621E-02  0.18171E-02 -0.54660E-02
 -0.37964E-02  0.93572E-03 -0.54660E-02
 -0.39100E-02 -0.47884E-18 -0.54660E-02
 -0.37964E-02 -0.93572E-03 -0.54660E-02
 -0.34621E-02 -0.18171E-02 -0.54660E-02
 -0.29267E-02 -0.25928E-02 -0.54660E-02
 -0.22211E-02 -0.32179E-02 -0.54660E-02
 -0.13865E-02 -0.36559E-02 -0.54660E-02
 -0.47130E-03 -0.38815E-02 -0.54660E-02
  0.47130E-03 -0.38815E-02 -0.54660E-02
  0.13865E-02 -0.36559E-02 -0.54660E-02
  0.22211E-02 -0.32179E-02 -0.54660E-02
  0.29267E-02 -0.25928E-02 -0.54660E-02
  0.34621E-02 -0.18171E-02 -0.54660E-02
  0.37964E-02 -0.93572E-03 -0.54660E-02
  0.10359E-02  0.68179E-03 -0.44868E-02
  0.17423E-02  0.12414E-02 -0.44868E-02
  0.23157E-02  0.59988E-03 -0.44868E-02
  0.16664E-02 -0.32568E-03 -0.44868E-02
  0.30373E-02  0.15463E-03 -0.44868E-02
  0.27846E-02 -0.66854E-03 -0.44868E-02
  0.12834E-02  0.18442E-02 -0.44868E-02
  0.64747E-03  0.14736E-02 -0.44868E-02
  0.12337E-03  0.31770E-03 -0.44868E-02
 -0.13118E-03  0.11952E-02 -0.44868E-02
  0.93970E-03  0.22768E-02 -0.44868E-02
  0.11272E-02  0.28216E-02 -0.44868E-02
  0.17428E-02  0.24261E-02 -0.44868E-02
  0.40501E-03  0.21690E-02 -0.44868E-02
  0.39752E-03  0.29324E-02 -0.44868E-02
 -0.76869E-03 -0.10056E-02 -0.44868E-02
 -0.86778E-03  0.91918E-04 -0.44868E-02
  0.45402E-03 -0.69156E-03 -0.44868E-02
 -0.18347E-02 -0.70971E-03 -0.44868E-02
 -0.18425E-02  0.84726E-04 -0.44868E-02
 -0.27234E-02 -0.77593E-03 -0.44868E-02
 -0.27984E-02  0.45086E-04 -0.44868E-02
 -0.25389E-02 -0.15187E-02 -0.44868E-02
 -0.19356E-02 -0.13213E-02 -0.44868E-02
 -0.99133E-03  0.10102E-02 -0.44868E-02
 -0.14436E-02 -0.17318E-02 -0.44868E-02
 -0.31254E-03  0.20265E-02 -0.44868E-02
 -0.11013E-02  0.18594E-02 -0.44868E-02
 -0.18837E-02  0.17175E-02 -0.44868E-02
 -0.18692E-02  0.91324E-03 -0.44868E-02
 -0.16311E-03 -0.19804E-02 -0.44868E-02
 -0.95046E-03 -0.23493E-02 -0.44868E-02
  0.77799E-03 -0.17073E-02 -0.44868E-02
  0.17204E-02 -0.14933E-02 -0.44868E-02
  0.32102E-02  0.77645E-03 -0.44868E-02
  0.28042E-02  0.12545E-02 -0.44868E-02
  0.23041E-02  0.18671E-02 -0.44868E-02
 -0.40393E-03  0.28867E-02 -0.44868E-02
 -0.12093E-02  0.27132E-02 -0.44868E-02
 -0.19442E-02  0.24606E-02 -0.44868E-02
 -0.25024E-02  0.22358E-02 -0.44868E-02
 -0.26357E-02  0.16503E-02 -0.44868E-02
 -0.27621E-02  0.87912E-03 -0.44868E-02
 -0.21146E-02 -0.21374E-02 -0.44868E-02
 -0.16094E-02 -0.26935E-02 -0.44868E-02
 -0.11957E-02 -0.31291E-02 -0.44868E-02
 -0.59200E-03 -0.30381E-02 -0.44868E-02
  0.20262E-03 -0.28750E-02 -0.44868E-02
  0.10536E-02 -0.26466E-02 -0.44868E-02
  0.18420E-02 -0.23740E-02 -0.44868E-02
  0.24564E-02 -0.21533E-02 -0.44868E-02
  0.26033E-02 -0.15087E-02 -0.44868E-02
  0.37964E-02  0.93572E-03 -0.44868E-02
  0.39100E-02  0.00000E+00 -0.44868E-02
  0.34621E-02  0.18171E-02 -0.44868E-02
  0.29267E-02  0.25928E-02 -0.44868E-02
  0.22211E-02  0.32179E-02 -0.44868E-02
  0.13865E-02  0.36559E-02 -0.44868E-02
  0.47130E-03  0.38815E-02 -0.44868E-02
 -0.47130E-03  0.38815E-02 -0.44868E-02
 -0.13865E-02  0.36559E-02 -0.44868E-02
 -0.22211E-02  0.32179E-02 -0.44868E-02
 -0.29267E-02  0.25928E-02 -0.44868E-02
 -0.34621E-02  0.18171E-02 -0.44868E-02
 -0.37964E-02  0.93572E-03 -0.44868E-02
 -0.39100E-02 -0.47884E-18 -0.44868E-02
 -0.37964E-02 -0.93572E-03 -0.44868E-02
 -0.34621E-02 -0.18171E-02 -0.44868E-02
 -0.29267E-02 -0.25928E-02 -0.44868E-02
 -0.22211E-02 -0.32179E-02 -0.44868E-02
 -0.13865E-02 -0.36559E-02 -0.44868E-02
 -0.47130E-03 -0.38815E-02 -0.44868E-02
  0.47130E-03 -0.38815E-02 -0.44868E-02
  0.13865E-02 -0.36559E-02 -0.44868E-02
  0.22211E-02 -0.32179E-02 -0.44868E-02
  0.29267E-02 -0.25928E-02 -0.44868E-02
  0.34621E-02 -0.18171E-02 -0.44868E-02
  0.37964E-02 -0.93572E-03 -0.44868E-02
  0.10358E-02  0.68235E-03 -0.35076E-02
  0.17422E-02  0.12421E-02 -0.35076E-02
  0.23156E-02  0.60041E-03 -0.35076E-02
  0.16662E-02 -0.32493E-03 -0.35076E-02
  0.30373E-02  0.15500E-03 -0.35076E-02
  0.27849E-02 -0.66805E-03 -0.35076E-02
  0.12833E-02  0.18444E-02 -0.35076E-02
  0.64722E-03  0.14747E-02 -0.35076E-02
  0.12311E-03  0.31885E-03 -0.35076E-02
 -0.13137E-03  0.11970E-02 -0.35076E-02
  0.93937E-03  0.22770E-02 -0.35076E-02
  0.11269E-02  0.28211E-02 -0.35076E-02
  0.17424E-02  0.24262E-02 -0.35076E-02
  0.40496E-03  0.21691E-02 -0.35076E-02
  0.39750E-03  0.29322E-02 -0.35076E-02
 -0.76904E-03 -0.10057E-02 -0.35076E-02
 -0.86789E-03  0.92727E-04 -0.35076E-02
  0.45358E-03 -0.69084E-03 -0.35076E-02
 -0.18350E-02 -0.70957E-03 -0.35076E-02
 -0.18424E-02  0.84849E-04 -0.35076E-02
 -0.27233E-02 -0.77576E-03 -0.35076E-02
 -0.27981E-02  0.45359E-04 -0.35076E-02
 -0.25391E-02 -0.15186E-02 -0.35076E-02
 -0.19360E-02 -0.13212E-02 -0.35076E-02
 -0.99118E-03  0.10115E-02 -0.35076E-02
 -0.14440E-02 -0.17318E-02 -0.35076E-02
 -0.31234E-03  0.20268E-02 -0.35076E-02
 -0.11009E-02  0.18593E-02 -0.35076E-02
 -0.18836E-02  0.17175E-02 -0.35076E-02
 -0.18691E-02  0.91347E-03 -0.35076E-02
 -0.16339E-03 -0.19804E-02 -0.35076E-02
 -0.95106E-03 -0.23493E-02 -0.35076E-02
  0.77733E-03 -0.17073E-02 -0.35076E-02
  0.17204E-02 -0.14936E-02 -0.35076E-02
  0.32105E-02  0.77745E-03 -0.35076E-02
  0.28042E-02  0.12550E-02 -0.35076E-02
  0.23040E-02  0.18671E-02 -0.35076E-02
 -0.40379E-03  0.28856E-02 -0.35076E-02
 -0.12093E-02  0.27127E-02 -0.35076E-02
 -0.19441E-02  0.24604E-02 -0.35076E-02
 -0.25023E-02  0.22358E-02 -0.35076E-02
 -0.26356E-02  0.16503E-02 -0.35076E-02
 -0.27618E-02  0.87938E-03 -0.35076E-02
 -0.21147E-02 -0.21374E-02 -0.35076E-02
 -0.16094E-02 -0.26935E-02 -0.35076E-02
 -0.11958E-02 -0.31291E-02 -0.35076E-02
 -0.59235E-03 -0.30381E-02 -0.35076E-02
  0.20221E-03 -0.28750E-02 -0.35076E-02
  0.10533E-02 -0.26468E-02 -0.35076E-02
  0.18420E-02 -0.23742E-02 -0.35076E-02
  0.24565E-02 -0.21538E-02 -0.35076E-02
  0.26034E-02 -0.15086E-02 -0.35076E-02
  0.37964E-02  0.93572E-03 -0.35076E-02
  0.39100E-02  0.00000E+00 -0.35076E-02
  0.34621E-02  0.18171E-02 -0.35076E-02
  0.29267E-02  0.25928E-02 -0.35076E-02
  0.22211E-02  0.32179E-02 -0.35076E-02
  0.13865E-02  0.36559E-02 -0.35076E-02
  0.47130E-03  0.38815E-02 -0.35076E-02
 -0.47130E-03  0.38815E-02 -0.35076E-02
 -0.13865E-02  0.36559E-02 -0.35076E-02
 -0.22211E-02  0.32179E-02 -0.35076E-02
 -0.29267E-02  0.25928E-02 -0.35076E-02
 -0.34621E-02  0.18171E-02 -0.35076E-02
 -0.37964E-02  0.93572E-03 -0.35076E-02
 -0.39100E-02 -0.47884E-18 -0.35076E-02
 -0.37964E-02 -0.93572E-03 -0.35076E-02
 -0.34621E-02 -0.18171E-02 -0.35076E-02
 -0.29267E-02 -0.25928E-02 -0.35076E-02
 -0.22211E-02 -0.32179E-02 -0.35076E-02
 -0.13865E-02 -0.36559E-02 -0.35076E-02
 -0.47130E-03 -0.38815E-02 -0.35076E-02
  0.47130E-03 -0.38815E-02 -0.35076E-02
  0.13865E-02 -0.36559E-02 -0.35076E-02
  0.22211E-02 -0.32179E-02 -0.35076E-02
  0.29267E-02 -0.25928E-02 -0.35076E-02
  0.34621E-02 -0.18171E-02 -0.35076E-02
  0.37964E-02 -0.93572E-03 -0.35076E-02
  0.10357E-02  0.68290E-03 -0.25285E-02
  0.17420E-02  0.12427E-02 -0.25285E-02
  0.23155E-02  0.60093E-03 -0.25285E-02
  0.16660E-02 -0.32417E-03 -0.25285E-02
  0.30372E-02  0.15536E-03 -0.25285E-02
  0.27853E-02 -0.66755E-03 -0.25285E-02
  0.12832E-02  0.18445E-02 -0.25285E-02
  0.64698E-03  0.14757E-02 -0.25285E-02
  0.12285E-03  0.32000E-03 -0.25285E-02
 -0.13155E-03  0.11987E-02 -0.25285E-02
  0.93903E-03  0.22771E-02 -0.25285E-02
  0.11266E-02  0.28207E-02 -0.25285E-02
  0.17420E-02  0.24264E-02 -0.25285E-02
  0.40490E-03  0.21691E-02 -0.25285E-02
  0.39749E-03  0.29319E-02 -0.25285E-02
 -0.76940E-03 -0.10058E-02 -0.25285E-02
 -0.86800E-03  0.93536E-04 -0.25285E-02
  0.45313E-03 -0.69011E-03 -0.25285E-02
 -0.18353E-02 -0.70943E-03 -0.25285E-02
 -0.18423E-02  0.84973E-04 -0.25285E-02
 -0.27233E-02 -0.77559E-03 -0.25285E-02
 -0.27979E-02  0.45633E-04 -0.25285E-02
 -0.25393E-02 -0.15186E-02 -0.25285E-02
 -0.19365E-02 -0.13212E-02 -0.25285E-02
 -0.99104E-03  0.10129E-02 -0.25285E-02
 -0.14443E-02 -0.17318E-02 -0.25285E-02
 -0.31214E-03  0.20271E-02 -0.25285E-02
 -0.11006E-02  0.18592E-02 -0.25285E-02
 -0.18836E-02  0.17175E-02 -0.25285E-02
 -0.18690E-02  0.91371E-03 -0.25285E-02
 -0.16366E-03 -0.19805E-02 -0.25285E-02
 -0.95166E-03 -0.23493E-02 -0.25285E-02
  0.77667E-03 -0.17073E-02 -0.25285E-02
  0.17203E-02 -0.14938E-02 -0.25285E-02
  0.32109E-02  0.77846E-03 -0.25285E-02
  0.28042E-02  0.12554E-02 -0.25285E-02
  0.23039E-02  0.18672E-02 -0.25285E-02
 -0.40365E-03  0.28845E-02 -0.25285E-02
 -0.12093E-02  0.27122E-02 -0.25285E-02
 -0.19441E-02  0.24602E-02 -0.25285E-02
 -0.25023E-02  0.22358E-02 -0.25285E-02
 -0.26355E-02  0.16502E-02 -0.25285E-02
 -0.27615E-02  0.87964E-03 -0.25285E-02
 -0.21148E-02 -0.21374E-02 -0.25285E-02
 -0.16095E-02 -0.26935E-02 -0.25285E-02
 -0.11960E-02 -0.31291E-02 -0.25285E-02
 -0.59270E-03 -0.30381E-02 -0.25285E-02
  0.20180E-03 -0.28750E-02 -0.25285E-02
  0.10530E-02 -0.26471E-02 -0.25285E-02
  0.18421E-02 -0.23744E-02 -0.25285E-02
  0.24566E-02 -0.21543E-02 -0.25285E-02
  0.26035E-02 -0.15085E-02 -0.25285E-02
  0.37964E-02  0.93572E-03 -0.25285E-02
  0.39100E-02  0.00000E+00 -0.25285E-02
  0.34621E-02  0.18171E-02 -0.25285E-02
  0.29267E-02  0.25928E-02 -0.25285E-02
  0.22211E-02  0.32179E-02 -0.25285E-02
  0.13865E-02  0.36559E-02 -0.25285E-02
  0.47130E-03  0.38815E-02 -0.25285E-02
 -0.47130E-03  0.38815E-02 -0.25285E-02
 -0.13865E-02  0.36559E-02 -0.25285E-02
 -0.22211E-02  0.32179E-02 -0.25285E-02
 -0.29267E-02  0.25928E-02 -0.25285E-02
 -0.34621E-02  0.18171E-02 -0.25285E-02
 -0.37964E-02  0.93572E-03 -0.25285E-02
 -0.39100E-02 -0.47884E-18 -0.25285E-02
 -0.37964E-02 -0.93572E-03 -0.25285E-02
 -0.34621E-02 -0.18171E-02 -0.25285E-02
 -0.29267E-02 -0.25928E-02 -0.25285E-02
 -0.22211E-02 -0.32179E-02 -0.25285E-02
 -0.13865E-02 -0.36559E-02 -0.25285E-02
 -0.47130E-03 -0.38815E-02 -0.25285E-02
  0.47130E-03 -0.38815E-02 -0.25285E-02
  0.13865E-02 -0.36559E-02 -0.25285E-02
  0.22211E-02 -0.32179E-02 -0.25285E-02
  0.29267E-02 -0.25928E-02 -0.25285E-02
  0.34621E-02 -0.18171E-02 -0.25285E-02
  0.37964E-02 -0.93572E-03 -0.25285E-02
  0.10356E-02  0.68346E-03 -0.15493E-02
  0.17418E-02  0.12434E-02 -0.15493E-02
  0.23153E-02  0.60145E-03 -0.15493E-02
  0.16657E-02 -0.32342E-03 -0.15493E-02
  0.30372E-02  0.15572E-03 -0.15493E-02
  0.27856E-02 -0.66706E-03 -0.15493E-02
  0.12830E-02  0.18447E-02 -0.15493E-02
  0.64673E-03  0.14767E-02 -0.15493E-02
  0.12259E-03  0.32115E-03 -0.15493E-02
 -0.13174E-03  0.12005E-02 -0.15493E-02
  0.93870E-03  0.22772E-02 -0.15493E-02
  0.11262E-02  0.28203E-02 -0.15493E-02
  0.17416E-02  0.24265E-02 -0.15493E-02
  0.40485E-03  0.21691E-02 -0.15493E-02
  0.39747E-03  0.29316E-02 -0.15493E-02
 -0.76975E-03 -0.10060E-02 -0.15493E-02
 -0.86811E-03  0.94345E-04 -0.15493E-02
  0.45268E-03 -0.68939E-03 -0.15493E-02
 -0.18356E-02 -0.70929E-03 -0.15493E-02
 -0.18422E-02  0.85096E-04 -0.15493E-02
 -0.27233E-02 -0.77542E-03 -0.15493E-02
 -0.27976E-02  0.45906E-04 -0.15493E-02
 -0.25394E-02 -0.15185E-02 -0.15493E-02
 -0.19369E-02 -0.13211E-02 -0.15493E-02
 -0.99090E-03  0.10142E-02 -0.15493E-02
 -0.14446E-02 -0.17317E-02 -0.15493E-02
 -0.31194E-03  0.20274E-02 -0.15493E-02
 -0.11002E-02  0.18590E-02 -0.15493E-02
 -0.18835E-02  0.17175E-02 -0.15493E-02
 -0.18689E-02  0.91395E-03 -0.15493E-02
 -0.16394E-03 -0.19805E-02 -0.15493E-02
 -0.95226E-03 -0.23494E-02 -0.15493E-02
  0.77601E-03 -0.17073E-02 -0.15493E-02
  0.17203E-02 -0.14941E-02 -0.15493E-02
  0.32112E-02  0.77946E-03 -0.15493E-02
  0.28042E-02  0.12558E-02 -0.15493E-02
  0.23038E-02  0.18672E-02 -0.15493E-02
 -0.40352E-03  0.28835E-02 -0.15493E-02
 -0.12093E-02  0.27118E-02 -0.15493E-02
 -0.19441E-02  0.24600E-02 -0.15493E-02
 -0.25023E-02  0.22358E-02 -0.15493E-02
 -0.26354E-02  0.16502E-02 -0.15493E-02
 -0.27612E-02  0.87990E-03 -0.15493E-02
 -0.21150E-02 -0.21374E-02 -0.15493E-02
 -0.16095E-02 -0.26935E-02 -0.15493E-02
 -0.11961E-02 -0.31291E-02 -0.15493E-02
 -0.59305E-03 -0.30381E-02 -0.15493E-02
  0.20140E-03 -0.28750E-02 -0.15493E-02
  0.10527E-02 -0.26474E-02 -0.15493E-02
  0.18421E-02 -0.23746E-02 -0.15493E-02
  0.24568E-02 -0.21549E-02 -0.15493E-02
  0.26036E-02 -0.15084E-02 -0.15493E-02
  0.37964E-02  0.93572E-03 -0.15493E-02
  0.39100E-02  0.00000E+00 -0.15493E-02
  0.34621E-02  0.18171E-02 -0.15493E-02
  0.29267E-02  0.25928E-02 -0.15493E-02
  0.22211E-02  0.32179E-02 -0.15493E-02
  0.13865E-02  0.36559E-02 -0.15493E-02
  0.47130E-03  0.38815E-02 -0.15493E-02
 -0.47130E-03  0.38815E-02 -0.15493E-02
 -0.13865E-02  0.36559E-02 -0.15493E-02
 -0.22211E-02  0.32179E-02 -0.15493E-02
 -0.29267E-02  0.25928E-02 -0.15493E-02
 -0.34621E-02  0.18171E-02 -0.15493E-02
 -0.37964E-02  0.93572E-03 -0.15493E-02
 -0.39100E-02  0.22152E-17 -0.15493E-02
 -0.37964E-02 -0.93572E-03 -0.15493E-02
 -0.34621E-02 -0.18171E-02 -0.15493E-02
 -0.29267E-02 -0.25928E-02 -0.15493E-02
 -0.22211E-02 -0.32179E-02 -0.15493E-02
 -0.13865E-02 -0.36559E-02 -0.15493E-02
 -0.47130E-03 -0.38815E-02 -0.15493E-02
  0.47130E-03 -0.38815E-02 -0.15493E-02
  0.13865E-02 -0.36559E-02 -0.15493E-02
  0.22211E-02 -0.32179E-02 -0.15493E-02
  0.29267E-02 -0.25928E-02 -0.15493E-02
  0.34621E-02 -0.18171E-02 -0.15493E-02
  0.37964E-02 -0.93572E-03 -0.15493E-02
  0.10355E-02  0.68401E-03 -0.57014E-03
  0.17416E-02  0.12440E-02 -0.57014E-03
  0.23152E-02  0.60198E-03 -0.57014E-03
  0.16655E-02 -0.32266E-03 -0.57014E-03
  0.30372E-02  0.15609E-03 -0.57014E-03
  0.27860E-02 -0.66657E-03 -0.57014E-03
  0.12829E-02  0.18449E-02 -0.57014E-03
  0.64649E-03  0.14777E-02 -0.57014E-03
  0.12232E-03  0.32230E-03 -0.57014E-03
 -0.13193E-03  0.12022E-02 -0.57014E-03
  0.93837E-03  0.22774E-02 -0.57014E-03
  0.11259E-02  0.28198E-02 -0.57014E-03
  0.17412E-02  0.24267E-02 -0.57014E-03
  0.40480E-03  0.21692E-02 -0.57014E-03
  0.39745E-03  0.29314E-02 -0.57014E-03
 -0.77011E-03 -0.10061E-02 -0.57014E-03
 -0.86822E-03  0.95155E-04 -0.57014E-03
  0.45223E-03 -0.68866E-03 -0.57014E-03
 -0.18359E-02 -0.70915E-03 -0.57014E-03
 -0.18421E-02  0.85220E-04 -0.57014E-03
 -0.27232E-02 -0.77525E-03 -0.57014E-03
 -0.27973E-02  0.46180E-04 -0.57014E-03
 -0.25396E-02 -0.15185E-02 -0.57014E-03
 -0.19373E-02 -0.13210E-02 -0.57014E-03
 -0.99075E-03  0.10156E-02 -0.57014E-03
 -0.14450E-02 -0.17317E-02 -0.57014E-03
 -0.31173E-03  0.20277E-02 -0.57014E-03
 -0.10999E-02  0.18589E-02 -0.57014E-03
 -0.18835E-02  0.17175E-02 -0.57014E-03
 -0.18687E-02  0.91419E-03 -0.57014E-03
 -0.16421E-03 -0.19805E-02 -0.57014E-03
 -0.95285E-03 -0.23494E-02 -0.57014E-03
  0.77535E-03 -0.17073E-02 -0.57014E-03
  0.17202E-02 -0.14943E-02 -0.57014E-03
  0.32115E-02  0.78047E-03 -0.57014E-03
  0.28041E-02  0.12563E-02 -0.57014E-03
  0.23037E-02  0.18672E-02 -0.57014E-03
 -0.40338E-03  0.28824E-02 -0.57014E-03
 -0.12093E-02  0.27113E-02 -0.57014E-03
 -0.19440E-02  0.24597E-02 -0.57014E-03
 -0.25023E-02  0.22358E-02 -0.57014E-03
 -0.26353E-02  0.16502E-02 -0.57014E-03
 -0.27609E-02  0.88016E-03 -0.57014E-03
 -0.21151E-02 -0.21374E-02 -0.57014E-03
 -0.16096E-02 -0.26935E-02 -0.57014E-03
 -0.11962E-02 -0.31291E-02 -0.57014E-03
 -0.59340E-03 -0.30381E-02 -0.57014E-03
  0.20099E-03 -0.28751E-02 -0.57014E-03
  0.10524E-02 -0.26476E-02 -0.57014E-03
  0.18422E-02 -0.23748E-02 -0.57014E-03
  0.24569E-02 -0.21554E-02 -0.57014E-03
  0.26036E-02 -0.15083E-02 -0.57014E-03
  0.37964E-02  0.93572E-03 -0.57014E-03
  0.39100E-02  0.00000E+00 -0.57014E-03
  0.34621E-02  0.18171E-02 -0.57014E-03
  0.29267E-02  0.25928E-02 -0.57014E-03
  0.22211E-02  0.32179E-02 -0.57014E-03
  0.13865E-02  0.36559E-02 -0.57014E-03
  0.47130E-03  0.38815E-02 -0.57014E-03
 -0.47130E-03  0.38815E-02 -0.57014E-03
 -0.13865E-02  0.36559E-02 -0.57014E-03
 -0.22211E-02  0.32179E-02 -0.57014E-03
 -0.29267E-02  0.25928E-02 -0.57014E-03
 -0.34621E-02  0.18171E-02 -0.57014E-03
 -0.37964E-02  0.93572E-03 -0.57014E-03
 -0.39100E-02 -0.47884E-18 -0.57014E-03
 -0.37964E-02 -0.93572E-03 -0.57014E-03
 -0.34621E-02 -0.18171E-02 -0.57014E-03
 -0.29267E-02 -0.25928E-02 -0.57014E-03
 -0.22211E-02 -0.32179E-02 -0.57014E-03
 -0.13865E-02 -0.36559E-02 -0.57014E-03
 -0.47130E-03 -0.38815E-02 -0.57014E-03
  0.47130E-03 -0.38815E-02 -0.57014E-03
  0.13865E-02 -0.36559E-02 -0.57014E-03
  0.22211E-02 -0.32179E-02 -0.57014E-03
  0.29267E-02 -0.25928E-02 -0.57014E-03
  0.34621E-02 -0.18171E-02 -0.57014E-03
  0.37964E-02 -0.93572E-03 -0.57014E-03
  0.10354E-02  0.68457E-03  0.40903E-03
  0.17414E-02  0.12447E-02  0.40903E-03
  0.23151E-02  0.60250E-03  0.40903E-03
  0.16653E-02 -0.32191E-03  0.40903E-03
  0.30372E-02  0.15645E-03  0.40903E-03
  0.27863E-02 -0.66607E-03  0.40903E-03
  0.12829E-02  0.18451E-02  0.40903E-03
  0.64624E-03  0.14787E-02  0.40903E-03
  0.12206E-03  0.32345E-03  0.40903E-03
 -0.13211E-03  0.12040E-02  0.40903E-03
  0.93804E-03  0.22775E-02  0.40903E-03
  0.11255E-02  0.28194E-02  0.40903E-03
  0.17408E-02  0.24268E-02  0.40903E-03
  0.40474E-03  0.21692E-02  0.40903E-03
  0.39744E-03  0.29311E-02  0.40903E-03
 -0.77046E-03 -0.10062E-02  0.40903E-03
 -0.86832E-03  0.95964E-04  0.40903E-03
  0.45179E-03 -0.68793E-03  0.40903E-03
 -0.18362E-02 -0.70901E-03  0.40903E-03
 -0.18420E-02  0.85343E-04  0.40903E-03
 -0.27232E-02 -0.77507E-03  0.40903E-03
 -0.27970E-02  0.46453E-04  0.40903E-03
 -0.25397E-02 -0.15184E-02  0.40903E-03
 -0.19377E-02 -0.13209E-02  0.40903E-03
 -0.99061E-03  0.10169E-02  0.40903E-03
 -0.14453E-02 -0.17316E-02  0.40903E-03
 -0.31153E-03  0.20280E-02  0.40903E-03
 -0.10995E-02  0.18588E-02  0.40903E-03
 -0.18834E-02  0.17175E-02  0.40903E-03
 -0.18686E-02  0.91443E-03  0.40903E-03
 -0.16449E-03 -0.19806E-02  0.40903E-03
 -0.95345E-03 -0.23494E-02  0.40903E-03
  0.77469E-03 -0.17073E-02  0.40903E-03
  0.17202E-02 -0.14945E-02  0.40903E-03
  0.32119E-02  0.78148E-03  0.40903E-03
  0.28041E-02  0.12567E-02  0.40903E-03
  0.23036E-02  0.18673E-02  0.40903E-03
 -0.40324E-03  0.28813E-02  0.40903E-03
 -0.12093E-02  0.27108E-02  0.40903E-03
 -0.19440E-02  0.24595E-02  0.40903E-03
 -0.25022E-02  0.22358E-02  0.40903E-03
 -0.26352E-02  0.16502E-02  0.40903E-03
 -0.27606E-02  0.88043E-03  0.40903E-03
 -0.21152E-02 -0.21374E-02  0.40903E-03
 -0.16096E-02 -0.26936E-02  0.40903E-03
 -0.11963E-02 -0.31291E-02  0.40903E-03
 -0.59375E-03 -0.30381E-02  0.40903E-03
  0.20059E-03 -0.28751E-02  0.40903E-03
  0.10521E-02 -0.26479E-02  0.40903E-03
  0.18422E-02 -0.23750E-02  0.40903E-03
  0.24570E-02 -0.21560E-02  0.40903E-03
  0.26037E-02 -0.15082E-02  0.40903E-03
  0.37964E-02  0.93572E-03  0.40903E-03
  0.39100E-02  0.00000E+00  0.40903E-03
  0.34621E-02  0.18171E-02  0.40903E-03
  0.29267E-02  0.25928E-02  0.40903E-03
  0.22211E-02  0.32179E-02  0.40903E-03
  0.13865E-02  0.36559E-02  0.40903E-03
  0.47130E-03  0.38815E-02  0.40903E-03
 -0.47130E-03  0.38815E-02  0.40903E-03
 -0.13865E-02  0.36559E-02  0.40903E-03
 -0.22211E-02  0.32179E-02  0.40903E-03
 -0.29267E-02  0.25928E-02  0.40903E-03
 -0.34621E-02  0.18171E-02  0.40903E-03
 -0.37964E-02  0.93572E-03  0.40903E-03
 -0.39100E-02 -0.47884E-18  0.40903E-03
 -0.37964E-02 -0.93572E-03  0.40903E-03
 -0.34621E-02 -0.18171E-02  0.40903E-03
 -0.29267E-02 -0.25928E-02  0.40903E-03
 -0.22211E-02 -0.32179E-02  0.40903E-03
 -0.13865E-02 -0.36559E-02  0.40903E-03
 -0.47130E-03 -0.38815E-02  0.40903E-03
  0.47130E-03 -0.38815E-02  0.40903E-03
  0.13865E-02 -0.36559E-02  0.40903E-03
  0.22211E-02 -0.32179E-02  0.40903E-03
  0.29267E-02 -0.25928E-02  0.40903E-03
  0.34621E-02 -0.18171E-02  0.40903E-03
  0.37964E-02 -0.93572E-03  0.40903E-03
  0.10352E-02  0.68512E-03  0.13882E-02
  0.17413E-02  0.12454E-02  0.13882E-02
  0.23150E-02  0.60302E-03  0.13882E-02
  0.16651E-02 -0.32115E-03  0.13882E-02
  0.30371E-02  0.15681E-03  0.13882E-02
  0.27866E-02 -0.66558E-03  0.13882E-02
  0.12827E-02  0.18453E-02  0.13882E-02
  0.64600E-03  0.14797E-02  0.13882E-02
  0.12180E-03  0.32459E-03  0.13882E-02
 -0.13230E-03  0.12058E-02  0.13882E-02
  0.93771E-03  0.22776E-02  0.13882E-02
  0.11252E-02  0.28189E-02  0.13882E-02
  0.17404E-02  0.24270E-02  0.13882E-02
  0.40469E-03  0.21693E-02  0.13882E-02
  0.39742E-03  0.29308E-02  0.13882E-02
 -0.77081E-03 -0.10064E-02  0.13882E-02
 -0.86843E-03  0.96773E-04  0.13882E-02
  0.45134E-03 -0.68721E-03  0.13882E-02
 -0.18365E-02 -0.70887E-03  0.13882E-02
 -0.18419E-02  0.85467E-04  0.13882E-02
 -0.27232E-02 -0.77490E-03  0.13882E-02
 -0.27968E-02  0.46726E-04  0.13882E-02
 -0.25399E-02 -0.15184E-02  0.13882E-02
 -0.19382E-02 -0.13208E-02  0.13882E-02
 -0.99046E-03  0.10183E-02  0.13882E-02
 -0.14457E-02 -0.17316E-02  0.13882E-02
 -0.31133E-03  0.20283E-02  0.13882E-02
 -0.10992E-02  0.18586E-02  0.13882E-02
 -0.18834E-02  0.17175E-02  0.13882E-02
 -0.18685E-02  0.91467E-03  0.13882E-02
 -0.16476E-03 -0.19806E-02  0.13882E-02
 -0.95405E-03 -0.23494E-02  0.13882E-02
  0.77402E-03 -0.17073E-02  0.13882E-02
  0.17202E-02 -0.14948E-02  0.13882E-02
  0.32122E-02  0.78248E-03  0.13882E-02
  0.28041E-02  0.12571E-02  0.13882E-02
  0.23034E-02  0.18673E-02  0.13882E-02
 -0.40310E-03  0.28802E-02  0.13882E-02
 -0.12093E-02  0.27103E-02  0.13882E-02
 -0.19440E-02  0.24593E-02  0.13882E-02
 -0.25022E-02  0.22358E-02  0.13882E-02
 -0.26351E-02  0.16502E-02  0.13882E-02
 -0.27602E-02  0.88069E-03  0.13882E-02
 -0.21154E-02 -0.21374E-02  0.13882E-02
 -0.16097E-02 -0.26936E-02  0.13882E-02
 -0.11964E-02 -0.31291E-02  0.13882E-02
 -0.59409E-03 -0.30381E-02  0.13882E-02
  0.20018E-03 -0.28751E-02  0.13882E-02
  0.10518E-02 -0.26482E-02  0.13882E-02
  0.18422E-02 -0.23752E-02  0.13882E-02
  0.24571E-02 -0.21565E-02  0.13882E-02
  0.26038E-02 -0.15081E-02  0.13882E-02
  0.37964E-02  0.93572E-03  0.13882E-02
  0.39100E-02  0.00000E+00  0.13882E-02
  0.34621E-02  0.18171E-02  0.13882E-02
  0.29267E-02  0.25928E-02  0.13882E-02
  0.22211E-02  0.32179E-02  0.13882E-02
  0.13865E-02  0.36559E-02  0.13882E-02
  0.47130E-03  0.38815E-02  0.13882E-02
 -0.47130E-03  0.38815E-02  0.13882E-02
 -0.13865E-02  0.36559E-02  0.13882E-02
 -0.22211E-02  0.32179E-02  0.13882E-02
 -0.29267E-02  0.25928E-02  0.13882E-02
 -0.34621E-02  0.18171E-02  0.13882E-02
 -0.37964E-02  0.93572E-03  0.13882E-02
 -0.39100E-02 -0.47884E-18  0.13882E-02
 -0.37964E-02 -0.93572E-03  0.13882E-02
 -0.34621E-02 -0.18171E-02  0.13882E-02
 -0.29267E-02 -0.25928E-02  0.13882E-02
 -0.22211E-02 -0.32179E-02  0.13882E-02
 -0.13865E-02 -0.36559E-02  0.13882E-02
 -0.47130E-03 -0.38815E-02  0.13882E-02
  0.47130E-03 -0.38815E-02  0.13882E-02
  0.13865E-02 -0.36559E-02  0.13882E-02
  0.22211E-02 -0.32179E-02  0.13882E-02
  0.29267E-02 -0.25928E-02  0.13882E-02
  0.34621E-02 -0.18171E-02  0.13882E-02
  0.37964E-02 -0.93572E-03  0.13882E-02
  0.10351E-02  0.68567E-03  0.23674E-02
  0.17411E-02  0.12460E-02  0.23674E-02
  0.23149E-02  0.60355E-03  0.23674E-02
  0.16649E-02 -0.32040E-03  0.23674E-02
  0.30371E-02  0.15718E-03  0.23674E-02
  0.27870E-02 -0.66509E-03  0.23674E-02
  0.12826E-02  0.18455E-02  0.23674E-02
  0.64575E-03  0.14807E-02  0.23674E-02
  0.12154E-03  0.32574E-03  0.23674E-02
 -0.13248E-03  0.12075E-02  0.23674E-02
  0.93738E-03  0.22777E-02  0.23674E-02
  0.11249E-02  0.28185E-02  0.23674E-02
  0.17400E-02  0.24271E-02  0.23674E-02
  0.40463E-03  0.21693E-02  0.23674E-02
  0.39740E-03  0.29306E-02  0.23674E-02
 -0.77117E-03 -0.10065E-02  0.23674E-02
 -0.86854E-03  0.97583E-04  0.23674E-02
  0.45089E-03 -0.68648E-03  0.23674E-02
 -0.18368E-02 -0.70873E-03  0.23674E-02
 -0.18418E-02  0.85591E-04  0.23674E-02
 -0.27232E-02 -0.77474E-03  0.23674E-02
 -0.27965E-02  0.47000E-04  0.23674E-02
 -0.25400E-02 -0.15183E-02  0.23674E-02
 -0.19386E-02 -0.13207E-02  0.23674E-02
 -0.99032E-03  0.10197E-02  0.23674E-02
 -0.14460E-02 -0.17316E-02  0.23674E-02
 -0.31113E-03  0.20285E-02  0.23674E-02
 -0.10988E-02  0.18585E-02  0.23674E-02
 -0.18833E-02  0.17175E-02  0.23674E-02
 -0.18683E-02  0.91491E-03  0.23674E-02
 -0.16504E-03 -0.19806E-02  0.23674E-02
 -0.95465E-03 -0.23495E-02  0.23674E-02
  0.77336E-03 -0.17073E-02  0.23674E-02
  0.17201E-02 -0.14950E-02  0.23674E-02
  0.32125E-02  0.78348E-03  0.23674E-02
  0.28041E-02  0.12576E-02  0.23674E-02
  0.23033E-02  0.18674E-02  0.23674E-02
 -0.40296E-03  0.28792E-02  0.23674E-02
 -0.12093E-02  0.27099E-02  0.23674E-02
 -0.19439E-02  0.24591E-02  0.23674E-02
 -0.25022E-02  0.22358E-02  0.23674E-02
 -0.26350E-02  0.16502E-02  0.23674E-02
 -0.27599E-02  0.88095E-03  0.23674E-02
 -0.21155E-02 -0.21374E-02  0.23674E-02
 -0.16097E-02 -0.26936E-02  0.23674E-02
 -0.11965E-02 -0.31290E-02  0.23674E-02
 -0.59444E-03 -0.30381E-02  0.23674E-02
  0.19977E-03 -0.28751E-02  0.23674E-02
  0.10515E-02 -0.26484E-02  0.23674E-02
  0.18423E-02 -0.23754E-02  0.23674E-02
  0.24573E-02 -0.21571E-02  0.23674E-02
  0.26039E-02 -0.15080E-02  0.23674E-02
  0.37964E-02  0.93572E-03  0.23674E-02
  0.39100E-02  0.00000E+00  0.23674E-02
  0.34621E-02  0.18171E-02  0.23674E-02
  0.29267E-02  0.25928E-02  0.23674E-02
  0.22211E-02  0.32179E-02  0.23674E-02
  0.13865E-02  0.36559E-02  0.23674E-02
  0.47130E-03  0.38815E-02  0.23674E-02
 -0.47130E-03  0.38815E-02  0.23674E-02
 -0.13865E-02  0.36559E-02  0.23674E-02
 -0.22211E-02  0.32179E-02  0.23674E-02
 -0.29267E-02  0.25928E-02  0.23674E-02
 -0.34621E-02  0.18171E-02  0.23674E-02
 -0.37964E-02  0.93572E-03  0.23674E-02
 -0.39100E-02  0.47884E-18  0.23674E-02
 -0.37964E-02 -0.93572E-03  0.23674E-02
 -0.34621E-02 -0.18171E-02  0.23674E-02
 -0.29267E-02 -0.25928E-02  0.23674E-02
 -0.22211E-02 -0.32179E-02  0.23674E-02
 -0.13865E-02 -0.36559E-02  0.23674E-02
 -0.47130E-03 -0.38815E-02  0.23674E-02
  0.47130E-03 -0.38815E-02  0.23674E-02
  0.13865E-02 -0.36559E-02  0.23674E-02
  0.22211E-02 -0.32179E-02  0.23674E-02
  0.29267E-02 -0.25928E-02  0.23674E-02
  0.34621E-02 -0.18171E-02  0.23674E-02
  0.37964E-02 -0.93572E-03  0.23674E-02
  
CELLS       3486               17724
       1       0
       1       1
       1       2
       1       3
       1       4
       1       5
       1       6
       1       7
       1       8
       1       9
       1      10
       1      11
       1      12
       1      13
       1      14
       1      15
       1      16
       1      17
       1      18
       1      19
       1      20
       1      21
       1      22
       1      23
       1      24
       1      25
       1      26
       1      27
       1      28
       1      29
       1      30
       1      31
       1      32
       1      33
       1      34
       1      35
       1      36
       1      37
       1      38
       1      39
       1      40
       1      41
       1      42
       1      43
       1      44
       1      45
       1      46
       1      47
       1      48
       1      49
       1      50
       1      51
       1      52
       1      53
       1      54
       1      55
       1      56
       1      57
       1      58
       1      59
       1      60
       1      61
       1      62
       1      63
       1      64
       1      65
       1      66
       1      67
       1      68
       1      69
       1      70
       1      71
       1      72
       1      73
       1      74
       1      75
       1      76
       1      77
       1      78
       1      79
       1      80
       1      81
       1      82
       1      83
       1      84
       1      85
       1      86
       1      87
       1      88
       1      89
       1      90
       1      91
       1      92
       1      93
       1      94
       1      95
       1      96
       1      97
       1      98
       1      99
       1     100
       1     101
       1     102
       1     103
       1     104
       1     105
       1     106
       1     107
       1     108
       1     109
       1     110
       1     111
       1     112
       1     113
       1     114
       1     115
       1     116
       1     117
       1     118
       1     119
       1     120
       1     121
       1     122
       1     123
       1     124
       1     125
       1     126
       1     127
       1     128
       1     129
       1     130
       1     131
       1     132
       1     133
       1     134
       1     135
       1     136
       1     137
       1     138
       1     139
       1     140
       1     141
       1     142
       1     143
       1     144
       1     145
       1     146
       1     147
       1     148
       1     149
       1     150
       1     151
       1     152
       1     153
       1     154
       1     155
       1     156
       1     157
       1     158
       1     159
       1     160
       1     161
       1     162
       1     163
       1     164
       1     165
       1     166
       1     167
       1     168
       1     169
       1     170
       1     171
       1     172
       1     173
       1     174
       1     175
       1     176
       1     177
       1     178
       1     179
       1     180
       1     181
       1     182
       1     183
       1     184
       1     185
       1     186
       1     187
       1     188
       1     189
       1     190
       1     191
       1     192
       1     193
       1     194
       1     195
       1     196
       1     197
       1     198
       1     199
       1     200
       1     201
       1     202
       1     203
       1     204
       1     205
       1     206
       1     207
       1     208
       1     209
       1     210
       1     211
       1     212
       1     213
       1     214
       1     215
       1     216
       1     217
       1     218
       1     219
       1     220
       1     221
       1     222
       1     223
       1     224
       1     225
       1     226
       1     227
       1     228
       1     229
       1     230
       1     231
       1     232
       1     233
       1     234
       1     235
       1     236
       1     237
       1     238
       1     239
       1     240
       1     241
       1     242
       1     243
       1     244
       1     245
       1     246
       1     247
       1     248
       1     249
       1     250
       1     251
       1     252
       1     253
       1     254
       1     255
       1     256
       1     257
       1     258
       1     259
       1     260
       1     261
       1     262
       1     263
       1     264
       1     265
       1     266
       1     267
       1     268
       1     269
       1     270
       1     271
       1     272
       1     273
       1     274
       1     275
       1     276
       1     277
       1     278
       1     279
       1     280
       1     281
       1     282
       1     283
       1     284
       1     285
       1     286
       1     287
       1     288
       1     289
       1     290
       1     291
       1     292
       1     293
       1     294
       1     295
       1     296
       1     297
       1     298
       1     299
       1     300
       1     301
       1     302
       1     303
       1     304
       1     305
       1     306
       1     307
       1     308
       1     309
       1     310
       1     311
       1     312
       1     313
       1     314
       1     315
       1     316
       1     317
       1     318
       1     319
       1     320
       1     321
       1     322
       1     323
       1     324
       1     325
       1     326
       1     327
       1     328
       1     329
       1     330
       1     331
       1     332
       1     333
       1     334
       1     335
       1     336
       1     337
       1     338
       1     339
       1     340
       1     341
       1     342
       1     343
       1     344
       1     345
       1     346
       1     347
       1     348
       1     349
       1     350
       1     351
       1     352
       1     353
       1     354
       1     355
       1     356
       1     357
       1     358
       1     359
       1     360
       1     361
       1     362
       1     363
       1     364
       1     365
       1     366
       1     367
       1     368
       1     369
       1     370
       1     371
       1     372
       1     373
       1     374
       1     375
       1     376
       1     377
       1     378
       1     379
       1     380
       1     381
       1     382
       1     383
       1     384
       1     385
       1     386
       1     387
       1     388
       1     389
       1     390
       1     391
       1     392
       1     393
       1     394
       1     395
       1     396
       1     397
       1     398
       1     399
       1     400
       1     401
       1     402
       1     403
       1     404
       1     405
       1     406
       1     407
       1     408
       1     409
       1     410
       1     411
       1     412
       1     413
       1     414
       1     415
       1     416
       1     417
       1     418
       1     419
       1     420
       1     421
       1     422
       1     423
       1     424
       1     425
       1     426
       1     427
       1     428
       1     429
       1     430
       1     431
       1     432
       1     433
       1     434
       1     435
       1     436
       1     437
       1     438
       1     439
       1     440
       1     441
       1     442
       1     443
       1     444
       1     445
       1     446
       1     447
       1     448
       1     449
       1     450
       1     451
       1     452
       1     453
       1     454
       1     455
       1     456
       1     457
       1     458
       1     459
       1     460
       1     461
       1     462
       1     463
       1     464
       1     465
       1     466
       1     467
       1     468
       1     469
       1     470
       1     471
       1     472
       1     473
       1     474
       1     475
       1     476
       1     477
       1     478
       1     479
       1     480
       1     481
       1     482
       1     483
       1     484
       1     485
       1     486
       1     487
       1     488
       1     489
       1     490
       1     491
       1     492
       1     493
       1     494
       1     495
       1     496
       1     497
       1     498
       1     499
       1     500
       1     501
       1     502
       1     503
       1     504
       1     505
       1     506
       1     507
       1     508
       1     509
       1     510
       1     511
       1     512
       1     513
       1     514
       1     515
       1     516
       1     517
       1     518
       1     519
       1     520
       1     521
       1     522
       1     523
       1     524
       1     525
       1     526
       1     527
       1     528
       1     529
       1     530
       1     531
       1     532
       1     533
       1     534
       1     535
       1     536
       1     537
       1     538
       1     539
       1     540
       1     541
       1     542
       1     543
       1     544
       1     545
       1     546
       1     547
       1     548
       1     549
       1     550
       1     551
       1     552
       1     553
       1     554
       1     555
       1     556
       1     557
       1     558
       1     559
       1     560
       1     561
       1     562
       1     563
       1     564
       1     565
       1     566
       1     567
       1     568
       1     569
       1     570
       1     571
       1     572
       1     573
       1     574
       1     575
       1     576
       1     577
       1     578
       1     579
       1     580
       1     581
       1     582
       1     583
       1     584
       1     585
       1     586
       1     587
       1     588
       1     589
       1     590
       1     591
       1     592
       1     593
       1     594
       1     595
       1     596
       1     597
       1     598
       1     599
       1     600
       1     601
       1     602
       1     603
       1     604
       1     605
       1     606
       1     607
       1     608
       1     609
       1     610
       1     611
       1     612
       1     613
       1     614
       1     615
       1     616
       1     617
       1     618
       1     619
       1     620
       1     621
       1     622
       1     623
       1     624
       1     625
       1     626
       1     627
       1     628
       1     629
       1     630
       1     631
       1     632
       1     633
       1     634
       1     635
       1     636
       1     637
       1     638
       1     639
       1     640
       1     641
       1     642
       1     643
       1     644
       1     645
       1     646
       1     647
       1     648
       1     649
       1     650
       1     651
       1     652
       1     653
       1     654
       1     655
       1     656
       1     657
       1     658
       1     659
       1     660
       1     661
       1     662
       1     663
       1     664
       1     665
       1     666
       1     667
       1     668
       1     669
       1     670
       1     671
       1     672
       1     673
       1     674
       1     675
       1     676
       1     677
       1     678
       1     679
       1     680
       1     681
       1     682
       1     683
       1     684
       1     685
       1     686
       1     687
       1     688
       1     689
       1     690
       1     691
       1     692
       1     693
       1     694
       1     695
       1     696
       1     697
       1     698
       1     699
       1     700
       1     701
       1     702
       1     703
       1     704
       1     705
       1     706
       1     707
       1     708
       1     709
       1     710
       1     711
       1     712
       1     713
       1     714
       1     715
       1     716
       1     717
       1     718
       1     719
       1     720
       1     721
       1     722
       1     723
       1     724
       1     725
       1     726
       1     727
       1     728
       1     729
       1     730
       1     731
       1     732
       1     733
       1     734
       1     735
       1     736
       1     737
       1     738
       1     739
       1     740
       1     741
       1     742
       1     743
       1     744
       1     745
       1     746
       1     747
       1     748
       1     749
       1     750
       1     751
       1     752
       1     753
       1     754
       1     755
       1     756
       1     757
       1     758
       1     759
       1     760
       1     761
       1     762
       1     763
       1     764
       1     765
       1     766
       1     767
       1     768
       1     769
       1     770
       1     771
       1     772
       1     773
       1     774
       1     775
       1     776
       1     777
       1     778
       1     779
       1     780
       1     781
       1     782
       1     783
       1     784
       1     785
       1     786
       1     787
       1     788
       1     789
       1     790
       1     791
       1     792
       1     793
       1     794
       1     795
       1     796
       1     797
       1     798
       1     799
       1     800
       1     801
       1     802
       1     803
       1     804
       1     805
       1     806
       1     807
       1     808
       1     809
       1     810
       1     811
       1     812
       1     813
       1     814
       1     815
       1     816
       1     817
       1     818
       1     819
       1     820
       1     821
       1     822
       1     823
       1     824
       1     825
       1     826
       1     827
       1     828
       1     829
       1     830
       1     831
       1     832
       1     833
       1     834
       1     835
       1     836
       1     837
       1     838
       1     839
       1     840
       1     841
       1     842
       1     843
       1     844
       1     845
       1     846
       1     847
       1     848
       1     849
       1     850
       1     851
       1     852
       1     853
       1     854
       1     855
       1     856
       1     857
       1     858
       1     859
       1     860
       1     861
       1     862
       1     863
       1     864
       1     865
       1     866
       1     867
       1     868
       1     869
       1     870
       1     871
       1     872
       1     873
       1     874
       1     875
       1     876
       1     877
       1     878
       1     879
       1     880
       1     881
       1     882
       1     883
       1     884
       1     885
       1     886
       1     887
       1     888
       1     889
       1     890
       1     891
       1     892
       1     893
       1     894
       1     895
       1     896
       1     897
       1     898
       1     899
       1     900
       1     901
       1     902
       1     903
       1     904
       1     905
       1     906
       1     907
       1     908
       1     909
       1     910
       1     911
       1     912
       1     913
       1     914
       1     915
       1     916
       1     917
       1     918
       1     919
       1     920
       1     921
       1     922
       1     923
       1     924
       1     925
       1     926
       1     927
       1     928
       1     929
       1     930
       1     931
       1     932
       1     933
       1     934
       1     935
       1     936
       1     937
       1     938
       1     939
       1     940
       1     941
       1     942
       1     943
       1     944
       1     945
       1     946
       1     947
       1     948
       1     949
       1     950
       1     951
       1     952
       1     953
       1     954
       1     955
       1     956
       1     957
       1     958
       1     959
       1     960
       1     961
       1     962
       1     963
       1     964
       1     965
       1     966
       1     967
       1     968
       1     969
       1     970
       1     971
       1     972
       1     973
       1     974
       1     975
       1     976
       1     977
       1     978
       1     979
       1     980
       1     981
       1     982
       1     983
       1     984
       1     985
       1     986
       1     987
       1     988
       1     989
       1     990
       1     991
       1     992
       1     993
       1     994
       1     995
       1     996
       1     997
       1     998
       1     999
       1    1000
       1    1001
       1    1002
       1    1003
       1    1004
       1    1005
       1    1006
       1    1007
       1    1008
       1    1009
       1    1010
       1    1011
       1    1012
       1    1013
       1    1014
       1    1015
       1    1016
       1    1017
       1    1018
       1    1019
       1    1020
       1    1021
       1    1022
       1    1023
       1    1024
       1    1025
       1    1026
       1    1027
       1    1028
       1    1029
       1    1030
       1    1031
       1    1032
       1    1033
       1    1034
       1    1035
       1    1036
       1    1037
       1    1038
       1    1039
       1    1040
       1    1041
       1    1042
       1    1043
       1    1044
       1    1045
       1    1046
       1    1047
       1    1048
       1    1049
       1    1050
       1    1051
       1    1052
       1    1053
       1    1054
       1    1055
       1    1056
       1    1057
       1    1058
       1    1059
       1    1060
       1    1061
       1    1062
       1    1063
       1    1064
       1    1065
       1    1066
       1    1067
       1    1068
       1    1069
       1    1070
       1    1071
       1    1072
       1    1073
       1    1074
       1    1075
       1    1076
       1    1077
       1    1078
       1    1079
       1    1080
       1    1081
       1    1082
       1    1083
       1    1084
       1    1085
       1    1086
       1    1087
       1    1088
       1    1089
       1    1090
       1    1091
       1    1092
       1    1093
       1    1094
       1    1095
       1    1096
       1    1097
       1    1098
       1    1099
       1    1100
       1    1101
       1    1102
       1    1103
       1    1104
       1    1105
       1    1106
       1    1107
       1    1108
       1    1109
       1    1110
       1    1111
       1    1112
       1    1113
       1    1114
       1    1115
       1    1116
       1    1117
       1    1118
       1    1119
       1    1120
       1    1121
       1    1122
       1    1123
       1    1124
       1    1125
       1    1126
       1    1127
       1    1128
       1    1129
       1    1130
       1    1131
       1    1132
       1    1133
       1    1134
       1    1135
       1    1136
       1    1137
       1    1138
       1    1139
       1    1140
       1    1141
       1    1142
       1    1143
       1    1144
       1    1145
       1    1146
       1    1147
       1    1148
       1    1149
       1    1150
       1    1151
       1    1152
       1    1153
       1    1154
       1    1155
       1    1156
       1    1157
       1    1158
       1    1159
       1    1160
       1    1161
       1    1162
       1    1163
       1    1164
       1    1165
       1    1166
       1    1167
       1    1168
       1    1169
       1    1170
       1    1171
       1    1172
       1    1173
       1    1174
       1    1175
       1    1176
       1    1177
       1    1178
       1    1179
       1    1180
       1    1181
       1    1182
       1    1183
       1    1184
       1    1185
       1    1186
       1    1187
       1    1188
       1    1189
       1    1190
       1    1191
       1    1192
       1    1193
       1    1194
       1    1195
       1    1196
       1    1197
       1    1198
       1    1199
       1    1200
       1    1201
       1    1202
       1    1203
       1    1204
       1    1205
       1    1206
       1    1207
       1    1208
       1    1209
       1    1210
       1    1211
       1    1212
       1    1213
       1    1214
       1    1215
       1    1216
       1    1217
       1    1218
       1    1219
       1    1220
       1    1221
       1    1222
       1    1223
       1    1224
       1    1225
       1    1226
       1    1227
       1    1228
       1    1229
       1    1230
       1    1231
       1    1232
       1    1233
       1    1234
       1    1235
       1    1236
       1    1237
       1    1238
       1    1239
       1    1240
       1    1241
       1    1242
       1    1243
       1    1244
       1    1245
       1    1246
       1    1247
       1    1248
       1    1249
       1    1250
       1    1251
       1    1252
       1    1253
       1    1254
       1    1255
       1    1256
       1    1257
       1    1258
       1    1259
       1    1260
       1    1261
       1    1262
       1    1263
       1    1264
       1    1265
       1    1266
       1    1267
       1    1268
       1    1269
       1    1270
       1    1271
       1    1272
       1    1273
       1    1274
       1    1275
       1    1276
       1    1277
       1    1278
       1    1279
       1    1280
       1    1281
       1    1282
       1    1283
       1    1284
       1    1285
       1    1286
       1    1287
       1    1288
       1    1289
       1    1290
       1    1291
       1    1292
       1    1293
       1    1294
       1    1295
       1    1296
       1    1297
       1    1298
       1    1299
       1    1300
       1    1301
       1    1302
       1    1303
       1    1304
       1    1305
       1    1306
       1    1307
       1    1308
       1    1309
       1    1310
       1    1311
       1    1312
       1    1313
       1    1314
       1    1315
       1    1316
       1    1317
       1    1318
       1    1319
       1    1320
       1    1321
       1    1322
       1    1323
       1    1324
       1    1325
       1    1326
       1    1327
       1    1328
       1    1329
       1    1330
       1    1331
       1    1332
       1    1333
       1    1334
       1    1335
       1    1336
       1    1337
       1    1338
       1    1339
       1    1340
       1    1341
       1    1342
       1    1343
       1    1344
       1    1345
       1    1346
       1    1347
       1    1348
       1    1349
       1    1350
       1    1351
       1    1352
       1    1353
       1    1354
       1    1355
       1    1356
       1    1357
       1    1358
       1    1359
       1    1360
       1    1361
       1    1362
       1    1363
       1    1364
       1    1365
       1    1366
       1    1367
       1    1368
       1    1369
       1    1370
       1    1371
       1    1372
       1    1373
       1    1374
       1    1375
       1    1376
       1    1377
       1    1378
       1    1379
       1    1380
       1    1381
       1    1382
       1    1383
       1    1384
       1    1385
       1    1386
       1    1387
       1    1388
       1    1389
       1    1390
       1    1391
       1    1392
       1    1393
       1    1394
       1    1395
       1    1396
       1    1397
       1    1398
       1    1399
       1    1400
       1    1401
       1    1402
       1    1403
       1    1404
       1    1405
       1    1406
       1    1407
       1    1408
       1    1409
       1    1410
       1    1411
       1    1412
       1    1413
       1    1414
       1    1415
       1    1416
       1    1417
       1    1418
       1    1419
       1    1420
       1    1421
       1    1422
       1    1423
       1    1424
       1    1425
       1    1426
       1    1427
       1    1428
       1    1429
       1    1430
       1    1431
       1    1432
       1    1433
       1    1434
       1    1435
       1    1436
       1    1437
       1    1438
       1    1439
       1    1440
       1    1441
       1    1442
       1    1443
       1    1444
       1    1445
       1    1446
       1    1447
       1    1448
       1    1449
       1    1450
       1    1451
       1    1452
       1    1453
       1    1454
       1    1455
       1    1456
       1    1457
       1    1458
       1    1459
       1    1460
       1    1461
       1    1462
       1    1463
       1    1464
       1    1465
       1    1466
       1    1467
       1    1468
       1    1469
       1    1470
       1    1471
       1    1472
       1    1473
       1    1474
       1    1475
       1    1476
       1    1477
       1    1478
       1    1479
       1    1480
       1    1481
       1    1482
       1    1483
       1    1484
       1    1485
       1    1486
       1    1487
       1    1488
       1    1489
       1    1490
       1    1491
       1    1492
       1    1493
       1    1494
       1    1495
       1    1496
       1    1497
       1    1498
       1    1499
       1    1500
       1    1501
       1    1502
       1    1503
       1    1504
       1    1505
       1    1506
       1    1507
       1    1508
       1    1509
       1    1510
       1    1511
       1    1512
       1    1513
       1    1514
       1    1515
       1    1516
       1    1517
       1    1518
       1    1519
       1    1520
       1    1521
       1    1522
       1    1523
       1    1524
       1    1525
       1    1526
       1    1527
       1    1528
       1    1529
       1    1530
       1    1531
       1    1532
       1    1533
       1    1534
       1    1535
       1    1536
       1    1537
       1    1538
       1    1539
       1    1540
       1    1541
       1    1542
       1    1543
       1    1544
       1    1545
       1    1546
       1    1547
       1    1548
       1    1549
       1    1550
       1    1551
       1    1552
       1    1553
       1    1554
       1    1555
       1    1556
       1    1557
       1    1558
       1    1559
       1    1560
       1    1561
       1    1562
       1    1563
       1    1564
       1    1565
       1    1566
       1    1567
       1    1568
       1    1569
       1    1570
       1    1571
       1    1572
       1    1573
       1    1574
       1    1575
       1    1576
       1    1577
       1    1578
       1    1579
       1    1580
       1    1581
       1    1582
       1    1583
       1    1584
       1    1585
       1    1586
       1    1587
       1    1588
       1    1589
       1    1590
       1    1591
       1    1592
       1    1593
       1    1594
       1    1595
       1    1596
       1    1597
       1    1598
       1    1599
       1    1600
       1    1601
       1    1602
       1    1603
       1    1604
       1    1605
       1    1606
       1    1607
       1    1608
       1    1609
       1    1610
       1    1611
       1    1612
       1    1613
       1    1614
       1    1615
       1    1616
       1    1617
       1    1618
       1    1619
       1    1620
       1    1621
       1    1622
       1    1623
       1    1624
       1    1625
       1    1626
       1    1627
       1    1628
       1    1629
       1    1630
       1    1631
       1    1632
       1    1633
       1    1634
       1    1635
       1    1636
       1    1637
       1    1638
       1    1639
       1    1640
       1    1641
       1    1642
       1    1643
       1    1644
       1    1645
       1    1646
       1    1647
       1    1648
       1    1649
       1    1650
       1    1651
       1    1652
       1    1653
       1    1654
       1    1655
       1    1656
       1    1657
       1    1658
       1    1659
       1    1660
       1    1661
       1    1662
       1    1663
       1    1664
       1    1665
       1    1666
       1    1667
       1    1668
       1    1669
       1    1670
       1    1671
       1    1672
       1    1673
       1    1674
       1    1675
       1    1676
       1    1677
       1    1678
       1    1679
       1    1680
       1    1681
       1    1682
       1    1683
       1    1684
       1    1685
       1    1686
       1    1687
       1    1688
       1    1689
       1    1690
       1    1691
       1    1692
       1    1693
       1    1694
       1    1695
       1    1696
       1    1697
       1    1698
       1    1699
       1    1700
       1    1701
       1    1702
       1    1703
       1    1704
       1    1705
       1    1706
       1    1707
       1    1708
       1    1709
       1    1710
       1    1711
       1    1712
       1    1713
       1    1714
       1    1715
       1    1716
       1    1717
       1    1718
       1    1719
       1    1720
       1    1721
       1    1722
       1    1723
       1    1724
       1    1725
       1    1726
       1    1727
       1    1728
       1    1729
       1    1730
       1    1731
       1    1732
       1    1733
       1    1734
       1    1735
       1    1736
       1    1737
       1    1738
       1    1739
       1    1740
       1    1741
       1    1742
       1    1743
       1    1744
       1    1745
       1    1746
       1    1747
       1    1748
       1    1749
       1    1750
       1    1751
       1    1752
       1    1753
       1    1754
       1    1755
       1    1756
       1    1757
       1    1758
       1    1759
       1    1760
       1    1761
       1    1762
       1    1763
       1    1764
       1    1765
       1    1766
       1    1767
       1    1768
       1    1769
       1    1770
       1    1771
       1    1772
       1    1773
       1    1774
       1    1775
       1    1776
       1    1777
       1    1778
       1    1779
       1    1780
       1    1781
       1    1782
       1    1783
       1    1784
       1    1785
       1    1786
       1    1787
       1    1788
       1    1789
       1    1790
       1    1791
       1    1792
       1    1793
       1    1794
       1    1795
       1    1796
       1    1797
       1    1798
       1    1799
       1    1800
       1    1801
       1    1802
       1    1803
       1    1804
       1    1805
       1    1806
       1    1807
       1    1808
       1    1809
       1    1810
       1    1811
       1    1812
       1    1813
       1    1814
       1    1815
       1    1816
       1    1817
       1    1818
       1    1819
       1    1820
       1    1821
       1    1822
       1    1823
       1    1824
       1    1825
       1    1826
       1    1827
       1    1828
       1    1829
       1    1830
       1    1831
       1    1832
       1    1833
       1    1834
       1    1835
       1    1836
       1    1837
       1    1838
       1    1839
       1    1840
       1    1841
       1    1842
       1    1843
       1    1844
       1    1845
       1    1846
       1    1847
       1    1848
       1    1849
       1    1850
       1    1851
       1    1852
       1    1853
       1    1854
       1    1855
       1    1856
       1    1857
       1    1858
       1    1859
       1    1860
       1    1861
       1    1862
       1    1863
       1    1864
       1    1865
       1    1866
       1    1867
       1    1868
       1    1869
       1    1870
       1    1871
       1    1872
       1    1873
       1    1874
       1    1875
       1    1876
       1    1877
       1    1878
       1    1879
       1    1880
       1    1881
       1    1882
       1    1883
       1    1884
       1    1885
       1    1886
       1    1887
       1    1888
       1    1889
       1    1890
       1    1891
       1    1892
       1    1893
       1    1894
       1    1895
       1    1896
       1    1897
       1    1898
       1    1899
       1    1900
       1    1901
       1    1902
       1    1903
       1    1904
       1    1905
       1    1906
       1    1907
       1    1908
       1    1909
       1    1910
       1    1911
       1    1912
       1    1913
       1    1914
       1    1915
       1    1916
       1    1917
       1    1918
       1    1919
       1    1920
       1    1921
       1    1922
       1    1923
       1    1924
       1    1925
       1    1926
       1    1927
       1    1928
       1    1929
       1    1930
       1    1931
       1    1932
       1    1933
       1    1934
       1    1935
       1    1936
       1    1937
       1    1938
       1    1939
       1    1940
       1    1941
       1    1942
       1    1943
       1    1944
       1    1945
       1    1946
       1    1947
       1    1948
       1    1949
       8       0       1       2       3       4       5       6       7
       8       2       8       9       3       6      10      11       7
       8      12       1       0      13      14       5       4      15
       8       0      16      17      13       4      18      19      15
       8      20      21      22      12      23      24      25      14
       8      26      27      21      20      28      29      24      23
       8      13      26      20      12      15      28      23      14
       8      30      31      16      32      33      34      18      35
       8      36      37      31      30      38      39      34      33
       8      40      41      37      36      42      43      39      38
       8      44      40      36      45      46      42      38      47
       8      48      17      16      31      49      19      18      34
       8      30      50      45      36      33      51      47      38
       8       0       3      32      16       4       7      35      18
       8      52      26      13      17      53      28      15      19
       8      54      52      17      48      55      53      19      49
       8      56      54      48      57      58      55      49      59
       8      37      57      48      31      39      59      49      34
       8      60      61      50      30      62      63      51      33
       8      64      60      30      32      65      62      33      35
       8      66      64      32       3      67      65      35       7
       8      68       8       2      69      70      10       6      71
       8      72      69       2       1      73      71       6       5
       8      22      72       1      12      25      73       5      14
       8      74      27      26      52      75      29      28      53
       8      76      74      52      54      77      75      53      55
       8      78      76      54      56      79      77      55      58
       8      80      78      56      81      82      79      58      83
       8      84      81      56      57      85      83      58      59
       8      41      84      57      37      43      85      59      39
       8      86      44      45      50      87      46      47      51
       8      88      86      50      61      89      87      51      63
       8      90      88      61      91      92      89      63      93
       8      94      91      61      60      95      93      63      62
       8      96      94      60      64      97      95      62      65
       8      98      96      64      66      99      97      65      67
       8     100      98      66     101     102      99      67     103
       8       9     101      66       3      11     103      67       7
       8     104     105       8      68     106     107      10      70
       8     108     104      68      69     109     106      70      71
       8     110     108      69      72     111     109      71      73
       8     112     110      72      22     113     111      73      25
       8     114     112      22      21     115     113      25      24
       8     116     114      21      27     117     115      24      29
       8     118     116      27      74     119     117      29      75
       8     120     118      74      76     121     119      75      77
       8     122     120      76      78     123     121      77      79
       8     124     122      78      80     125     123      79      82
       8     126     124      80      81     127     125      82      83
       8     128     126      81      84     129     127      83      85
       8     130     128      84      41     131     129      85      43
       8     132     130      41      40     133     131      43      42
       8     134     132      40      44     135     133      42      46
       8     136     134      44      86     137     135      46      87
       8     138     136      86      88     139     137      87      89
       8     140     138      88      90     141     139      89      92
       8     142     140      90      91     143     141      92      93
       8     144     142      91      94     145     143      93      95
       8     146     144      94      96     147     145      95      97
       8     148     146      96      98     149     147      97      99
       8     150     148      98     100     151     149      99     102
       8     152     150     100     101     153     151     102     103
       8     154     152     101       9     155     153     103      11
       8     105     154       9       8     107     155      11      10
       8     156     157     158     159       0       1       2       3
       8     158     160     161     159       2       8       9       3
       8     162     157     156     163      12       1       0      13
       8     156     164     165     163       0      16      17      13
       8     166     167     168     162      20      21      22      12
       8     169     170     167     166      26      27      21      20
       8     163     169     166     162      13      26      20      12
       8     171     172     164     173      30      31      16      32
       8     174     175     172     171      36      37      31      30
       8     176     177     175     174      40      41      37      36
       8     178     176     174     179      44      40      36      45
       8     180     165     164     172      48      17      16      31
       8     171     181     179     174      30      50      45      36
       8     156     159     173     164       0       3      32      16
       8     182     169     163     165      52      26      13      17
       8     183     182     165     180      54      52      17      48
       8     184     183     180     185      56      54      48      57
       8     175     185     180     172      37      57      48      31
       8     186     187     181     171      60      61      50      30
       8     188     186     171     173      64      60      30      32
       8     189     188     173     159      66      64      32       3
       8     190     160     158     191      68       8       2      69
       8     192     191     158     157      72      69       2       1
       8     168     192     157     162      22      72       1      12
       8     193     170     169     182      74      27      26      52
       8     194     193     182     183      76      74      52      54
       8     195     194     183     184      78      76      54      56
       8     196     195     184     197      80      78      56      81
       8     198     197     184     185      84      81      56      57
       8     177     198     185     175      41      84      57      37
       8     199     178     179     181      86      44      45      50
       8     200     199     181     187      88      86      50      61
       8     201     200     187     202      90      88      61      91
       8     203     202     187     186      94      91      61      60
       8     204     203     186     188      96      94      60      64
       8     205     204     188     189      98      96      64      66
       8     206     205     189     207     100      98      66     101
       8     161     207     189     159       9     101      66       3
       8     208     209     160     190     104     105       8      68
       8     210     208     190     191     108     104      68      69
       8     211     210     191     192     110     108      69      72
       8     212     211     192     168     112     110      72      22
       8     213     212     168     167     114     112      22      21
       8     214     213     167     170     116     114      21      27
       8     215     214     170     193     118     116      27      74
       8     216     215     193     194     120     118      74      76
       8     217     216     194     195     122     120      76      78
       8     218     217     195     196     124     122      78      80
       8     219     218     196     197     126     124      80      81
       8     220     219     197     198     128     126      81      84
       8     221     220     198     177     130     128      84      41
       8     222     221     177     176     132     130      41      40
       8     223     222     176     178     134     132      40      44
       8     224     223     178     199     136     134      44      86
       8     225     224     199     200     138     136      86      88
       8     226     225     200     201     140     138      88      90
       8     227     226     201     202     142     140      90      91
       8     228     227     202     203     144     142      91      94
       8     229     228     203     204     146     144      94      96
       8     230     229     204     205     148     146      96      98
       8     231     230     205     206     150     148      98     100
       8     232     231     206     207     152     150     100     101
       8     233     232     207     161     154     152     101       9
       8     209     233     161     160     105     154       9       8
       8     234     235     236     237     156     157     158     159
       8     236     238     239     237     158     160     161     159
       8     240     235     234     241     162     157     156     163
       8     234     242     243     241     156     164     165     163
       8     244     245     246     240     166     167     168     162
       8     247     248     245     244     169     170     167     166
       8     241     247     244     240     163     169     166     162
       8     249     250     242     251     171     172     164     173
       8     252     253     250     249     174     175     172     171
       8     254     255     253     252     176     177     175     174
       8     256     254     252     257     178     176     174     179
       8     258     243     242     250     180     165     164     172
       8     249     259     257     252     171     181     179     174
       8     234     237     251     242     156     159     173     164
       8     260     247     241     243     182     169     163     165
       8     261     260     243     258     183     182     165     180
       8     262     261     258     263     184     183     180     185
       8     253     263     258     250     175     185     180     172
       8     264     265     259     249     186     187     181     171
       8     266     264     249     251     188     186     171     173
       8     267     266     251     237     189     188     173     159
       8     268     238     236     269     190     160     158     191
       8     270     269     236     235     192     191     158     157
       8     246     270     235     240     168     192     157     162
       8     271     248     247     260     193     170     169     182
       8     272     271     260     261     194     193     182     183
       8     273     272     261     262     195     194     183     184
       8     274     273     262     275     196     195     184     197
       8     276     275     262     263     198     197     184     185
       8     255     276     263     253     177     198     185     175
       8     277     256     257     259     199     178     179     181
       8     278     277     259     265     200     199     181     187
       8     279     278     265     280     201     200     187     202
       8     281     280     265     264     203     202     187     186
       8     282     281     264     266     204     203     186     188
       8     283     282     266     267     205     204     188     189
       8     284     283     267     285     206     205     189     207
       8     239     285     267     237     161     207     189     159
       8     286     287     238     268     208     209     160     190
       8     288     286     268     269     210     208     190     191
       8     289     288     269     270     211     210     191     192
       8     290     289     270     246     212     211     192     168
       8     291     290     246     245     213     212     168     167
       8     292     291     245     248     214     213     167     170
       8     293     292     248     271     215     214     170     193
       8     294     293     271     272     216     215     193     194
       8     295     294     272     273     217     216     194     195
       8     296     295     273     274     218     217     195     196
       8     297     296     274     275     219     218     196     197
       8     298     297     275     276     220     219     197     198
       8     299     298     276     255     221     220     198     177
       8     300     299     255     254     222     221     177     176
       8     301     300     254     256     223     222     176     178
       8     302     301     256     277     224     223     178     199
       8     303     302     277     278     225     224     199     200
       8     304     303     278     279     226     225     200     201
       8     305     304     279     280     227     226     201     202
       8     306     305     280     281     228     227     202     203
       8     307     306     281     282     229     228     203     204
       8     308     307     282     283     230     229     204     205
       8     309     308     283     284     231     230     205     206
       8     310     309     284     285     232     231     206     207
       8     311     310     285     239     233     232     207     161
       8     287     311     239     238     209     233     161     160
       8     312     313     314     315     234     235     236     237
       8     314     316     317     315     236     238     239     237
       8     318     313     312     319     240     235     234     241
       8     312     320     321     319     234     242     243     241
       8     322     323     324     318     244     245     246     240
       8     325     326     323     322     247     248     245     244
       8     319     325     322     318     241     247     244     240
       8     327     328     320     329     249     250     242     251
       8     330     331     328     327     252     253     250     249
       8     332     333     331     330     254     255     253     252
       8     334     332     330     335     256     254     252     257
       8     336     321     320     328     258     243     242     250
       8     327     337     335     330     249     259     257     252
       8     312     315     329     320     234     237     251     242
       8     338     325     319     321     260     247     241     243
       8     339     338     321     336     261     260     243     258
       8     340     339     336     341     262     261     258     263
       8     331     341     336     328     253     263     258     250
       8     342     343     337     327     264     265     259     249
       8     344     342     327     329     266     264     249     251
       8     345     344     329     315     267     266     251     237
       8     346     316     314     347     268     238     236     269
       8     348     347     314     313     270     269     236     235
       8     324     348     313     318     246     270     235     240
       8     349     326     325     338     271     248     247     260
       8     350     349     338     339     272     271     260     261
       8     351     350     339     340     273     272     261     262
       8     352     351     340     353     274     273     262     275
       8     354     353     340     341     276     275     262     263
       8     333     354     341     331     255     276     263     253
       8     355     334     335     337     277     256     257     259
       8     356     355     337     343     278     277     259     265
       8     357     356     343     358     279     278     265     280
       8     359     358     343     342     281     280     265     264
       8     360     359     342     344     282     281     264     266
       8     361     360     344     345     283     282     266     267
       8     362     361     345     363     284     283     267     285
       8     317     363     345     315     239     285     267     237
       8     364     365     316     346     286     287     238     268
       8     366     364     346     347     288     286     268     269
       8     367     366     347     348     289     288     269     270
       8     368     367     348     324     290     289     270     246
       8     369     368     324     323     291     290     246     245
       8     370     369     323     326     292     291     245     248
       8     371     370     326     349     293     292     248     271
       8     372     371     349     350     294     293     271     272
       8     373     372     350     351     295     294     272     273
       8     374     373     351     352     296     295     273     274
       8     375     374     352     353     297     296     274     275
       8     376     375     353     354     298     297     275     276
       8     377     376     354     333     299     298     276     255
       8     378     377     333     332     300     299     255     254
       8     379     378     332     334     301     300     254     256
       8     380     379     334     355     302     301     256     277
       8     381     380     355     356     303     302     277     278
       8     382     381     356     357     304     303     278     279
       8     383     382     357     358     305     304     279     280
       8     384     383     358     359     306     305     280     281
       8     385     384     359     360     307     306     281     282
       8     386     385     360     361     308     307     282     283
       8     387     386     361     362     309     308     283     284
       8     388     387     362     363     310     309     284     285
       8     389     388     363     317     311     310     285     239
       8     365     389     317     316     287     311     239     238
       8     390     391     392     393     312     313     314     315
       8     392     394     395     393     314     316     317     315
       8     396     391     390     397     318     313     312     319
       8     390     398     399     397     312     320     321     319
       8     400     401     402     396     322     323     324     318
       8     403     404     401     400     325     326     323     322
       8     397     403     400     396     319     325     322     318
       8     405     406     398     407     327     328     320     329
       8     408     409     406     405     330     331     328     327
       8     410     411     409     408     332     333     331     330
       8     412     410     408     413     334     332     330     335
       8     414     399     398     406     336     321     320     328
       8     405     415     413     408     327     337     335     330
       8     390     393     407     398     312     315     329     320
       8     416     403     397     399     338     325     319     321
       8     417     416     399     414     339     338     321     336
       8     418     417     414     419     340     339     336     341
       8     409     419     414     406     331     341     336     328
       8     420     421     415     405     342     343     337     327
       8     422     420     405     407     344     342     327     329
       8     423     422     407     393     345     344     329     315
       8     424     394     392     425     346     316     314     347
       8     426     425     392     391     348     347     314     313
       8     402     426     391     396     324     348     313     318
       8     427     404     403     416     349     326     325     338
       8     428     427     416     417     350     349     338     339
       8     429     428     417     418     351     350     339     340
       8     430     429     418     431     352     351     340     353
       8     432     431     418     419     354     353     340     341
       8     411     432     419     409     333     354     341     331
       8     433     412     413     415     355     334     335     337
       8     434     433     415     421     356     355     337     343
       8     435     434     421     436     357     356     343     358
       8     437     436     421     420     359     358     343     342
       8     438     437     420     422     360     359     342     344
       8     439     438     422     423     361     360     344     345
       8     440     439     423     441     362     361     345     363
       8     395     441     423     393     317     363     345     315
       8     442     443     394     424     364     365     316     346
       8     444     442     424     425     366     364     346     347
       8     445     444     425     426     367     366     347     348
       8     446     445     426     402     368     367     348     324
       8     447     446     402     401     369     368     324     323
       8     448     447     401     404     370     369     323     326
       8     449     448     404     427     371     370     326     349
       8     450     449     427     428     372     371     349     350
       8     451     450     428     429     373     372     350     351
       8     452     451     429     430     374     373     351     352
       8     453     452     430     431     375     374     352     353
       8     454     453     431     432     376     375     353     354
       8     455     454     432     411     377     376     354     333
       8     456     455     411     410     378     377     333     332
       8     457     456     410     412     379     378     332     334
       8     458     457     412     433     380     379     334     355
       8     459     458     433     434     381     380     355     356
       8     460     459     434     435     382     381     356     357
       8     461     460     435     436     383     382     357     358
       8     462     461     436     437     384     383     358     359
       8     463     462     437     438     385     384     359     360
       8     464     463     438     439     386     385     360     361
       8     465     464     439     440     387     386     361     362
       8     466     465     440     441     388     387     362     363
       8     467     466     441     395     389     388     363     317
       8     443     467     395     394     365     389     317     316
       8     468     469     470     471     390     391     392     393
       8     470     472     473     471     392     394     395     393
       8     474     469     468     475     396     391     390     397
       8     468     476     477     475     390     398     399     397
       8     478     479     480     474     400     401     402     396
       8     481     482     479     478     403     404     401     400
       8     475     481     478     474     397     403     400     396
       8     483     484     476     485     405     406     398     407
       8     486     487     484     483     408     409     406     405
       8     488     489     487     486     410     411     409     408
       8     490     488     486     491     412     410     408     413
       8     492     477     476     484     414     399     398     406
       8     483     493     491     486     405     415     413     408
       8     468     471     485     476     390     393     407     398
       8     494     481     475     477     416     403     397     399
       8     495     494     477     492     417     416     399     414
       8     496     495     492     497     418     417     414     419
       8     487     497     492     484     409     419     414     406
       8     498     499     493     483     420     421     415     405
       8     500     498     483     485     422     420     405     407
       8     501     500     485     471     423     422     407     393
       8     502     472     470     503     424     394     392     425
       8     504     503     470     469     426     425     392     391
       8     480     504     469     474     402     426     391     396
       8     505     482     481     494     427     404     403     416
       8     506     505     494     495     428     427     416     417
       8     507     506     495     496     429     428     417     418
       8     508     507     496     509     430     429     418     431
       8     510     509     496     497     432     431     418     419
       8     489     510     497     487     411     432     419     409
       8     511     490     491     493     433     412     413     415
       8     512     511     493     499     434     433     415     421
       8     513     512     499     514     435     434     421     436
       8     515     514     499     498     437     436     421     420
       8     516     515     498     500     438     437     420     422
       8     517     516     500     501     439     438     422     423
       8     518     517     501     519     440     439     423     441
       8     473     519     501     471     395     441     423     393
       8     520     521     472     502     442     443     394     424
       8     522     520     502     503     444     442     424     425
       8     523     522     503     504     445     444     425     426
       8     524     523     504     480     446     445     426     402
       8     525     524     480     479     447     446     402     401
       8     526     525     479     482     448     447     401     404
       8     527     526     482     505     449     448     404     427
       8     528     527     505     506     450     449     427     428
       8     529     528     506     507     451     450     428     429
       8     530     529     507     508     452     451     429     430
       8     531     530     508     509     453     452     430     431
       8     532     531     509     510     454     453     431     432
       8     533     532     510     489     455     454     432     411
       8     534     533     489     488     456     455     411     410
       8     535     534     488     490     457     456     410     412
       8     536     535     490     511     458     457     412     433
       8     537     536     511     512     459     458     433     434
       8     538     537     512     513     460     459     434     435
       8     539     538     513     514     461     460     435     436
       8     540     539     514     515     462     461     436     437
       8     541     540     515     516     463     462     437     438
       8     542     541     516     517     464     463     438     439
       8     543     542     517     518     465     464     439     440
       8     544     543     518     519     466     465     440     441
       8     545     544     519     473     467     466     441     395
       8     521     545     473     472     443     467     395     394
       8     546     547     548     549     468     469     470     471
       8     548     550     551     549     470     472     473     471
       8     552     547     546     553     474     469     468     475
       8     546     554     555     553     468     476     477     475
       8     556     557     558     552     478     479     480     474
       8     559     560     557     556     481     482     479     478
       8     553     559     556     552     475     481     478     474
       8     561     562     554     563     483     484     476     485
       8     564     565     562     561     486     487     484     483
       8     566     567     565     564     488     489     487     486
       8     568     566     564     569     490     488     486     491
       8     570     555     554     562     492     477     476     484
       8     561     571     569     564     483     493     491     486
       8     546     549     563     554     468     471     485     476
       8     572     559     553     555     494     481     475     477
       8     573     572     555     570     495     494     477     492
       8     574     573     570     575     496     495     492     497
       8     565     575     570     562     487     497     492     484
       8     576     577     571     561     498     499     493     483
       8     578     576     561     563     500     498     483     485
       8     579     578     563     549     501     500     485     471
       8     580     550     548     581     502     472     470     503
       8     582     581     548     547     504     503     470     469
       8     558     582     547     552     480     504     469     474
       8     583     560     559     572     505     482     481     494
       8     584     583     572     573     506     505     494     495
       8     585     584     573     574     507     506     495     496
       8     586     585     574     587     508     507     496     509
       8     588     587     574     575     510     509     496     497
       8     567     588     575     565     489     510     497     487
       8     589     568     569     571     511     490     491     493
       8     590     589     571     577     512     511     493     499
       8     591     590     577     592     513     512     499     514
       8     593     592     577     576     515     514     499     498
       8     594     593     576     578     516     515     498     500
       8     595     594     578     579     517     516     500     501
       8     596     595     579     597     518     517     501     519
       8     551     597     579     549     473     519     501     471
       8     598     599     550     580     520     521     472     502
       8     600     598     580     581     522     520     502     503
       8     601     600     581     582     523     522     503     504
       8     602     601     582     558     524     523     504     480
       8     603     602     558     557     525     524     480     479
       8     604     603     557     560     526     525     479     482
       8     605     604     560     583     527     526     482     505
       8     606     605     583     584     528     527     505     506
       8     607     606     584     585     529     528     506     507
       8     608     607     585     586     530     529     507     508
       8     609     608     586     587     531     530     508     509
       8     610     609     587     588     532     531     509     510
       8     611     610     588     567     533     532     510     489
       8     612     611     567     566     534     533     489     488
       8     613     612     566     568     535     534     488     490
       8     614     613     568     589     536     535     490     511
       8     615     614     589     590     537     536     511     512
       8     616     615     590     591     538     537     512     513
       8     617     616     591     592     539     538     513     514
       8     618     617     592     593     540     539     514     515
       8     619     618     593     594     541     540     515     516
       8     620     619     594     595     542     541     516     517
       8     621     620     595     596     543     542     517     518
       8     622     621     596     597     544     543     518     519
       8     623     622     597     551     545     544     519     473
       8     599     623     551     550     521     545     473     472
       8     624     625     626     627     546     547     548     549
       8     626     628     629     627     548     550     551     549
       8     630     625     624     631     552     547     546     553
       8     624     632     633     631     546     554     555     553
       8     634     635     636     630     556     557     558     552
       8     637     638     635     634     559     560     557     556
       8     631     637     634     630     553     559     556     552
       8     639     640     632     641     561     562     554     563
       8     642     643     640     639     564     565     562     561
       8     644     645     643     642     566     567     565     564
       8     646     644     642     647     568     566     564     569
       8     648     633     632     640     570     555     554     562
       8     639     649     647     642     561     571     569     564
       8     624     627     641     632     546     549     563     554
       8     650     637     631     633     572     559     553     555
       8     651     650     633     648     573     572     555     570
       8     652     651     648     653     574     573     570     575
       8     643     653     648     640     565     575     570     562
       8     654     655     649     639     576     577     571     561
       8     656     654     639     641     578     576     561     563
       8     657     656     641     627     579     578     563     549
       8     658     628     626     659     580     550     548     581
       8     660     659     626     625     582     581     548     547
       8     636     660     625     630     558     582     547     552
       8     661     638     637     650     583     560     559     572
       8     662     661     650     651     584     583     572     573
       8     663     662     651     652     585     584     573     574
       8     664     663     652     665     586     585     574     587
       8     666     665     652     653     588     587     574     575
       8     645     666     653     643     567     588     575     565
       8     667     646     647     649     589     568     569     571
       8     668     667     649     655     590     589     571     577
       8     669     668     655     670     591     590     577     592
       8     671     670     655     654     593     592     577     576
       8     672     671     654     656     594     593     576     578
       8     673     672     656     657     595     594     578     579
       8     674     673     657     675     596     595     579     597
       8     629     675     657     627     551     597     579     549
       8     676     677     628     658     598     599     550     580
       8     678     676     658     659     600     598     580     581
       8     679     678     659     660     601     600     581     582
       8     680     679     660     636     602     601     582     558
       8     681     680     636     635     603     602     558     557
       8     682     681     635     638     604     603     557     560
       8     683     682     638     661     605     604     560     583
       8     684     683     661     662     606     605     583     584
       8     685     684     662     663     607     606     584     585
       8     686     685     663     664     608     607     585     586
       8     687     686     664     665     609     608     586     587
       8     688     687     665     666     610     609     587     588
       8     689     688     666     645     611     610     588     567
       8     690     689     645     644     612     611     567     566
       8     691     690     644     646     613     612     566     568
       8     692     691     646     667     614     613     568     589
       8     693     692     667     668     615     614     589     590
       8     694     693     668     669     616     615     590     591
       8     695     694     669     670     617     616     591     592
       8     696     695     670     671     618     617     592     593
       8     697     696     671     672     619     618     593     594
       8     698     697     672     673     620     619     594     595
       8     699     698     673     674     621     620     595     596
       8     700     699     674     675     622     621     596     597
       8     701     700     675     629     623     622     597     551
       8     677     701     629     628     599     623     551     550
       8     702     703     704     705     624     625     626     627
       8     704     706     707     705     626     628     629     627
       8     708     703     702     709     630     625     624     631
       8     702     710     711     709     624     632     633     631
       8     712     713     714     708     634     635     636     630
       8     715     716     713     712     637     638     635     634
       8     709     715     712     708     631     637     634     630
       8     717     718     710     719     639     640     632     641
       8     720     721     718     717     642     643     640     639
       8     722     723     721     720     644     645     643     642
       8     724     722     720     725     646     644     642     647
       8     726     711     710     718     648     633     632     640
       8     717     727     725     720     639     649     647     642
       8     702     705     719     710     624     627     641     632
       8     728     715     709     711     650     637     631     633
       8     729     728     711     726     651     650     633     648
       8     730     729     726     731     652     651     648     653
       8     721     731     726     718     643     653     648     640
       8     732     733     727     717     654     655     649     639
       8     734     732     717     719     656     654     639     641
       8     735     734     719     705     657     656     641     627
       8     736     706     704     737     658     628     626     659
       8     738     737     704     703     660     659     626     625
       8     714     738     703     708     636     660     625     630
       8     739     716     715     728     661     638     637     650
       8     740     739     728     729     662     661     650     651
       8     741     740     729     730     663     662     651     652
       8     742     741     730     743     664     663     652     665
       8     744     743     730     731     666     665     652     653
       8     723     744     731     721     645     666     653     643
       8     745     724     725     727     667     646     647     649
       8     746     745     727     733     668     667     649     655
       8     747     746     733     748     669     668     655     670
       8     749     748     733     732     671     670     655     654
       8     750     749     732     734     672     671     654     656
       8     751     750     734     735     673     672     656     657
       8     752     751     735     753     674     673     657     675
       8     707     753     735     705     629     675     657     627
       8     754     755     706     736     676     677     628     658
       8     756     754     736     737     678     676     658     659
       8     757     756     737     738     679     678     659     660
       8     758     757     738     714     680     679     660     636
       8     759     758     714     713     681     680     636     635
       8     760     759     713     716     682     681     635     638
       8     761     760     716     739     683     682     638     661
       8     762     761     739     740     684     683     661     662
       8     763     762     740     741     685     684     662     663
       8     764     763     741     742     686     685     663     664
       8     765     764     742     743     687     686     664     665
       8     766     765     743     744     688     687     665     666
       8     767     766     744     723     689     688     666     645
       8     768     767     723     722     690     689     645     644
       8     769     768     722     724     691     690     644     646
       8     770     769     724     745     692     691     646     667
       8     771     770     745     746     693     692     667     668
       8     772     771     746     747     694     693     668     669
       8     773     772     747     748     695     694     669     670
       8     774     773     748     749     696     695     670     671
       8     775     774     749     750     697     696     671     672
       8     776     775     750     751     698     697     672     673
       8     777     776     751     752     699     698     673     674
       8     778     777     752     753     700     699     674     675
       8     779     778     753     707     701     700     675     629
       8     755     779     707     706     677     701     629     628
       8     780     781     782     783     702     703     704     705
       8     782     784     785     783     704     706     707     705
       8     786     781     780     787     708     703     702     709
       8     780     788     789     787     702     710     711     709
       8     790     791     792     786     712     713     714     708
       8     793     794     791     790     715     716     713     712
       8     787     793     790     786     709     715     712     708
       8     795     796     788     797     717     718     710     719
       8     798     799     796     795     720     721     718     717
       8     800     801     799     798     722     723     721     720
       8     802     800     798     803     724     722     720     725
       8     804     789     788     796     726     711     710     718
       8     795     805     803     798     717     727     725     720
       8     780     783     797     788     702     705     719     710
       8     806     793     787     789     728     715     709     711
       8     807     806     789     804     729     728     711     726
       8     808     807     804     809     730     729     726     731
       8     799     809     804     796     721     731     726     718
       8     810     811     805     795     732     733     727     717
       8     812     810     795     797     734     732     717     719
       8     813     812     797     783     735     734     719     705
       8     814     784     782     815     736     706     704     737
       8     816     815     782     781     738     737     704     703
       8     792     816     781     786     714     738     703     708
       8     817     794     793     806     739     716     715     728
       8     818     817     806     807     740     739     728     729
       8     819     818     807     808     741     740     729     730
       8     820     819     808     821     742     741     730     743
       8     822     821     808     809     744     743     730     731
       8     801     822     809     799     723     744     731     721
       8     823     802     803     805     745     724     725     727
       8     824     823     805     811     746     745     727     733
       8     825     824     811     826     747     746     733     748
       8     827     826     811     810     749     748     733     732
       8     828     827     810     812     750     749     732     734
       8     829     828     812     813     751     750     734     735
       8     830     829     813     831     752     751     735     753
       8     785     831     813     783     707     753     735     705
       8     832     833     784     814     754     755     706     736
       8     834     832     814     815     756     754     736     737
       8     835     834     815     816     757     756     737     738
       8     836     835     816     792     758     757     738     714
       8     837     836     792     791     759     758     714     713
       8     838     837     791     794     760     759     713     716
       8     839     838     794     817     761     760     716     739
       8     840     839     817     818     762     761     739     740
       8     841     840     818     819     763     762     740     741
       8     842     841     819     820     764     763     741     742
       8     843     842     820     821     765     764     742     743
       8     844     843     821     822     766     765     743     744
       8     845     844     822     801     767     766     744     723
       8     846     845     801     800     768     767     723     722
       8     847     846     800     802     769     768     722     724
       8     848     847     802     823     770     769     724     745
       8     849     848     823     824     771     770     745     746
       8     850     849     824     825     772     771     746     747
       8     851     850     825     826     773     772     747     748
       8     852     851     826     827     774     773     748     749
       8     853     852     827     828     775     774     749     750
       8     854     853     828     829     776     775     750     751
       8     855     854     829     830     777     776     751     752
       8     856     855     830     831     778     777     752     753
       8     857     856     831     785     779     778     753     707
       8     833     857     785     784     755     779     707     706
       8     858     859     860     861     780     781     782     783
       8     860     862     863     861     782     784     785     783
       8     864     859     858     865     786     781     780     787
       8     858     866     867     865     780     788     789     787
       8     868     869     870     864     790     791     792     786
       8     871     872     869     868     793     794     791     790
       8     865     871     868     864     787     793     790     786
       8     873     874     866     875     795     796     788     797
       8     876     877     874     873     798     799     796     795
       8     878     879     877     876     800     801     799     798
       8     880     878     876     881     802     800     798     803
       8     882     867     866     874     804     789     788     796
       8     873     883     881     876     795     805     803     798
       8     858     861     875     866     780     783     797     788
       8     884     871     865     867     806     793     787     789
       8     885     884     867     882     807     806     789     804
       8     886     885     882     887     808     807     804     809
       8     877     887     882     874     799     809     804     796
       8     888     889     883     873     810     811     805     795
       8     890     888     873     875     812     810     795     797
       8     891     890     875     861     813     812     797     783
       8     892     862     860     893     814     784     782     815
       8     894     893     860     859     816     815     782     781
       8     870     894     859     864     792     816     781     786
       8     895     872     871     884     817     794     793     806
       8     896     895     884     885     818     817     806     807
       8     897     896     885     886     819     818     807     808
       8     898     897     886     899     820     819     808     821
       8     900     899     886     887     822     821     808     809
       8     879     900     887     877     801     822     809     799
       8     901     880     881     883     823     802     803     805
       8     902     901     883     889     824     823     805     811
       8     903     902     889     904     825     824     811     826
       8     905     904     889     888     827     826     811     810
       8     906     905     888     890     828     827     810     812
       8     907     906     890     891     829     828     812     813
       8     908     907     891     909     830     829     813     831
       8     863     909     891     861     785     831     813     783
       8     910     911     862     892     832     833     784     814
       8     912     910     892     893     834     832     814     815
       8     913     912     893     894     835     834     815     816
       8     914     913     894     870     836     835     816     792
       8     915     914     870     869     837     836     792     791
       8     916     915     869     872     838     837     791     794
       8     917     916     872     895     839     838     794     817
       8     918     917     895     896     840     839     817     818
       8     919     918     896     897     841     840     818     819
       8     920     919     897     898     842     841     819     820
       8     921     920     898     899     843     842     820     821
       8     922     921     899     900     844     843     821     822
       8     923     922     900     879     845     844     822     801
       8     924     923     879     878     846     845     801     800
       8     925     924     878     880     847     846     800     802
       8     926     925     880     901     848     847     802     823
       8     927     926     901     902     849     848     823     824
       8     928     927     902     903     850     849     824     825
       8     929     928     903     904     851     850     825     826
       8     930     929     904     905     852     851     826     827
       8     931     930     905     906     853     852     827     828
       8     932     931     906     907     854     853     828     829
       8     933     932     907     908     855     854     829     830
       8     934     933     908     909     856     855     830     831
       8     935     934     909     863     857     856     831     785
       8     911     935     863     862     833     857     785     784
       8     936     937     938     939     858     859     860     861
       8     938     940     941     939     860     862     863     861
       8     942     937     936     943     864     859     858     865
       8     936     944     945     943     858     866     867     865
       8     946     947     948     942     868     869     870     864
       8     949     950     947     946     871     872     869     868
       8     943     949     946     942     865     871     868     864
       8     951     952     944     953     873     874     866     875
       8     954     955     952     951     876     877     874     873
       8     956     957     955     954     878     879     877     876
       8     958     956     954     959     880     878     876     881
       8     960     945     944     952     882     867     866     874
       8     951     961     959     954     873     883     881     876
       8     936     939     953     944     858     861     875     866
       8     962     949     943     945     884     871     865     867
       8     963     962     945     960     885     884     867     882
       8     964     963     960     965     886     885     882     887
       8     955     965     960     952     877     887     882     874
       8     966     967     961     951     888     889     883     873
       8     968     966     951     953     890     888     873     875
       8     969     968     953     939     891     890     875     861
       8     970     940     938     971     892     862     860     893
       8     972     971     938     937     894     893     860     859
       8     948     972     937     942     870     894     859     864
       8     973     950     949     962     895     872     871     884
       8     974     973     962     963     896     895     884     885
       8     975     974     963     964     897     896     885     886
       8     976     975     964     977     898     897     886     899
       8     978     977     964     965     900     899     886     887
       8     957     978     965     955     879     900     887     877
       8     979     958     959     961     901     880     881     883
       8     980     979     961     967     902     901     883     889
       8     981     980     967     982     903     902     889     904
       8     983     982     967     966     905     904     889     888
       8     984     983     966     968     906     905     888     890
       8     985     984     968     969     907     906     890     891
       8     986     985     969     987     908     907     891     909
       8     941     987     969     939     863     909     891     861
       8     988     989     940     970     910     911     862     892
       8     990     988     970     971     912     910     892     893
       8     991     990     971     972     913     912     893     894
       8     992     991     972     948     914     913     894     870
       8     993     992     948     947     915     914     870     869
       8     994     993     947     950     916     915     869     872
       8     995     994     950     973     917     916     872     895
       8     996     995     973     974     918     917     895     896
       8     997     996     974     975     919     918     896     897
       8     998     997     975     976     920     919     897     898
       8     999     998     976     977     921     920     898     899
       8    1000     999     977     978     922     921     899     900
       8    1001    1000     978     957     923     922     900     879
       8    1002    1001     957     956     924     923     879     878
       8    1003    1002     956     958     925     924     878     880
       8    1004    1003     958     979     926     925     880     901
       8    1005    1004     979     980     927     926     901     902
       8    1006    1005     980     981     928     927     902     903
       8    1007    1006     981     982     929     928     903     904
       8    1008    1007     982     983     930     929     904     905
       8    1009    1008     983     984     931     930     905     906
       8    1010    1009     984     985     932     931     906     907
       8    1011    1010     985     986     933     932     907     908
       8    1012    1011     986     987     934     933     908     909
       8    1013    1012     987     941     935     934     909     863
       8     989    1013     941     940     911     935     863     862
       8    1014    1015    1016    1017     936     937     938     939
       8    1016    1018    1019    1017     938     940     941     939
       8    1020    1015    1014    1021     942     937     936     943
       8    1014    1022    1023    1021     936     944     945     943
       8    1024    1025    1026    1020     946     947     948     942
       8    1027    1028    1025    1024     949     950     947     946
       8    1021    1027    1024    1020     943     949     946     942
       8    1029    1030    1022    1031     951     952     944     953
       8    1032    1033    1030    1029     954     955     952     951
       8    1034    1035    1033    1032     956     957     955     954
       8    1036    1034    1032    1037     958     956     954     959
       8    1038    1023    1022    1030     960     945     944     952
       8    1029    1039    1037    1032     951     961     959     954
       8    1014    1017    1031    1022     936     939     953     944
       8    1040    1027    1021    1023     962     949     943     945
       8    1041    1040    1023    1038     963     962     945     960
       8    1042    1041    1038    1043     964     963     960     965
       8    1033    1043    1038    1030     955     965     960     952
       8    1044    1045    1039    1029     966     967     961     951
       8    1046    1044    1029    1031     968     966     951     953
       8    1047    1046    1031    1017     969     968     953     939
       8    1048    1018    1016    1049     970     940     938     971
       8    1050    1049    1016    1015     972     971     938     937
       8    1026    1050    1015    1020     948     972     937     942
       8    1051    1028    1027    1040     973     950     949     962
       8    1052    1051    1040    1041     974     973     962     963
       8    1053    1052    1041    1042     975     974     963     964
       8    1054    1053    1042    1055     976     975     964     977
       8    1056    1055    1042    1043     978     977     964     965
       8    1035    1056    1043    1033     957     978     965     955
       8    1057    1036    1037    1039     979     958     959     961
       8    1058    1057    1039    1045     980     979     961     967
       8    1059    1058    1045    1060     981     980     967     982
       8    1061    1060    1045    1044     983     982     967     966
       8    1062    1061    1044    1046     984     983     966     968
       8    1063    1062    1046    1047     985     984     968     969
       8    1064    1063    1047    1065     986     985     969     987
       8    1019    1065    1047    1017     941     987     969     939
       8    1066    1067    1018    1048     988     989     940     970
       8    1068    1066    1048    1049     990     988     970     971
       8    1069    1068    1049    1050     991     990     971     972
       8    1070    1069    1050    1026     992     991     972     948
       8    1071    1070    1026    1025     993     992     948     947
       8    1072    1071    1025    1028     994     993     947     950
       8    1073    1072    1028    1051     995     994     950     973
       8    1074    1073    1051    1052     996     995     973     974
       8    1075    1074    1052    1053     997     996     974     975
       8    1076    1075    1053    1054     998     997     975     976
       8    1077    1076    1054    1055     999     998     976     977
       8    1078    1077    1055    1056    1000     999     977     978
       8    1079    1078    1056    1035    1001    1000     978     957
       8    1080    1079    1035    1034    1002    1001     957     956
       8    1081    1080    1034    1036    1003    1002     956     958
       8    1082    1081    1036    1057    1004    1003     958     979
       8    1083    1082    1057    1058    1005    1004     979     980
       8    1084    1083    1058    1059    1006    1005     980     981
       8    1085    1084    1059    1060    1007    1006     981     982
       8    1086    1085    1060    1061    1008    1007     982     983
       8    1087    1086    1061    1062    1009    1008     983     984
       8    1088    1087    1062    1063    1010    1009     984     985
       8    1089    1088    1063    1064    1011    1010     985     986
       8    1090    1089    1064    1065    1012    1011     986     987
       8    1091    1090    1065    1019    1013    1012     987     941
       8    1067    1091    1019    1018     989    1013     941     940
       8    1092    1093    1094    1095    1014    1015    1016    1017
       8    1094    1096    1097    1095    1016    1018    1019    1017
       8    1098    1093    1092    1099    1020    1015    1014    1021
       8    1092    1100    1101    1099    1014    1022    1023    1021
       8    1102    1103    1104    1098    1024    1025    1026    1020
       8    1105    1106    1103    1102    1027    1028    1025    1024
       8    1099    1105    1102    1098    1021    1027    1024    1020
       8    1107    1108    1100    1109    1029    1030    1022    1031
       8    1110    1111    1108    1107    1032    1033    1030    1029
       8    1112    1113    1111    1110    1034    1035    1033    1032
       8    1114    1112    1110    1115    1036    1034    1032    1037
       8    1116    1101    1100    1108    1038    1023    1022    1030
       8    1107    1117    1115    1110    1029    1039    1037    1032
       8    1092    1095    1109    1100    1014    1017    1031    1022
       8    1118    1105    1099    1101    1040    1027    1021    1023
       8    1119    1118    1101    1116    1041    1040    1023    1038
       8    1120    1119    1116    1121    1042    1041    1038    1043
       8    1111    1121    1116    1108    1033    1043    1038    1030
       8    1122    1123    1117    1107    1044    1045    1039    1029
       8    1124    1122    1107    1109    1046    1044    1029    1031
       8    1125    1124    1109    1095    1047    1046    1031    1017
       8    1126    1096    1094    1127    1048    1018    1016    1049
       8    1128    1127    1094    1093    1050    1049    1016    1015
       8    1104    1128    1093    1098    1026    1050    1015    1020
       8    1129    1106    1105    1118    1051    1028    1027    1040
       8    1130    1129    1118    1119    1052    1051    1040    1041
       8    1131    1130    1119    1120    1053    1052    1041    1042
       8    1132    1131    1120    1133    1054    1053    1042    1055
       8    1134    1133    1120    1121    1056    1055    1042    1043
       8    1113    1134    1121    1111    1035    1056    1043    1033
       8    1135    1114    1115    1117    1057    1036    1037    1039
       8    1136    1135    1117    1123    1058    1057    1039    1045
       8    1137    1136    1123    1138    1059    1058    1045    1060
       8    1139    1138    1123    1122    1061    1060    1045    1044
       8    1140    1139    1122    1124    1062    1061    1044    1046
       8    1141    1140    1124    1125    1063    1062    1046    1047
       8    1142    1141    1125    1143    1064    1063    1047    1065
       8    1097    1143    1125    1095    1019    1065    1047    1017
       8    1144    1145    1096    1126    1066    1067    1018    1048
       8    1146    1144    1126    1127    1068    1066    1048    1049
       8    1147    1146    1127    1128    1069    1068    1049    1050
       8    1148    1147    1128    1104    1070    1069    1050    1026
       8    1149    1148    1104    1103    1071    1070    1026    1025
       8    1150    1149    1103    1106    1072    1071    1025    1028
       8    1151    1150    1106    1129    1073    1072    1028    1051
       8    1152    1151    1129    1130    1074    1073    1051    1052
       8    1153    1152    1130    1131    1075    1074    1052    1053
       8    1154    1153    1131    1132    1076    1075    1053    1054
       8    1155    1154    1132    1133    1077    1076    1054    1055
       8    1156    1155    1133    1134    1078    1077    1055    1056
       8    1157    1156    1134    1113    1079    1078    1056    1035
       8    1158    1157    1113    1112    1080    1079    1035    1034
       8    1159    1158    1112    1114    1081    1080    1034    1036
       8    1160    1159    1114    1135    1082    1081    1036    1057
       8    1161    1160    1135    1136    1083    1082    1057    1058
       8    1162    1161    1136    1137    1084    1083    1058    1059
       8    1163    1162    1137    1138    1085    1084    1059    1060
       8    1164    1163    1138    1139    1086    1085    1060    1061
       8    1165    1164    1139    1140    1087    1086    1061    1062
       8    1166    1165    1140    1141    1088    1087    1062    1063
       8    1167    1166    1141    1142    1089    1088    1063    1064
       8    1168    1167    1142    1143    1090    1089    1064    1065
       8    1169    1168    1143    1097    1091    1090    1065    1019
       8    1145    1169    1097    1096    1067    1091    1019    1018
       8    1170    1171    1172    1173    1092    1093    1094    1095
       8    1172    1174    1175    1173    1094    1096    1097    1095
       8    1176    1171    1170    1177    1098    1093    1092    1099
       8    1170    1178    1179    1177    1092    1100    1101    1099
       8    1180    1181    1182    1176    1102    1103    1104    1098
       8    1183    1184    1181    1180    1105    1106    1103    1102
       8    1177    1183    1180    1176    1099    1105    1102    1098
       8    1185    1186    1178    1187    1107    1108    1100    1109
       8    1188    1189    1186    1185    1110    1111    1108    1107
       8    1190    1191    1189    1188    1112    1113    1111    1110
       8    1192    1190    1188    1193    1114    1112    1110    1115
       8    1194    1179    1178    1186    1116    1101    1100    1108
       8    1185    1195    1193    1188    1107    1117    1115    1110
       8    1170    1173    1187    1178    1092    1095    1109    1100
       8    1196    1183    1177    1179    1118    1105    1099    1101
       8    1197    1196    1179    1194    1119    1118    1101    1116
       8    1198    1197    1194    1199    1120    1119    1116    1121
       8    1189    1199    1194    1186    1111    1121    1116    1108
       8    1200    1201    1195    1185    1122    1123    1117    1107
       8    1202    1200    1185    1187    1124    1122    1107    1109
       8    1203    1202    1187    1173    1125    1124    1109    1095
       8    1204    1174    1172    1205    1126    1096    1094    1127
       8    1206    1205    1172    1171    1128    1127    1094    1093
       8    1182    1206    1171    1176    1104    1128    1093    1098
       8    1207    1184    1183    1196    1129    1106    1105    1118
       8    1208    1207    1196    1197    1130    1129    1118    1119
       8    1209    1208    1197    1198    1131    1130    1119    1120
       8    1210    1209    1198    1211    1132    1131    1120    1133
       8    1212    1211    1198    1199    1134    1133    1120    1121
       8    1191    1212    1199    1189    1113    1134    1121    1111
       8    1213    1192    1193    1195    1135    1114    1115    1117
       8    1214    1213    1195    1201    1136    1135    1117    1123
       8    1215    1214    1201    1216    1137    1136    1123    1138
       8    1217    1216    1201    1200    1139    1138    1123    1122
       8    1218    1217    1200    1202    1140    1139    1122    1124
       8    1219    1218    1202    1203    1141    1140    1124    1125
       8    1220    1219    1203    1221    1142    1141    1125    1143
       8    1175    1221    1203    1173    1097    1143    1125    1095
       8    1222    1223    1174    1204    1144    1145    1096    1126
       8    1224    1222    1204    1205    1146    1144    1126    1127
       8    1225    1224    1205    1206    1147    1146    1127    1128
       8    1226    1225    1206    1182    1148    1147    1128    1104
       8    1227    1226    1182    1181    1149    1148    1104    1103
       8    1228    1227    1181    1184    1150    1149    1103    1106
       8    1229    1228    1184    1207    1151    1150    1106    1129
       8    1230    1229    1207    1208    1152    1151    1129    1130
       8    1231    1230    1208    1209    1153    1152    1130    1131
       8    1232    1231    1209    1210    1154    1153    1131    1132
       8    1233    1232    1210    1211    1155    1154    1132    1133
       8    1234    1233    1211    1212    1156    1155    1133    1134
       8    1235    1234    1212    1191    1157    1156    1134    1113
       8    1236    1235    1191    1190    1158    1157    1113    1112
       8    1237    1236    1190    1192    1159    1158    1112    1114
       8    1238    1237    1192    1213    1160    1159    1114    1135
       8    1239    1238    1213    1214    1161    1160    1135    1136
       8    1240    1239    1214    1215    1162    1161    1136    1137
       8    1241    1240    1215    1216    1163    1162    1137    1138
       8    1242    1241    1216    1217    1164    1163    1138    1139
       8    1243    1242    1217    1218    1165    1164    1139    1140
       8    1244    1243    1218    1219    1166    1165    1140    1141
       8    1245    1244    1219    1220    1167    1166    1141    1142
       8    1246    1245    1220    1221    1168    1167    1142    1143
       8    1247    1246    1221    1175    1169    1168    1143    1097
       8    1223    1247    1175    1174    1145    1169    1097    1096
       8    1248    1249    1250    1251    1170    1171    1172    1173
       8    1250    1252    1253    1251    1172    1174    1175    1173
       8    1254    1249    1248    1255    1176    1171    1170    1177
       8    1248    1256    1257    1255    1170    1178    1179    1177
       8    1258    1259    1260    1254    1180    1181    1182    1176
       8    1261    1262    1259    1258    1183    1184    1181    1180
       8    1255    1261    1258    1254    1177    1183    1180    1176
       8    1263    1264    1256    1265    1185    1186    1178    1187
       8    1266    1267    1264    1263    1188    1189    1186    1185
       8    1268    1269    1267    1266    1190    1191    1189    1188
       8    1270    1268    1266    1271    1192    1190    1188    1193
       8    1272    1257    1256    1264    1194    1179    1178    1186
       8    1263    1273    1271    1266    1185    1195    1193    1188
       8    1248    1251    1265    1256    1170    1173    1187    1178
       8    1274    1261    1255    1257    1196    1183    1177    1179
       8    1275    1274    1257    1272    1197    1196    1179    1194
       8    1276    1275    1272    1277    1198    1197    1194    1199
       8    1267    1277    1272    1264    1189    1199    1194    1186
       8    1278    1279    1273    1263    1200    1201    1195    1185
       8    1280    1278    1263    1265    1202    1200    1185    1187
       8    1281    1280    1265    1251    1203    1202    1187    1173
       8    1282    1252    1250    1283    1204    1174    1172    1205
       8    1284    1283    1250    1249    1206    1205    1172    1171
       8    1260    1284    1249    1254    1182    1206    1171    1176
       8    1285    1262    1261    1274    1207    1184    1183    1196
       8    1286    1285    1274    1275    1208    1207    1196    1197
       8    1287    1286    1275    1276    1209    1208    1197    1198
       8    1288    1287    1276    1289    1210    1209    1198    1211
       8    1290    1289    1276    1277    1212    1211    1198    1199
       8    1269    1290    1277    1267    1191    1212    1199    1189
       8    1291    1270    1271    1273    1213    1192    1193    1195
       8    1292    1291    1273    1279    1214    1213    1195    1201
       8    1293    1292    1279    1294    1215    1214    1201    1216
       8    1295    1294    1279    1278    1217    1216    1201    1200
       8    1296    1295    1278    1280    1218    1217    1200    1202
       8    1297    1296    1280    1281    1219    1218    1202    1203
       8    1298    1297    1281    1299    1220    1219    1203    1221
       8    1253    1299    1281    1251    1175    1221    1203    1173
       8    1300    1301    1252    1282    1222    1223    1174    1204
       8    1302    1300    1282    1283    1224    1222    1204    1205
       8    1303    1302    1283    1284    1225    1224    1205    1206
       8    1304    1303    1284    1260    1226    1225    1206    1182
       8    1305    1304    1260    1259    1227    1226    1182    1181
       8    1306    1305    1259    1262    1228    1227    1181    1184
       8    1307    1306    1262    1285    1229    1228    1184    1207
       8    1308    1307    1285    1286    1230    1229    1207    1208
       8    1309    1308    1286    1287    1231    1230    1208    1209
       8    1310    1309    1287    1288    1232    1231    1209    1210
       8    1311    1310    1288    1289    1233    1232    1210    1211
       8    1312    1311    1289    1290    1234    1233    1211    1212
       8    1313    1312    1290    1269    1235    1234    1212    1191
       8    1314    1313    1269    1268    1236    1235    1191    1190
       8    1315    1314    1268    1270    1237    1236    1190    1192
       8    1316    1315    1270    1291    1238    1237    1192    1213
       8    1317    1316    1291    1292    1239    1238    1213    1214
       8    1318    1317    1292    1293    1240    1239    1214    1215
       8    1319    1318    1293    1294    1241    1240    1215    1216
       8    1320    1319    1294    1295    1242    1241    1216    1217
       8    1321    1320    1295    1296    1243    1242    1217    1218
       8    1322    1321    1296    1297    1244    1243    1218    1219
       8    1323    1322    1297    1298    1245    1244    1219    1220
       8    1324    1323    1298    1299    1246    1245    1220    1221
       8    1325    1324    1299    1253    1247    1246    1221    1175
       8    1301    1325    1253    1252    1223    1247    1175    1174
       8    1326    1327    1328    1329    1248    1249    1250    1251
       8    1328    1330    1331    1329    1250    1252    1253    1251
       8    1332    1327    1326    1333    1254    1249    1248    1255
       8    1326    1334    1335    1333    1248    1256    1257    1255
       8    1336    1337    1338    1332    1258    1259    1260    1254
       8    1339    1340    1337    1336    1261    1262    1259    1258
       8    1333    1339    1336    1332    1255    1261    1258    1254
       8    1341    1342    1334    1343    1263    1264    1256    1265
       8    1344    1345    1342    1341    1266    1267    1264    1263
       8    1346    1347    1345    1344    1268    1269    1267    1266
       8    1348    1346    1344    1349    1270    1268    1266    1271
       8    1350    1335    1334    1342    1272    1257    1256    1264
       8    1341    1351    1349    1344    1263    1273    1271    1266
       8    1326    1329    1343    1334    1248    1251    1265    1256
       8    1352    1339    1333    1335    1274    1261    1255    1257
       8    1353    1352    1335    1350    1275    1274    1257    1272
       8    1354    1353    1350    1355    1276    1275    1272    1277
       8    1345    1355    1350    1342    1267    1277    1272    1264
       8    1356    1357    1351    1341    1278    1279    1273    1263
       8    1358    1356    1341    1343    1280    1278    1263    1265
       8    1359    1358    1343    1329    1281    1280    1265    1251
       8    1360    1330    1328    1361    1282    1252    1250    1283
       8    1362    1361    1328    1327    1284    1283    1250    1249
       8    1338    1362    1327    1332    1260    1284    1249    1254
       8    1363    1340    1339    1352    1285    1262    1261    1274
       8    1364    1363    1352    1353    1286    1285    1274    1275
       8    1365    1364    1353    1354    1287    1286    1275    1276
       8    1366    1365    1354    1367    1288    1287    1276    1289
       8    1368    1367    1354    1355    1290    1289    1276    1277
       8    1347    1368    1355    1345    1269    1290    1277    1267
       8    1369    1348    1349    1351    1291    1270    1271    1273
       8    1370    1369    1351    1357    1292    1291    1273    1279
       8    1371    1370    1357    1372    1293    1292    1279    1294
       8    1373    1372    1357    1356    1295    1294    1279    1278
       8    1374    1373    1356    1358    1296    1295    1278    1280
       8    1375    1374    1358    1359    1297    1296    1280    1281
       8    1376    1375    1359    1377    1298    1297    1281    1299
       8    1331    1377    1359    1329    1253    1299    1281    1251
       8    1378    1379    1330    1360    1300    1301    1252    1282
       8    1380    1378    1360    1361    1302    1300    1282    1283
       8    1381    1380    1361    1362    1303    1302    1283    1284
       8    1382    1381    1362    1338    1304    1303    1284    1260
       8    1383    1382    1338    1337    1305    1304    1260    1259
       8    1384    1383    1337    1340    1306    1305    1259    1262
       8    1385    1384    1340    1363    1307    1306    1262    1285
       8    1386    1385    1363    1364    1308    1307    1285    1286
       8    1387    1386    1364    1365    1309    1308    1286    1287
       8    1388    1387    1365    1366    1310    1309    1287    1288
       8    1389    1388    1366    1367    1311    1310    1288    1289
       8    1390    1389    1367    1368    1312    1311    1289    1290
       8    1391    1390    1368    1347    1313    1312    1290    1269
       8    1392    1391    1347    1346    1314    1313    1269    1268
       8    1393    1392    1346    1348    1315    1314    1268    1270
       8    1394    1393    1348    1369    1316    1315    1270    1291
       8    1395    1394    1369    1370    1317    1316    1291    1292
       8    1396    1395    1370    1371    1318    1317    1292    1293
       8    1397    1396    1371    1372    1319    1318    1293    1294
       8    1398    1397    1372    1373    1320    1319    1294    1295
       8    1399    1398    1373    1374    1321    1320    1295    1296
       8    1400    1399    1374    1375    1322    1321    1296    1297
       8    1401    1400    1375    1376    1323    1322    1297    1298
       8    1402    1401    1376    1377    1324    1323    1298    1299
       8    1403    1402    1377    1331    1325    1324    1299    1253
       8    1379    1403    1331    1330    1301    1325    1253    1252
       8    1404    1405    1406    1407    1326    1327    1328    1329
       8    1406    1408    1409    1407    1328    1330    1331    1329
       8    1410    1405    1404    1411    1332    1327    1326    1333
       8    1404    1412    1413    1411    1326    1334    1335    1333
       8    1414    1415    1416    1410    1336    1337    1338    1332
       8    1417    1418    1415    1414    1339    1340    1337    1336
       8    1411    1417    1414    1410    1333    1339    1336    1332
       8    1419    1420    1412    1421    1341    1342    1334    1343
       8    1422    1423    1420    1419    1344    1345    1342    1341
       8    1424    1425    1423    1422    1346    1347    1345    1344
       8    1426    1424    1422    1427    1348    1346    1344    1349
       8    1428    1413    1412    1420    1350    1335    1334    1342
       8    1419    1429    1427    1422    1341    1351    1349    1344
       8    1404    1407    1421    1412    1326    1329    1343    1334
       8    1430    1417    1411    1413    1352    1339    1333    1335
       8    1431    1430    1413    1428    1353    1352    1335    1350
       8    1432    1431    1428    1433    1354    1353    1350    1355
       8    1423    1433    1428    1420    1345    1355    1350    1342
       8    1434    1435    1429    1419    1356    1357    1351    1341
       8    1436    1434    1419    1421    1358    1356    1341    1343
       8    1437    1436    1421    1407    1359    1358    1343    1329
       8    1438    1408    1406    1439    1360    1330    1328    1361
       8    1440    1439    1406    1405    1362    1361    1328    1327
       8    1416    1440    1405    1410    1338    1362    1327    1332
       8    1441    1418    1417    1430    1363    1340    1339    1352
       8    1442    1441    1430    1431    1364    1363    1352    1353
       8    1443    1442    1431    1432    1365    1364    1353    1354
       8    1444    1443    1432    1445    1366    1365    1354    1367
       8    1446    1445    1432    1433    1368    1367    1354    1355
       8    1425    1446    1433    1423    1347    1368    1355    1345
       8    1447    1426    1427    1429    1369    1348    1349    1351
       8    1448    1447    1429    1435    1370    1369    1351    1357
       8    1449    1448    1435    1450    1371    1370    1357    1372
       8    1451    1450    1435    1434    1373    1372    1357    1356
       8    1452    1451    1434    1436    1374    1373    1356    1358
       8    1453    1452    1436    1437    1375    1374    1358    1359
       8    1454    1453    1437    1455    1376    1375    1359    1377
       8    1409    1455    1437    1407    1331    1377    1359    1329
       8    1456    1457    1408    1438    1378    1379    1330    1360
       8    1458    1456    1438    1439    1380    1378    1360    1361
       8    1459    1458    1439    1440    1381    1380    1361    1362
       8    1460    1459    1440    1416    1382    1381    1362    1338
       8    1461    1460    1416    1415    1383    1382    1338    1337
       8    1462    1461    1415    1418    1384    1383    1337    1340
       8    1463    1462    1418    1441    1385    1384    1340    1363
       8    1464    1463    1441    1442    1386    1385    1363    1364
       8    1465    1464    1442    1443    1387    1386    1364    1365
       8    1466    1465    1443    1444    1388    1387    1365    1366
       8    1467    1466    1444    1445    1389    1388    1366    1367
       8    1468    1467    1445    1446    1390    1389    1367    1368
       8    1469    1468    1446    1425    1391    1390    1368    1347
       8    1470    1469    1425    1424    1392    1391    1347    1346
       8    1471    1470    1424    1426    1393    1392    1346    1348
       8    1472    1471    1426    1447    1394    1393    1348    1369
       8    1473    1472    1447    1448    1395    1394    1369    1370
       8    1474    1473    1448    1449    1396    1395    1370    1371
       8    1475    1474    1449    1450    1397    1396    1371    1372
       8    1476    1475    1450    1451    1398    1397    1372    1373
       8    1477    1476    1451    1452    1399    1398    1373    1374
       8    1478    1477    1452    1453    1400    1399    1374    1375
       8    1479    1478    1453    1454    1401    1400    1375    1376
       8    1480    1479    1454    1455    1402    1401    1376    1377
       8    1481    1480    1455    1409    1403    1402    1377    1331
       8    1457    1481    1409    1408    1379    1403    1331    1330
       8    1482    1483    1484    1485    1404    1405    1406    1407
       8    1484    1486    1487    1485    1406    1408    1409    1407
       8    1488    1483    1482    1489    1410    1405    1404    1411
       8    1482    1490    1491    1489    1404    1412    1413    1411
       8    1492    1493    1494    1488    1414    1415    1416    1410
       8    1495    1496    1493    1492    1417    1418    1415    1414
       8    1489    1495    1492    1488    1411    1417    1414    1410
       8    1497    1498    1490    1499    1419    1420    1412    1421
       8    1500    1501    1498    1497    1422    1423    1420    1419
       8    1502    1503    1501    1500    1424    1425    1423    1422
       8    1504    1502    1500    1505    1426    1424    1422    1427
       8    1506    1491    1490    1498    1428    1413    1412    1420
       8    1497    1507    1505    1500    1419    1429    1427    1422
       8    1482    1485    1499    1490    1404    1407    1421    1412
       8    1508    1495    1489    1491    1430    1417    1411    1413
       8    1509    1508    1491    1506    1431    1430    1413    1428
       8    1510    1509    1506    1511    1432    1431    1428    1433
       8    1501    1511    1506    1498    1423    1433    1428    1420
       8    1512    1513    1507    1497    1434    1435    1429    1419
       8    1514    1512    1497    1499    1436    1434    1419    1421
       8    1515    1514    1499    1485    1437    1436    1421    1407
       8    1516    1486    1484    1517    1438    1408    1406    1439
       8    1518    1517    1484    1483    1440    1439    1406    1405
       8    1494    1518    1483    1488    1416    1440    1405    1410
       8    1519    1496    1495    1508    1441    1418    1417    1430
       8    1520    1519    1508    1509    1442    1441    1430    1431
       8    1521    1520    1509    1510    1443    1442    1431    1432
       8    1522    1521    1510    1523    1444    1443    1432    1445
       8    1524    1523    1510    1511    1446    1445    1432    1433
       8    1503    1524    1511    1501    1425    1446    1433    1423
       8    1525    1504    1505    1507    1447    1426    1427    1429
       8    1526    1525    1507    1513    1448    1447    1429    1435
       8    1527    1526    1513    1528    1449    1448    1435    1450
       8    1529    1528    1513    1512    1451    1450    1435    1434
       8    1530    1529    1512    1514    1452    1451    1434    1436
       8    1531    1530    1514    1515    1453    1452    1436    1437
       8    1532    1531    1515    1533    1454    1453    1437    1455
       8    1487    1533    1515    1485    1409    1455    1437    1407
       8    1534    1535    1486    1516    1456    1457    1408    1438
       8    1536    1534    1516    1517    1458    1456    1438    1439
       8    1537    1536    1517    1518    1459    1458    1439    1440
       8    1538    1537    1518    1494    1460    1459    1440    1416
       8    1539    1538    1494    1493    1461    1460    1416    1415
       8    1540    1539    1493    1496    1462    1461    1415    1418
       8    1541    1540    1496    1519    1463    1462    1418    1441
       8    1542    1541    1519    1520    1464    1463    1441    1442
       8    1543    1542    1520    1521    1465    1464    1442    1443
       8    1544    1543    1521    1522    1466    1465    1443    1444
       8    1545    1544    1522    1523    1467    1466    1444    1445
       8    1546    1545    1523    1524    1468    1467    1445    1446
       8    1547    1546    1524    1503    1469    1468    1446    1425
       8    1548    1547    1503    1502    1470    1469    1425    1424
       8    1549    1548    1502    1504    1471    1470    1424    1426
       8    1550    1549    1504    1525    1472    1471    1426    1447
       8    1551    1550    1525    1526    1473    1472    1447    1448
       8    1552    1551    1526    1527    1474    1473    1448    1449
       8    1553    1552    1527    1528    1475    1474    1449    1450
       8    1554    1553    1528    1529    1476    1475    1450    1451
       8    1555    1554    1529    1530    1477    1476    1451    1452
       8    1556    1555    1530    1531    1478    1477    1452    1453
       8    1557    1556    1531    1532    1479    1478    1453    1454
       8    1558    1557    1532    1533    1480    1479    1454    1455
       8    1559    1558    1533    1487    1481    1480    1455    1409
       8    1535    1559    1487    1486    1457    1481    1409    1408
       8    1560    1561    1562    1563    1482    1483    1484    1485
       8    1562    1564    1565    1563    1484    1486    1487    1485
       8    1566    1561    1560    1567    1488    1483    1482    1489
       8    1560    1568    1569    1567    1482    1490    1491    1489
       8    1570    1571    1572    1566    1492    1493    1494    1488
       8    1573    1574    1571    1570    1495    1496    1493    1492
       8    1567    1573    1570    1566    1489    1495    1492    1488
       8    1575    1576    1568    1577    1497    1498    1490    1499
       8    1578    1579    1576    1575    1500    1501    1498    1497
       8    1580    1581    1579    1578    1502    1503    1501    1500
       8    1582    1580    1578    1583    1504    1502    1500    1505
       8    1584    1569    1568    1576    1506    1491    1490    1498
       8    1575    1585    1583    1578    1497    1507    1505    1500
       8    1560    1563    1577    1568    1482    1485    1499    1490
       8    1586    1573    1567    1569    1508    1495    1489    1491
       8    1587    1586    1569    1584    1509    1508    1491    1506
       8    1588    1587    1584    1589    1510    1509    1506    1511
       8    1579    1589    1584    1576    1501    1511    1506    1498
       8    1590    1591    1585    1575    1512    1513    1507    1497
       8    1592    1590    1575    1577    1514    1512    1497    1499
       8    1593    1592    1577    1563    1515    1514    1499    1485
       8    1594    1564    1562    1595    1516    1486    1484    1517
       8    1596    1595    1562    1561    1518    1517    1484    1483
       8    1572    1596    1561    1566    1494    1518    1483    1488
       8    1597    1574    1573    1586    1519    1496    1495    1508
       8    1598    1597    1586    1587    1520    1519    1508    1509
       8    1599    1598    1587    1588    1521    1520    1509    1510
       8    1600    1599    1588    1601    1522    1521    1510    1523
       8    1602    1601    1588    1589    1524    1523    1510    1511
       8    1581    1602    1589    1579    1503    1524    1511    1501
       8    1603    1582    1583    1585    1525    1504    1505    1507
       8    1604    1603    1585    1591    1526    1525    1507    1513
       8    1605    1604    1591    1606    1527    1526    1513    1528
       8    1607    1606    1591    1590    1529    1528    1513    1512
       8    1608    1607    1590    1592    1530    1529    1512    1514
       8    1609    1608    1592    1593    1531    1530    1514    1515
       8    1610    1609    1593    1611    1532    1531    1515    1533
       8    1565    1611    1593    1563    1487    1533    1515    1485
       8    1612    1613    1564    1594    1534    1535    1486    1516
       8    1614    1612    1594    1595    1536    1534    1516    1517
       8    1615    1614    1595    1596    1537    1536    1517    1518
       8    1616    1615    1596    1572    1538    1537    1518    1494
       8    1617    1616    1572    1571    1539    1538    1494    1493
       8    1618    1617    1571    1574    1540    1539    1493    1496
       8    1619    1618    1574    1597    1541    1540    1496    1519
       8    1620    1619    1597    1598    1542    1541    1519    1520
       8    1621    1620    1598    1599    1543    1542    1520    1521
       8    1622    1621    1599    1600    1544    1543    1521    1522
       8    1623    1622    1600    1601    1545    1544    1522    1523
       8    1624    1623    1601    1602    1546    1545    1523    1524
       8    1625    1624    1602    1581    1547    1546    1524    1503
       8    1626    1625    1581    1580    1548    1547    1503    1502
       8    1627    1626    1580    1582    1549    1548    1502    1504
       8    1628    1627    1582    1603    1550    1549    1504    1525
       8    1629    1628    1603    1604    1551    1550    1525    1526
       8    1630    1629    1604    1605    1552    1551    1526    1527
       8    1631    1630    1605    1606    1553    1552    1527    1528
       8    1632    1631    1606    1607    1554    1553    1528    1529
       8    1633    1632    1607    1608    1555    1554    1529    1530
       8    1634    1633    1608    1609    1556    1555    1530    1531
       8    1635    1634    1609    1610    1557    1556    1531    1532
       8    1636    1635    1610    1611    1558    1557    1532    1533
       8    1637    1636    1611    1565    1559    1558    1533    1487
       8    1613    1637    1565    1564    1535    1559    1487    1486
       8    1638    1639    1640    1641    1560    1561    1562    1563
       8    1640    1642    1643    1641    1562    1564    1565    1563
       8    1644    1639    1638    1645    1566    1561    1560    1567
       8    1638    1646    1647    1645    1560    1568    1569    1567
       8    1648    1649    1650    1644    1570    1571    1572    1566
       8    1651    1652    1649    1648    1573    1574    1571    1570
       8    1645    1651    1648    1644    1567    1573    1570    1566
       8    1653    1654    1646    1655    1575    1576    1568    1577
       8    1656    1657    1654    1653    1578    1579    1576    1575
       8    1658    1659    1657    1656    1580    1581    1579    1578
       8    1660    1658    1656    1661    1582    1580    1578    1583
       8    1662    1647    1646    1654    1584    1569    1568    1576
       8    1653    1663    1661    1656    1575    1585    1583    1578
       8    1638    1641    1655    1646    1560    1563    1577    1568
       8    1664    1651    1645    1647    1586    1573    1567    1569
       8    1665    1664    1647    1662    1587    1586    1569    1584
       8    1666    1665    1662    1667    1588    1587    1584    1589
       8    1657    1667    1662    1654    1579    1589    1584    1576
       8    1668    1669    1663    1653    1590    1591    1585    1575
       8    1670    1668    1653    1655    1592    1590    1575    1577
       8    1671    1670    1655    1641    1593    1592    1577    1563
       8    1672    1642    1640    1673    1594    1564    1562    1595
       8    1674    1673    1640    1639    1596    1595    1562    1561
       8    1650    1674    1639    1644    1572    1596    1561    1566
       8    1675    1652    1651    1664    1597    1574    1573    1586
       8    1676    1675    1664    1665    1598    1597    1586    1587
       8    1677    1676    1665    1666    1599    1598    1587    1588
       8    1678    1677    1666    1679    1600    1599    1588    1601
       8    1680    1679    1666    1667    1602    1601    1588    1589
       8    1659    1680    1667    1657    1581    1602    1589    1579
       8    1681    1660    1661    1663    1603    1582    1583    1585
       8    1682    1681    1663    1669    1604    1603    1585    1591
       8    1683    1682    1669    1684    1605    1604    1591    1606
       8    1685    1684    1669    1668    1607    1606    1591    1590
       8    1686    1685    1668    1670    1608    1607    1590    1592
       8    1687    1686    1670    1671    1609    1608    1592    1593
       8    1688    1687    1671    1689    1610    1609    1593    1611
       8    1643    1689    1671    1641    1565    1611    1593    1563
       8    1690    1691    1642    1672    1612    1613    1564    1594
       8    1692    1690    1672    1673    1614    1612    1594    1595
       8    1693    1692    1673    1674    1615    1614    1595    1596
       8    1694    1693    1674    1650    1616    1615    1596    1572
       8    1695    1694    1650    1649    1617    1616    1572    1571
       8    1696    1695    1649    1652    1618    1617    1571    1574
       8    1697    1696    1652    1675    1619    1618    1574    1597
       8    1698    1697    1675    1676    1620    1619    1597    1598
       8    1699    1698    1676    1677    1621    1620    1598    1599
       8    1700    1699    1677    1678    1622    1621    1599    1600
       8    1701    1700    1678    1679    1623    1622    1600    1601
       8    1702    1701    1679    1680    1624    1623    1601    1602
       8    1703    1702    1680    1659    1625    1624    1602    1581
       8    1704    1703    1659    1658    1626    1625    1581    1580
       8    1705    1704    1658    1660    1627    1626    1580    1582
       8    1706    1705    1660    1681    1628    1627    1582    1603
       8    1707    1706    1681    1682    1629    1628    1603    1604
       8    1708    1707    1682    1683    1630    1629    1604    1605
       8    1709    1708    1683    1684    1631    1630    1605    1606
       8    1710    1709    1684    1685    1632    1631    1606    1607
       8    1711    1710    1685    1686    1633    1632    1607    1608
       8    1712    1711    1686    1687    1634    1633    1608    1609
       8    1713    1712    1687    1688    1635    1634    1609    1610
       8    1714    1713    1688    1689    1636    1635    1610    1611
       8    1715    1714    1689    1643    1637    1636    1611    1565
       8    1691    1715    1643    1642    1613    1637    1565    1564
       8    1716    1717    1718    1719    1638    1639    1640    1641
       8    1718    1720    1721    1719    1640    1642    1643    1641
       8    1722    1717    1716    1723    1644    1639    1638    1645
       8    1716    1724    1725    1723    1638    1646    1647    1645
       8    1726    1727    1728    1722    1648    1649    1650    1644
       8    1729    1730    1727    1726    1651    1652    1649    1648
       8    1723    1729    1726    1722    1645    1651    1648    1644
       8    1731    1732    1724    1733    1653    1654    1646    1655
       8    1734    1735    1732    1731    1656    1657    1654    1653
       8    1736    1737    1735    1734    1658    1659    1657    1656
       8    1738    1736    1734    1739    1660    1658    1656    1661
       8    1740    1725    1724    1732    1662    1647    1646    1654
       8    1731    1741    1739    1734    1653    1663    1661    1656
       8    1716    1719    1733    1724    1638    1641    1655    1646
       8    1742    1729    1723    1725    1664    1651    1645    1647
       8    1743    1742    1725    1740    1665    1664    1647    1662
       8    1744    1743    1740    1745    1666    1665    1662    1667
       8    1735    1745    1740    1732    1657    1667    1662    1654
       8    1746    1747    1741    1731    1668    1669    1663    1653
       8    1748    1746    1731    1733    1670    1668    1653    1655
       8    1749    1748    1733    1719    1671    1670    1655    1641
       8    1750    1720    1718    1751    1672    1642    1640    1673
       8    1752    1751    1718    1717    1674    1673    1640    1639
       8    1728    1752    1717    1722    1650    1674    1639    1644
       8    1753    1730    1729    1742    1675    1652    1651    1664
       8    1754    1753    1742    1743    1676    1675    1664    1665
       8    1755    1754    1743    1744    1677    1676    1665    1666
       8    1756    1755    1744    1757    1678    1677    1666    1679
       8    1758    1757    1744    1745    1680    1679    1666    1667
       8    1737    1758    1745    1735    1659    1680    1667    1657
       8    1759    1738    1739    1741    1681    1660    1661    1663
       8    1760    1759    1741    1747    1682    1681    1663    1669
       8    1761    1760    1747    1762    1683    1682    1669    1684
       8    1763    1762    1747    1746    1685    1684    1669    1668
       8    1764    1763    1746    1748    1686    1685    1668    1670
       8    1765    1764    1748    1749    1687    1686    1670    1671
       8    1766    1765    1749    1767    1688    1687    1671    1689
       8    1721    1767    1749    1719    1643    1689    1671    1641
       8    1768    1769    1720    1750    1690    1691    1642    1672
       8    1770    1768    1750    1751    1692    1690    1672    1673
       8    1771    1770    1751    1752    1693    1692    1673    1674
       8    1772    1771    1752    1728    1694    1693    1674    1650
       8    1773    1772    1728    1727    1695    1694    1650    1649
       8    1774    1773    1727    1730    1696    1695    1649    1652
       8    1775    1774    1730    1753    1697    1696    1652    1675
       8    1776    1775    1753    1754    1698    1697    1675    1676
       8    1777    1776    1754    1755    1699    1698    1676    1677
       8    1778    1777    1755    1756    1700    1699    1677    1678
       8    1779    1778    1756    1757    1701    1700    1678    1679
       8    1780    1779    1757    1758    1702    1701    1679    1680
       8    1781    1780    1758    1737    1703    1702    1680    1659
       8    1782    1781    1737    1736    1704    1703    1659    1658
       8    1783    1782    1736    1738    1705    1704    1658    1660
       8    1784    1783    1738    1759    1706    1705    1660    1681
       8    1785    1784    1759    1760    1707    1706    1681    1682
       8    1786    1785    1760    1761    1708    1707    1682    1683
       8    1787    1786    1761    1762    1709    1708    1683    1684
       8    1788    1787    1762    1763    1710    1709    1684    1685
       8    1789    1788    1763    1764    1711    1710    1685    1686
       8    1790    1789    1764    1765    1712    1711    1686    1687
       8    1791    1790    1765    1766    1713    1712    1687    1688
       8    1792    1791    1766    1767    1714    1713    1688    1689
       8    1793    1792    1767    1721    1715    1714    1689    1643
       8    1769    1793    1721    1720    1691    1715    1643    1642
       8    1794    1795    1796    1797    1716    1717    1718    1719
       8    1796    1798    1799    1797    1718    1720    1721    1719
       8    1800    1795    1794    1801    1722    1717    1716    1723
       8    1794    1802    1803    1801    1716    1724    1725    1723
       8    1804    1805    1806    1800    1726    1727    1728    1722
       8    1807    1808    1805    1804    1729    1730    1727    1726
       8    1801    1807    1804    1800    1723    1729    1726    1722
       8    1809    1810    1802    1811    1731    1732    1724    1733
       8    1812    1813    1810    1809    1734    1735    1732    1731
       8    1814    1815    1813    1812    1736    1737    1735    1734
       8    1816    1814    1812    1817    1738    1736    1734    1739
       8    1818    1803    1802    1810    1740    1725    1724    1732
       8    1809    1819    1817    1812    1731    1741    1739    1734
       8    1794    1797    1811    1802    1716    1719    1733    1724
       8    1820    1807    1801    1803    1742    1729    1723    1725
       8    1821    1820    1803    1818    1743    1742    1725    1740
       8    1822    1821    1818    1823    1744    1743    1740    1745
       8    1813    1823    1818    1810    1735    1745    1740    1732
       8    1824    1825    1819    1809    1746    1747    1741    1731
       8    1826    1824    1809    1811    1748    1746    1731    1733
       8    1827    1826    1811    1797    1749    1748    1733    1719
       8    1828    1798    1796    1829    1750    1720    1718    1751
       8    1830    1829    1796    1795    1752    1751    1718    1717
       8    1806    1830    1795    1800    1728    1752    1717    1722
       8    1831    1808    1807    1820    1753    1730    1729    1742
       8    1832    1831    1820    1821    1754    1753    1742    1743
       8    1833    1832    1821    1822    1755    1754    1743    1744
       8    1834    1833    1822    1835    1756    1755    1744    1757
       8    1836    1835    1822    1823    1758    1757    1744    1745
       8    1815    1836    1823    1813    1737    1758    1745    1735
       8    1837    1816    1817    1819    1759    1738    1739    1741
       8    1838    1837    1819    1825    1760    1759    1741    1747
       8    1839    1838    1825    1840    1761    1760    1747    1762
       8    1841    1840    1825    1824    1763    1762    1747    1746
       8    1842    1841    1824    1826    1764    1763    1746    1748
       8    1843    1842    1826    1827    1765    1764    1748    1749
       8    1844    1843    1827    1845    1766    1765    1749    1767
       8    1799    1845    1827    1797    1721    1767    1749    1719
       8    1846    1847    1798    1828    1768    1769    1720    1750
       8    1848    1846    1828    1829    1770    1768    1750    1751
       8    1849    1848    1829    1830    1771    1770    1751    1752
       8    1850    1849    1830    1806    1772    1771    1752    1728
       8    1851    1850    1806    1805    1773    1772    1728    1727
       8    1852    1851    1805    1808    1774    1773    1727    1730
       8    1853    1852    1808    1831    1775    1774    1730    1753
       8    1854    1853    1831    1832    1776    1775    1753    1754
       8    1855    1854    1832    1833    1777    1776    1754    1755
       8    1856    1855    1833    1834    1778    1777    1755    1756
       8    1857    1856    1834    1835    1779    1778    1756    1757
       8    1858    1857    1835    1836    1780    1779    1757    1758
       8    1859    1858    1836    1815    1781    1780    1758    1737
       8    1860    1859    1815    1814    1782    1781    1737    1736
       8    1861    1860    1814    1816    1783    1782    1736    1738
       8    1862    1861    1816    1837    1784    1783    1738    1759
       8    1863    1862    1837    1838    1785    1784    1759    1760
       8    1864    1863    1838    1839    1786    1785    1760    1761
       8    1865    1864    1839    1840    1787    1786    1761    1762
       8    1866    1865    1840    1841    1788    1787    1762    1763
       8    1867    1866    1841    1842    1789    1788    1763    1764
       8    1868    1867    1842    1843    1790    1789    1764    1765
       8    1869    1868    1843    1844    1791    1790    1765    1766
       8    1870    1869    1844    1845    1792    1791    1766    1767
       8    1871    1870    1845    1799    1793    1792    1767    1721
       8    1847    1871    1799    1798    1769    1793    1721    1720
       8    1872    1873    1874    1875    1794    1795    1796    1797
       8    1874    1876    1877    1875    1796    1798    1799    1797
       8    1878    1873    1872    1879    1800    1795    1794    1801
       8    1872    1880    1881    1879    1794    1802    1803    1801
       8    1882    1883    1884    1878    1804    1805    1806    1800
       8    1885    1886    1883    1882    1807    1808    1805    1804
       8    1879    1885    1882    1878    1801    1807    1804    1800
       8    1887    1888    1880    1889    1809    1810    1802    1811
       8    1890    1891    1888    1887    1812    1813    1810    1809
       8    1892    1893    1891    1890    1814    1815    1813    1812
       8    1894    1892    1890    1895    1816    1814    1812    1817
       8    1896    1881    1880    1888    1818    1803    1802    1810
       8    1887    1897    1895    1890    1809    1819    1817    1812
       8    1872    1875    1889    1880    1794    1797    1811    1802
       8    1898    1885    1879    1881    1820    1807    1801    1803
       8    1899    1898    1881    1896    1821    1820    1803    1818
       8    1900    1899    1896    1901    1822    1821    1818    1823
       8    1891    1901    1896    1888    1813    1823    1818    1810
       8    1902    1903    1897    1887    1824    1825    1819    1809
       8    1904    1902    1887    1889    1826    1824    1809    1811
       8    1905    1904    1889    1875    1827    1826    1811    1797
       8    1906    1876    1874    1907    1828    1798    1796    1829
       8    1908    1907    1874    1873    1830    1829    1796    1795
       8    1884    1908    1873    1878    1806    1830    1795    1800
       8    1909    1886    1885    1898    1831    1808    1807    1820
       8    1910    1909    1898    1899    1832    1831    1820    1821
       8    1911    1910    1899    1900    1833    1832    1821    1822
       8    1912    1911    1900    1913    1834    1833    1822    1835
       8    1914    1913    1900    1901    1836    1835    1822    1823
       8    1893    1914    1901    1891    1815    1836    1823    1813
       8    1915    1894    1895    1897    1837    1816    1817    1819
       8    1916    1915    1897    1903    1838    1837    1819    1825
       8    1917    1916    1903    1918    1839    1838    1825    1840
       8    1919    1918    1903    1902    1841    1840    1825    1824
       8    1920    1919    1902    1904    1842    1841    1824    1826
       8    1921    1920    1904    1905    1843    1842    1826    1827
       8    1922    1921    1905    1923    1844    1843    1827    1845
       8    1877    1923    1905    1875    1799    1845    1827    1797
       8    1924    1925    1876    1906    1846    1847    1798    1828
       8    1926    1924    1906    1907    1848    1846    1828    1829
       8    1927    1926    1907    1908    1849    1848    1829    1830
       8    1928    1927    1908    1884    1850    1849    1830    1806
       8    1929    1928    1884    1883    1851    1850    1806    1805
       8    1930    1929    1883    1886    1852    1851    1805    1808
       8    1931    1930    1886    1909    1853    1852    1808    1831
       8    1932    1931    1909    1910    1854    1853    1831    1832
       8    1933    1932    1910    1911    1855    1854    1832    1833
       8    1934    1933    1911    1912    1856    1855    1833    1834
       8    1935    1934    1912    1913    1857    1856    1834    1835
       8    1936    1935    1913    1914    1858    1857    1835    1836
       8    1937    1936    1914    1893    1859    1858    1836    1815
       8    1938    1937    1893    1892    1860    1859    1815    1814
       8    1939    1938    1892    1894    1861    1860    1814    1816
       8    1940    1939    1894    1915    1862    1861    1816    1837
       8    1941    1940    1915    1916    1863    1862    1837    1838
       8    1942    1941    1916    1917    1864    1863    1838    1839
       8    1943    1942    1917    1918    1865    1864    1839    1840
       8    1944    1943    1918    1919    1866    1865    1840    1841
       8    1945    1944    1919    1920    1867    1866    1841    1842
       8    1946    1945    1920    1921    1868    1867    1842    1843
       8    1947    1946    1921    1922    1869    1868    1843    1844
       8    1948    1947    1922    1923    1870    1869    1844    1845
       8    1949    1948    1923    1877    1871    1870    1845    1799
       8    1925    1949    1877    1876    1847    1871    1799    1798
  
CELL_TYPES    3486
       1
       1
       1
       1
       1
       1
       1
       1
       1
       1
       1
       1
       1
       1
       1
       1
       1
       1
       1
       1
       1
       1
       1
       1
       1
       1
       1
       1
       1
       1
       1
       1
       1
       1
       1
       1
       1
       1
       1
       1
       1
       1
       1
       1
       1
       1
       1
       1
       1
       1
       1
       1
       1
       1
       1
       1
       1
       1
       1
       1
       1
       1
       1
       1
       1
       1
       1
       1
       1
       1
       1
       1
       1
       1
       1
       1
       1
       1
       1
       1
       1
       1
       1
       1
       1
       1
       1
       1
       1
       1
       1
       1
       1
       1
       1
       1
       1
       1
       1
       1
       1
       1
       1
       1
       1
       1
       1
       1
       1
       1
       1
       1
       1
       1
       1
       1
       1
       1
       1
       1
       1
       1
       1
       1
       1
       1
       1
       1
       1
       1
       1
       1
       1
       1
       1
       1
       1
       1
       1
       1
       1
       1
       1
       1
       1
       1
       1
       1
       1
       1
       1
       1
       1
       1
       1
       1
       1
       1
       1
       1
       1
       1
       1
       1
       1
       1
       1
       1
       1
       1
       1
       1
       1
       1
       1
       1
       1
       1
       1
       1
       1
       1
       1
       1
       1
       1
       1
       1
       1
       1
       1
       1
       1
       1
       1
       1
       1
       1
       1
       1
       1
       1
       1
       1
       1
       1
       1
       1
       1
       1
       1
       1
       1
       1
       1
       1
       1
       1
       1
       1
       1
       1
       1
       1
       1
       1
       1
       1
       1
       1
       1
       1
       1
       1
       1
       1
       1
       1
       1
       1
       1
       1
       1
       1
       1
       1
       1
       1
       1
       1
       1
       1
       1
       1
       1
       1
       1
       1
       1
       1
       1
       1
       1
       1
       1
       1
       1
       1
       1
       1
       1
       1
       1
       1
       1
       1
       1
       1
       1
       1
       1
       1
       1
       1
       1
       1
       1
       1
       1
       1
       1
       1
       1
       1
       1
       1
       1
       1
       1
       1
       1
       1
       1
       1
       1
       1
       1
       1
       1
       1
       1
       1
       1
       1
       1
       1
       1
       1
       1
       1
       1
       1
       1
       1
       1
       1
       1
       1
       1
       1
       1
       1
       1
       1
       1
       1
       1
       1
       1
       1
       1
       1
       1
       1
       1
       1
       1
       1
       1
       1
       1
       1
       1
       1
       1
       1
       1
       1
       1
       1
       1
       1
       1
       1
       1
       1
       1
       1
       1
       1
       1
       1
       1
       1
       1
       1
       1
       1
       1
       1
       1
       1
       1
       1
       1
       1
       1
       1
       1
       1
       1
       1
       1
       1
       1
       1
       1
       1
       1
       1
       1
       1
       1
       1
       1
       1
       1
       1
       1
       1
       1
       1
       1
       1
       1
       1
       1
       1
       1
       1
       1
       1
       1
       1
       1
       1
       1
       1
       1
       1
       1
       1
       1
       1
       1
       1
       1
       1
       1
       1
       1
       1
       1
       1
       1
       1
       1
       1
       1
       1
       1
       1
       1
       1
       1
       1
       1
       1
       1
       1
       1
       1
       1
       1
       1
       1
       1
       1
       1
       1
       1
       1
       1
       1
       1
       1
       1
       1
       1
       1
       1
       1
       1
       1
       1
       1
       1
       1
       1
       1
       1
       1
       1
       1
       1
       1
       1
       1
       1
       1
       1
       1
       1
       1
       1
       1
       1
       1
       1
       1
       1
       1
       1
       1
       1
       1
       1
       1
       1
       1
       1
       1
       1
       1
       1
       1
       1
       1
       1
       1
       1
       1
       1
       1
       1
       1
       1
       1
       1
       1
       1
       1
       1
       1
       1
       1
       1
       1
       1
       1
       1
       1
       1
       1
       1
       1
       1
       1
       1
       1
       1
       1
       1
       1
       1
       1
       1
       1
       1
       1
       1
       1
       1
       1
       1
       1
       1
       1
       1
       1
       1
       1
       1
       1
       1
       1
       1
       1
       1
       1
       1
       1
       1
       1
       1
       1
       1
       1
       1
       1
       1
       1
       1
       1
       1
       1
       1
       1
       1
       1
       1
       1
       1
       1
       1
       1
       1
       1
       1
       1
       1
       1
       1
       1
       1
       1
       1
       1
       1
       1
       1
       1
       1
       1
       1
       1
       1
       1
       1
       1
       1
       1
       1
       1
       1
       1
       1
       1
       1
       1
       1
       1
       1
       1
       1
       1
       1
       1
       1
       1
       1
       1
       1
       1
       1
       1
       1
       1
       1
       1
       1
       1
       1
       1
       1
       1
       1
       1
       1
       1
       1
       1
       1
       1
       1
       1
       1
       1
       1
       1
       1
       1
       1
       1
       1
       1
       1
       1
       1
       1
       1
       1
       1
       1
       1
       1
       1
       1
       1
       1
       1
       1
       1
       1
       1
       1
       1
       1
       1
       1
       1
       1
       1
       1
       1
       1
       1
       1
       1
       1
       1
       1
       1
       1
       1
       1
       1
       1
       1
       1
       1
       1
       1
       1
       1
       1
       1
       1
       1
       1
       1
       1
       1
       1
       1
       1
       1
       1
       1
       1
       1
       1
       1
       1
       1
       1
       1
       1
       1
       1
       1
       1
       1
       1
       1
       1
       1
       1
       1
       1
       1
       1
       1
       1
       1
       1
       1
       1
       1
       1
       1
       1
       1
       1
       1
       1
       1
       1
       1
       1
       1
       1
       1
       1
       1
       1
       1
       1
       1
       1
       1
       1
       1
       1
       1
       1
       1
       1
       1
       1
       1
       1
       1
       1
       1
       1
       1
       1
       1
       1
       1
       1
       1
       1
       1
       1
       1
       1
       1
       1
       1
       1
       1
       1
       1
       1
       1
       1
       1
       1
       1
       1
       1
       1
       1
       1
       1
       1
       1
       1
       1
       1
       1
       1
       1
       1
       1
       1
       1
       1
       1
       1
       1
       1
       1
       1
       1
       1
       1
       1
       1
       1
       1
       1
       1
       1
       1
       1
       1
       1
       1
       1
       1
       1
       1
       1
       1
       1
       1
       1
       1
       1
       1
       1
       1
       1
       1
       1
       1
       1
       1
       1
       1
       1
       1
       1
       1
       1
       1
       1
       1
       1
       1
       1
       1
       1
       1
       1
       1
       1
       1
       1
       1
       1
       1
       1
       1
       1
       1
       1
       1
       1
       1
       1
       1
       1
       1
       1
       1
       1
       1
       1
       1
       1
       1
       1
       1
       1
       1
       1
       1
       1
       1
       1
       1
       1
       1
       1
       1
       1
       1
       1
       1
       1
       1
       1
       1
       1
       1
       1
       1
       1
       1
       1
       1
       1
       1
       1
       1
       1
       1
       1
       1
       1
       1
       1
       1
       1
       1
       1
       1
       1
       1
       1
       1
       1
       1
       1
       1
       1
       1
       1
       1
       1
       1
       1
       1
       1
       1
       1
       1
       1
       1
       1
       1
       1
       1
       1
       1
       1
       1
       1
       1
       1
       1
       1
       1
       1
       1
       1
       1
       1
       1
       1
       1
       1
       1
       1
       1
       1
       1
       1
       1
       1
       1
       1
       1
       1
       1
       1
       1
       1
       1
       1
       1
       1
       1
       1
       1
       1
       1
       1
       1
       1
       1
       1
       1
       1
       1
       1
       1
       1
       1
       1
       1
       1
       1
       1
       1
       1
       1
       1
       1
       1
       1
       1
       1
       1
       1
       1
       1
       1
       1
       1
       1
       1
       1
       1
       1
       1
       1
       1
       1
       1
       1
       1
       1
       1
       1
       1
       1
       1
       1
       1
       1
       1
       1
       1
       1
       1
       1
       1
       1
       1
       1
       1
       1
       1
       1
       1
       1
       1
       1
       1
       1
       1
       1
       1
       1
       1
       1
       1
       1
       1
       1
       1
       1
       1
       1
       1
       1
       1
       1
       1
       1
       1
       1
       1
       1
       1
       1
       1
       1
       1
       1
       1
       1
       1
       1
       1
       1
       1
       1
       1
       1
       1
       1
       1
       1
       1
       1
       1
       1
       1
       1
       1
       1
       1
       1
       1
       1
       1
       1
       1
       1
       1
       1
       1
       1
       1
       1
       1
       1
       1
       1
       1
       1
       1
       1
       1
       1
       1
       1
       1
       1
       1
       1
       1
       1
       1
       1
       1
       1
       1
       1
       1
       1
       1
       1
       1
       1
       1
       1
       1
       1
       1
       1
       1
       1
       1
       1
       1
       1
       1
       1
       1
       1
       1
       1
       1
       1
       1
       1
       1
       1
       1
       1
       1
       1
       1
       1
       1
       1
       1
       1
       1
       1
       1
       1
       1
       1
       1
       1
       1
       1
       1
       1
       1
       1
       1
       1
       1
       1
       1
       1
       1
       1
       1
       1
       1
       1
       1
       1
       1
       1
       1
       1
       1
       1
       1
       1
       1
       1
       1
       1
       1
       1
       1
       1
       1
       1
       1
       1
       1
       1
       1
       1
       1
       1
       1
       1
       1
       1
       1
       1
       1
       1
       1
       1
       1
       1
       1
       1
       1
       1
       1
       1
       1
       1
       1
       1
       1
       1
       1
       1
       1
       1
       1
       1
       1
       1
       1
       1
       1
       1
       1
       1
       1
       1
       1
       1
       1
       1
       1
       1
       1
       1
       1
       1
       1
       1
       1
       1
       1
       1
       1
       1
       1
       1
       1
       1
       1
       1
       1
       1
       1
       1
       1
       1
       1
       1
       1
       1
       1
       1
       1
       1
       1
       1
       1
       1
       1
       1
       1
       1
       1
       1
       1
       1
       1
       1
       1
       1
       1
       1
       1
       1
       1
       1
       1
       1
       1
       1
       1
       1
       1
       1
       1
       1
       1
       1
       1
       1
       1
       1
       1
       1
       1
       1
       1
       1
       1
       1
       1
       1
       1
       1
       1
       1
       1
       1
       1
       1
       1
       1
       1
       1
       1
       1
       1
       1
       1
       1
       1
       1
       1
       1
       1
       1
       1
       1
       1
       1
       1
       1
       1
       1
       1
       1
       1
       1
       1
       1
       1
       1
       1
       1
       1
       1
       1
       1
       1
       1
       1
       1
       1
       1
       1
       1
       1
       1
       1
       1
       1
       1
       1
       1
       1
       1
       1
       1
       1
       1
       1
       1
       1
       1
       1
       1
       1
       1
       1
       1
       1
       1
       1
       1
       1
       1
       1
       1
       1
       1
       1
       1
       1
       1
       1
       1
       1
       1
       1
       1
       1
       1
       1
       1
       1
       1
       1
       1
       1
       1
       1
       1
       1
       1
       1
       1
       1
       1
       1
       1
       1
       1
       1
       1
       1
       1
       1
       1
       1
       1
       1
       1
       1
       1
       1
       1
       1
       1
       1
       1
       1
       1
       1
       1
       1
       1
       1
       1
       1
       1
       1
       1
       1
       1
       1
       1
       1
       1
       1
       1
       1
       1
       1
       1
       1
       1
       1
       1
       1
       1
       1
       1
       1
       1
       1
       1
       1
       1
       1
       1
       1
       1
       1
       1
       1
       1
       1
       1
       1
       1
       1
       1
       1
       1
       1
       1
       1
       1
       1
       1
       1
       1
       1
       1
       1
       1
       1
       1
       1
       1
       1
       1
       1
       1
       1
       1
       1
       1
       1
       1
       1
       1
       1
       1
       1
       1
       1
       1
       1
       1
       1
       1
       1
       1
       1
       1
       1
       1
       1
       1
       1
       1
       1
       1
       1
       1
       1
       1
       1
       1
       1
       1
       1
       1
       1
       1
       1
       1
       1
       1
       1
       1
       1
       1
       1
       1
       1
       1
       1
       1
       1
       1
       1
       1
       1
       1
       1
       1
       1
       1
       1
       1
       1
       1
       1
       1
       1
       1
       1
       1
       1
       1
       1
       1
       1
       1
       1
       1
       1
       1
       1
       1
       1
       1
       1
       1
       1
       1
       1
       1
       1
       1
       1
       1
       1
       1
       1
       1
       1
       1
       1
       1
       1
       1
       1
       1
       1
       1
       1
       1
       1
       1
       1
       1
       1
       1
       1
       1
       1
       1
       1
       1
       1
       1
       1
       1
       1
       1
       1
       1
       1
       1
       1
       1
       1
       1
       1
       1
       1
       1
       1
       1
       1
       1
       1
       1
       1
       1
       1
       1
       1
       1
       1
       1
       1
       1
       1
       1
       1
       1
       1
       1
       1
       1
       1
       1
       1
       1
       1
       1
       1
       1
       1
       1
       1
       1
       1
       1
       1
       1
       1
       1
       1
       1
       1
       1
       1
       1
       1
       1
       1
       1
       1
       1
       1
       1
       1
       1
       1
       1
       1
       1
       1
       1
       1
       1
       1
       1
       1
       1
       1
       1
       1
       1
       1
       1
       1
       1
       1
       1
       1
       1
       1
       1
       1
       1
       1
       1
       1
       1
       1
       1
       1
       1
       1
       1
       1
       1
       1
       1
       1
       1
       1
       1
       1
       1
       1
       1
       1
       1
       1
       1
       1
       1
       1
       1
       1
       1
       1
       1
       1
       1
       1
       1
       1
       1
       1
       1
       1
       1
       1
       1
       1
       1
       1
       1
       1
      12
      12
      12
      12
      12
      12
      12
      12
      12
      12
      12
      12
      12
      12
      12
      12
      12
      12
      12
      12
      12
      12
      12
      12
      12
      12
      12
      12
      12
      12
      12
      12
      12
      12
      12
      12
      12
      12
      12
      12
      12
      12
      12
      12
      12
      12
      12
      12
      12
      12
      12
      12
      12
      12
      12
      12
      12
      12
      12
      12
      12
      12
      12
      12
      12
      12
      12
      12
      12
      12
      12
      12
      12
      12
      12
      12
      12
      12
      12
      12
      12
      12
      12
      12
      12
      12
      12
      12
      12
      12
      12
      12
      12
      12
      12
      12
      12
      12
      12
      12
      12
      12
      12
      12
      12
      12
      12
      12
      12
      12
      12
      12
      12
      12
      12
      12
      12
      12
      12
      12
      12
      12
      12
      12
      12
      12
      12
      12
      12
      12
      12
      12
      12
      12
      12
      12
      12
      12
      12
      12
      12
      12
      12
      12
      12
      12
      12
      12
      12
      12
      12
      12
      12
      12
      12
      12
      12
      12
      12
      12
      12
      12
      12
      12
      12
      12
      12
      12
      12
      12
      12
      12
      12
      12
      12
      12
      12
      12
      12
      12
      12
      12
      12
      12
      12
      12
      12
      12
      12
      12
      12
      12
      12
      12
      12
      12
      12
      12
      12
      12
      12
      12
      12
      12
      12
      12
      12
      12
      12
      12
      12
      12
      12
      12
      12
      12
      12
      12
      12
      12
      12
      12
      12
      12
      12
      12
      12
      12
      12
      12
      12
      12
      12
      12
      12
      12
      12
      12
      12
      12
      12
      12
      12
      12
      12
      12
      12
      12
      12
      12
      12
      12
      12
      12
      12
      12
      12
      12
      12
      12
      12
      12
      12
      12
      12
      12
      12
      12
      12
      12
      12
      12
      12
      12
      12
      12
      12
      12
      12
      12
      12
      12
      12
      12
      12
      12
      12
      12
      12
      12
      12
      12
      12
      12
      12
      12
      12
      12
      12
      12
      12
      12
      12
      12
      12
      12
      12
      12
      12
      12
      12
      12
      12
      12
      12
      12
      12
      12
      12
      12
      12
      12
      12
      12
      12
      12
      12
      12
      12
      12
      12
      12
      12
      12
      12
      12
      12
      12
      12
      12
      12
      12
      12
      12
      12
      12
      12
      12
      12
      12
      12
      12
      12
      12
      12
      12
      12
      12
      12
      12
      12
      12
      12
      12
      12
      12
      12
      12
      12
      12
      12
      12
      12
      12
      12
      12
      12
      12
      12
      12
      12
      12
      12
      12
      12
      12
      12
      12
      12
      12
      12
      12
      12
      12
      12
      12
      12
      12
      12
      12
      12
      12
      12
      12
      12
      12
      12
      12
      12
      12
      12
      12
      12
      12
      12
      12
      12
      12
      12
      12
      12
      12
      12
      12
      12
      12
      12
      12
      12
      12
      12
      12
      12
      12
      12
      12
      12
      12
      12
      12
      12
      12
      12
      12
      12
      12
      12
      12
      12
      12
      12
      12
      12
      12
      12
      12
      12
      12
      12
      12
      12
      12
      12
      12
      12
      12
      12
      12
      12
      12
      12
      12
      12
      12
      12
      12
      12
      12
      12
      12
      12
      12
      12
      12
      12
      12
      12
      12
      12
      12
      12
      12
      12
      12
      12
      12
      12
      12
      12
      12
      12
      12
      12
      12
      12
      12
      12
      12
      12
      12
      12
      12
      12
      12
      12
      12
      12
      12
      12
      12
      12
      12
      12
      12
      12
      12
      12
      12
      12
      12
      12
      12
      12
      12
      12
      12
      12
      12
      12
      12
      12
      12
      12
      12
      12
      12
      12
      12
      12
      12
      12
      12
      12
      12
      12
      12
      12
      12
      12
      12
      12
      12
      12
      12
      12
      12
      12
      12
      12
      12
      12
      12
      12
      12
      12
      12
      12
      12
      12
      12
      12
      12
      12
      12
      12
      12
      12
      12
      12
      12
      12
      12
      12
      12
      12
      12
      12
      12
      12
      12
      12
      12
      12
      12
      12
      12
      12
      12
      12
      12
      12
      12
      12
      12
      12
      12
      12
      12
      12
      12
      12
      12
      12
      12
      12
      12
      12
      12
      12
      12
      12
      12
      12
      12
      12
      12
      12
      12
      12
      12
      12
      12
      12
      12
      12
      12
      12
      12
      12
      12
      12
      12
      12
      12
      12
      12
      12
      12
      12
      12
      12
      12
      12
      12
      12
      12
      12
      12
      12
      12
      12
      12
      12
      12
      12
      12
      12
      12
      12
      12
      12
      12
      12
      12
      12
      12
      12
      12
      12
      12
      12
      12
      12
      12
      12
      12
      12
      12
      12
      12
      12
      12
      12
      12
      12
      12
      12
      12
      12
      12
      12
      12
      12
      12
      12
      12
      12
      12
      12
      12
      12
      12
      12
      12
      12
      12
      12
      12
      12
      12
      12
      12
      12
      12
      12
      12
      12
      12
      12
      12
      12
      12
      12
      12
      12
      12
      12
      12
      12
      12
      12
      12
      12
      12
      12
      12
      12
      12
      12
      12
      12
      12
      12
      12
      12
      12
      12
      12
      12
      12
      12
      12
      12
      12
      12
      12
      12
      12
      12
      12
      12
      12
      12
      12
      12
      12
      12
      12
      12
      12
      12
      12
      12
      12
      12
      12
      12
      12
      12
      12
      12
      12
      12
      12
      12
      12
      12
      12
      12
      12
      12
      12
      12
      12
      12
      12
      12
      12
      12
      12
      12
      12
      12
      12
      12
      12
      12
      12
      12
      12
      12
      12
      12
      12
      12
      12
      12
      12
      12
      12
      12
      12
      12
      12
      12
      12
      12
      12
      12
      12
      12
      12
      12
      12
      12
      12
      12
      12
      12
      12
      12
      12
      12
      12
      12
      12
      12
      12
      12
      12
      12
      12
      12
      12
      12
      12
      12
      12
      12
      12
      12
      12
      12
      12
      12
      12
      12
      12
      12
      12
      12
      12
      12
      12
      12
      12
      12
      12
      12
      12
      12
      12
      12
      12
      12
      12
      12
      12
      12
      12
      12
      12
      12
      12
      12
      12
      12
      12
      12
      12
      12
      12
      12
      12
      12
      12
      12
      12
      12
      12
      12
      12
      12
      12
      12
      12
      12
      12
      12
      12
      12
      12
      12
      12
      12
      12
      12
      12
      12
      12
      12
      12
      12
      12
      12
      12
      12
      12
      12
      12
      12
      12
      12
      12
      12
      12
      12
      12
      12
      12
      12
      12
      12
      12
      12
      12
      12
      12
      12
      12
      12
      12
      12
      12
      12
      12
      12
      12
      12
      12
      12
      12
      12
      12
      12
      12
      12
      12
      12
      12
      12
      12
      12
      12
      12
      12
      12
      12
      12
      12
      12
      12
      12
      12
      12
      12
      12
      12
      12
      12
      12
      12
      12
      12
      12
      12
      12
      12
      12
      12
      12
      12
      12
      12
      12
      12
      12
      12
      12
      12
      12
      12
      12
      12
      12
      12
      12
      12
      12
      12
      12
      12
      12
      12
      12
      12
      12
      12
      12
      12
      12
      12
      12
      12
      12
      12
      12
      12
      12
      12
      12
      12
      12
      12
      12
      12
      12
      12
      12
      12
      12
      12
      12
      12
      12
      12
      12
      12
      12
      12
      12
      12
      12
      12
      12
      12
      12
      12
      12
      12
      12
      12
      12
      12
      12
      12
      12
      12
      12
      12
      12
      12
      12
      12
      12
      12
      12
      12
      12
      12
      12
      12
      12
      12
      12
      12
      12
      12
      12
      12
      12
      12
      12
      12
      12
      12
      12
      12
      12
      12
      12
      12
      12
      12
      12
      12
      12
      12
      12
      12
      12
      12
      12
      12
      12
      12
      12
      12
      12
      12
      12
      12
      12
      12
      12
      12
      12
      12
      12
      12
      12
      12
      12
      12
      12
      12
      12
      12
      12
      12
      12
      12
      12
      12
      12
      12
      12
      12
      12
      12
      12
      12
      12
      12
      12
      12
      12
      12
      12
      12
      12
      12
      12
      12
      12
      12
      12
      12
      12
      12
      12
      12
      12
      12
      12
      12
      12
      12
      12
      12
      12
      12
      12
      12
      12
      12
      12
      12
      12
      12
      12
      12
      12
      12
      12
      12
      12
      12
      12
      12
      12
      12
      12
      12
      12
      12
      12
      12
      12
      12
      12
      12
      12
      12
      12
      12
      12
      12
      12
      12
      12
      12
      12
      12
      12
      12
      12
      12
      12
      12
      12
      12
      12
      12
      12
      12
      12
      12
      12
      12
      12
      12
      12
      12
      12
      12
      12
      12
      12
      12
      12
      12
      12
      12
      12
      12
      12
      12
      12
      12
      12
      12
      12
      12
      12
      12
      12
      12
      12
      12
      12
      12
      12
      12
      12
      12
      12
      12
      12
      12
      12
      12
      12
      12
      12
      12
      12
      12
      12
      12
      12
      12
      12
      12
      12
      12
      12
      12
      12
      12
      12
      12
      12
      12
      12
      12
      12
      12
      12
      12
      12
      12
      12
      12
      12
      12
      12
      12
      12
      12
      12
      12
      12
      12
      12
      12
      12
      12
      12
      12
      12
      12
      12
      12
      12
      12
      12
      12
      12
      12
      12
      12
      12
      12
      12
      12
      12
      12
      12
      12
      12
      12
      12
      12
      12
      12
      12
      12
      12
      12
      12
      12
      12
      12
      12
      12
      12
      12
      12
      12
      12
      12
      12
      12
      12
      12
      12
      12
      12
      12
      12
      12
      12
      12
      12
      12
      12
      12
      12
      12
      12
      12
      12
      12
      12
      12
      12
      12
      12
      12
      12
      12
      12
      12
      12
      12
      12
      12
      12
      12
      12
      12
      12
      12
      12
      12
      12
      12
      12
      12
      12
      12
      12
      12
      12
      12
      12
      12
      12
      12
      12
      12
      12
      12
      12
      12
      12
      12
      12
      12
      12
      12
      12
      12
      12
      12
      12
      12
      12
      12
      12
      12
      12
      12
      12
      12
      12
      12
      12
      12
      12
      12
      12
      12
      12
      12
      12
      12
      12
      12
      12
      12
      12
      12
      12
      12
      12
      12
      12
      12
      12
      12
      12
      12
      12
      12
      12
      12
      12
      12
      12
      12
      12
      12
      12
      12
  
  
POINT_DATA       1950
  
SCALARS                  material_type  double 1
LOOKUP_TABLE default
                   2
                   2
                   2
                   2
                   2
                   2
                   2
                   2
                   2
                   2
                   2
                   2
                   2
                   2
                   2
                   2
                   2
                   2
                   2
                   2
                   2
                   2
                   2
                   2
                   2
                   2
                   2
                   2
                   2
                   2
                   2
                   2
                   2
                   2
                   2
                   2
                   2
                   2
                   2
                   2
                   2
                   2
                   2
                   2
                   2
                   2
                   2
                   2
                   2
                   2
                   2
                   2
                   2
                   2
                   2
                   2
                   2
                   2
                   2
                   2
                   2
                   2
                   2
                   2
                   2
                   2
                   2
                   2
                   2
                   2
                   2
                   2
                   2
                   2
                   2
                   2
                   2
                   2
                   2
                   2
                   2
                   2
                   2
                   2
                   2
                   2
                   2
                   2
                   2
                   2
                   2
                   2
                   2
                   2
                   2
                   2
                   2
                   2
                   2
                   2
                   2
                   2
                   2
                   2
                   2
                   2
                   2
                   2
                   2
                   2
                   2
                   2
                   2
                   2
                   2
                   2
                   2
                   2
                   2
                   2
                   2
                   2
                   2
                   2
                   2
                   2
                   2
                   2
                   2
                   2
                   2
                   2
                   2
                   2
                   2
                   2
                   2
                   2
                   2
                   2
                   2
                   2
                   2
                   2
                   2
                   2
                   2
                   2
                   2
                   2
                   2
                   2
                   2
                   2
                   2
                   2
                   2
                   2
                   2
                   2
                   2
                   2
                   2
                   2
                   2
                   2
                   2
                   2
                   2
                   2
                   2
                   2
                   2
                   2
                   2
                   2
                   2
                   2
                   2
                   2
                   2
                   2
                   2
                   2
                   2
                   2
                   2
                   2
                   2
                   2
                   2
                   2
                   2
                   2
                   2
                   2
                   2
                   2
                   2
                   2
                   2
                   2
                   2
                   2
                   2
                   2
                   2
                   2
                   2
                   2
                   2
                   2
                   2
                   2
                   2
                   2
                   2
                   2
                   2
                   2
                   2
                   2
                   2
                   2
                   2
                   2
                   2
                   2
                   2
                   2
                   2
                   2
                   2
                   2
                   2
                   2
                   2
                   2
                   2
                   2
                   2
                   2
                   2
                   2
                   2
                   2
                   2
                   2
                   2
                   2
                   2
                   2
                   2
                   2
                   2
                   2
                   2
                   2
                   2
                   2
                   2
                   2
                   2
                   2
                   2
                   2
                   2
                   2
                   2
                   2
                   2
                   2
                   2
                   2
                   2
                   2
                   2
                   2
                   2
                   2
                   2
                   2
                   2
                   2
                   2
                   2
                   2
                   2
                   2
                   2
                   2
                   2
                   2
                   2
                   2
                   2
                   2
                   2
                   2
                   2
                   2
                   2
                   2
                   2
                   2
                   2
                   2
                   2
                   2
                   2
                   2
                   2
                   2
                   2
                   2
                   2
                   2
                   2
                   2
                   2
                   2
                   2
                   2
                   2
                   2
                   2
                   2
                   2
                   2
                   2
                   2
                   2
                   2
                   2
                   2
                   2
                   2
                   2
                   2
                   2
                   2
                   2
                   2
                   2
                   2
                   2
                   2
                   2
                   2
                   2
                   2
                   2
                   2
                   2
                   2
                   2
                   2
                   2
                   2
                   2
                   2
                   2
                   2
                   2
                   2
                   2
                   2
                   2
                   2
                   2
                   2
                   2
                   2
                   2
                   2
                   2
                   2
                   2
                   2
                   2
                   2
                   2
                   2
                   2
                   2
                   2
                   2
                   2
                   2
                   2
                   2
                   2
                   2
                   2
                   2
                   2
                   2
                   2
                   2
                   2
                   2
                   2
                   2
                   2
                   2
                   2
                   2
                   2
                   2
                   2
                   2
                   2
                   2
                   2
                   2
                   2
                   2
                   2
                   2
                   2
                   2
                   2
                   2
                   2
                   2
                   2
                   2
                   2
                   2
                   2
                   2
                   2
                   2
                   2
                   2
                   2
                   2
                   2
                   2
                   2
                   2
                   2
                   2
                   2
                   2
                   2
                   2
                   2
                   2
                   2
                   2
                   2
                   2
                   2
                   2
                   2
                   2
                   2
                   2
                   2
                   2
                   2
                   2
                   2
                   2
                   2
                   2
                   2
                   2
                   2
                   2
                   2
                   2
                   2
                   2
                   2
                   2
                   2
                   2
                   2
                   2
                   2
                   2
                   2
                   2
                   2
                   2
                   2
                   2
                   2
                   2
                   2
                   2
                   2
                   2
                   2
                   2
                   2
                   2
                   2
                   2
                   2
                   2
                   2
                   2
                   2
                   2
                   2
                   2
                   2
                   2
                   2
                   2
                   2
                   2
                   2
                   2
                   2
                   2
                   2
                   2
                   2
                   2
                   2
                   2
                   2
                   2
                   2
                   2
                   2
                   2
                   2
                   2
                   2
                   2
                   2
                   2
                   2
                   2
                   2
                   2
                   2
                   2
                   2
                   2
                   2
                   2
                   2
                   2
                   2
                   2
                   2
                   2
                   2
                   2
                   2
                   2
                   2
                   2
                   2
                   2
                   2
                   2
                   2
                   2
                   2
                   2
                   2
                   2
                   2
                   2
                   2
                   2
                   2
                   2
                   2
                   2
                   2
                   2
                   2
                   2
                   2
                   2
                   2
                   2
                   2
                   2
                   2
                   2
                   2
                   2
                   2
                   2
                   2
                   2
                   2
                   2
                   2
                   2
                   2
                   2
                   2
                   2
                   2
                   2
                   2
                   2
                   2
                   2
                   2
                   2
                   2
                   2
                   2
                   2
                   2
                   2
                   2
                   2
                   2
                   2
                   2
                   2
                   2
                   2
                   2
                   2
                   2
                   2
                   2
                   2
                   2
                   2
                   2
                   2
                   2
                   2
                   2
                   2
                   2
                   2
                   2
                   2
                   2
                   2
                   2
                   2
                   2
                   2
                   2
                   2
                   2
                   2
                   2
                   2
                   2
                   2
                   2
                   2
                   2
                   2
                   2
                   2
                   2
                   2
                   2
                   2
                   2
                   2
                   2
                   2
                   2
                   2
                   2
                   2
                   2
                   2
                   2
                   2
                   2
                   2
                   2
                   2
                   2
                   2
                   2
                   2
                   2
                   2
                   2
                   2
                   2
                   2
                   2
                   2
                   2
                   2
                   2
                   2
                   2
                   2
                   2
                   2
                   2
                   2
                   2
                   2
                   2
                   2
                   2
                   2
                   2
                   2
                   2
                   2
                   2
                   2
                   2
                   2
                   2
                   2
                   2
                   2
                   2
                   2
                   2
                   2
                   2
                   2
                   2
                   2
                   2
                   2
                   2
                   2
                   2
                   2
                   2
                   2
                   2
                   2
                   2
                   2
                   2
                   2
                   2
                   2
                   2
                   2
                   2
                   2
                   2
                   2
                   2
                   2
                   2
                   2
                   2
                   2
                   2
                   2
                   2
                   2
                   2
                   2
                   2
                   2
                   2
                   2
                   2
                   2
                   2
                   2
                   2
                   2
                   2
                   2
                   2
                   2
                   2
                   2
                   2
                   2
                   2
                   2
                   2
                   2
                   2
                   2
                   2
                   2
                   2
                   2
                   2
                   2
                   2
                   2
                   2
                   2
                   2
                   2
                   2
                   2
                   2
                   2
                   2
                   2
                   2
                   2
                   2
                   2
                   2
                   2
                   2
                   2
                   2
                   2
                   2
                   2
                   2
                   2
                   2
                   2
                   2
                   2
                   2
                   2
                   2
                   2
                   2
                   2
                   2
                   2
                   2
                   2
                   2
                   2
                   2
                   2
                   2
                   2
                   2
                   2
                   2
                   2
                   2
                   2
                   2
                   2
                   2
                   2
                   2
                   2
                   2
                   2
                   2
                   2
                   2
                   2
                   2
                   2
                   2
                   2
                   2
                   2
                   2
                   2
                   2
                   2
                   2
                   2
                   2
                   2
                   2
                   2
                   2
                   2
                   2
                   2
                   2
                   2
                   2
                   2
                   2
                   2
                   2
                   2
                   2
                   2
                   2
                   2
                   2
                   2
                   2
                   2
                   2
                   2
                   2
                   2
                   2
                   2
                   2
                   2
                   2
                   2
                   2
                   2
                   2
                   2
                   2
                   2
                   2
                   2
                   2
                   2
                   2
                   2
                   2
                   2
                   2
                   2
                   2
                   2
                   2
                   2
                   2
                   2
                   2
                   2
                   2
                   2
                   2
                   2
                   2
                   2
                   2
                   2
                   2
                   2
                   2
                   2
                   2
                   2
                   2
                   2
                   2
                   2
                   2
                   2
                   2
                   2
                   2
                   2
                   2
                   2
                   2
                   2
                   2
                   2
                   2
                   2
                   2
                   2
                   2
                   2
                   2
                   2
                   2
                   2
                   2
                   2
                   2
                   2
                   2
                   2
                   2
                   2
                   2
                   2
                   2
                   2
                   2
                   2
                   2
                   2
                   2
                   2
                   2
                   2
                   2
                   2
                   2
                   2
                   2
                   2
                   2
                   2
                   2
                   2
                   2
                   2
                   2
                   2
                   2
                   2
                   2
                   2
                   2
                   2
                   2
                   2
                   2
                   2
                   2
                   2
                   2
                   2
                   2
                   2
                   2
                   2
                   2
                   2
                   2
                   2
                   2
                   2
                   2
                   2
                   2
                   2
                   2
                   2
                   2
                   2
                   2
                   2
                   2
                   2
                   2
                   2
                   2
                   2
                   2
                   2
                   2
                   2
                   2
                   2
                   2
                   2
                   2
                   2
                   2
                   2
                   2
                   2
                   2
                   2
                   2
                   2
                   2
                   2
                   2
                   2
                   2
                   2
                   2
                   2
                   2
                   2
                   2
                   2
                   2
                   2
                   2
                   2
                   2
                   2
                   2
                   2
                   2
                   2
                   2
                   2
                   2
                   2
                   2
                   2
                   2
                   2
                   2
                   2
                   2
                   2
                   2
                   2
                   2
                   2
                   2
                   2
                   2
                   2
                   2
                   2
                   2
                   2
                   2
                   2
                   2
                   2
                   2
                   2
                   2
                   2
                   2
                   2
                   2
                   2
                   2
                   2
                   2
                   2
                   2
                   2
                   2
                   2
                   2
                   2
                   2
                   2
                   2
                   2
                   2
                   2
                   2
                   2
                   2
                   2
                   2
                   2
                   2
                   2
                   2
                   2
                   2
                   2
                   2
                   2
                   2
                   2
                   2
                   2
                   2
                   2
                   2
                   2
                   2
                   2
                   2
                   2
                   2
                   2
                   2
                   2
                   2
                   2
                   2
                   2
                   2
                   2
                   2
                   2
                   2
                   2
                   2
                   2
                   2
                   2
                   2
                   2
                   2
                   2
                   2
                   2
                   2
                   2
                   2
                   2
                   2
                   2
                   2
                   2
                   2
                   2
                   2
                   2
                   2
                   2
                   2
                   2
                   2
                   2
                   2
                   2
                   2
                   2
                   2
                   2
                   2
                   2
                   2
                   2
                   2
                   2
                   2
                   2
                   2
                   2
                   2
                   2
                   2
                   2
                   2
                   2
                   2
                   2
                   2
                   2
                   2
                   2
                   2
                   2
                   2
                   2
                   2
                   2
                   2
                   2
                   2
                   2
                   2
                   2
                   2
                   2
                   2
                   2
                   2
                   2
                   2
                   2
                   2
                   2
                   2
                   2
                   2
                   2
                   2
                   2
                   2
                   2
                   2
                   2
                   2
                   2
                   2
                   2
                   2
                   2
                   2
                   2
                   2
                   2
                   2
                   2
                   2
                   2
                   2
                   2
                   2
                   2
                   2
                   2
                   2
                   2
                   2
                   2
                   2
                   2
                   2
                   2
                   2
                   2
                   2
                   2
                   2
                   2
                   2
                   2
                   2
                   2
                   2
                   2
                   2
                   2
                   2
                   2
                   2
                   2
                   2
                   2
                   2
                   2
                   2
                   2
                   2
                   2
                   2
                   2
                   2
                   2
                   2
                   2
                   2
                   2
                   2
                   2
                   2
                   2
                   2
                   2
                   2
                   2
                   2
                   2
                   2
                   2
                   2
                   2
                   2
                   2
                   2
                   2
                   2
                   2
                   2
                   2
                   2
                   2
                   2
                   2
                   2
                   2
                   2
                   2
                   2
                   2
                   2
                   2
                   2
                   2
                   2
                   2
                   2
                   2
                   2
                   2
                   2
                   2
                   2
                   2
                   2
                   2
                   2
                   2
                   2
                   2
                   2
                   2
                   2
                   2
                   2
                   2
                   2
                   2
                   2
                   2
                   2
                   2
                   2
                   2
                   2
                   2
                   2
                   2
                   2
                   2
                   2
                   2
                   2
                   2
                   2
                   2
                   2
                   2
                   2
                   2
                   2
                   2
                   2
                   2
                   2
                   2
                   2
                   2
                   2
                   2
                   2
                   2
                   2
                   2
                   2
                   2
                   2
                   2
                   2
                   2
                   2
                   2
                   2
                   2
                   2
                   2
                   2
                   2
                   2
                   2
                   2
                   2
                   2
                   2
                   2
                   2
                   2
                   2
                   2
                   2
                   2
                   2
                   2
                   2
                   2
                   2
                   2
                   2
                   2
                   2
                   2
                   2
                   2
                   2
                   2
                   2
                   2
                   2
                   2
                   2
                   2
                   2
                   2
                   2
                   2
                   2
                   2
                   2
                   2
                   2
                   2
                   2
                   2
                   2
                   2
                   2
                   2
                   2
                   2
                   2
                   2
                   2
                   2
                   2
                   2
                   2
                   2
                   2
                   2
                   2
                   2
                   2
                   2
                   2
                   2
                   2
                   2
                   2
                   2
                   2
                   2
                   2
                   2
                   2
                   2
                   2
                   2
                   2
                   2
                   2
                   2
                   2
                   2
                   2
                   2
                   2
                   2
                   2
                   2
                   2
                   2
                   2
                   2
                   2
                   2
                   2
                   2
                   2
                   2
                   2
                   2
                   2
                   2
                   2
                   2
                   2
                   2
                   2
                   2
                   2
                   2
                   2
                   2
                   2
                   2
                   2
                   2
                   2
                   2
                   2
                   2
                   2
                   2
                   2
                   2
                   2
                   2
                   2
                   2
                   2
                   2
                   2
                   2
                   2
                   2
                   2
                   2
                   2
                   2
                   2
                   2
                   2
                   2
                   2
                   2
                   2
                   2
                   2
                   2
                   2
                   2
                   2
                   2
                   2
                   2
                   2
                   2
                   2
                   2
                   2
                   2
                   2
                   2
                   2
                   2
                   2
                   2
                   2
                   2
                   2
                   2
                   2
                   2
                   2
                   2
                   2
                   2
                   2
                   2
                   2
                   2
                   2
                   2
                   2
                   2
                   2
                   2
                   2
                   2
                   2
                   2
                   2
                   2
                   2
                   2
                   2
                   2
                   2
                   2
                   2
                   2
                   2
                   2
                   2
                   2
                   2
                   2
                   2
                   2
                   2
                   2
                   2
                   2
                   2
                   2
                   2
                   2
                   2
                   2
                   2
                   2
                   2
                   2
                   2
                   2
                   2
                   2
                   2
                   2
                   2
                   2
                   2
                   2
                   2
                   2
                   2
                   2
                   2
                   2
                   2
                   2
                   2
                   2
                   2
                   2
                   2
                   2
                   2
                   2
                   2
                   2
                   2
                   2
                   2
                   2
                   2
                   2
                   2
                   2
                   2
                   2
                   2
                   2
                   2
                   2
                   2
                   2
                   2
                   2
                   2
                   2
                   2
                   2
                   2
                   2
                   2
                   2
                   2
                   2
                   2
                   2
                   2
                   2
                   2
                   2
                   2
                   2
                   2
                   2
                   2
                   2
                   2
                   2
                   2
                   2
                   2
                   2
                   2
                   2
                   2
                   2
                   2
                   2
                   2
                   2
                   2
                   2
                   2
                   2
                   2
                   2
                   2
                   2
                   2
                   2
                   2
                   2
                   2
                   2
                   2
                   2
                   2
                   2
                   2
                   2
                   2
                   2
                   2
                   2
                   2
                   2
                   2
                   2
                   2
                   2
                   2
                   2
                   2
                   2
                   2
                   2
                   2
                   2
                   2
                   2
                   2
                   2
                   2
                   2
                   2
                   2
                   2
                   2
                   2
                   2
                   2
                   2
                   2
                   2
                   2
                   2
                   2
                   2
                   2
                   2
                   2
                   2
                   2
                   2
                   2
                   2
                   2
                   2
                   2
                   2
                   2
                   2
                   2
                   2
                   2
                   2
                   2
                   2
                   2
                   2
                   2
                   2
                   2
                   2
                   2
                   2
                   2
                   2
                   2
                   2
                   2
                   2
                   2
                   2
                   2
                   2
                   2
                   2
                   2
                   2
                   2
                   2
                   2
                   2
                   2
                   2
                   2
                   2
                   2
                   2
                   2
                   2
                   2
                   2
                   2
                   2
                   2
                   2
                   2
                   2
                   2
                   2
                   2
                   2
                   2
                   2
                   2
                   2
                   2
                   2
                   2
                   2
                   2
                   2
                   2
                   2
                   2
                   2
                   2
                   2
                   2
                   2
                   2
                   2
                   2
                   2
                   2
                   2
                   2
                   2
                   2
                   2
                   2
                   2
                   2
                   2
                   2
                   2
                   2
                   2
                   2
                   2
                   2
                   2
                   2
                   2
                   2
                   2
                   2
                   2
                   2
                   2
                   2
                   2
                   2
                   2
                   2
                   2
                   2
                   2
                   2
                   2
                   2
                   2
                   2
                   2
                   2
                   2
                   2
                   2
                   2
                   2
                   2
                   2
                   2
                   2
                   2
                   2
                   2
                   2
                   2
                   2
                   2
                   2
                   2
                   2
                   2
                   2
  
SCALARS                        node_id  double 1
LOOKUP_TABLE default
                   1
                   2
                   3
                   4
                   5
                   6
                   7
                   8
                   9
                  10
                  11
                  12
                  13
                  14
                  15
                  16
                  17
                  18
                  19
                  20
                  21
                  22
                  23
                  24
                  25
                  26
                  27
                  28
                  29
                  30
                  31
                  32
                  33
                  34
                  35
                  36
                  37
                  38
                  39
                  40
                  41
                  42
                  43
                  44
                  45
                  46
                  47
                  48
                  49
                  50
                  51
                  52
                  53
                  54
                  55
                  56
                  57
                  58
                  59
                  60
                  61
                  62
                  63
                  64
                  65
                  66
                  67
                  68
                  69
                  70
                  71
                  72
                  73
                  74
                  75
                  76
                  77
                  78
                  79
                  80
                  81
                  82
                  83
                  84
                  85
                  86
                  87
                  88
                  89
                  90
                  91
                  92
                  93
                  94
                  95
                  96
                  97
                  98
                  99
                 100
                 101
                 102
                 103
                 104
                 105
                 106
                 107
                 108
                 109
                 110
                 111
                 112
                 113
                 114
                 115
                 116
                 117
                 118
                 119
                 120
                 121
                 122
                 123
                 124
                 125
                 126
                 127
                 128
                 129
                 130
                 131
                 132
                 133
                 134
                 135
                 136
                 137
                 138
                 139
                 140
                 141
                 142
                 143
                 144
                 145
                 146
                 147
                 148
                 149
                 150
                 151
                 152
                 153
                 154
                 155
                 156
                 157
                 158
                 159
                 160
                 161
                 162
                 163
                 164
                 165
                 166
                 167
                 168
                 169
                 170
                 171
                 172
                 173
                 174
                 175
                 176
                 177
                 178
                 179
                 180
                 181
                 182
                 183
                 184
                 185
                 186
                 187
                 188
                 189
                 190
                 191
                 192
                 193
                 194
                 195
                 196
                 197
                 198
                 199
                 200
                 201
                 202
                 203
                 204
                 205
                 206
                 207
                 208
                 209
                 210
                 211
                 212
                 213
                 214
                 215
                 216
                 217
                 218
                 219
                 220
                 221
                 222
                 223
                 224
                 225
                 226
                 227
                 228
                 229
                 230
                 231
                 232
                 233
                 234
                 235
                 236
                 237
                 238
                 239
                 240
                 241
                 242
                 243
                 244
                 245
                 246
                 247
                 248
                 249
                 250
                 251
                 252
                 253
                 254
                 255
                 256
                 257
                 258
                 259
                 260
                 261
                 262
                 263
                 264
                 265
                 266
                 267
                 268
                 269
                 270
                 271
                 272
                 273
                 274
                 275
                 276
                 277
                 278
                 279
                 280
                 281
                 282
                 283
                 284
                 285
                 286
                 287
                 288
                 289
                 290
                 291
                 292
                 293
                 294
                 295
                 296
                 297
                 298
                 299
                 300
                 301
                 302
                 303
                 304
                 305
                 306
                 307
                 308
                 309
                 310
                 311
                 312
                 313
                 314
                 315
                 316
                 317
                 318
                 319
                 320
                 321
                 322
                 323
                 324
                 325
                 326
                 327
                 328
                 329
                 330
                 331
                 332
                 333
                 334
                 335
                 336
                 337
                 338
                 339
                 340
                 341
                 342
                 343
                 344
                 345
                 346
                 347
                 348
                 349
                 350
                 351
                 352
                 353
                 354
                 355
                 356
                 357
                 358
                 359
                 360
                 361
                 362
                 363
                 364
                 365
                 366
                 367
                 368
                 369
                 370
                 371
                 372
                 373
                 374
                 375
                 376
                 377
                 378
                 379
                 380
                 381
                 382
                 383
                 384
                 385
                 386
                 387
                 388
                 389
                 390
                 391
                 392
                 393
                 394
                 395
                 396
                 397
                 398
                 399
                 400
                 401
                 402
                 403
                 404
                 405
                 406
                 407
                 408
                 409
                 410
                 411
                 412
                 413
                 414
                 415
                 416
                 417
                 418
                 419
                 420
                 421
                 422
                 423
                 424
                 425
                 426
                 427
                 428
                 429
                 430
                 431
                 432
                 433
                 434
                 435
                 436
                 437
                 438
                 439
                 440
                 441
                 442
                 443
                 444
                 445
                 446
                 447
                 448
                 449
                 450
                 451
                 452
                 453
                 454
                 455
                 456
                 457
                 458
                 459
                 460
                 461
                 462
                 463
                 464
                 465
                 466
                 467
                 468
                 469
                 470
                 471
                 472
                 473
                 474
                 475
                 476
                 477
                 478
                 479
                 480
                 481
                 482
                 483
                 484
                 485
                 486
                 487
                 488
                 489
                 490
                 491
                 492
                 493
                 494
                 495
                 496
                 497
                 498
                 499
                 500
                 501
                 502
                 503
                 504
                 505
                 506
                 507
                 508
                 509
                 510
                 511
                 512
                 513
                 514
                 515
                 516
                 517
                 518
                 519
                 520
                 521
                 522
                 523
                 524
                 525
                 526
                 527
                 528
                 529
                 530
                 531
                 532
                 533
                 534
                 535
                 536
                 537
                 538
                 539
                 540
                 541
                 542
                 543
                 544
                 545
                 546
                 547
                 548
                 549
                 550
                 551
                 552
                 553
                 554
                 555
                 556
                 557
                 558
                 559
                 560
                 561
                 562
                 563
                 564
                 565
                 566
                 567
                 568
                 569
                 570
                 571
                 572
                 573
                 574
                 575
                 576
                 577
                 578
                 579
                 580
                 581
                 582
                 583
                 584
                 585
                 586
                 587
                 588
                 589
                 590
                 591
                 592
                 593
                 594
                 595
                 596
                 597
                 598
                 599
                 600
                 601
                 602
                 603
                 604
                 605
                 606
                 607
                 608
                 609
                 610
                 611
                 612
                 613
                 614
                 615
                 616
                 617
                 618
                 619
                 620
                 621
                 622
                 623
                 624
                 625
                 626
                 627
                 628
                 629
                 630
                 631
                 632
                 633
                 634
                 635
                 636
                 637
                 638
                 639
                 640
                 641
                 642
                 643
                 644
                 645
                 646
                 647
                 648
                 649
                 650
                 651
                 652
                 653
                 654
                 655
                 656
                 657
                 658
                 659
                 660
                 661
                 662
                 663
                 664
                 665
                 666
                 667
                 668
                 669
                 670
                 671
                 672
                 673
                 674
                 675
                 676
                 677
                 678
                 679
                 680
                 681
                 682
                 683
                 684
                 685
                 686
                 687
                 688
                 689
                 690
                 691
                 692
                 693
                 694
                 695
                 696
                 697
                 698
                 699
                 700
                 701
                 702
                 703
                 704
                 705
                 706
                 707
                 708
                 709
                 710
                 711
                 712
                 713
                 714
                 715
                 716
                 717
                 718
                 719
                 720
                 721
                 722
                 723
                 724
                 725
                 726
                 727
                 728
                 729
                 730
                 731
                 732
                 733
                 734
                 735
                 736
                 737
                 738
                 739
                 740
                 741
                 742
                 743
                 744
                 745
                 746
                 747
                 748
                 749
                 750
                 751
                 752
                 753
                 754
                 755
                 756
                 757
                 758
                 759
                 760
                 761
                 762
                 763
                 764
                 765
                 766
                 767
                 768
                 769
                 770
                 771
                 772
                 773
                 774
                 775
                 776
                 777
                 778
                 779
                 780
                 781
                 782
                 783
                 784
                 785
                 786
                 787
                 788
                 789
                 790
                 791
                 792
                 793
                 794
                 795
                 796
                 797
                 798
                 799
                 800
                 801
                 802
                 803
                 804
                 805
                 806
                 807
                 808
                 809
                 810
                 811
                 812
                 813
                 814
                 815
                 816
                 817
                 818
                 819
                 820
                 821
                 822
                 823
                 824
                 825
                 826
                 827
                 828
                 829
                 830
                 831
                 832
                 833
                 834
                 835
                 836
                 837
                 838
                 839
                 840
                 841
                 842
                 843
                 844
                 845
                 846
                 847
                 848
                 849
                 850
                 851
                 852
                 853
                 854
                 855
                 856
                 857
                 858
                 859
                 860
                 861
                 862
                 863
                 864
                 865
                 866
                 867
                 868
                 869
                 870
                 871
                 872
                 873
                 874
                 875
                 876
                 877
                 878
                 879
                 880
                 881
                 882
                 883
                 884
                 885
                 886
                 887
                 888
                 889
                 890
                 891
                 892
                 893
                 894
                 895
                 896
                 897
                 898
                 899
                 900
                 901
                 902
                 903
                 904
                 905
                 906
                 907
                 908
                 909
                 910
                 911
                 912
                 913
                 914
                 915
                 916
                 917
                 918
                 919
                 920
                 921
                 922
                 923
                 924
                 925
                 926
                 927
                 928
                 929
                 930
                 931
                 932
                 933
                 934
                 935
                 936
                 937
                 938
                 939
                 940
                 941
                 942
                 943
                 944
                 945
                 946
                 947
                 948
                 949
                 950
                 951
                 952
                 953
                 954
                 955
                 956
                 957
                 958
                 959
                 960
                 961
                 962
                 963
                 964
                 965
                 966
                 967
                 968
                 969
                 970
                 971
                 972
                 973
                 974
                 975
                 976
                 977
                 978
                 979
                 980
                 981
                 982
                 983
                 984
                 985
                 986
                 987
                 988
                 989
                 990
                 991
                 992
                 993
                 994
                 995
                 996
                 997
                 998
                 999
                1000
                1001
                1002
                1003
                1004
                1005
                1006
                1007
                1008
                1009
                1010
                1011
                1012
                1013
                1014
                1015
                1016
                1017
                1018
                1019
                1020
                1021
                1022
                1023
                1024
                1025
                1026
                1027
                1028
                1029
                1030
                1031
                1032
                1033
                1034
                1035
                1036
                1037
                1038
                1039
                1040
                1041
                1042
                1043
                1044
                1045
                1046
                1047
                1048
                1049
                1050
                1051
                1052
                1053
                1054
                1055
                1056
                1057
                1058
                1059
                1060
                1061
                1062
                1063
                1064
                1065
                1066
                1067
                1068
                1069
                1070
                1071
                1072
                1073
                1074
                1075
                1076
                1077
                1078
                1079
                1080
                1081
                1082
                1083
                1084
                1085
                1086
                1087
                1088
                1089
                1090
                1091
                1092
                1093
                1094
                1095
                1096
                1097
                1098
                1099
                1100
                1101
                1102
                1103
                1104
                1105
                1106
                1107
                1108
                1109
                1110
                1111
                1112
                1113
                1114
                1115
                1116
                1117
                1118
                1119
                1120
                1121
                1122
                1123
                1124
                1125
                1126
                1127
                1128
                1129
                1130
                1131
                1132
                1133
                1134
                1135
                1136
                1137
                1138
                1139
                1140
                1141
                1142
                1143
                1144
                1145
                1146
                1147
                1148
                1149
                1150
                1151
                1152
                1153
                1154
                1155
                1156
                1157
                1158
                1159
                1160
                1161
                1162
                1163
                1164
                1165
                1166
                1167
                1168
                1169
                1170
                1171
                1172
                1173
                1174
                1175
                1176
                1177
                1178
                1179
                1180
                1181
                1182
                1183
                1184
                1185
                1186
                1187
                1188
                1189
                1190
                1191
                1192
                1193
                1194
                1195
                1196
                1197
                1198
                1199
                1200
                1201
                1202
                1203
                1204
                1205
                1206
                1207
                1208
                1209
                1210
                1211
                1212
                1213
                1214
                1215
                1216
                1217
                1218
                1219
                1220
                1221
                1222
                1223
                1224
                1225
                1226
                1227
                1228
                1229
                1230
                1231
                1232
                1233
                1234
                1235
                1236
                1237
                1238
                1239
                1240
                1241
                1242
                1243
                1244
                1245
                1246
                1247
                1248
                1249
                1250
                1251
                1252
                1253
                1254
                1255
                1256
                1257
                1258
                1259
                1260
                1261
                1262
                1263
                1264
                1265
                1266
                1267
                1268
                1269
                1270
                1271
                1272
                1273
                1274
                1275
                1276
                1277
                1278
                1279
                1280
                1281
                1282
                1283
                1284
                1285
                1286
                1287
                1288
                1289
                1290
                1291
                1292
                1293
                1294
                1295
                1296
                1297
                1298
                1299
                1300
                1301
                1302
                1303
                1304
                1305
                1306
                1307
                1308
                1309
                1310
                1311
                1312
                1313
                1314
                1315
                1316
                1317
                1318
                1319
                1320
                1321
                1322
                1323
                1324
                1325
                1326
                1327
                1328
                1329
                1330
                1331
                1332
                1333
                1334
                1335
                1336
                1337
                1338
                1339
                1340
                1341
                1342
                1343
                1344
                1345
                1346
                1347
                1348
                1349
                1350
                1351
                1352
                1353
                1354
                1355
                1356
                1357
                1358
                1359
                1360
                1361
                1362
                1363
                1364
                1365
                1366
                1367
                1368
                1369
                1370
                1371
                1372
                1373
                1374
                1375
                1376
                1377
                1378
                1379
                1380
                1381
                1382
                1383
                1384
                1385
                1386
                1387
                1388
                1389
                1390
                1391
                1392
                1393
                1394
                1395
                1396
                1397
                1398
                1399
                1400
                1401
                1402
                1403
                1404
                1405
                1406
                1407
                1408
                1409
                1410
                1411
                1412
                1413
                1414
                1415
                1416
                1417
                1418
                1419
                1420
                1421
                1422
                1423
                1424
                1425
                1426
                1427
                1428
                1429
                1430
                1431
                1432
                1433
                1434
                1435
                1436
                1437
                1438
                1439
                1440
                1441
                1442
                1443
                1444
                1445
                1446
                1447
                1448
                1449
                1450
                1451
                1452
                1453
                1454
                1455
                1456
                1457
                1458
                1459
                1460
                1461
                1462
                1463
                1464
                1465
                1466
                1467
                1468
                1469
                1470
                1471
                1472
                1473
                1474
                1475
                1476
                1477
                1478
                1479
                1480
                1481
                1482
                1483
                1484
                1485
                1486
                1487
                1488
                1489
                1490
                1491
                1492
                1493
                1494
                1495
                1496
                1497
                1498
                1499
                1500
                1501
                1502
                1503
                1504
                1505
                1506
                1507
                1508
                1509
                1510
                1511
                1512
                1513
                1514
                1515
                1516
                1517
                1518
                1519
                1520
                1521
                1522
                1523
                1524
                1525
                1526
                1527
                1528
                1529
                1530
                1531
                1532
                1533
                1534
                1535
                1536
                1537
                1538
                1539
                1540
                1541
                1542
                1543
                1544
                1545
                1546
                1547
                1548
                1549
                1550
                1551
                1552
                1553
                1554
                1555
                1556
                1557
                1558
                1559
                1560
                1561
                1562
                1563
                1564
                1565
                1566
                1567
                1568
                1569
                1570
                1571
                1572
                1573
                1574
                1575
                1576
                1577
                1578
                1579
                1580
                1581
                1582
                1583
                1584
                1585
                1586
                1587
                1588
                1589
                1590
                1591
                1592
                1593
                1594
                1595
                1596
                1597
                1598
                1599
                1600
                1601
                1602
                1603
                1604
                1605
                1606
                1607
                1608
                1609
                1610
                1611
                1612
                1613
                1614
                1615
                1616
                1617
                1618
                1619
                1620
                1621
                1622
                1623
                1624
                1625
                1626
                1627
                1628
                1629
                1630
                1631
                1632
                1633
                1634
                1635
                1636
                1637
                1638
                1639
                1640
                1641
                1642
                1643
                1644
                1645
                1646
                1647
                1648
                1649
                1650
                1651
                1652
                1653
                1654
                1655
                1656
                1657
                1658
                1659
                1660
                1661
                1662
                1663
                1664
                1665
                1666
                1667
                1668
                1669
                1670
                1671
                1672
                1673
                1674
                1675
                1676
                1677
                1678
                1679
                1680
                1681
                1682
                1683
                1684
                1685
                1686
                1687
                1688
                1689
                1690
                1691
                1692
                1693
                1694
                1695
                1696
                1697
                1698
                1699
                1700
                1701
                1702
                1703
                1704
                1705
                1706
                1707
                1708
                1709
                1710
                1711
                1712
                1713
                1714
                1715
                1716
                1717
                1718
                1719
                1720
                1721
                1722
                1723
                1724
                1725
                1726
                1727
                1728
                1729
                1730
                1731
                1732
                1733
                1734
                1735
                1736
                1737
                1738
                1739
                1740
                1741
                1742
                1743
                1744
                1745
                1746
                1747
                1748
                1749
                1750
                1751
                1752
                1753
                1754
                1755
                1756
                1757
                1758
                1759
                1760
                1761
                1762
                1763
                1764
                1765
                1766
                1767
                1768
                1769
                1770
                1771
                1772
                1773
                1774
                1775
                1776
                1777
                1778
                1779
                1780
                1781
                1782
                1783
                1784
                1785
                1786
                1787
                1788
                1789
                1790
                1791
                1792
                1793
                1794
                1795
                1796
                1797
                1798
                1799
                1800
                1801
                1802
                1803
                1804
                1805
                1806
                1807
                1808
                1809
                1810
                1811
                1812
                1813
                1814
                1815
                1816
                1817
                1818
                1819
                1820
                1821
                1822
                1823
                1824
                1825
                1826
                1827
                1828
                1829
                1830
                1831
                1832
                1833
                1834
                1835
                1836
                1837
                1838
                1839
                1840
                1841
                1842
                1843
                1844
                1845
                1846
                1847
                1848
                1849
                1850
                1851
                1852
                1853
                1854
                1855
                1856
                1857
                1858
                1859
                1860
                1861
                1862
                1863
                1864
                1865
                1866
                1867
                1868
                1869
                1870
                1871
                1872
                1873
                1874
                1875
                1876
                1877
                1878
                1879
                1880
                1881
                1882
                1883
                1884
                1885
                1886
                1887
                1888
                1889
                1890
                1891
                1892
                1893
                1894
                1895
                1896
                1897
                1898
                1899
                1900
                1901
                1902
                1903
                1904
                1905
                1906
                1907
                1908
                1909
                1910
                1911
                1912
                1913
                1914
                1915
                1916
                1917
                1918
                1919
                1920
                1921
                1922
                1923
                1924
                1925
                1926
                1927
                1928
                1929
                1930
                1931
                1932
                1933
                1934
                1935
                1936
                1937
                1938
                1939
                1940
                1941
                1942
                1943
                1944
                1945
                1946
                1947
                1948
                1949
                1950
  
SCALARS                         bodyid  double 1
LOOKUP_TABLE default
                   1
                   1
                   1
                   1
                   1
                   1
                   1
                   1
                   1
                   1
                   1
                   1
                   1
                   1
                   1
                   1
                   1
                   1
                   1
                   1
                   1
                   1
                   1
                   1
                   1
                   1
                   1
                   1
                   1
                   1
                   1
                   1
                   1
                   1
                   1
                   1
                   1
                   1
                   1
                   1
                   1
                   1
                   1
                   1
                   1
                   1
                   1
                   1
                   1
                   1
                   1
                   1
                   1
                   1
                   1
                   1
                   1
                   1
                   1
                   1
                   1
                   1
                   1
                   1
                   1
                   1
                   1
                   1
                   1
                   1
                   1
                   1
                   1
                   1
                   1
                   1
                   1
                   1
                   1
                   1
                   1
                   1
                   1
                   1
                   1
                   1
                   1
                   1
                   1
                   1
                   1
                   1
                   1
                   1
                   1
                   1
                   1
                   1
                   1
                   1
                   1
                   1
                   1
                   1
                   1
                   1
                   1
                   1
                   1
                   1
                   1
                   1
                   1
                   1
                   1
                   1
                   1
                   1
                   1
                   1
                   1
                   1
                   1
                   1
                   1
                   1
                   1
                   1
                   1
                   1
                   1
                   1
                   1
                   1
                   1
                   1
                   1
                   1
                   1
                   1
                   1
                   1
                   1
                   1
                   1
                   1
                   1
                   1
                   1
                   1
                   1
                   1
                   1
                   1
                   1
                   1
                   1
                   1
                   1
                   1
                   1
                   1
                   1
                   1
                   1
                   1
                   1
                   1
                   1
                   1
                   1
                   1
                   1
                   1
                   1
                   1
                   1
                   1
                   1
                   1
                   1
                   1
                   1
                   1
                   1
                   1
                   1
                   1
                   1
                   1
                   1
                   1
                   1
                   1
                   1
                   1
                   1
                   1
                   1
                   1
                   1
                   1
                   1
                   1
                   1
                   1
                   1
                   1
                   1
                   1
                   1
                   1
                   1
                   1
                   1
                   1
                   1
                   1
                   1
                   1
                   1
                   1
                   1
                   1
                   1
                   1
                   1
                   1
                   1
                   1
                   1
                   1
                   1
                   1
                   1
                   1
                   1
                   1
                   1
                   1
                   1
                   1
                   1
                   1
                   1
                   1
                   1
                   1
                   1
                   1
                   1
                   1
                   1
                   1
                   1
                   1
                   1
                   1
                   1
                   1
                   1
                   1
                   1
                   1
                   1
                   1
                   1
                   1
                   1
                   1
                   1
                   1
                   1
                   1
                   1
                   1
                   1
                   1
                   1
                   1
                   1
                   1
                   1
                   1
                   1
                   1
                   1
                   1
                   1
                   1
                   1
                   1
                   1
                   1
                   1
                   1
                   1
                   1
                   1
                   1
                   1
                   1
                   1
                   1
                   1
                   1
                   1
                   1
                   1
                   1
                   1
                   1
                   1
                   1
                   1
                   1
                   1
                   1
                   1
                   1
                   1
                   1
                   1
                   1
                   1
                   1
                   1
                   1
                   1
                   1
                   1
                   1
                   1
                   1
                   1
                   1
                   1
                   1
                   1
                   1
                   1
                   1
                   1
                   1
                   1
                   1
                   1
                   1
                   1
                   1
                   1
                   1
                   1
                   1
                   1
                   1
                   1
                   1
                   1
                   1
                   1
                   1
                   1
                   1
                   1
                   1
                   1
                   1
                   1
                   1
                   1
                   1
                   1
                   1
                   1
                   1
                   1
                   1
                   1
                   1
                   1
                   1
                   1
                   1
                   1
                   1
                   1
                   1
                   1
                   1
                   1
                   1
                   1
                   1
                   1
                   1
                   1
                   1
                   1
                   1
                   1
                   1
                   1
                   1
                   1
                   1
                   1
                   1
                   1
                   1
                   1
                   1
                   1
                   1
                   1
                   1
                   1
                   1
                   1
                   1
                   1
                   1
                   1
                   1
                   1
                   1
                   1
                   1
                   1
                   1
                   1
                   1
                   1
                   1
                   1
                   1
                   1
                   1
                   1
                   1
                   1
                   1
                   1
                   1
                   1
                   1
                   1
                   1
                   1
                   1
                   1
                   1
                   1
                   1
                   1
                   1
                   1
                   1
                   1
                   1
                   1
                   1
                   1
                   1
                   1
                   1
                   1
                   1
                   1
                   1
                   1
                   1
                   1
                   1
                   1
                   1
                   1
                   1
                   1
                   1
                   1
                   1
                   1
                   1
                   1
                   1
                   1
                   1
                   1
                   1
                   1
                   1
                   1
                   1
                   1
                   1
                   1
                   1
                   1
                   1
                   1
                   1
                   1
                   1
                   1
                   1
                   1
                   1
                   1
                   1
                   1
                   1
                   1
                   1
                   1
                   1
                   1
                   1
                   1
                   1
                   1
                   1
                   1
                   1
                   1
                   1
                   1
                   1
                   1
                   1
                   1
                   1
                   1
                   1
                   1
                   1
                   1
                   1
                   1
                   1
                   1
                   1
                   1
                   1
                   1
                   1
                   1
                   1
                   1
                   1
                   1
                   1
                   1
                   1
                   1
                   1
                   1
                   1
                   1
                   1
                   1
                   1
                   1
                   1
                   1
                   1
                   1
                   1
                   1
                   1
                   1
                   1
                   1
                   1
                   1
                   1
                   1
                   1
                   1
                   1
                   1
                   1
                   1
                   1
                   1
                   1
                   1
                   1
                   1
                   1
                   1
                   1
                   1
                   1
                   1
                   1
                   1
                   1
                   1
                   1
                   1
                   1
                   1
                   1
                   1
                   1
                   1
                   1
                   1
                   1
                   1
                   1
                   1
                   1
                   1
                   1
                   1
                   1
                   1
                   1
                   1
                   1
                   1
                   1
                   1
                   1
                   1
                   1
                   1
                   1
                   1
                   1
                   1
                   1
                   1
                   1
                   1
                   1
                   1
                   1
                   1
                   1
                   1
                   1
                   1
                   1
                   1
                   1
                   1
                   1
                   1
                   1
                   1
                   1
                   1
                   1
                   1
                   1
                   1
                   1
                   1
                   1
                   1
                   1
                   1
                   1
                   1
                   1
                   1
                   1
                   1
                   1
                   1
                   1
                   1
                   1
                   1
                   1
                   1
                   1
                   1
                   1
                   1
                   1
                   1
                   1
                   1
                   1
                   1
                   1
                   1
                   1
                   1
                   1
                   1
                   1
                   1
                   1
                   1
                   1
                   1
                   1
                   1
                   1
                   1
                   1
                   1
                   1
                   1
                   1
                   1
                   1
                   1
                   1
                   1
                   1
                   1
                   1
                   1
                   1
                   1
                   1
                   1
                   1
                   1
                   1
                   1
                   1
                   1
                   1
                   1
                   1
                   1
                   1
                   1
                   1
                   1
                   1
                   1
                   1
                   1
                   1
                   1
                   1
                   1
                   1
                   1
                   1
                   1
                   1
                   1
                   1
                   1
                   1
                   1
                   1
                   1
                   1
                   1
                   1
                   1
                   1
                   1
                   1
                   1
                   1
                   1
                   1
                   1
                   1
                   1
                   1
                   1
                   1
                   1
                   1
                   1
                   1
                   1
                   1
                   1
                   1
                   1
                   1
                   1
                   1
                   1
                   1
                   1
                   1
                   1
                   1
                   1
                   1
                   1
                   1
                   1
                   1
                   1
                   1
                   1
                   1
                   1
                   1
                   1
                   1
                   1
                   1
                   1
                   1
                   1
                   1
                   1
                   1
                   1
                   1
                   1
                   1
                   1
                   1
                   1
                   1
                   1
                   1
                   1
                   1
                   1
                   1
                   1
                   1
                   1
                   1
                   1
                   1
                   1
                   1
                   1
                   1
                   1
                   1
                   1
                   1
                   1
                   1
                   1
                   1
                   1
                   1
                   1
                   1
                   1
                   1
                   1
                   1
                   1
                   1
                   1
                   1
                   1
                   1
                   1
                   1
                   1
                   1
                   1
                   1
                   1
                   1
                   1
                   1
                   1
                   1
                   1
                   1
                   1
                   1
                   1
                   1
                   1
                   1
                   1
                   1
                   1
                   1
                   1
                   1
                   1
                   1
                   1
                   1
                   1
                   1
                   1
                   1
                   1
                   1
                   1
                   1
                   1
                   1
                   1
                   1
                   1
                   1
                   1
                   1
                   1
                   1
                   1
                   1
                   1
                   1
                   1
                   1
                   1
                   1
                   1
                   1
                   1
                   1
                   1
                   1
                   1
                   1
                   1
                   1
                   1
                   1
                   1
                   1
                   1
                   1
                   1
                   1
                   1
                   1
                   1
                   1
                   1
                   1
                   1
                   1
                   1
                   1
                   1
                   1
                   1
                   1
                   1
                   1
                   1
                   1
                   1
                   1
                   1
                   1
                   1
                   1
                   1
                   1
                   1
                   1
                   1
                   1
                   1
                   1
                   1
                   1
                   1
                   1
                   1
                   1
                   1
                   1
                   1
                   1
                   1
                   1
                   1
                   1
                   1
                   1
                   1
                   1
                   1
                   1
                   1
                   1
                   1
                   1
                   1
                   1
                   1
                   1
                   1
                   1
                   1
                   1
                   1
                   1
                   1
                   1
                   1
                   1
                   1
                   1
                   1
                   1
                   1
                   1
                   1
                   1
                   1
                   1
                   1
                   1
                   1
                   1
                   1
                   1
                   1
                   1
                   1
                   1
                   1
                   1
                   1
                   1
                   1
                   1
                   1
                   1
                   1
                   1
                   1
                   1
                   1
                   1
                   1
                   1
                   1
                   1
                   1
                   1
                   1
                   1
                   1
                   1
                   1
                   1
                   1
                   1
                   1
                   1
                   1
                   1
                   1
                   1
                   1
                   1
                   1
                   1
                   1
                   1
                   1
                   1
                   1
                   1
                   1
                   1
                   1
                   1
                   1
                   1
                   1
                   1
                   1
                   1
                   1
                   1
                   1
                   1
                   1
                   1
                   1
                   1
                   1
                   1
                   1
                   1
                   1
                   1
                   1
                   1
                   1
                   1
                   1
                   1
                   1
                   1
                   1
                   1
                   1
                   1
                   1
                   1
                   1
                   1
                   1
                   1
                   1
                   1
                   1
                   1
                   1
                   1
                   1
                   1
                   1
                   1
                   1
                   1
                   1
                   1
                   1
                   1
                   1
                   1
                   1
                   1
                   1
                   1
                   1
                   1
                   1
                   1
                   1
                   1
                   1
                   1
                   1
                   1
                   1
                   1
                   1
                   1
                   1
                   1
                   1
                   1
                   1
                   1
                   1
                   1
                   1
                   1
                   1
                   1
                   1
                   1
                   1
                   1
                   1
                   1
                   1
                   1
                   1
                   1
                   1
                   1
                   1
                   1
                   1
                   1
                   1
                   1
                   1
                   1
                   1
                   1
                   1
                   1
                   1
                   1
                   1
                   1
                   1
                   1
                   1
                   1
                   1
                   1
                   1
                   1
                   1
                   1
                   1
                   1
                   1
                   1
                   1
                   1
                   1
                   1
                   1
                   1
                   1
                   1
                   1
                   1
                   1
                   1
                   1
                   1
                   1
                   1
                   1
                   1
                   1
                   1
                   1
                   1
                   1
                   1
                   1
                   1
                   1
                   1
                   1
                   1
                   1
                   1
                   1
                   1
                   1
                   1
                   1
                   1
                   1
                   1
                   1
                   1
                   1
                   1
                   1
                   1
                   1
                   1
                   1
                   1
                   1
                   1
                   1
                   1
                   1
                   1
                   1
                   1
                   1
                   1
                   1
                   1
                   1
                   1
                   1
                   1
                   1
                   1
                   1
                   1
                   1
                   1
                   1
                   1
                   1
                   1
                   1
                   1
                   1
                   1
                   1
                   1
                   1
                   1
                   1
                   1
                   1
                   1
                   1
                   1
                   1
                   1
                   1
                   1
                   1
                   1
                   1
                   1
                   1
                   1
                   1
                   1
                   1
                   1
                   1
                   1
                   1
                   1
                   1
                   1
                   1
                   1
                   1
                   1
                   1
                   1
                   1
                   1
                   1
                   1
                   1
                   1
                   1
                   1
                   1
                   1
                   1
                   1
                   1
                   1
                   1
                   1
                   1
                   1
                   1
                   1
                   1
                   1
                   1
                   1
                   1
                   1
                   1
                   1
                   1
                   1
                   1
                   1
                   1
                   1
                   1
                   1
                   1
                   1
                   1
                   1
                   1
                   1
                   1
                   1
                   1
                   1
                   1
                   1
                   1
                   1
                   1
                   1
                   1
                   1
                   1
                   1
                   1
                   1
                   1
                   1
                   1
                   1
                   1
                   1
                   1
                   1
                   1
                   1
                   1
                   1
                   1
                   1
                   1
                   1
                   1
                   1
                   1
                   1
                   1
                   1
                   1
                   1
                   1
                   1
                   1
                   1
                   1
                   1
                   1
                   1
                   1
                   1
                   1
                   1
                   1
                   1
                   1
                   1
                   1
                   1
                   1
                   1
                   1
                   1
                   1
                   1
                   1
                   1
                   1
                   1
                   1
                   1
                   1
                   1
                   1
                   1
                   1
                   1
                   1
                   1
                   1
                   1
                   1
                   1
                   1
                   1
                   1
                   1
                   1
                   1
                   1
                   1
                   1
                   1
                   1
                   1
                   1
                   1
                   1
                   1
                   1
                   1
                   1
                   1
                   1
                   1
                   1
                   1
                   1
                   1
                   1
                   1
                   1
                   1
                   1
                   1
                   1
                   1
                   1
                   1
                   1
                   1
                   1
                   1
                   1
                   1
                   1
                   1
                   1
                   1
                   1
                   1
                   1
                   1
                   1
                   1
                   1
                   1
                   1
                   1
                   1
                   1
                   1
                   1
                   1
                   1
                   1
                   1
                   1
                   1
                   1
                   1
                   1
                   1
                   1
                   1
                   1
                   1
                   1
                   1
                   1
                   1
                   1
                   1
                   1
                   1
                   1
                   1
                   1
                   1
                   1
                   1
                   1
                   1
                   1
                   1
                   1
                   1
                   1
                   1
                   1
                   1
                   1
                   1
                   1
                   1
                   1
                   1
                   1
                   1
                   1
                   1
                   1
                   1
                   1
                   1
                   1
                   1
                   1
                   1
                   1
                   1
                   1
                   1
                   1
                   1
                   1
                   1
                   1
                   1
                   1
                   1
                   1
                   1
                   1
                   1
                   1
                   1
                   1
                   1
                   1
                   1
                   1
                   1
                   1
                   1
                   1
                   1
                   1
                   1
                   1
                   1
                   1
                   1
                   1
                   1
                   1
                   1
                   1
                   1
                   1
                   1
                   1
                   1
                   1
                   1
                   1
                   1
                   1
                   1
                   1
                   1
                   1
                   1
                   1
                   1
                   1
                   1
                   1
                   1
                   1
                   1
                   1
                   1
                   1
                   1
                   1
                   1
                   1
                   1
                   1
                   1
                   1
                   1
                   1
                   1
                   1
                   1
                   1
                   1
                   1
                   1
                   1
                   1
                   1
                   1
                   1
                   1
                   1
                   1
                   1
                   1
                   1
                   1
                   1
                   1
                   1
                   1
                   1
                   1
                   1
                   1
                   1
                   1
                   1
                   1
                   1
                   1
                   1
                   1
                   1
                   1
                   1
                   1
                   1
                   1
                   1
                   1
                   1
                   1
                   1
                   1
                   1
                   1
                   1
                   1
                   1
                   1
                   1
                   1
                   1
                   1
                   1
                   1
                   1
                   1
                   1
                   1
                   1
                   1
                   1
                   1
                   1
                   1
                   1
                   1
                   1
                   1
                   1
                   1
                   1
                   1
                   1
                   1
                   1
                   1
                   1
                   1
                   1
                   1
                   1
                   1
                   1
                   1
                   1
                   1
                   1
                   1
                   1
                   1
                   1
                   1
                   1
                   1
                   1
                   1
                   1
                   1
                   1
                   1
                   1
                   1
                   1
                   1
                   1
                   1
                   1
                   1
                   1
                   1
                   1
                   1
                   1
                   1
                   1
                   1
                   1
                   1
                   1
                   1
                   1
                   1
                   1
                   1
                   1
                   1
                   1
                   1
                   1
                   1
                   1
                   1
                   1
                   1
                   1
                   1
                   1
                   1
                   1
                   1
                   1
                   1
                   1
                   1
                   1
                   1
                   1
                   1
                   1
                   1
                   1
                   1
                   1
                   1
                   1
                   1
                   1
                   1
                   1
                   1
                   1
                   1
                   1
                   1
                   1
                   1
                   1
                   1
                   1
                   1
                   1
                   1
                   1
                   1
                   1
                   1
                   1
                   1
                   1
                   1
                   1
                   1
                   1
                   1
                   1
                   1
                   1
                   1
                   1
                   1
                   1
                   1
                   1
                   1
                   1
                   1
                   1
                   1
                   1
                   1
                   1
                   1
                   1
                   1
                   1
                   1
                   1
                   1
                   1
                   1
                   1
                   1
                   1
                   1
                   1
                   1
                   1
                   1
                   1
                   1
                   1
                   1
                   1
                   1
                   1
                   1
                   1
                   1
                   1
                   1
                   1
                   1
                   1
                   1
                   1
                   1
                   1
                   1
                   1
                   1
                   1
                   1
                   1
                   1
                   1
                   1
                   1
                   1
                   1
                   1
                   1
                   1
                   1
                   1
                   1
                   1
                   1
                   1
                   1
                   1
                   1
                   1
                   1
                   1
                   1
                   1
                   1
                   1
                   1
                   1
                   1
                   1
                   1
                   1
                   1
                   1
                   1
                   1
                   1
                   1
                   1
                   1
                   1
                   1
                   1
                   1
                   1
                   1
                   1
                   1
                   1
                   1
                   1
                   1
                   1
                   1
                   1
                   1
                   1
                   1
                   1
                   1
                   1
                   1
                   1
                   1
                   1
                   1
                   1
                   1
                   1
                   1
                   1
                   1
  
SCALARS                  material_type  double 1
LOOKUP_TABLE default
                   2
                   2
                   2
                   2
                   2
                   2
                   2
                   2
                   2
                   2
                   2
                   2
                   2
                   2
                   2
                   2
                   2
                   2
                   2
                   2
                   2
                   2
                   2
                   2
                   2
                   2
                   2
                   2
                   2
                   2
                   2
                   2
                   2
                   2
                   2
                   2
                   2
                   2
                   2
                   2
                   2
                   2
                   2
                   2
                   2
                   2
                   2
                   2
                   2
                   2
                   2
                   2
                   2
                   2
                   2
                   2
                   2
                   2
                   2
                   2
                   2
                   2
                   2
                   2
                   2
                   2
                   2
                   2
                   2
                   2
                   2
                   2
                   2
                   2
                   2
                   2
                   2
                   2
                   2
                   2
                   2
                   2
                   2
                   2
                   2
                   2
                   2
                   2
                   2
                   2
                   2
                   2
                   2
                   2
                   2
                   2
                   2
                   2
                   2
                   2
                   2
                   2
                   2
                   2
                   2
                   2
                   2
                   2
                   2
                   2
                   2
                   2
                   2
                   2
                   2
                   2
                   2
                   2
                   2
                   2
                   2
                   2
                   2
                   2
                   2
                   2
                   2
                   2
                   2
                   2
                   2
                   2
                   2
                   2
                   2
                   2
                   2
                   2
                   2
                   2
                   2
                   2
                   2
                   2
                   2
                   2
                   2
                   2
                   2
                   2
                   2
                   2
                   2
                   2
                   2
                   2
                   2
                   2
                   2
                   2
                   2
                   2
                   2
                   2
                   2
                   2
                   2
                   2
                   2
                   2
                   2
                   2
                   2
                   2
                   2
                   2
                   2
                   2
                   2
                   2
                   2
                   2
                   2
                   2
                   2
                   2
                   2
                   2
                   2
                   2
                   2
                   2
                   2
                   2
                   2
                   2
                   2
                   2
                   2
                   2
                   2
                   2
                   2
                   2
                   2
                   2
                   2
                   2
                   2
                   2
                   2
                   2
                   2
                   2
                   2
                   2
                   2
                   2
                   2
                   2
                   2
                   2
                   2
                   2
                   2
                   2
                   2
                   2
                   2
                   2
                   2
                   2
                   2
                   2
                   2
                   2
                   2
                   2
                   2
                   2
                   2
                   2
                   2
                   2
                   2
                   2
                   2
                   2
                   2
                   2
                   2
                   2
                   2
                   2
                   2
                   2
                   2
                   2
                   2
                   2
                   2
                   2
                   2
                   2
                   2
                   2
                   2
                   2
                   2
                   2
                   2
                   2
                   2
                   2
                   2
                   2
                   2
                   2
                   2
                   2
                   2
                   2
                   2
                   2
                   2
                   2
                   2
                   2
                   2
                   2
                   2
                   2
                   2
                   2
                   2
                   2
                   2
                   2
                   2
                   2
                   2
                   2
                   2
                   2
                   2
                   2
                   2
                   2
                   2
                   2
                   2
                   2
                   2
                   2
                   2
                   2
                   2
                   2
                   2
                   2
                   2
                   2
                   2
                   2
                   2
                   2
                   2
                   2
                   2
                   2
                   2
                   2
                   2
                   2
                   2
                   2
                   2
                   2
                   2
                   2
                   2
                   2
                   2
                   2
                   2
                   2
                   2
                   2
                   2
                   2
                   2
                   2
                   2
                   2
                   2
                   2
                   2
                   2
                   2
                   2
                   2
                   2
                   2
                   2
                   2
                   2
                   2
                   2
                   2
                   2
                   2
                   2
                   2
                   2
                   2
                   2
                   2
                   2
                   2
                   2
                   2
                   2
                   2
                   2
                   2
                   2
                   2
                   2
                   2
                   2
                   2
                   2
                   2
                   2
                   2
                   2
                   2
                   2
                   2
                   2
                   2
                   2
                   2
                   2
                   2
                   2
                   2
                   2
                   2
                   2
                   2
                   2
                   2
                   2
                   2
                   2
                   2
                   2
                   2
                   2
                   2
                   2
                   2
                   2
                   2
                   2
                   2
                   2
                   2
                   2
                   2
                   2
                   2
                   2
                   2
                   2
                   2
                   2
                   2
                   2
                   2
                   2
                   2
                   2
                   2
                   2
                   2
                   2
                   2
                   2
                   2
                   2
                   2
                   2
                   2
                   2
                   2
                   2
                   2
                   2
                   2
                   2
                   2
                   2
                   2
                   2
                   2
                   2
                   2
                   2
                   2
                   2
                   2
                   2
                   2
                   2
                   2
                   2
                   2
                   2
                   2
                   2
                   2
                   2
                   2
                   2
                   2
                   2
                   2
                   2
                   2
                   2
                   2
                   2
                   2
                   2
                   2
                   2
                   2
                   2
                   2
                   2
                   2
                   2
                   2
                   2
                   2
                   2
                   2
                   2
                   2
                   2
                   2
                   2
                   2
                   2
                   2
                   2
                   2
                   2
                   2
                   2
                   2
                   2
                   2
                   2
                   2
                   2
                   2
                   2
                   2
                   2
                   2
                   2
                   2
                   2
                   2
                   2
                   2
                   2
                   2
                   2
                   2
                   2
                   2
                   2
                   2
                   2
                   2
                   2
                   2
                   2
                   2
                   2
                   2
                   2
                   2
                   2
                   2
                   2
                   2
                   2
                   2
                   2
                   2
                   2
                   2
                   2
                   2
                   2
                   2
                   2
                   2
                   2
                   2
                   2
                   2
                   2
                   2
                   2
                   2
                   2
                   2
                   2
                   2
                   2
                   2
                   2
                   2
                   2
                   2
                   2
                   2
                   2
                   2
                   2
                   2
                   2
                   2
                   2
                   2
                   2
                   2
                   2
                   2
                   2
                   2
                   2
                   2
                   2
                   2
                   2
                   2
                   2
                   2
                   2
                   2
                   2
                   2
                   2
                   2
                   2
                   2
                   2
                   2
                   2
                   2
                   2
                   2
                   2
                   2
                   2
                   2
                   2
                   2
                   2
                   2
                   2
                   2
                   2
                   2
                   2
                   2
                   2
                   2
                   2
                   2
                   2
                   2
                   2
                   2
                   2
                   2
                   2
                   2
                   2
                   2
                   2
                   2
                   2
                   2
                   2
                   2
                   2
                   2
                   2
                   2
                   2
                   2
                   2
                   2
                   2
                   2
                   2
                   2
                   2
                   2
                   2
                   2
                   2
                   2
                   2
                   2
                   2
                   2
                   2
                   2
                   2
                   2
                   2
                   2
                   2
                   2
                   2
                   2
                   2
                   2
                   2
                   2
                   2
                   2
                   2
                   2
                   2
                   2
                   2
                   2
                   2
                   2
                   2
                   2
                   2
                   2
                   2
                   2
                   2
                   2
                   2
                   2
                   2
                   2
                   2
                   2
                   2
                   2
                   2
                   2
                   2
                   2
                   2
                   2
                   2
                   2
                   2
                   2
                   2
                   2
                   2
                   2
                   2
                   2
                   2
                   2
                   2
                   2
                   2
                   2
                   2
                   2
                   2
                   2
                   2
                   2
                   2
                   2
                   2
                   2
                   2
                   2
                   2
                   2
                   2
                   2
                   2
                   2
                   2
                   2
                   2
                   2
                   2
                   2
                   2
                   2
                   2
                   2
                   2
                   2
                   2
                   2
                   2
                   2
                   2
                   2
                   2
                   2
                   2
                   2
                   2
                   2
                   2
                   2
                   2
                   2
                   2
                   2
                   2
                   2
                   2
                   2
                   2
                   2
                   2
                   2
                   2
                   2
                   2
                   2
                   2
                   2
                   2
                   2
                   2
                   2
                   2
                   2
                   2
                   2
                   2
                   2
                   2
                   2
                   2
                   2
                   2
                   2
                   2
                   2
                   2
                   2
                   2
                   2
                   2
                   2
                   2
                   2
                   2
                   2
                   2
                   2
                   2
                   2
                   2
                   2
                   2
                   2
                   2
                   2
                   2
                   2
                   2
                   2
                   2
                   2
                   2
                   2
                   2
                   2
                   2
                   2
                   2
                   2
                   2
                   2
                   2
                   2
                   2
                   2
                   2
                   2
                   2
                   2
                   2
                   2
                   2
                   2
                   2
                   2
                   2
                   2
                   2
                   2
                   2
                   2
                   2
                   2
                   2
                   2
                   2
                   2
                   2
                   2
                   2
                   2
                   2
                   2
                   2
                   2
                   2
                   2
                   2
                   2
                   2
                   2
                   2
                   2
                   2
                   2
                   2
                   2
                   2
                   2
                   2
                   2
                   2
                   2
                   2
                   2
                   2
                   2
                   2
                   2
                   2
                   2
                   2
                   2
                   2
                   2
                   2
                   2
                   2
                   2
                   2
                   2
                   2
                   2
                   2
                   2
                   2
                   2
                   2
                   2
                   2
                   2
                   2
                   2
                   2
                   2
                   2
                   2
                   2
                   2
                   2
                   2
                   2
                   2
                   2
                   2
                   2
                   2
                   2
                   2
                   2
                   2
                   2
                   2
                   2
                   2
                   2
                   2
                   2
                   2
                   2
                   2
                   2
                   2
                   2
                   2
                   2
                   2
                   2
                   2
                   2
                   2
                   2
                   2
                   2
                   2
                   2
                   2
                   2
                   2
                   2
                   2
                   2
                   2
                   2
                   2
                   2
                   2
                   2
                   2
                   2
                   2
                   2
                   2
                   2
                   2
                   2
                   2
                   2
                   2
                   2
                   2
                   2
                   2
                   2
                   2
                   2
                   2
                   2
                   2
                   2
                   2
                   2
                   2
                   2
                   2
                   2
                   2
                   2
                   2
                   2
                   2
                   2
                   2
                   2
                   2
                   2
                   2
                   2
                   2
                   2
                   2
                   2
                   2
                   2
                   2
                   2
                   2
                   2
                   2
                   2
                   2
                   2
                   2
                   2
                   2
                   2
                   2
                   2
                   2
                   2
                   2
                   2
                   2
                   2
                   2
                   2
                   2
                   2
                   2
                   2
                   2
                   2
                   2
                   2
                   2
                   2
                   2
                   2
                   2
                   2
                   2
                   2
                   2
                   2
                   2
                   2
                   2
                   2
                   2
                   2
                   2
                   2
                   2
                   2
                   2
                   2
                   2
                   2
                   2
                   2
                   2
                   2
                   2
                   2
                   2
                   2
                   2
                   2
                   2
                   2
                   2
                   2
                   2
                   2
                   2
                   2
                   2
                   2
                   2
                   2
                   2
                   2
                   2
                   2
                   2
                   2
                   2
                   2
                   2
                   2
                   2
                   2
                   2
                   2
                   2
                   2
                   2
                   2
                   2
                   2
                   2
                   2
                   2
                   2
                   2
                   2
                   2
                   2
                   2
                   2
                   2
                   2
                   2
                   2
                   2
                   2
                   2
                   2
                   2
                   2
                   2
                   2
                   2
                   2
                   2
                   2
                   2
                   2
                   2
                   2
                   2
                   2
                   2
                   2
                   2
                   2
                   2
                   2
                   2
                   2
                   2
                   2
                   2
                   2
                   2
                   2
                   2
                   2
                   2
                   2
                   2
                   2
                   2
                   2
                   2
                   2
                   2
                   2
                   2
                   2
                   2
                   2
                   2
                   2
                   2
                   2
                   2
                   2
                   2
                   2
                   2
                   2
                   2
                   2
                   2
                   2
                   2
                   2
                   2
                   2
                   2
                   2
                   2
                   2
                   2
                   2
                   2
                   2
                   2
                   2
                   2
                   2
                   2
                   2
                   2
                   2
                   2
                   2
                   2
                   2
                   2
                   2
                   2
                   2
                   2
                   2
                   2
                   2
                   2
                   2
                   2
                   2
                   2
                   2
                   2
                   2
                   2
                   2
                   2
                   2
                   2
                   2
                   2
                   2
                   2
                   2
                   2
                   2
                   2
                   2
                   2
                   2
                   2
                   2
                   2
                   2
                   2
                   2
                   2
                   2
                   2
                   2
                   2
                   2
                   2
                   2
                   2
                   2
                   2
                   2
                   2
                   2
                   2
                   2
                   2
                   2
                   2
                   2
                   2
                   2
                   2
                   2
                   2
                   2
                   2
                   2
                   2
                   2
                   2
                   2
                   2
                   2
                   2
                   2
                   2
                   2
                   2
                   2
                   2
                   2
                   2
                   2
                   2
                   2
                   2
                   2
                   2
                   2
                   2
                   2
                   2
                   2
                   2
                   2
                   2
                   2
                   2
                   2
                   2
                   2
                   2
                   2
                   2
                   2
                   2
                   2
                   2
                   2
                   2
                   2
                   2
                   2
                   2
                   2
                   2
                   2
                   2
                   2
                   2
                   2
                   2
                   2
                   2
                   2
                   2
                   2
                   2
                   2
                   2
                   2
                   2
                   2
                   2
                   2
                   2
                   2
                   2
                   2
                   2
                   2
                   2
                   2
                   2
                   2
                   2
                   2
                   2
                   2
                   2
                   2
                   2
                   2
                   2
                   2
                   2
                   2
                   2
                   2
                   2
                   2
                   2
                   2
                   2
                   2
                   2
                   2
                   2
                   2
                   2
                   2
                   2
                   2
                   2
                   2
                   2
                   2
                   2
                   2
                   2
                   2
                   2
                   2
                   2
                   2
                   2
                   2
                   2
                   2
                   2
                   2
                   2
                   2
                   2
                   2
                   2
                   2
                   2
                   2
                   2
                   2
                   2
                   2
                   2
                   2
                   2
                   2
                   2
                   2
                   2
                   2
                   2
                   2
                   2
                   2
                   2
                   2
                   2
                   2
                   2
                   2
                   2
                   2
                   2
                   2
                   2
                   2
                   2
                   2
                   2
                   2
                   2
                   2
                   2
                   2
                   2
                   2
                   2
                   2
                   2
                   2
                   2
                   2
                   2
                   2
                   2
                   2
                   2
                   2
                   2
                   2
                   2
                   2
                   2
                   2
                   2
                   2
                   2
                   2
                   2
                   2
                   2
                   2
                   2
                   2
                   2
                   2
                   2
                   2
                   2
                   2
                   2
                   2
                   2
                   2
                   2
                   2
                   2
                   2
                   2
                   2
                   2
                   2
                   2
                   2
                   2
                   2
                   2
                   2
                   2
                   2
                   2
                   2
                   2
                   2
                   2
                   2
                   2
                   2
                   2
                   2
                   2
                   2
                   2
                   2
                   2
                   2
                   2
                   2
                   2
                   2
                   2
                   2
                   2
                   2
                   2
                   2
                   2
                   2
                   2
                   2
                   2
                   2
                   2
                   2
                   2
                   2
                   2
                   2
                   2
                   2
                   2
                   2
                   2
                   2
                   2
                   2
                   2
                   2
                   2
                   2
                   2
                   2
                   2
                   2
                   2
                   2
                   2
                   2
                   2
                   2
                   2
                   2
                   2
                   2
                   2
                   2
                   2
                   2
                   2
                   2
                   2
                   2
                   2
                   2
                   2
                   2
                   2
                   2
                   2
                   2
                   2
                   2
                   2
                   2
                   2
                   2
                   2
                   2
                   2
                   2
                   2
                   2
                   2
                   2
                   2
                   2
                   2
                   2
                   2
                   2
                   2
                   2
                   2
                   2
                   2
                   2
                   2
                   2
                   2
                   2
                   2
                   2
                   2
                   2
                   2
                   2
                   2
                   2
                   2
                   2
                   2
                   2
                   2
                   2
                   2
                   2
                   2
                   2
                   2
                   2
                   2
                   2
                   2
                   2
                   2
                   2
                   2
                   2
                   2
                   2
                   2
                   2
                   2
                   2
                   2
                   2
                   2
                   2
                   2
                   2
                   2
                   2
                   2
                   2
                   2
                   2
                   2
                   2
                   2
                   2
                   2
                   2
                   2
                   2
                   2
                   2
                   2
                   2
                   2
                   2
                   2
                   2
                   2
                   2
                   2
                   2
                   2
                   2
                   2
                   2
                   2
                   2
                   2
                   2
                   2
                   2
                   2
                   2
                   2
                   2
                   2
                   2
                   2
                   2
                   2
                   2
                   2
                   2
                   2
                   2
                   2
                   2
                   2
                   2
                   2
                   2
                   2
                   2
                   2
                   2
                   2
                   2
                   2
                   2
                   2
                   2
                   2
                   2
                   2
                   2
                   2
                   2
                   2
                   2
                   2
                   2
                   2
                   2
                   2
                   2
                   2
                   2
                   2
                   2
                   2
                   2
                   2
                   2
                   2
                   2
                   2
                   2
                   2
                   2
                   2
                   2
                   2
                   2
                   2
                   2
                   2
                   2
                   2
                   2
                   2
                   2
                   2
                   2
                   2
                   2
                   2
                   2
                   2
                   2
                   2
                   2
                   2
                   2
                   2
                   2
                   2
                   2
                   2
                   2
                   2
                   2
                   2
                   2
                   2
                   2
                   2
                   2
                   2
                   2
                   2
                   2
                   2
                   2
                   2
                   2
                   2
                   2
                   2
                   2
                   2
                   2
                   2
                   2
                   2
                   2
                   2
                   2
                   2
                   2
                   2
                   2
                   2
                   2
                   2
                   2
                   2
                   2
                   2
                   2
                   2
                   2
                   2
                   2
                   2
                   2
                   2
                   2
                   2
                   2
                   2
                   2
                   2
                   2
                   2
                   2
                   2
                   2
                   2
                   2
                   2
                   2
                   2
                   2
                   2
                   2
                   2
                   2
                   2
                   2
                   2
                   2
                   2
                   2
                   2
                   2
                   2
                   2
                   2
                   2
                   2
                   2
                   2
                   2
                   2
                   2
                   2
                   2
                   2
                   2
                   2
                   2
                   2
                   2
                   2
                   2
                   2
                   2
                   2
                   2
                   2
                   2
                   2
                   2
                   2
                   2
                   2
                   2
                   2
                   2
                   2
                   2
                   2
                   2
                   2
                   2
                   2
                   2
                   2
                   2
                   2
                   2
                   2
                   2
                   2
                   2
                   2
                   2
                   2
                   2
                   2
                   2
                   2
                   2
                   2
                   2
                   2
                   2
                   2
                   2
                   2
                   2
                   2
                   2
  
SCALARS                       fixity_x  double 1
LOOKUP_TABLE default
                   0
                   0
                   0
                   0
                   0
                   0
                   0
                   0
                   0
                   0
                   0
                   0
                   0
                   0
                   0
                   0
                   0
                   0
                   0
                   0
                   0
                   0
                   0
                   0
                   0
                   0
                   0
                   0
                   0
                   0
                   0
                   0
                   0
                   0
                   0
                   0
                   0
                   0
                   0
                   0
                   0
                   0
                   0
                   0
                   0
                   0
                   0
                   0
                   0
                   0
                   0
                   0
                   0
                   0
                   0
                   0
                   0
                   0
                   0
                   0
                   0
                   0
                   0
                   0
                   0
                   0
                   0
                   0
                   0
                   0
                   0
                   0
                   0
                   0
                   0
                   0
                   0
                   0
                   0
                   0
                   0
                   0
                   0
                   0
                   0
                   0
                   0
                   0
                   0
                   0
                   0
                   0
                   0
                   0
                   0
                   0
                   0
                   0
                   0
                   0
                   0
                   0
                   0
                   0
                   0
                   0
                   0
                   0
                   0
                   0
                   0
                   0
                   0
                   0
                   0
                   0
                   0
                   0
                   0
                   0
                   0
                   0
                   0
                   0
                   0
                   0
                   0
                   0
                   0
                   0
                   0
                   0
                   0
                   0
                   0
                   0
                   0
                   0
                   0
                   0
                   0
                   0
                   0
                   0
                   0
                   0
                   0
                   0
                   0
                   0
                   0
                   0
                   0
                   0
                   0
                   0
                   0
                   0
                   0
                   0
                   0
                   0
                   0
                   0
                   0
                   0
                   0
                   0
                   0
                   0
                   0
                   0
                   0
                   0
                   0
                   0
                   0
                   0
                   0
                   0
                   0
                   0
                   0
                   0
                   0
                   0
                   0
                   0
                   0
                   0
                   0
                   0
                   0
                   0
                   0
                   0
                   0
                   0
                   0
                   0
                   0
                   0
                   0
                   0
                   0
                   0
                   0
                   0
                   0
                   0
                   0
                   0
                   0
                   0
                   0
                   0
                   0
                   0
                   0
                   0
                   0
                   0
                   0
                   0
                   0
                   0
                   0
                   0
                   0
                   0
                   0
                   0
                   0
                   0
                   0
                   0
                   0
                   0
                   0
                   0
                   0
                   0
                   0
                   0
                   0
                   0
                   0
                   0
                   0
                   0
                   0
                   0
                   0
                   0
                   0
                   0
                   0
                   0
                   0
                   0
                   0
                   0
                   0
                   0
                   0
                   0
                   0
                   0
                   0
                   0
                   0
                   0
                   0
                   0
                   0
                   0
                   0
                   0
                   0
                   0
                   0
                   0
                   0
                   0
                   0
                   0
                   0
                   0
                   0
                   0
                   0
                   0
                   0
                   0
                   0
                   0
                   0
                   0
                   0
                   0
                   0
                   0
                   0
                   0
                   0
                   0
                   0
                   0
                   0
                   0
                   0
                   0
                   0
                   0
                   0
                   0
                   0
                   0
                   0
                   0
                   0
                   0
                   0
                   0
                   0
                   0
                   0
                   0
                   0
                   0
                   0
                   0
                   0
                   0
                   0
                   0
                   0
                   0
                   0
                   0
                   0
                   0
                   0
                   0
                   0
                   0
                   0
                   0
                   0
                   0
                   0
                   0
                   0
                   0
                   0
                   0
                   0
                   0
                   0
                   0
                   0
                   0
                   0
                   0
                   0
                   0
                   0
                   0
                   0
                   0
                   0
                   0
                   0
                   0
                   0
                   0
                   0
                   0
                   0
                   0
                   0
                   0
                   0
                   0
                   0
                   0
                   0
                   0
                   0
                   0
                   0
                   0
                   0
                   0
                   0
                   0
                   0
                   0
                   0
                   0
                   0
                   0
                   0
                   0
                   0
                   0
                   0
                   0
                   0
                   0
                   0
                   0
                   0
                   0
                   0
                   0
                   0
                   0
                   0
                   0
                   0
                   0
                   0
                   0
                   0
                   0
                   0
                   0
                   0
                   0
                   0
                   0
                   0
                   0
                   0
                   0
                   0
                   0
                   0
                   0
                   0
                   0
                   0
                   0
                   0
                   0
                   0
                   0
                   0
                   0
                   0
                   0
                   0
                   0
                   0
                   0
                   0
                   0
                   0
                   0
                   0
                   0
                   0
                   0
                   0
                   0
                   0
                   0
                   0
                   0
                   0
                   0
                   0
                   0
                   0
                   0
                   0
                   0
                   0
                   0
                   0
                   0
                   0
                   0
                   0
                   0
                   0
                   0
                   0
                   0
                   0
                   0
                   0
                   0
                   0
                   0
                   0
                   0
                   0
                   0
                   0
                   0
                   0
                   0
                   0
                   0
                   0
                   0
                   0
                   0
                   0
                   0
                   0
                   0
                   0
                   0
                   0
                   0
                   0
                   0
                   0
                   0
                   0
                   0
                   0
                   0
                   0
                   0
                   0
                   0
                   0
                   0
                   0
                   0
                   0
                   0
                   0
                   0
                   0
                   0
                   0
                   0
                   0
                   0
                   0
                   0
                   0
                   0
                   0
                   0
                   0
                   0
                   0
                   0
                   0
                   0
                   0
                   0
                   0
                   0
                   0
                   0
                   0
                   0
                   0
                   0
                   0
                   0
                   0
                   0
                   0
                   0
                   0
                   0
                   0
                   0
                   0
                   0
                   0
                   0
                   0
                   0
                   0
                   0
                   0
                   0
                   0
                   0
                   0
                   0
                   0
                   0
                   0
                   0
                   0
                   0
                   0
                   0
                   0
                   0
                   0
                   0
                   0
                   0
                   0
                   0
                   0
                   0
                   0
                   0
                   0
                   0
                   0
                   0
                   0
                   0
                   0
                   0
                   0
                   0
                   0
                   0
                   0
                   0
                   0
                   0
                   0
                   0
                   0
                   0
                   0
                   0
                   0
                   0
                   0
                   0
                   0
                   0
                   0
                   0
                   0
                   0
                   0
                   0
                   0
                   0
                   0
                   0
                   0
                   0
                   0
                   0
                   0
                   0
                   0
                   0
                   0
                   0
                   0
                   0
                   0
                   0
                   0
                   0
                   0
                   0
                   0
                   0
                   0
                   0
                   0
                   0
                   0
                   0
                   0
                   0
                   0
                   0
                   0
                   0
                   0
                   0
                   0
                   0
                   0
                   0
                   0
                   0
                   0
                   0
                   0
                   0
                   0
                   0
                   0
                   0
                   0
                   0
                   0
                   0
                   0
                   0
                   0
                   0
                   0
                   0
                   0
                   0
                   0
                   0
                   0
                   0
                   0
                   0
                   0
                   0
                   0
                   0
                   0
                   0
                   0
                   0
                   0
                   0
                   0
                   0
                   0
                   0
                   0
                   0
                   0
                   0
                   0
                   0
                   0
                   0
                   0
                   0
                   0
                   0
                   0
                   0
                   0
                   0
                   0
                   0
                   0
                   0
                   0
                   0
                   0
                   0
                   0
                   0
                   0
                   0
                   0
                   0
                   0
                   0
                   0
                   0
                   0
                   0
                   0
                   0
                   0
                   0
                   0
                   0
                   0
                   0
                   0
                   0
                   0
                   0
                   0
                   0
                   0
                   0
                   0
                   0
                   0
                   0
                   0
                   0
                   0
                   0
                   0
                   0
                   0
                   0
                   0
                   0
                   0
                   0
                   0
                   0
                   0
                   0
                   0
                   0
                   0
                   0
                   0
                   0
                   0
                   0
                   0
                   0
                   0
                   0
                   0
                   0
                   0
                   0
                   0
                   0
                   0
                   0
                   0
                   0
                   0
                   0
                   0
                   0
                   0
                   0
                   0
                   0
                   0
                   0
                   0
                   0
                   0
                   0
                   0
                   0
                   0
                   0
                   0
                   0
                   0
                   0
                   0
                   0
                   0
                   0
                   0
                   0
                   0
                   0
                   0
                   0
                   0
                   0
                   0
                   0
                   0
                   0
                   0
                   0
                   0
                   0
                   0
                   0
                   0
                   0
                   0
                   0
                   0
                   0
                   0
                   0
                   0
                   0
                   0
                   0
                   0
                   0
                   0
                   0
                   0
                   0
                   0
                   0
                   0
                   0
                   0
                   0
                   0
                   0
                   0
                   0
                   0
                   0
                   0
                   0
                   0
                   0
                   0
                   0
                   0
                   0
                   0
                   0
                   0
                   0
                   0
                   0
                   0
                   0
                   0
                   0
                   0
                   0
                   0
                   0
                   0
                   0
                   0
                   0
                   0
                   0
                   0
                   0
                   0
                   0
                   0
                   0
                   0
                   0
                   0
                   0
                   0
                   0
                   0
                   0
                   0
                   0
                   0
                   0
                   0
                   0
                   0
                   0
                   0
                   0
                   0
                   0
                   0
                   0
                   0
                   0
                   0
                   0
                   0
                   0
                   0
                   0
                   0
                   0
                   0
                   0
                   0
                   0
                   0
                   0
                   0
                   0
                   0
                   0
                   0
                   0
                   0
                   0
                   0
                   0
                   0
                   0
                   0
                   0
                   0
                   0
                   0
                   0
                   0
                   0
                   0
                   0
                   0
                   0
                   0
                   0
                   0
                   0
                   0
                   0
                   0
                   0
                   0
                   0
                   0
                   0
                   0
                   0
                   0
                   0
                   0
                   0
                   0
                   0
                   0
                   0
                   0
                   0
                   0
                   0
                   0
                   0
                   0
                   0
                   0
                   0
                   0
                   0
                   0
                   0
                   0
                   0
                   0
                   0
                   0
                   0
                   0
                   0
                   0
                   0
                   0
                   0
                   0
                   0
                   0
                   0
                   0
                   0
                   0
                   0
                   0
                   0
                   0
                   0
                   0
                   0
                   0
                   0
                   0
                   0
                   0
                   0
                   0
                   0
                   0
                   0
                   0
                   0
                   0
                   0
                   0
                   0
                   0
                   0
                   0
                   0
                   0
                   0
                   0
                   0
                   0
                   0
                   0
                   0
                   0
                   0
                   0
                   0
                   0
                   0
                   0
                   0
                   0
                   0
                   0
                   0
                   0
                   0
                   0
                   0
                   0
                   0
                   0
                   0
                   0
                   0
                   0
                   0
                   0
                   0
                   0
                   0
                   0
                   0
                   0
                   0
                   0
                   0
                   0
                   0
                   0
                   0
                   0
                   0
                   0
                   0
                   0
                   0
                   0
                   0
                   0
                   0
                   0
                   0
                   0
                   0
                   0
                   0
                   0
                   0
                   0
                   0
                   0
                   0
                   0
                   0
                   0
                   0
                   0
                   0
                   0
                   0
                   0
                   0
                   0
                   0
                   0
                   0
                   0
                   0
                   0
                   0
                   0
                   0
                   0
                   0
                   0
                   0
                   0
                   0
                   0
                   0
                   0
                   0
                   0
                   0
                   0
                   0
                   0
                   0
                   0
                   0
                   0
                   0
                   0
                   0
                   0
                   0
                   0
                   0
                   0
                   0
                   0
                   0
                   0
                   0
                   0
                   0
                   0
                   0
                   0
                   0
                   0
                   0
                   0
                   0
                   0
                   0
                   0
                   0
                   0
                   0
                   0
                   0
                   0
                   0
                   0
                   0
                   0
                   0
                   0
                   0
                   0
                   0
                   0
                   0
                   0
                   0
                   0
                   0
                   0
                   0
                   0
                   0
                   0
                   0
                   0
                   0
                   0
                   0
                   0
                   0
                   0
                   0
                   0
                   0
                   0
                   0
                   0
                   0
                   0
                   0
                   0
                   0
                   0
                   0
                   0
                   0
                   0
                   0
                   0
                   0
                   0
                   0
                   0
                   0
                   0
                   0
                   0
                   0
                   0
                   0
                   0
                   0
                   0
                   0
                   0
                   0
                   0
                   0
                   0
                   0
                   0
                   0
                   0
                   0
                   0
                   0
                   0
                   0
                   0
                   0
                   0
                   0
                   0
                   0
                   0
                   0
                   0
                   0
                   0
                   0
                   0
                   0
                   0
                   0
                   0
                   0
                   0
                   0
                   0
                   0
                   0
                   0
                   0
                   0
                   0
                   0
                   0
                   0
                   0
                   0
                   0
                   0
                   0
                   0
                   0
                   0
                   0
                   0
                   0
                   0
                   0
                   0
                   0
                   0
                   0
                   0
                   0
                   0
                   0
                   0
                   0
                   0
                   0
                   0
                   0
                   0
                   0
                   0
                   0
                   0
                   0
                   0
                   0
                   0
                   0
                   0
                   0
                   0
                   0
                   0
                   0
                   0
                   0
                   0
                   0
                   0
                   0
                   0
                   0
                   0
                   0
                   0
                   0
                   0
                   0
                   0
                   0
                   0
                   0
                   0
                   0
                   0
                   0
                   0
                   0
                   0
                   0
                   0
                   0
                   0
                   0
                   0
                   0
                   0
                   0
                   0
                   0
                   0
                   0
                   0
                   0
                   0
                   0
                   0
                   0
                   0
                   0
                   0
                   0
                   0
                   0
                   0
                   0
                   0
                   0
                   0
                   0
                   0
                   0
                   0
                   0
                   0
                   0
                   0
                   0
                   0
                   0
                   0
                   0
                   0
                   0
                   0
                   0
                   0
                   0
                   0
                   0
                   0
                   0
                   0
                   0
                   0
                   0
                   0
                   0
                   0
                   0
                   0
                   0
                   0
                   0
                   0
                   0
                   0
                   0
                   0
                   0
                   0
                   0
                   0
                   0
                   0
                   0
                   0
                   0
                   0
                   0
                   0
                   0
                   0
                   0
                   0
                   0
                   0
                   0
                   0
                   0
                   0
                   0
                   0
                   0
                   0
                   0
                   0
                   0
                   0
                   0
                   0
                   0
                   0
                   0
                   0
                   0
                   0
                   0
                   0
                   0
                   0
                   0
                   0
                   0
                   0
                   0
                   0
                   0
                   0
                   0
                   0
                   0
                   0
                   0
                   0
                   0
                   0
                   0
                   0
                   0
                   0
                   0
                   0
                   0
                   0
                   0
                   0
                   0
                   0
                   0
                   0
                   0
                   0
                   0
                   0
                   0
                   0
                   0
                   0
                   0
                   0
                   0
                   0
                   0
                   0
                   0
                   0
                   0
                   0
                   0
                   0
                   0
                   0
                   0
                   0
                   0
                   0
                   0
                   0
                   0
                   0
                   0
                   0
                   0
                   0
                   0
                   0
                   0
                   0
                   0
                   0
                   0
                   0
                   0
                   0
                   0
                   0
                   0
                   0
                   0
                   0
                   0
                   0
                   0
                   0
                   0
                   0
                   0
                   0
                   0
                   0
                   0
                   0
                   0
                   0
                   0
                   0
                   0
                   0
                   0
                   0
                   0
                   0
                   0
                   0
                   0
                   0
                   0
                   0
                   0
                   0
                   0
                   0
                   0
                   0
                   0
                   0
                   0
                   0
                   0
                   0
                   0
                   0
                   0
                   0
                   0
                   0
                   0
                   0
                   0
                   0
                   0
                   0
                   0
                   0
                   0
                   0
                   0
                   0
                   0
                   0
                   0
                   0
                   0
                   0
                   0
                   0
                   0
                   0
                   0
                   0
                   0
                   0
                   0
                   0
                   0
                   0
                   0
                   0
                   0
                   0
                   0
                   0
                   0
                   0
                   0
                   0
                   0
                   0
                   0
                   0
                   0
                   0
                   0
                   0
                   0
                   0
                   0
                   0
                   0
                   0
                   0
                   0
                   0
                   0
                   0
                   0
                   0
                   0
                   0
                   0
                   0
                   0
                   0
                   0
                   0
                   0
                   0
                   0
                   0
                   0
                   0
                   0
                   0
                   0
                   0
                   0
                   0
                   0
                   0
                   0
                   0
                   0
                   0
                   0
                   0
                   0
                   0
                   0
                   0
                   0
                   0
                   0
                   0
                   0
                   0
                   0
                   0
                   0
                   0
                   0
                   0
                   0
                   0
                   0
                   0
                   0
                   0
                   0
                   0
                   0
                   0
                   0
                   0
                   0
                   0
                   0
                   0
                   0
                   0
                   0
                   0
                   0
                   0
                   0
                   0
                   0
                   0
                   0
                   0
                   0
                   0
                   0
                   0
                   0
                   0
                   0
                   0
                   0
                   0
                   0
                   0
                   0
                   0
                   0
                   0
                   0
                   0
                   0
                   0
                   0
                   0
                   0
                   0
                   0
                   0
                   0
                   0
                   0
                   0
                   0
                   0
                   0
                   0
                   0
                   0
                   0
                   0
                   0
                   0
                   0
                   0
                   0
                   0
                   0
                   0
                   0
                   0
                   0
                   0
                   0
                   0
                   0
                   0
                   0
                   0
                   0
                   0
                   0
                   0
                   0
                   0
                   0
                   0
                   0
                   0
                   0
                   0
                   0
                   0
                   0
                   0
                   0
                   0
                   0
                   0
                   0
                   0
                   0
                   0
                   0
                   0
                   0
                   0
                   0
                   0
                   0
                   0
                   0
                   0
                   0
                   0
                   0
                   0
                   0
                   0
                   0
                   0
                   0
                   0
                   0
                   0
                   0
                   0
                   0
                   0
                   0
                   0
                   0
                   0
                   0
                   0
                   0
                   0
                   0
                   0
                   0
                   0
                   0
                   0
                   0
                   0
                   0
                   0
                   0
                   0
                   0
                   0
                   0
                   0
                   0
                   0
                   0
                   0
                   0
                   0
                   0
                   0
                   0
                   0
                   0
                   0
                   0
                   0
                   0
                   0
                   0
                   0
                   0
                   0
                   0
                   0
                   0
                   0
                   0
                   0
                   0
                   0
                   0
                   0
                   0
                   0
                   0
                   0
                   0
                   0
                   0
                   0
                   0
                   0
                   0
                   0
                   0
                   0
                   0
                   0
                   0
                   0
                   0
                   0
                   0
                   0
                   0
                   0
                   0
                   0
                   0
                   0
                   0
                   0
                   0
                   0
                   0
  
SCALARS                       fixity_y  double 1
LOOKUP_TABLE default
                   0
                   0
                   0
                   0
                   0
                   0
                   0
                   0
                   0
                   0
                   0
                   0
                   0
                   0
                   0
                   0
                   0
                   0
                   0
                   0
                   0
                   0
                   0
                   0
                   0
                   0
                   0
                   0
                   0
                   0
                   0
                   0
                   0
                   0
                   0
                   0
                   0
                   0
                   0
                   0
                   0
                   0
                   0
                   0
                   0
                   0
                   0
                   0
                   0
                   0
                   0
                   0
                   0
                   0
                   0
                   0
                   0
                   0
                   0
                   0
                   0
                   0
                   0
                   0
                   0
                   0
                   0
                   0
                   0
                   0
                   0
                   0
                   0
                   0
                   0
                   0
                   0
                   0
                   0
                   0
                   0
                   0
                   0
                   0
                   0
                   0
                   0
                   0
                   0
                   0
                   0
                   0
                   0
                   0
                   0
                   0
                   0
                   0
                   0
                   0
                   0
                   0
                   0
                   0
                   0
                   0
                   0
                   0
                   0
                   0
                   0
                   0
                   0
                   0
                   0
                   0
                   0
                   0
                   0
                   0
                   0
                   0
                   0
                   0
                   0
                   0
                   0
                   0
                   0
                   0
                   0
                   0
                   0
                   0
                   0
                   0
                   0
                   0
                   0
                   0
                   0
                   0
                   0
                   0
                   0
                   0
                   0
                   0
                   0
                   0
                   0
                   0
                   0
                   0
                   0
                   0
                   0
                   0
                   0
                   0
                   0
                   0
                   0
                   0
                   0
                   0
                   0
                   0
                   0
                   0
                   0
                   0
                   0
                   0
                   0
                   0
                   0
                   0
                   0
                   0
                   0
                   0
                   0
                   0
                   0
                   0
                   0
                   0
                   0
                   0
                   0
                   0
                   0
                   0
                   0
                   0
                   0
                   0
                   0
                   0
                   0
                   0
                   0
                   0
                   0
                   0
                   0
                   0
                   0
                   0
                   0
                   0
                   0
                   0
                   0
                   0
                   0
                   0
                   0
                   0
                   0
                   0
                   0
                   0
                   0
                   0
                   0
                   0
                   0
                   0
                   0
                   0
                   0
                   0
                   0
                   0
                   0
                   0
                   0
                   0
                   0
                   0
                   0
                   0
                   0
                   0
                   0
                   0
                   0
                   0
                   0
                   0
                   0
                   0
                   0
                   0
                   0
                   0
                   0
                   0
                   0
                   0
                   0
                   0
                   0
                   0
                   0
                   0
                   0
                   0
                   0
                   0
                   0
                   0
                   0
                   0
                   0
                   0
                   0
                   0
                   0
                   0
                   0
                   0
                   0
                   0
                   0
                   0
                   0
                   0
                   0
                   0
                   0
                   0
                   0
                   0
                   0
                   0
                   0
                   0
                   0
                   0
                   0
                   0
                   0
                   0
                   0
                   0
                   0
                   0
                   0
                   0
                   0
                   0
                   0
                   0
                   0
                   0
                   0
                   0
                   0
                   0
                   0
                   0
                   0
                   0
                   0
                   0
                   0
                   0
                   0
                   0
                   0
                   0
                   0
                   0
                   0
                   0
                   0
                   0
                   0
                   0
                   0
                   0
                   0
                   0
                   0
                   0
                   0
                   0
                   0
                   0
                   0
                   0
                   0
                   0
                   0
                   0
                   0
                   0
                   0
                   0
                   0
                   0
                   0
                   0
                   0
                   0
                   0
                   0
                   0
                   0
                   0
                   0
                   0
                   0
                   0
                   0
                   0
                   0
                   0
                   0
                   0
                   0
                   0
                   0
                   0
                   0
                   0
                   0
                   0
                   0
                   0
                   0
                   0
                   0
                   0
                   0
                   0
                   0
                   0
                   0
                   0
                   0
                   0
                   0
                   0
                   0
                   0
                   0
                   0
                   0
                   0
                   0
                   0
                   0
                   0
                   0
                   0
                   0
                   0
                   0
                   0
                   0
                   0
                   0
                   0
                   0
                   0
                   0
                   0
                   0
                   0
                   0
                   0
                   0
                   0
                   0
                   0
                   0
                   0
                   0
                   0
                   0
                   0
                   0
                   0
                   0
                   0
                   0
                   0
                   0
                   0
                   0
                   0
                   0
                   0
                   0
                   0
                   0
                   0
                   0
                   0
                   0
                   0
                   0
                   0
                   0
                   0
                   0
                   0
                   0
                   0
                   0
                   0
                   0
                   0
                   0
                   0
                   0
                   0
                   0
                   0
                   0
                   0
                   0
                   0
                   0
                   0
                   0
                   0
                   0
                   0
                   0
                   0
                   0
                   0
                   0
                   0
                   0
                   0
                   0
                   0
                   0
                   0
                   0
                   0
                   0
                   0
                   0
                   0
                   0
                   0
                   0
                   0
                   0
                   0
                   0
                   0
                   0
                   0
                   0
                   0
                   0
                   0
                   0
                   0
                   0
                   0
                   0
                   0
                   0
                   0
                   0
                   0
                   0
                   0
                   0
                   0
                   0
                   0
                   0
                   0
                   0
                   0
                   0
                   0
                   0
                   0
                   0
                   0
                   0
                   0
                   0
                   0
                   0
                   0
                   0
                   0
                   0
                   0
                   0
                   0
                   0
                   0
                   0
                   0
                   0
                   0
                   0
                   0
                   0
                   0
                   0
                   0
                   0
                   0
                   0
                   0
                   0
                   0
                   0
                   0
                   0
                   0
                   0
                   0
                   0
                   0
                   0
                   0
                   0
                   0
                   0
                   0
                   0
                   0
                   0
                   0
                   0
                   0
                   0
                   0
                   0
                   0
                   0
                   0
                   0
                   0
                   0
                   0
                   0
                   0
                   0
                   0
                   0
                   0
                   0
                   0
                   0
                   0
                   0
                   0
                   0
                   0
                   0
                   0
                   0
                   0
                   0
                   0
                   0
                   0
                   0
                   0
                   0
                   0
                   0
                   0
                   0
                   0
                   0
                   0
                   0
                   0
                   0
                   0
                   0
                   0
                   0
                   0
                   0
                   0
                   0
                   0
                   0
                   0
                   0
                   0
                   0
                   0
                   0
                   0
                   0
                   0
                   0
                   0
                   0
                   0
                   0
                   0
                   0
                   0
                   0
                   0
                   0
                   0
                   0
                   0
                   0
                   0
                   0
                   0
                   0
                   0
                   0
                   0
                   0
                   0
                   0
                   0
                   0
                   0
                   0
                   0
                   0
                   0
                   0
                   0
                   0
                   0
                   0
                   0
                   0
                   0
                   0
                   0
                   0
                   0
                   0
                   0
                   0
                   0
                   0
                   0
                   0
                   0
                   0
                   0
                   0
                   0
                   0
                   0
                   0
                   0
                   0
                   0
                   0
                   0
                   0
                   0
                   0
                   0
                   0
                   0
                   0
                   0
                   0
                   0
                   0
                   0
                   0
                   0
                   0
                   0
                   0
                   0
                   0
                   0
                   0
                   0
                   0
                   0
                   0
                   0
                   0
                   0
                   0
                   0
                   0
                   0
                   0
                   0
                   0
                   0
                   0
                   0
                   0
                   0
                   0
                   0
                   0
                   0
                   0
                   0
                   0
                   0
                   0
                   0
                   0
                   0
                   0
                   0
                   0
                   0
                   0
                   0
                   0
                   0
                   0
                   0
                   0
                   0
                   0
                   0
                   0
                   0
                   0
                   0
                   0
                   0
                   0
                   0
                   0
                   0
                   0
                   0
                   0
                   0
                   0
                   0
                   0
                   0
                   0
                   0
                   0
                   0
                   0
                   0
                   0
                   0
                   0
                   0
                   0
                   0
                   0
                   0
                   0
                   0
                   0
                   0
                   0
                   0
                   0
                   0
                   0
                   0
                   0
                   0
                   0
                   0
                   0
                   0
                   0
                   0
                   0
                   0
                   0
                   0
                   0
                   0
                   0
                   0
                   0
                   0
                   0
                   0
                   0
                   0
                   0
                   0
                   0
                   0
                   0
                   0
                   0
                   0
                   0
                   0
                   0
                   0
                   0
                   0
                   0
                   0
                   0
                   0
                   0
                   0
                   0
                   0
                   0
                   0
                   0
                   0
                   0
                   0
                   0
                   0
                   0
                   0
                   0
                   0
                   0
                   0
                   0
                   0
                   0
                   0
                   0
                   0
                   0
                   0
                   0
                   0
                   0
                   0
                   0
                   0
                   0
                   0
                   0
                   0
                   0
                   0
                   0
                   0
                   0
                   0
                   0
                   0
                   0
                   0
                   0
                   0
                   0
                   0
                   0
                   0
                   0
                   0
                   0
                   0
                   0
                   0
                   0
                   0
                   0
                   0
                   0
                   0
                   0
                   0
                   0
                   0
                   0
                   0
                   0
                   0
                   0
                   0
                   0
                   0
                   0
                   0
                   0
                   0
                   0
                   0
                   0
                   0
                   0
                   0
                   0
                   0
                   0
                   0
                   0
                   0
                   0
                   0
                   0
                   0
                   0
                   0
                   0
                   0
                   0
                   0
                   0
                   0
                   0
                   0
                   0
                   0
                   0
                   0
                   0
                   0
                   0
                   0
                   0
                   0
                   0
                   0
                   0
                   0
                   0
                   0
                   0
                   0
                   0
                   0
                   0
                   0
                   0
                   0
                   0
                   0
                   0
                   0
                   0
                   0
                   0
                   0
                   0
                   0
                   0
                   0
                   0
                   0
                   0
                   0
                   0
                   0
                   0
                   0
                   0
                   0
                   0
                   0
                   0
                   0
                   0
                   0
                   0
                   0
                   0
                   0
                   0
                   0
                   0
                   0
                   0
                   0
                   0
                   0
                   0
                   0
                   0
                   0
                   0
                   0
                   0
                   0
                   0
                   0
                   0
                   0
                   0
                   0
                   0
                   0
                   0
                   0
                   0
                   0
                   0
                   0
                   0
                   0
                   0
                   0
                   0
                   0
                   0
                   0
                   0
                   0
                   0
                   0
                   0
                   0
                   0
                   0
                   0
                   0
                   0
                   0
                   0
                   0
                   0
                   0
                   0
                   0
                   0
                   0
                   0
                   0
                   0
                   0
                   0
                   0
                   0
                   0
                   0
                   0
                   0
                   0
                   0
                   0
                   0
                   0
                   0
                   0
                   0
                   0
                   0
                   0
                   0
                   0
                   0
                   0
                   0
                   0
                   0
                   0
                   0
                   0
                   0
                   0
                   0
                   0
                   0
                   0
                   0
                   0
                   0
                   0
                   0
                   0
                   0
                   0
                   0
                   0
                   0
                   0
                   0
                   0
                   0
                   0
                   0
                   0
                   0
                   0
                   0
                   0
                   0
                   0
                   0
                   0
                   0
                   0
                   0
                   0
                   0
                   0
                   0
                   0
                   0
                   0
                   0
                   0
                   0
                   0
                   0
                   0
                   0
                   0
                   0
                   0
                   0
                   0
                   0
                   0
                   0
                   0
                   0
                   0
                   0
                   0
                   0
                   0
                   0
                   0
                   0
                   0
                   0
                   0
                   0
                   0
                   0
                   0
                   0
                   0
                   0
                   0
                   0
                   0
                   0
                   0
                   0
                   0
                   0
                   0
                   0
                   0
                   0
                   0
                   0
                   0
                   0
                   0
                   0
                   0
                   0
                   0
                   0
                   0
                   0
                   0
                   0
                   0
                   0
                   0
                   0
                   0
                   0
                   0
                   0
                   0
                   0
                   0
                   0
                   0
                   0
                   0
                   0
                   0
                   0
                   0
                   0
                   0
                   0
                   0
                   0
                   0
                   0
                   0
                   0
                   0
                   0
                   0
                   0
                   0
                   0
                   0
                   0
                   0
                   0
                   0
                   0
                   0
                   0
                   0
                   0
                   0
                   0
                   0
                   0
                   0
                   0
                   0
                   0
                   0
                   0
                   0
                   0
                   0
                   0
                   0
                   0
                   0
                   0
                   0
                   0
                   0
                   0
                   0
                   0
                   0
                   0
                   0
                   0
                   0
                   0
                   0
                   0
                   0
                   0
                   0
                   0
                   0
                   0
                   0
                   0
                   0
                   0
                   0
                   0
                   0
                   0
                   0
                   0
                   0
                   0
                   0
                   0
                   0
                   0
                   0
                   0
                   0
                   0
                   0
                   0
                   0
                   0
                   0
                   0
                   0
                   0
                   0
                   0
                   0
                   0
                   0
                   0
                   0
                   0
                   0
                   0
                   0
                   0
                   0
                   0
                   0
                   0
                   0
                   0
                   0
                   0
                   0
                   0
                   0
                   0
                   0
                   0
                   0
                   0
                   0
                   0
                   0
                   0
                   0
                   0
                   0
                   0
                   0
                   0
                   0
                   0
                   0
                   0
                   0
                   0
                   0
                   0
                   0
                   0
                   0
                   0
                   0
                   0
                   0
                   0
                   0
                   0
                   0
                   0
                   0
                   0
                   0
                   0
                   0
                   0
                   0
                   0
                   0
                   0
                   0
                   0
                   0
                   0
                   0
                   0
                   0
                   0
                   0
                   0
                   0
                   0
                   0
                   0
                   0
                   0
                   0
                   0
                   0
                   0
                   0
                   0
                   0
                   0
                   0
                   0
                   0
                   0
                   0
                   0
                   0
                   0
                   0
                   0
                   0
                   0
                   0
                   0
                   0
                   0
                   0
                   0
                   0
                   0
                   0
                   0
                   0
                   0
                   0
                   0
                   0
                   0
                   0
                   0
                   0
                   0
                   0
                   0
                   0
                   0
                   0
                   0
                   0
                   0
                   0
                   0
                   0
                   0
                   0
                   0
                   0
                   0
                   0
                   0
                   0
                   0
                   0
                   0
                   0
                   0
                   0
                   0
                   0
                   0
                   0
                   0
                   0
                   0
                   0
                   0
                   0
                   0
                   0
                   0
                   0
                   0
                   0
                   0
                   0
                   0
                   0
                   0
                   0
                   0
                   0
                   0
                   0
                   0
                   0
                   0
                   0
                   0
                   0
                   0
                   0
                   0
                   0
                   0
                   0
                   0
                   0
                   0
                   0
                   0
                   0
                   0
                   0
                   0
                   0
                   0
                   0
                   0
                   0
                   0
                   0
                   0
                   0
                   0
                   0
                   0
                   0
                   0
                   0
                   0
                   0
                   0
                   0
                   0
                   0
                   0
                   0
                   0
                   0
                   0
                   0
                   0
                   0
                   0
                   0
                   0
                   0
                   0
                   0
                   0
                   0
                   0
                   0
                   0
                   0
                   0
                   0
                   0
                   0
                   0
                   0
                   0
                   0
                   0
                   0
                   0
                   0
                   0
                   0
                   0
                   0
                   0
                   0
                   0
                   0
                   0
                   0
                   0
                   0
                   0
                   0
                   0
                   0
                   0
                   0
                   0
                   0
                   0
                   0
                   0
                   0
                   0
                   0
                   0
                   0
                   0
                   0
                   0
                   0
                   0
                   0
                   0
                   0
                   0
                   0
                   0
                   0
                   0
                   0
                   0
                   0
                   0
                   0
                   0
                   0
                   0
                   0
                   0
                   0
                   0
                   0
                   0
                   0
                   0
                   0
                   0
                   0
                   0
                   0
                   0
                   0
                   0
                   0
                   0
                   0
                   0
                   0
                   0
                   0
                   0
                   0
                   0
                   0
                   0
                   0
                   0
                   0
                   0
                   0
                   0
                   0
                   0
                   0
                   0
                   0
                   0
                   0
                   0
                   0
                   0
                   0
                   0
                   0
                   0
                   0
                   0
                   0
                   0
                   0
                   0
                   0
                   0
                   0
                   0
                   0
                   0
                   0
                   0
                   0
                   0
                   0
                   0
                   0
                   0
                   0
                   0
                   0
                   0
                   0
                   0
                   0
                   0
                   0
                   0
                   0
                   0
                   0
                   0
                   0
                   0
                   0
                   0
                   0
                   0
                   0
                   0
                   0
                   0
                   0
                   0
                   0
                   0
                   0
                   0
                   0
                   0
                   0
                   0
                   0
                   0
                   0
                   0
                   0
                   0
                   0
                   0
                   0
                   0
                   0
                   0
                   0
                   0
                   0
                   0
                   0
                   0
                   0
                   0
                   0
                   0
                   0
                   0
                   0
                   0
                   0
                   0
                   0
                   0
                   0
                   0
                   0
                   0
                   0
                   0
                   0
                   0
                   0
                   0
                   0
                   0
                   0
                   0
                   0
                   0
                   0
                   0
                   0
                   0
                   0
                   0
                   0
                   0
                   0
                   0
                   0
                   0
                   0
                   0
                   0
                   0
                   0
                   0
                   0
                   0
                   0
                   0
                   0
                   0
                   0
                   0
                   0
                   0
                   0
                   0
                   0
                   0
                   0
                   0
                   0
                   0
                   0
                   0
                   0
                   0
                   0
                   0
                   0
                   0
                   0
                   0
                   0
                   0
                   0
                   0
                   0
                   0
                   0
                   0
                   0
                   0
                   0
                   0
                   0
                   0
                   0
                   0
                   0
                   0
                   0
                   0
                   0
                   0
                   0
                   0
                   0
                   0
                   0
                   0
                   0
                   0
                   0
                   0
                   0
                   0
                   0
                   0
                   0
                   0
                   0
                   0
                   0
                   0
                   0
                   0
                   0
                   0
                   0
                   0
                   0
                   0
                   0
                   0
                   0
                   0
                   0
                   0
                   0
                   0
                   0
                   0
                   0
                   0
                   0
                   0
                   0
                   0
                   0
                   0
                   0
                   0
                   0
                   0
                   0
                   0
                   0
                   0
                   0
                   0
                   0
                   0
                   0
                   0
                   0
                   0
                   0
                   0
                   0
                   0
                   0
                   0
                   0
                   0
                   0
                   0
                   0
                   0
                   0
                   0
                   0
                   0
                   0
                   0
                   0
                   0
                   0
                   0
                   0
                   0
                   0
                   0
                   0
                   0
                   0
                   0
                   0
                   0
  
SCALARS                       fixity_z  double 1
LOOKUP_TABLE default
                   0
                   0
                   0
                   0
                   1
                   1
                   1
                   1
                   0
                   0
                   1
                   1
                   0
                   0
                   1
                   1
                   0
                   0
                   1
                   1
                   0
                   0
                   0
                   1
                   1
                   1
                   0
                   0
                   1
                   1
                   0
                   0
                   0
                   1
                   1
                   1
                   0
                   0
                   1
                   1
                   0
                   0
                   1
                   1
                   0
                   0
                   1
                   1
                   0
                   1
                   0
                   1
                   0
                   1
                   0
                   1
                   0
                   0
                   1
                   1
                   0
                   0
                   1
                   1
                   0
                   1
                   0
                   1
                   0
                   0
                   1
                   1
                   0
                   1
                   0
                   1
                   0
                   1
                   0
                   1
                   0
                   0
                   1
                   1
                   0
                   1
                   0
                   1
                   0
                   1
                   0
                   0
                   1
                   1
                   0
                   1
                   0
                   1
                   0
                   1
                   0
                   0
                   1
                   1
                   0
                   0
                   1
                   1
                   0
                   1
                   0
                   1
                   0
                   1
                   0
                   1
                   0
                   1
                   0
                   1
                   0
                   1
                   0
                   1
                   0
                   1
                   0
                   1
                   0
                   1
                   0
                   1
                   0
                   1
                   0
                   1
                   0
                   1
                   0
                   1
                   0
                   1
                   0
                   1
                   0
                   1
                   0
                   1
                   0
                   1
                   0
                   1
                   0
                   1
                   0
                   1
                   0
                   0
                   0
                   0
                   0
                   0
                   0
                   0
                   0
                   0
                   0
                   0
                   0
                   0
                   0
                   0
                   0
                   0
                   0
                   0
                   0
                   0
                   0
                   0
                   0
                   0
                   0
                   0
                   0
                   0
                   0
                   0
                   0
                   0
                   0
                   0
                   0
                   0
                   0
                   0
                   0
                   0
                   0
                   0
                   0
                   0
                   0
                   0
                   0
                   0
                   0
                   0
                   0
                   0
                   0
                   0
                   0
                   0
                   0
                   0
                   0
                   0
                   0
                   0
                   0
                   0
                   0
                   0
                   0
                   0
                   0
                   0
                   0
                   0
                   0
                   0
                   0
                   0
                   0
                   0
                   0
                   0
                   0
                   0
                   0
                   0
                   0
                   0
                   0
                   0
                   0
                   0
                   0
                   0
                   0
                   0
                   0
                   0
                   0
                   0
                   0
                   0
                   0
                   0
                   0
                   0
                   0
                   0
                   0
                   0
                   0
                   0
                   0
                   0
                   0
                   0
                   0
                   0
                   0
                   0
                   0
                   0
                   0
                   0
                   0
                   0
                   0
                   0
                   0
                   0
                   0
                   0
                   0
                   0
                   0
                   0
                   0
                   0
                   0
                   0
                   0
                   0
                   0
                   0
                   0
                   0
                   0
                   0
                   0
                   0
                   0
                   0
                   0
                   0
                   0
                   0
                   0
                   0
                   0
                   0
                   0
                   0
                   0
                   0
                   0
                   0
                   0
                   0
                   0
                   0
                   0
                   0
                   0
                   0
                   0
                   0
                   0
                   0
                   0
                   0
                   0
                   0
                   0
                   0
                   0
                   0
                   0
                   0
                   0
                   0
                   0
                   0
                   0
                   0
                   0
                   0
                   0
                   0
                   0
                   0
                   0
                   0
                   0
                   0
                   0
                   0
                   0
                   0
                   0
                   0
                   0
                   0
                   0
                   0
                   0
                   0
                   0
                   0
                   0
                   0
                   0
                   0
                   0
                   0
                   0
                   0
                   0
                   0
                   0
                   0
                   0
                   0
                   0
                   0
                   0
                   0
                   0
                   0
                   0
                   0
                   0
                   0
                   0
                   0
                   0
                   0
                   0
                   0
                   0
                   0
                   0
                   0
                   0
                   0
                   0
                   0
                   0
                   0
                   0
                   0
                   0
                   0
                   0
                   0
                   0
                   0
                   0
                   0
                   0
                   0
                   0
                   0
                   0
                   0
                   0
                   0
                   0
                   0
                   0
                   0
                   0
                   0
                   0
                   0
                   0
                   0
                   0
                   0
                   0
                   0
                   0
                   0
                   0
                   0
                   0
                   0
                   0
                   0
                   0
                   0
                   0
                   0
                   0
                   0
                   0
                   0
                   0
                   0
                   0
                   0
                   0
                   0
                   0
                   0
                   0
                   0
                   0
                   0
                   0
                   0
                   0
                   0
                   0
                   0
                   0
                   0
                   0
                   0
                   0
                   0
                   0
                   0
                   0
                   0
                   0
                   0
                   0
                   0
                   0
                   0
                   0
                   0
                   0
                   0
                   0
                   0
                   0
                   0
                   0
                   0
                   0
                   0
                   0
                   0
                   0
                   0
                   0
                   0
                   0
                   0
                   0
                   0
                   0
                   0
                   0
                   0
                   0
                   0
                   0
                   0
                   0
                   0
                   0
                   0
                   0
                   0
                   0
                   0
                   0
                   0
                   0
                   0
                   0
                   0
                   0
                   0
                   0
                   0
                   0
                   0
                   0
                   0
                   0
                   0
                   0
                   0
                   0
                   0
                   0
                   0
                   0
                   0
                   0
                   0
                   0
                   0
                   0
                   0
                   0
                   0
                   0
                   0
                   0
                   0
                   0
                   0
                   0
                   0
                   0
                   0
                   0
                   0
                   0
                   0
                   0
                   0
                   0
                   0
                   0
                   0
                   0
                   0
                   0
                   0
                   0
                   0
                   0
                   0
                   0
                   0
                   0
                   0
                   0
                   0
                   0
                   0
                   0
                   0
                   0
                   0
                   0
                   0
                   0
                   0
                   0
                   0
                   0
                   0
                   0
                   0
                   0
                   0
                   0
                   0
                   0
                   0
                   0
                   0
                   0
                   0
                   0
                   0
                   0
                   0
                   0
                   0
                   0
                   0
                   0
                   0
                   0
                   0
                   0
                   0
                   0
                   0
                   0
                   0
                   0
                   0
                   0
                   0
                   0
                   0
                   0
                   0
                   0
                   0
                   0
                   0
                   0
                   0
                   0
                   0
                   0
                   0
                   0
                   0
                   0
                   0
                   0
                   0
                   0
                   0
                   0
                   0
                   0
                   0
                   0
                   0
                   0
                   0
                   0
                   0
                   0
                   0
                   0
                   0
                   0
                   0
                   0
                   0
                   0
                   0
                   0
                   0
                   0
                   0
                   0
                   0
                   0
                   0
                   0
                   0
                   0
                   0
                   0
                   0
                   0
                   0
                   0
                   0
                   0
                   0
                   0
                   0
                   0
                   0
                   0
                   0
                   0
                   0
                   0
                   0
                   0
                   0
                   0
                   0
                   0
                   0
                   0
                   0
                   0
                   0
                   0
                   0
                   0
                   0
                   0
                   0
                   0
                   0
                   0
                   0
                   0
                   0
                   0
                   0
                   0
                   0
                   0
                   0
                   0
                   0
                   0
                   0
                   0
                   0
                   0
                   0
                   0
                   0
                   0
                   0
                   0
                   0
                   0
                   0
                   0
                   0
                   0
                   0
                   0
                   0
                   0
                   0
                   0
                   0
                   0
                   0
                   0
                   0
                   0
                   0
                   0
                   0
                   0
                   0
                   0
                   0
                   0
                   0
                   0
                   0
                   0
                   0
                   0
                   0
                   0
                   0
                   0
                   0
                   0
                   0
                   0
                   0
                   0
                   0
                   0
                   0
                   0
                   0
                   0
                   0
                   0
                   0
                   0
                   0
                   0
                   0
                   0
                   0
                   0
                   0
                   0
                   0
                   0
                   0
                   0
                   0
                   0
                   0
                   0
                   0
                   0
                   0
                   0
                   0
                   0
                   0
                   0
                   0
                   0
                   0
                   0
                   0
                   0
                   0
                   0
                   0
                   0
                   0
                   0
                   0
                   0
                   0
                   0
                   0
                   0
                   0
                   0
                   0
                   0
                   0
                   0
                   0
                   0
                   0
                   0
                   0
                   0
                   0
                   0
                   0
                   0
                   0
                   0
                   0
                   0
                   0
                   0
                   0
                   0
                   0
                   0
                   0
                   0
                   0
                   0
                   0
                   0
                   0
                   0
                   0
                   0
                   0
                   0
                   0
                   0
                   0
                   0
                   0
                   0
                   0
                   0
                   0
                   0
                   0
                   0
                   0
                   0
                   0
                   0
                   0
                   0
                   0
                   0
                   0
                   0
                   0
                   0
                   0
                   0
                   0
                   0
                   0
                   0
                   0
                   0
                   0
                   0
                   0
                   0
                   0
                   0
                   0
                   0
                   0
                   0
                   0
                   0
                   0
                   0
                   0
                   0
                   0
                   0
                   0
                   0
                   0
                   0
                   0
                   0
                   0
                   0
                   0
                   0
                   0
                   0
                   0
                   0
                   0
                   0
                   0
                   0
                   0
                   0
                   0
                   0
                   0
                   0
                   0
                   0
                   0
                   0
                   0
                   0
                   0
                   0
                   0
                   0
                   0
                   0
                   0
                   0
                   0
                   0
                   0
                   0
                   0
                   0
                   0
                   0
                   0
                   0
                   0
                   0
                   0
                   0
                   0
                   0
                   0
                   0
                   0
                   0
                   0
                   0
                   0
                   0
                   0
                   0
                   0
                   0
                   0
                   0
                   0
                   0
                   0
                   0
                   0
                   0
                   0
                   0
                   0
                   0
                   0
                   0
                   0
                   0
                   0
                   0
                   0
                   0
                   0
                   0
                   0
                   0
                   0
                   0
                   0
                   0
                   0
                   0
                   0
                   0
                   0
                   0
                   0
                   0
                   0
                   0
                   0
                   0
                   0
                   0
                   0
                   0
                   0
                   0
                   0
                   0
                   0
                   0
                   0
                   0
                   0
                   0
                   0
                   0
                   0
                   0
                   0
                   0
                   0
                   0
                   0
                   0
                   0
                   0
                   0
                   0
                   0
                   0
                   0
                   0
                   0
                   0
                   0
                   0
                   0
                   0
                   0
                   0
                   0
                   0
                   0
                   0
                   0
                   0
                   0
                   0
                   0
                   0
                   0
                   0
                   0
                   0
                   0
                   0
                   0
                   0
                   0
                   0
                   0
                   0
                   0
                   0
                   0
                   0
                   0
                   0
                   0
                   0
                   0
                   0
                   0
                   0
                   0
                   0
                   0
                   0
                   0
                   0
                   0
                   0
                   0
                   0
                   0
                   0
                   0
                   0
                   0
                   0
                   0
                   0
                   0
                   0
                   0
                   0
                   0
                   0
                   0
                   0
                   0
                   0
                   0
                   0
                   0
                   0
                   0
                   0
                   0
                   0
                   0
                   0
                   0
                   0
                   0
                   0
                   0
                   0
                   0
                   0
                   0
                   0
                   0
                   0
                   0
                   0
                   0
                   0
                   0
                   0
                   0
                   0
                   0
                   0
                   0
                   0
                   0
                   0
                   0
                   0
                   0
                   0
                   0
                   0
                   0
                   0
                   0
                   0
                   0
                   0
                   0
                   0
                   0
                   0
                   0
                   0
                   0
                   0
                   0
                   0
                   0
                   0
                   0
                   0
                   0
                   0
                   0
                   0
                   0
                   0
                   0
                   0
                   0
                   0
                   0
                   0
                   0
                   0
                   0
                   0
                   0
                   0
                   0
                   0
                   0
                   0
                   0
                   0
                   0
                   0
                   0
                   0
                   0
                   0
                   0
                   0
                   0
                   0
                   0
                   0
                   0
                   0
                   0
                   0
                   0
                   0
                   0
                   0
                   0
                   0
                   0
                   0
                   0
                   0
                   0
                   0
                   0
                   0
                   0
                   0
                   0
                   0
                   0
                   0
                   0
                   0
                   0
                   0
                   0
                   0
                   0
                   0
                   0
                   0
                   0
                   0
                   0
                   0
                   0
                   0
                   0
                   0
                   0
                   0
                   0
                   0
                   0
                   0
                   0
                   0
                   0
                   0
                   0
                   0
                   0
                   0
                   0
                   0
                   0
                   0
                   0
                   0
                   0
                   0
                   0
                   0
                   0
                   0
                   0
                   0
                   0
                   0
                   0
                   0
                   0
                   0
                   0
                   0
                   0
                   0
                   0
                   0
                   0
                   0
                   0
                   0
                   0
                   0
                   0
                   0
                   0
                   0
                   0
                   0
                   0
                   0
                   0
                   0
                   0
                   0
                   0
                   0
                   0
                   0
                   0
                   0
                   0
                   0
                   0
                   0
                   0
                   0
                   0
                   0
                   0
                   0
                   0
                   0
                   0
                   0
                   0
                   0
                   0
                   0
                   0
                   0
                   0
                   0
                   0
                   0
                   0
                   0
                   0
                   0
                   0
                   0
                   0
                   0
                   0
                   0
                   0
                   0
                   0
                   0
                   0
                   0
                   0
                   0
                   0
                   0
                   0
                   0
                   0
                   0
                   0
                   0
                   0
                   0
                   0
                   0
                   0
                   0
                   0
                   0
                   0
                   0
                   0
                   0
                   0
                   0
                   0
                   0
                   0
                   0
                   0
                   0
                   0
                   0
                   0
                   0
                   0
                   0
                   0
                   0
                   0
                   0
                   0
                   0
                   0
                   0
                   0
                   0
                   0
                   0
                   0
                   0
                   0
                   0
                   0
                   0
                   0
                   0
                   0
                   0
                   0
                   0
                   0
                   0
                   0
                   0
                   0
                   0
                   0
                   0
                   0
                   0
                   0
                   0
                   0
                   0
                   0
                   0
                   0
                   0
                   0
                   0
                   0
                   0
                   0
                   0
                   0
                   0
                   0
                   0
                   0
                   0
                   0
                   0
                   0
                   0
                   0
                   0
                   0
                   0
                   0
                   0
                   0
                   0
                   0
                   0
                   0
                   0
                   0
                   0
                   0
                   0
                   0
                   0
                   0
                   0
                   0
                   0
                   0
                   0
                   0
                   0
                   0
                   0
                   0
                   0
                   0
                   0
                   0
                   0
                   0
                   0
                   0
                   0
                   0
                   0
                   0
                   0
                   0
                   0
                   0
                   0
                   0
                   0
                   0
                   0
                   0
                   0
                   0
                   0
                   0
                   0
                   0
                   0
                   0
                   0
                   0
                   0
                   0
                   0
                   0
                   0
                   0
                   0
                   0
                   0
                   0
                   0
                   0
                   0
                   0
                   0
                   0
                   0
                   0
                   0
                   0
                   0
                   0
                   0
                   0
                   0
                   0
                   0
                   0
                   0
                   0
                   0
                   0
                   0
                   0
                   0
                   0
                   0
                   0
                   0
                   0
                   0
                   0
                   0
                   0
                   0
                   0
                   0
                   0
                   0
                   0
                   0
                   0
                   0
                   0
                   0
                   0
                   0
                   0
                   0
                   0
                   0
                   0
                   0
                   0
                   0
                   0
                   0
                   0
                   0
                   0
                   0
                   0
                   0
                   0
                   0
                   0
                   0
                   0
                   0
                   0
                   0
                   0
                   0
                   0
                   0
                   0
                   0
                   0
                   0
                   0
                   0
                   0
                   0
                   0
                   0
                   0
                   0
                   0
                   0
                   0
                   0
                   0
                   0
                   0
                   0
                   0
                   0
                   0
                   0
                   0
                   0
                   0
                   0
                   0
                   0
                   0
                   0
                   0
                   0
                   0
                   0
                   0
                   0
                   0
                   0
                   0
                   0
                   0
                   0
                   0
                   0
                   0
                   0
                   0
                   0
                   0
                   0
                   0
                   0
                   0
                   0
                   0
                   0
                   0
                   0
                   0
                   0
                   0
                   0
                   0
                   0
                   0
                   0
                   0
                   0
                   0
                   0
                   0
                   0
                   0
                   0
                   0
                   0
                   0
                   0
                   0
                   0
                   0
                   0
                   0
                   0
                   0
                   0
                   0
                   0
                   0
                   0
                   0
                   0
                   0
                   0
                   0
                   0
                   0
                   0
                   0
                   0
                   0
                   0
                   0
                   0
                   0
                   0
                   0
                   0
                   0
                   0
                   0
                   0
                   0
                   0
                   0
                   0
                   0
                   0
                   0
                   0
                   0
                   0
                   0
                   0
                   0
                   0
                   0
                   0
                   0
                   0
                   0
                   0
                   0
                   0
                   0
                   0
                   0
                   0
                   0
                   0
                   0
                   0
                   0
                   0
                   0
                   0
                   0
                   0
                   0
                   0
                   0
                   0
                   0
                   0
                   0
                   0
                   0
                   0
                   0
                   0
                   0
                   0
                   0
                   0
                   0
                   0
                   0
                   0
                   0
                   0
                   0
                   0
                   0
                   0
                   0
                   0
                   0
                   0
                   0
                   0
                   0
                   0
                   0
                   0
                   0
                   0
                   0
                   0
                   0
                   0
                   0
                   0
                   0
                   0
                   0
                   0
                   0
                   0
                   0
                   0
                   0
                   0
                   0
                   0
                   0
                   0
                   0
                   0
                   0
                   0
                   0
                   0
                   0
                   0
                   0
                   0
                   0
                   0
                   0
                   0
                   0
                   0
                   0
                   0
                   0
                   0
                   0
                   0
                   0
                   0
                   0
                   0
                   0
                   0
                   0
                   0
                   0
                   0
                   0
                   0
                   0
                   0
                   0
                   0
                   0
                   0
                   0
                   0
                   0
                   0
                   0
                   0
                   0
                   0
                   0
                   0
                   0
                   0
                   0
                   0
                   0
                   0
                   0
                   0
                   0
                   0
                   0
                   0
                   0
                   0
                   0
                   0
                   0
                   0
                   0
                   0
                   0
                   0
                   0
                   0
                   0
                   0
                   0
                   0
                   0
                   0
                   0
                   0
                   0
                   0
                   0
                   0
                   0
                   0
                   0
                   0
                   0
                   0
                   0
                   0
                   0
                   0
                   0
                   0
                   0
                   0
                   0
                   0
                   0
                   0
                   0
                   0
                   0
  
SCALARS                         Ispace  double 1
LOOKUP_TABLE default
                  12
                  12
                  12
                  12
                  12
                  12
                  12
                  12
                  12
                  12
                  12
                  12
                  12
                  11
                  12
                  11
                  11
                  11
                  11
                  11
                  11
                  12
                  12
                  11
                  12
                  12
                  11
                  11
                  11
                  11
                  11
                  11
                  11
                  11
                  11
                  11
                  11
                  11
                  11
                  11
                  11
                  11
                  11
                  11
                  11
                  11
                  11
                  11
                  11
                  11
                  11
                  11
                  11
                  11
                  11
                  11
                  11
                  11
                  11
                  11
                  11
                  11
                  11
                  11
                  11
                  11
                  12
                  12
                  12
                  12
                  12
                  12
                  12
                  12
                  11
                  11
                  11
                  11
                  11
                  11
                  11
                  11
                  11
                  11
                  11
                  11
                  11
                  11
                  11
                  11
                  11
                  11
                  11
                  11
                  11
                  11
                  12
                  12
                  12
                  12
                  12
                  12
                  12
                  12
                  12
                  12
                  12
                  12
                  12
                  12
                  12
                  12
                  12
                  12
                  12
                  12
                  11
                  11
                  11
                  11
                  11
                  11
                  11
                  11
                  11
                  11
                  11
                  11
                  11
                  11
                  11
                  11
                  11
                  11
                  11
                  11
                  11
                  11
                  11
                  11
                  11
                  11
                  11
                  11
                  11
                  11
                  12
                  12
                  12
                  12
                  12
                  12
                  12
                  12
                  12
                  12
                  12
                  12
                  12
                  12
                  12
                  12
                  12
                  11
                  11
                  11
                  11
                  12
                  12
                  11
                  11
                  11
                  11
                  11
                  11
                  11
                  11
                  11
                  11
                  11
                  11
                  11
                  11
                  11
                  11
                  11
                  11
                  11
                  11
                  12
                  12
                  12
                  12
                  11
                  11
                  11
                  11
                  11
                  11
                  11
                  11
                  11
                  11
                  11
                  12
                  12
                  12
                  12
                  12
                  12
                  12
                  12
                  12
                  12
                  11
                  11
                  11
                  11
                  11
                  11
                  11
                  11
                  11
                  11
                  11
                  11
                  11
                  11
                  11
                  12
                  12
                  12
                  12
                  12
                  12
                  12
                  12
                  12
                  12
                  12
                  12
                  11
                  11
                  11
                  11
                  12
                  12
                  11
                  11
                  11
                  11
                  11
                  11
                  11
                  11
                  11
                  11
                  11
                  11
                  11
                  11
                  11
                  11
                  11
                  11
                  11
                  11
                  12
                  12
                  12
                  12
                  11
                  11
                  11
                  11
                  11
                  11
                  11
                  11
                  11
                  11
                  11
                  12
                  12
                  12
                  12
                  12
                  12
                  12
                  12
                  12
                  12
                  11
                  11
                  11
                  11
                  11
                  11
                  11
                  11
                  11
                  11
                  11
                  11
                  11
                  11
                  11
                  12
                  12
                  12
                  12
                  12
                  12
                  12
                  12
                  12
                  12
                  12
                  12
                  11
                  11
                  11
                  11
                  12
                  12
                  11
                  11
                  11
                  11
                  11
                  11
                  11
                  11
                  11
                  11
                  11
                  11
                  11
                  11
                  11
                  11
                  11
                  11
                  11
                  11
                  12
                  12
                  12
                  12
                  11
                  11
                  11
                  11
                  11
                  11
                  11
                  11
                  11
                  11
                  11
                  12
                  12
                  12
                  12
                  12
                  12
                  12
                  12
                  12
                  12
                  11
                  11
                  11
                  11
                  11
                  11
                  11
                  11
                  11
                  11
                  11
                  11
                  11
                  11
                  11
                  12
                  12
                  12
                  12
                  12
                  12
                  12
                  12
                  12
                  12
                  12
                  12
                  11
                  11
                  11
                  11
                  12
                  12
                  11
                  11
                  11
                  11
                  11
                  11
                  11
                  11
                  11
                  11
                  11
                  11
                  11
                  11
                  11
                  11
                  11
                  11
                  11
                  11
                  12
                  12
                  12
                  12
                  11
                  11
                  11
                  11
                  11
                  11
                  11
                  11
                  11
                  11
                  11
                  12
                  12
                  12
                  12
                  12
                  12
                  12
                  12
                  12
                  12
                  11
                  11
                  11
                  11
                  11
                  11
                  11
                  11
                  11
                  11
                  11
                  11
                  11
                  11
                  11
                  12
                  12
                  12
                  12
                  12
                  12
                  12
                  12
                  12
                  12
                  12
                  12
                  11
                  11
                  11
                  11
                  12
                  12
                  11
                  11
                  11
                  11
                  11
                  11
                  11
                  11
                  11
                  11
                  11
                  11
                  11
                  11
                  11
                  11
                  11
                  11
                  11
                  11
                  12
                  12
                  12
                  12
                  11
                  11
                  11
                  11
                  11
                  11
                  11
                  11
                  11
                  11
                  11
                  12
                  12
                  12
                  12
                  12
                  12
                  12
                  12
                  12
                  12
                  11
                  11
                  11
                  11
                  11
                  11
                  11
                  11
                  11
                  11
                  11
                  11
                  11
                  11
                  11
                  12
                  12
                  12
                  12
                  12
                  12
                  12
                  12
                  12
                  12
                  12
                  12
                  11
                  11
                  11
                  11
                  12
                  12
                  11
                  11
                  11
                  11
                  11
                  11
                  11
                  11
                  11
                  11
                  11
                  11
                  11
                  11
                  11
                  11
                  11
                  11
                  11
                  11
                  12
                  12
                  12
                  12
                  11
                  11
                  11
                  11
                  11
                  11
                  11
                  11
                  11
                  11
                  11
                  12
                  12
                  12
                  12
                  12
                  12
                  12
                  12
                  12
                  12
                  11
                  11
                  11
                  11
                  11
                  11
                  11
                  11
                  11
                  11
                  11
                  11
                  11
                  11
                  11
                  12
                  12
                  12
                  12
                  12
                  12
                  12
                  12
                  12
                  12
                  12
                  12
                  11
                  11
                  11
                  11
                  12
                  12
                  11
                  11
                  11
                  11
                  11
                  11
                  11
                  11
                  11
                  11
                  11
                  11
                  11
                  11
                  11
                  11
                  11
                  11
                  11
                  11
                  12
                  12
                  12
                  12
                  11
                  11
                  11
                  11
                  11
                  11
                  11
                  11
                  11
                  11
                  11
                  12
                  12
                  12
                  12
                  12
                  12
                  12
                  12
                  12
                  12
                  11
                  11
                  11
                  11
                  11
                  11
                  11
                  11
                  11
                  11
                  11
                  11
                  11
                  11
                  11
                  12
                  12
                  12
                  12
                  12
                  12
                  12
                  12
                  12
                  12
                  12
                  12
                  11
                  11
                  11
                  11
                  12
                  12
                  11
                  11
                  11
                  11
                  11
                  11
                  11
                  11
                  11
                  11
                  11
                  11
                  11
                  11
                  11
                  11
                  11
                  11
                  11
                  11
                  12
                  12
                  12
                  12
                  11
                  11
                  11
                  11
                  11
                  11
                  11
                  11
                  11
                  11
                  11
                  12
                  12
                  12
                  12
                  12
                  12
                  12
                  12
                  12
                  12
                  11
                  11
                  11
                  11
                  11
                  11
                  11
                  11
                  11
                  11
                  11
                  11
                  11
                  11
                  11
                  12
                  12
                  12
                  12
                  12
                  12
                  12
                  12
                  12
                  12
                  12
                  12
                  11
                  11
                  11
                  11
                  12
                  12
                  11
                  11
                  11
                  11
                  11
                  11
                  11
                  11
                  11
                  11
                  11
                  11
                  11
                  11
                  11
                  11
                  11
                  11
                  11
                  11
                  12
                  12
                  12
                  12
                  11
                  11
                  11
                  11
                  11
                  11
                  11
                  11
                  11
                  11
                  11
                  12
                  12
                  12
                  12
                  12
                  12
                  12
                  12
                  12
                  12
                  11
                  11
                  11
                  11
                  11
                  11
                  11
                  11
                  11
                  11
                  11
                  11
                  11
                  11
                  11
                  12
                  12
                  12
                  12
                  12
                  12
                  12
                  12
                  12
                  12
                  12
                  12
                  11
                  11
                  11
                  11
                  12
                  12
                  11
                  11
                  11
                  11
                  11
                  11
                  11
                  11
                  11
                  11
                  11
                  11
                  11
                  11
                  11
                  11
                  11
                  11
                  11
                  11
                  12
                  12
                  12
                  12
                  11
                  11
                  11
                  11
                  11
                  11
                  11
                  11
                  11
                  11
                  11
                  12
                  12
                  12
                  12
                  12
                  12
                  12
                  12
                  12
                  12
                  11
                  11
                  11
                  11
                  11
                  11
                  11
                  11
                  11
                  11
                  11
                  11
                  11
                  11
                  11
                  12
                  12
                  12
                  12
                  12
                  12
                  12
                  12
                  12
                  12
                  12
                  12
                  11
                  11
                  11
                  11
                  12
                  12
                  11
                  11
                  11
                  11
                  11
                  11
                  11
                  11
                  11
                  11
                  11
                  11
                  11
                  11
                  11
                  11
                  11
                  11
                  11
                  11
                  12
                  12
                  12
                  12
                  11
                  11
                  11
                  11
                  11
                  11
                  11
                  11
                  11
                  11
                  11
                  12
                  12
                  12
                  12
                  12
                  12
                  12
                  12
                  12
                  12
                  11
                  11
                  11
                  11
                  11
                  11
                  11
                  11
                  11
                  11
                  11
                  11
                  11
                  11
                  11
                  12
                  12
                  12
                  12
                  12
                  12
                  12
                  12
                  12
                  12
                  12
                  12
                  11
                  11
                  11
                  11
                  12
                  12
                  11
                  11
                  11
                  11
                  11
                  11
                  11
                  11
                  11
                  11
                  11
                  11
                  11
                  11
                  11
                  11
                  11
                  11
                  11
                  11
                  12
                  12
                  12
                  12
                  11
                  11
                  11
                  11
                  11
                  11
                  11
                  11
                  11
                  11
                  11
                  12
                  12
                  12
                  12
                  12
                  12
                  12
                  12
                  12
                  12
                  11
                  11
                  11
                  11
                  11
                  11
                  11
                  11
                  11
                  11
                  11
                  11
                  11
                  11
                  11
                  12
                  12
                  12
                  12
                  12
                  12
                  12
                  12
                  12
                  12
                  12
                  12
                  11
                  11
                  11
                  11
                  12
                  12
                  11
                  11
                  11
                  11
                  11
                  11
                  11
                  11
                  11
                  11
                  11
                  11
                  11
                  11
                  11
                  11
                  11
                  11
                  11
                  11
                  12
                  12
                  12
                  12
                  11
                  11
                  11
                  11
                  11
                  11
                  11
                  11
                  11
                  11
                  11
                  12
                  12
                  12
                  12
                  12
                  12
                  12
                  12
                  12
                  12
                  11
                  11
                  11
                  11
                  11
                  11
                  11
                  11
                  11
                  11
                  11
                  11
                  11
                  11
                  11
                  12
                  12
                  12
                  12
                  12
                  12
                  12
                  12
                  12
                  12
                  12
                  12
                  11
                  11
                  11
                  11
                  12
                  12
                  11
                  11
                  11
                  11
                  11
                  11
                  11
                  11
                  11
                  11
                  11
                  11
                  11
                  11
                  11
                  11
                  11
                  11
                  11
                  11
                  12
                  12
                  12
                  12
                  11
                  11
                  11
                  11
                  11
                  11
                  11
                  11
                  11
                  11
                  11
                  12
                  12
                  12
                  12
                  12
                  12
                  12
                  12
                  12
                  12
                  11
                  11
                  11
                  11
                  11
                  11
                  11
                  11
                  11
                  11
                  11
                  11
                  11
                  11
                  11
                  12
                  12
                  12
                  12
                  12
                  12
                  12
                  12
                  12
                  12
                  12
                  12
                  11
                  11
                  11
                  11
                  12
                  12
                  11
                  11
                  11
                  11
                  11
                  11
                  11
                  11
                  11
                  11
                  11
                  11
                  11
                  11
                  11
                  11
                  11
                  11
                  11
                  11
                  12
                  12
                  12
                  12
                  11
                  11
                  11
                  11
                  11
                  11
                  11
                  11
                  11
                  11
                  11
                  12
                  12
                  12
                  12
                  12
                  12
                  12
                  12
                  12
                  12
                  11
                  11
                  11
                  11
                  11
                  11
                  11
                  11
                  11
                  11
                  11
                  11
                  11
                  11
                  11
                  12
                  12
                  12
                  12
                  12
                  12
                  12
                  12
                  12
                  12
                  12
                  12
                  11
                  11
                  11
                  11
                  12
                  12
                  11
                  11
                  11
                  11
                  11
                  11
                  11
                  11
                  11
                  11
                  11
                  11
                  11
                  11
                  11
                  11
                  11
                  11
                  11
                  11
                  12
                  12
                  12
                  12
                  11
                  11
                  11
                  11
                  11
                  11
                  11
                  11
                  11
                  11
                  11
                  12
                  12
                  12
                  12
                  12
                  12
                  12
                  12
                  12
                  12
                  11
                  11
                  11
                  11
                  11
                  11
                  11
                  11
                  11
                  11
                  11
                  11
                  11
                  11
                  11
                  12
                  12
                  12
                  12
                  12
                  12
                  12
                  12
                  12
                  12
                  12
                  12
                  11
                  11
                  11
                  11
                  12
                  12
                  11
                  11
                  11
                  11
                  11
                  11
                  11
                  11
                  11
                  11
                  11
                  11
                  11
                  11
                  11
                  11
                  11
                  11
                  11
                  11
                  12
                  12
                  12
                  12
                  11
                  11
                  11
                  11
                  11
                  11
                  11
                  11
                  11
                  11
                  11
                  12
                  12
                  12
                  12
                  12
                  12
                  12
                  12
                  12
                  12
                  11
                  11
                  11
                  11
                  11
                  11
                  11
                  11
                  11
                  11
                  11
                  11
                  11
                  11
                  11
                  12
                  12
                  12
                  12
                  12
                  12
                  12
                  12
                  12
                  12
                  12
                  12
                  11
                  11
                  11
                  11
                  12
                  12
                  11
                  11
                  11
                  11
                  11
                  11
                  11
                  11
                  11
                  11
                  11
                  11
                  11
                  11
                  11
                  11
                  11
                  11
                  11
                  11
                  12
                  12
                  12
                  12
                  11
                  11
                  11
                  11
                  11
                  11
                  11
                  11
                  11
                  11
                  11
                  12
                  12
                  12
                  12
                  12
                  12
                  12
                  12
                  12
                  12
                  11
                  11
                  11
                  11
                  11
                  11
                  11
                  11
                  11
                  11
                  11
                  11
                  11
                  11
                  11
                  12
                  12
                  12
                  12
                  12
                  12
                  12
                  12
                  12
                  12
                  12
                  12
                  11
                  11
                  11
                  11
                  12
                  12
                  11
                  11
                  11
                  11
                  11
                  11
                  11
                  11
                  11
                  11
                  11
                  11
                  11
                  11
                  11
                  11
                  11
                  11
                  11
                  11
                  12
                  12
                  12
                  12
                  11
                  11
                  11
                  11
                  11
                  11
                  11
                  11
                  11
                  11
                  11
                  12
                  12
                  12
                  12
                  12
                  12
                  12
                  12
                  12
                  12
                  11
                  11
                  11
                  11
                  11
                  11
                  11
                  11
                  11
                  11
                  11
                  11
                  11
                  11
                  11
                  12
                  12
                  12
                  12
                  12
                  12
                  12
                  12
                  12
                  12
                  12
                  12
                  11
                  11
                  11
                  11
                  12
                  12
                  11
                  11
                  11
                  11
                  11
                  11
                  11
                  11
                  11
                  11
                  11
                  11
                  11
                  11
                  11
                  11
                  11
                  11
                  11
                  11
                  12
                  12
                  12
                  12
                  11
                  11
                  11
                  11
                  11
                  11
                  11
                  11
                  11
                  11
                  11
                  12
                  12
                  12
                  12
                  12
                  12
                  12
                  12
                  12
                  12
                  11
                  11
                  11
                  11
                  11
                  11
                  11
                  11
                  11
                  11
                  11
                  11
                  11
                  11
                  11
                  12
                  12
                  12
                  12
                  12
                  12
                  12
                  12
                  12
                  12
                  12
                  12
                  11
                  11
                  11
                  11
                  12
                  12
                  11
                  11
                  11
                  11
                  11
                  11
                  11
                  11
                  11
                  11
                  11
                  11
                  11
                  11
                  11
                  11
                  11
                  11
                  11
                  11
                  12
                  12
                  12
                  12
                  11
                  11
                  11
                  11
                  11
                  11
                  11
                  11
                  11
                  11
                  11
                  12
                  12
                  12
                  12
                  12
                  12
                  12
                  12
                  12
                  12
                  11
                  11
                  11
                  11
                  11
                  11
                  11
                  11
                  11
                  11
                  11
                  11
                  11
                  11
                  11
                  12
                  12
                  12
                  12
                  12
                  12
                  12
                  12
                  12
                  12
                  12
                  12
                  11
                  11
                  11
                  11
                  12
                  12
                  11
                  11
                  11
                  11
                  11
                  11
                  11
                  11
                  11
                  11
                  11
                  11
                  11
                  11
                  11
                  11
                  11
                  11
                  11
                  11
                  12
                  12
                  12
                  12
                  11
                  11
                  11
                  11
                  11
                  11
                  11
                  11
                  11
                  11
                  11
                  12
                  12
                  12
                  12
                  12
                  12
                  12
                  12
                  12
                  12
                  11
                  11
                  11
                  11
                  11
                  11
                  11
                  11
                  11
                  11
                  11
                  11
                  11
                  11
                  11
                  12
                  12
                  12
                  12
                  12
                  12
                  12
                  12
                  12
                  12
                  12
                  12
                  11
                  11
                  11
                  11
                  12
                  12
                  11
                  11
                  11
                  11
                  11
                  11
                  11
                  11
                  11
                  11
                  11
                  11
                  11
                  11
                  11
                  11
                  11
                  11
                  11
                  11
                  12
                  12
                  12
                  12
                  11
                  11
                  11
                  11
                  11
                  11
                  11
                  11
                  11
                  11
                  11
                  12
                  12
                  12
                  12
                  12
                  12
                  12
                  12
                  12
                  12
                  11
                  11
                  11
                  11
                  11
                  11
                  11
                  11
                  11
                  11
                  11
                  11
                  11
                  11
                  11
                  12
                  12
                  12
                  12
                  12
  
SCALARS                         Jspace  double 1
LOOKUP_TABLE default
                  11
                  12
                  11
                  11
                  11
                  12
                  11
                  11
                  11
                  11
                  11
                  11
                  12
                  12
                  12
                  12
                  11
                  12
                  11
                  12
                  12
                  12
                  12
                  12
                  12
                  12
                  12
                  12
                  12
                  12
                  11
                  11
                  11
                  11
                  11
                  11
                  11
                  11
                  11
                  11
                  11
                  11
                  11
                  11
                  11
                  11
                  11
                  11
                  11
                  11
                  11
                  11
                  12
                  12
                  12
                  12
                  12
                  11
                  12
                  11
                  11
                  11
                  11
                  11
                  11
                  11
                  11
                  11
                  11
                  12
                  11
                  12
                  12
                  12
                  12
                  12
                  12
                  12
                  12
                  12
                  12
                  12
                  12
                  12
                  11
                  11
                  11
                  11
                  11
                  11
                  11
                  11
                  11
                  11
                  11
                  11
                  11
                  11
                  11
                  11
                  11
                  11
                  11
                  11
                  11
                  11
                  11
                  11
                  12
                  12
                  12
                  12
                  12
                  12
                  12
                  12
                  12
                  12
                  12
                  12
                  12
                  12
                  12
                  12
                  12
                  12
                  12
                  12
                  11
                  11
                  11
                  11
                  11
                  11
                  11
                  11
                  11
                  11
                  11
                  11
                  11
                  11
                  11
                  11
                  11
                  11
                  11
                  11
                  11
                  11
                  11
                  11
                  11
                  11
                  11
                  11
                  11
                  12
                  11
                  11
                  11
                  11
                  12
                  12
                  11
                  12
                  12
                  12
                  12
                  12
                  12
                  11
                  11
                  11
                  11
                  11
                  11
                  11
                  11
                  11
                  11
                  11
                  12
                  12
                  12
                  11
                  11
                  11
                  11
                  11
                  11
                  12
                  12
                  12
                  12
                  12
                  12
                  12
                  11
                  11
                  11
                  11
                  11
                  11
                  11
                  11
                  11
                  11
                  11
                  11
                  12
                  12
                  12
                  12
                  12
                  12
                  12
                  12
                  12
                  12
                  11
                  11
                  11
                  11
                  11
                  11
                  11
                  11
                  11
                  11
                  11
                  11
                  11
                  11
                  11
                  12
                  11
                  11
                  11
                  11
                  12
                  12
                  11
                  12
                  12
                  12
                  12
                  12
                  12
                  11
                  11
                  11
                  11
                  11
                  11
                  11
                  11
                  11
                  11
                  11
                  12
                  12
                  12
                  11
                  11
                  11
                  11
                  11
                  11
                  12
                  12
                  12
                  12
                  12
                  12
                  12
                  11
                  11
                  11
                  11
                  11
                  11
                  11
                  11
                  11
                  11
                  11
                  11
                  12
                  12
                  12
                  12
                  12
                  12
                  12
                  12
                  12
                  12
                  11
                  11
                  11
                  11
                  11
                  11
                  11
                  11
                  11
                  11
                  11
                  11
                  11
                  11
                  11
                  12
                  11
                  11
                  11
                  11
                  12
                  12
                  11
                  12
                  12
                  12
                  12
                  12
                  12
                  11
                  11
                  11
                  11
                  11
                  11
                  11
                  11
                  11
                  11
                  11
                  12
                  12
                  12
                  11
                  11
                  11
                  11
                  11
                  11
                  12
                  12
                  12
                  12
                  12
                  12
                  12
                  11
                  11
                  11
                  11
                  11
                  11
                  11
                  11
                  11
                  11
                  11
                  11
                  12
                  12
                  12
                  12
                  12
                  12
                  12
                  12
                  12
                  12
                  11
                  11
                  11
                  11
                  11
                  11
                  11
                  11
                  11
                  11
                  11
                  11
                  11
                  11
                  11
                  12
                  11
                  11
                  11
                  11
                  12
                  12
                  11
                  12
                  12
                  12
                  12
                  12
                  12
                  11
                  11
                  11
                  11
                  11
                  11
                  11
                  11
                  11
                  11
                  11
                  12
                  12
                  12
                  11
                  11
                  11
                  11
                  11
                  11
                  12
                  12
                  12
                  12
                  12
                  12
                  12
                  11
                  11
                  11
                  11
                  11
                  11
                  11
                  11
                  11
                  11
                  11
                  11
                  12
                  12
                  12
                  12
                  12
                  12
                  12
                  12
                  12
                  12
                  11
                  11
                  11
                  11
                  11
                  11
                  11
                  11
                  11
                  11
                  11
                  11
                  11
                  11
                  11
                  12
                  11
                  11
                  11
                  11
                  12
                  12
                  11
                  12
                  12
                  12
                  12
                  12
                  12
                  11
                  11
                  11
                  11
                  11
                  11
                  11
                  11
                  11
                  11
                  11
                  12
                  12
                  12
                  11
                  11
                  11
                  11
                  11
                  11
                  12
                  12
                  12
                  12
                  12
                  12
                  12
                  11
                  11
                  11
                  11
                  11
                  11
                  11
                  11
                  11
                  11
                  11
                  11
                  12
                  12
                  12
                  12
                  12
                  12
                  12
                  12
                  12
                  12
                  11
                  11
                  11
                  11
                  11
                  11
                  11
                  11
                  11
                  11
                  11
                  11
                  11
                  11
                  11
                  12
                  11
                  11
                  11
                  11
                  12
                  12
                  11
                  12
                  12
                  12
                  12
                  12
                  12
                  11
                  11
                  11
                  11
                  11
                  11
                  11
                  11
                  11
                  11
                  11
                  12
                  12
                  12
                  11
                  11
                  11
                  11
                  11
                  11
                  12
                  12
                  12
                  12
                  12
                  12
                  12
                  11
                  11
                  11
                  11
                  11
                  11
                  11
                  11
                  11
                  11
                  11
                  11
                  12
                  12
                  12
                  12
                  12
                  12
                  12
                  12
                  12
                  12
                  11
                  11
                  11
                  11
                  11
                  11
                  11
                  11
                  11
                  11
                  11
                  11
                  11
                  11
                  11
                  12
                  11
                  11
                  11
                  11
                  12
                  12
                  11
                  12
                  12
                  12
                  12
                  12
                  12
                  11
                  11
                  11
                  11
                  11
                  11
                  11
                  11
                  11
                  11
                  11
                  12
                  12
                  12
                  11
                  11
                  11
                  11
                  11
                  11
                  12
                  12
                  12
                  12
                  12
                  12
                  12
                  11
                  11
                  11
                  11
                  11
                  11
                  11
                  11
                  11
                  11
                  11
                  11
                  12
                  12
                  12
                  12
                  12
                  12
                  12
                  12
                  12
                  12
                  11
                  11
                  11
                  11
                  11
                  11
                  11
                  11
                  11
                  11
                  11
                  11
                  11
                  11
                  11
                  12
                  11
                  11
                  11
                  11
                  12
                  12
                  11
                  12
                  12
                  12
                  12
                  12
                  12
                  11
                  11
                  11
                  11
                  11
                  11
                  11
                  11
                  11
                  11
                  11
                  12
                  12
                  12
                  11
                  11
                  11
                  11
                  11
                  11
                  12
                  12
                  12
                  12
                  12
                  12
                  12
                  11
                  11
                  11
                  11
                  11
                  11
                  11
                  11
                  11
                  11
                  11
                  11
                  12
                  12
                  12
                  12
                  12
                  12
                  12
                  12
                  12
                  12
                  11
                  11
                  11
                  11
                  11
                  11
                  11
                  11
                  11
                  11
                  11
                  11
                  11
                  11
                  11
                  12
                  11
                  11
                  11
                  11
                  12
                  12
                  11
                  12
                  12
                  12
                  12
                  12
                  12
                  11
                  11
                  11
                  11
                  11
                  11
                  11
                  11
                  11
                  11
                  11
                  12
                  12
                  12
                  11
                  11
                  11
                  11
                  11
                  11
                  12
                  12
                  12
                  12
                  12
                  12
                  12
                  11
                  11
                  11
                  11
                  11
                  11
                  11
                  11
                  11
                  11
                  11
                  11
                  12
                  12
                  12
                  12
                  12
                  12
                  12
                  12
                  12
                  12
                  11
                  11
                  11
                  11
                  11
                  11
                  11
                  11
                  11
                  11
                  11
                  11
                  11
                  11
                  11
                  12
                  11
                  11
                  11
                  11
                  12
                  12
                  11
                  12
                  12
                  12
                  12
                  12
                  12
                  11
                  11
                  11
                  11
                  11
                  11
                  11
                  11
                  11
                  11
                  11
                  12
                  12
                  12
                  11
                  11
                  11
                  11
                  11
                  11
                  12
                  12
                  12
                  12
                  12
                  12
                  12
                  11
                  11
                  11
                  11
                  11
                  11
                  11
                  11
                  11
                  11
                  11
                  11
                  12
                  12
                  12
                  12
                  12
                  12
                  12
                  12
                  12
                  12
                  11
                  11
                  11
                  11
                  11
                  11
                  11
                  11
                  11
                  11
                  11
                  11
                  11
                  11
                  11
                  12
                  11
                  11
                  11
                  11
                  12
                  12
                  11
                  12
                  12
                  12
                  12
                  12
                  12
                  11
                  11
                  11
                  11
                  11
                  11
                  11
                  11
                  11
                  11
                  11
                  12
                  12
                  12
                  11
                  11
                  11
                  11
                  11
                  11
                  12
                  12
                  12
                  12
                  12
                  12
                  12
                  11
                  11
                  11
                  11
                  11
                  11
                  11
                  11
                  11
                  11
                  11
                  11
                  12
                  12
                  12
                  12
                  12
                  12
                  12
                  12
                  12
                  12
                  11
                  11
                  11
                  11
                  11
                  11
                  11
                  11
                  11
                  11
                  11
                  11
                  11
                  11
                  11
                  12
                  11
                  11
                  11
                  11
                  12
                  12
                  11
                  12
                  12
                  12
                  12
                  12
                  12
                  11
                  11
                  11
                  11
                  11
                  11
                  11
                  11
                  11
                  11
                  11
                  12
                  12
                  12
                  11
                  11
                  11
                  11
                  11
                  11
                  12
                  12
                  12
                  12
                  12
                  12
                  12
                  11
                  11
                  11
                  11
                  11
                  11
                  11
                  11
                  11
                  11
                  11
                  11
                  12
                  12
                  12
                  12
                  12
                  12
                  12
                  12
                  12
                  12
                  11
                  11
                  11
                  11
                  11
                  11
                  11
                  11
                  11
                  11
                  11
                  11
                  11
                  11
                  11
                  12
                  11
                  11
                  11
                  11
                  12
                  12
                  11
                  12
                  12
                  12
                  12
                  12
                  12
                  11
                  11
                  11
                  11
                  11
                  11
                  11
                  11
                  11
                  11
                  11
                  12
                  12
                  12
                  11
                  11
                  11
                  11
                  11
                  11
                  12
                  12
                  12
                  12
                  12
                  12
                  12
                  11
                  11
                  11
                  11
                  11
                  11
                  11
                  11
                  11
                  11
                  11
                  11
                  12
                  12
                  12
                  12
                  12
                  12
                  12
                  12
                  12
                  12
                  11
                  11
                  11
                  11
                  11
                  11
                  11
                  11
                  11
                  11
                  11
                  11
                  11
                  11
                  11
                  12
                  11
                  11
                  11
                  11
                  12
                  12
                  11
                  12
                  12
                  12
                  12
                  12
                  12
                  11
                  11
                  11
                  11
                  11
                  11
                  11
                  11
                  11
                  11
                  11
                  12
                  12
                  12
                  11
                  11
                  11
                  11
                  11
                  11
                  12
                  12
                  12
                  12
                  12
                  12
                  12
                  11
                  11
                  11
                  11
                  11
                  11
                  11
                  11
                  11
                  11
                  11
                  11
                  12
                  12
                  12
                  12
                  12
                  12
                  12
                  12
                  12
                  12
                  11
                  11
                  11
                  11
                  11
                  11
                  11
                  11
                  11
                  11
                  11
                  11
                  11
                  11
                  11
                  12
                  11
                  11
                  11
                  11
                  12
                  12
                  11
                  12
                  12
                  12
                  12
                  12
                  12
                  11
                  11
                  11
                  11
                  11
                  11
                  11
                  11
                  11
                  11
                  11
                  12
                  12
                  12
                  11
                  11
                  11
                  11
                  11
                  11
                  12
                  12
                  12
                  12
                  12
                  12
                  12
                  11
                  11
                  11
                  11
                  11
                  11
                  11
                  11
                  11
                  11
                  11
                  11
                  12
                  12
                  12
                  12
                  12
                  12
                  12
                  12
                  12
                  12
                  11
                  11
                  11
                  11
                  11
                  11
                  11
                  11
                  11
                  11
                  11
                  11
                  11
                  11
                  11
                  12
                  11
                  11
                  11
                  11
                  12
                  12
                  11
                  12
                  12
                  12
                  12
                  12
                  12
                  11
                  11
                  11
                  11
                  11
                  11
                  11
                  11
                  11
                  11
                  11
                  12
                  12
                  12
                  11
                  11
                  11
                  11
                  11
                  11
                  12
                  12
                  12
                  12
                  12
                  12
                  12
                  11
                  11
                  11
                  11
                  11
                  11
                  11
                  11
                  11
                  11
                  11
                  11
                  12
                  12
                  12
                  12
                  12
                  12
                  12
                  12
                  12
                  12
                  11
                  11
                  11
                  11
                  11
                  11
                  11
                  11
                  11
                  11
                  11
                  11
                  11
                  11
                  11
                  12
                  11
                  11
                  11
                  11
                  12
                  12
                  11
                  12
                  12
                  12
                  12
                  12
                  12
                  11
                  11
                  11
                  11
                  11
                  11
                  11
                  11
                  11
                  11
                  11
                  12
                  12
                  12
                  11
                  11
                  11
                  11
                  11
                  11
                  12
                  12
                  12
                  12
                  12
                  12
                  12
                  11
                  11
                  11
                  11
                  11
                  11
                  11
                  11
                  11
                  11
                  11
                  11
                  12
                  12
                  12
                  12
                  12
                  12
                  12
                  12
                  12
                  12
                  11
                  11
                  11
                  11
                  11
                  11
                  11
                  11
                  11
                  11
                  11
                  11
                  11
                  11
                  11
                  12
                  11
                  11
                  11
                  11
                  12
                  12
                  11
                  12
                  12
                  12
                  12
                  12
                  12
                  11
                  11
                  11
                  11
                  11
                  11
                  11
                  11
                  11
                  11
                  11
                  12
                  12
                  12
                  11
                  11
                  11
                  11
                  11
                  11
                  12
                  12
                  12
                  12
                  12
                  12
                  12
                  11
                  11
                  11
                  11
                  11
                  11
                  11
                  11
                  11
                  11
                  11
                  11
                  12
                  12
                  12
                  12
                  12
                  12
                  12
                  12
                  12
                  12
                  11
                  11
                  11
                  11
                  11
                  11
                  11
                  11
                  11
                  11
                  11
                  11
                  11
                  11
                  11
                  12
                  11
                  11
                  11
                  11
                  12
                  12
                  11
                  12
                  12
                  12
                  12
                  12
                  12
                  11
                  11
                  11
                  11
                  11
                  11
                  11
                  11
                  11
                  11
                  11
                  12
                  12
                  12
                  11
                  11
                  11
                  11
                  11
                  11
                  12
                  12
                  12
                  12
                  12
                  12
                  12
                  11
                  11
                  11
                  11
                  11
                  11
                  11
                  11
                  11
                  11
                  11
                  11
                  12
                  12
                  12
                  12
                  12
                  12
                  12
                  12
                  12
                  12
                  11
                  11
                  11
                  11
                  11
                  11
                  11
                  11
                  11
                  11
                  11
                  11
                  11
                  11
                  11
                  12
                  11
                  11
                  11
                  11
                  12
                  12
                  11
                  12
                  12
                  12
                  12
                  12
                  12
                  11
                  11
                  11
                  11
                  11
                  11
                  11
                  11
                  11
                  11
                  11
                  12
                  12
                  12
                  11
                  11
                  11
                  11
                  11
                  11
                  12
                  12
                  12
                  12
                  12
                  12
                  12
                  11
                  11
                  11
                  11
                  11
                  11
                  11
                  11
                  11
                  11
                  11
                  11
                  12
                  12
                  12
                  12
                  12
                  12
                  12
                  12
                  12
                  12
                  11
                  11
                  11
                  11
                  11
                  11
                  11
                  11
                  11
                  11
                  11
                  11
                  11
                  11
                  11
                  12
                  11
                  11
                  11
                  11
                  12
                  12
                  11
                  12
                  12
                  12
                  12
                  12
                  12
                  11
                  11
                  11
                  11
                  11
                  11
                  11
                  11
                  11
                  11
                  11
                  12
                  12
                  12
                  11
                  11
                  11
                  11
                  11
                  11
                  12
                  12
                  12
                  12
                  12
                  12
                  12
                  11
                  11
                  11
                  11
                  11
                  11
                  11
                  11
                  11
                  11
                  11
                  11
                  12
                  12
                  12
                  12
                  12
                  12
                  12
                  12
                  12
                  12
                  11
                  11
                  11
                  11
                  11
                  11
                  11
                  11
                  11
                  11
                  11
                  11
                  11
                  11
                  11
                  12
                  11
                  11
                  11
                  11
                  12
                  12
                  11
                  12
                  12
                  12
                  12
                  12
                  12
                  11
                  11
                  11
                  11
                  11
                  11
                  11
                  11
                  11
                  11
                  11
                  12
                  12
                  12
                  11
                  11
                  11
                  11
                  11
                  11
                  12
                  12
                  12
                  12
                  12
                  12
                  12
                  11
                  11
                  11
                  11
                  11
                  11
                  11
                  11
                  11
                  11
                  11
                  11
                  12
                  12
                  12
                  12
                  12
                  12
                  12
                  12
                  12
                  12
                  11
                  11
                  11
                  11
                  11
                  11
                  11
                  11
                  11
                  11
                  11
                  11
                  11
                  11
                  11
                  12
                  11
                  11
                  11
                  11
                  12
                  12
                  11
                  12
                  12
                  12
                  12
                  12
                  12
                  11
                  11
                  11
                  11
                  11
                  11
                  11
                  11
                  11
                  11
                  11
                  12
                  12
                  12
                  11
                  11
                  11
                  11
                  11
                  11
                  12
                  12
                  12
                  12
                  12
                  12
                  12
                  11
                  11
                  11
                  11
                  11
                  11
                  11
                  11
                  11
                  11
                  11
                  11
                  12
                  12
                  12
                  12
                  12
                  12
                  12
                  12
                  12
                  12
                  11
                  11
                  11
                  11
                  11
                  11
                  11
                  11
                  11
                  11
                  11
                  11
                  11
                  11
  
SCALARS                         Kspace  double 1
LOOKUP_TABLE default
                  11
                  11
                  11
                  11
                  11
                  11
                  11
                  11
                  11
                  11
                  11
                  11
                  11
                  11
                  11
                  11
                  11
                  11
                  11
                  11
                  11
                  11
                  11
                  11
                  11
                  11
                  11
                  11
                  11
                  11
                  11
                  11
                  11
                  11
                  11
                  11
                  11
                  11
                  11
                  11
                  11
                  11
                  11
                  11
                  11
                  11
                  11
                  11
                  11
                  11
                  11
                  11
                  11
                  11
                  11
                  11
                  11
                  11
                  11
                  11
                  11
                  11
                  11
                  11
                  11
                  11
                  11
                  11
                  11
                  11
                  11
                  11
                  11
                  11
                  11
                  11
                  11
                  11
                  11
                  11
                  11
                  11
                  11
                  11
                  11
                  11
                  11
                  11
                  11
                  11
                  11
                  11
                  11
                  11
                  11
                  11
                  11
                  11
                  11
                  11
                  11
                  11
                  11
                  11
                  11
                  11
                  11
                  11
                  11
                  11
                  11
                  11
                  11
                  11
                  11
                  11
                  11
                  11
                  11
                  11
                  11
                  11
                  11
                  11
                  11
                  11
                  11
                  11
                  11
                  11
                  11
                  11
                  11
                  11
                  11
                  11
                  11
                  11
                  11
                  11
                  11
                  11
                  11
                  11
                  11
                  11
                  11
                  11
                  11
                  11
                  11
                  11
                  11
                  11
                  11
                  11
                  11
                  11
                  11
                  11
                  11
                  11
                  11
                  11
                  11
                  11
                  11
                  11
                  11
                  11
                  11
                  11
                  11
                  11
                  11
                  11
                  11
                  11
                  11
                  11
                  11
                  11
                  11
                  11
                  11
                  11
                  11
                  11
                  11
                  11
                  11
                  11
                  11
                  11
                  11
                  11
                  11
                  11
                  11
                  11
                  11
                  11
                  11
                  11
                  11
                  11
                  11
                  11
                  11
                  11
                  11
                  11
                  11
                  11
                  11
                  11
                  11
                  11
                  11
                  11
                  11
                  11
                  11
                  11
                  11
                  11
                  11
                  11
                  11
                  11
                  11
                  11
                  11
                  11
                  11
                  11
                  11
                  11
                  11
                  11
                  11
                  11
                  11
                  11
                  11
                  11
                  11
                  11
                  11
                  11
                  11
                  11
                  11
                  11
                  11
                  11
                  11
                  11
                  11
                  11
                  11
                  11
                  11
                  11
                  11
                  11
                  11
                  11
                  11
                  11
                  11
                  11
                  11
                  11
                  11
                  11
                  11
                  11
                  11
                  11
                  11
                  11
                  11
                  11
                  11
                  11
                  11
                  11
                  11
                  11
                  11
                  11
                  11
                  11
                  11
                  11
                  11
                  11
                  11
                  11
                  11
                  11
                  11
                  11
                  11
                  11
                  11
                  11
                  11
                  11
                  11
                  11
                  12
                  12
                  12
                  12
                  12
                  12
                  12
                  12
                  12
                  12
                  12
                  12
                  12
                  12
                  12
                  12
                  12
                  12
                  12
                  12
                  12
                  12
                  12
                  12
                  12
                  12
                  12
                  12
                  12
                  12
                  12
                  12
                  12
                  12
                  12
                  12
                  12
                  12
                  12
                  12
                  12
                  12
                  12
                  12
                  12
                  12
                  12
                  12
                  12
                  12
                  12
                  12
                  12
                  12
                  12
                  12
                  12
                  12
                  12
                  12
                  12
                  12
                  12
                  12
                  12
                  12
                  12
                  12
                  12
                  12
                  12
                  12
                  12
                  12
                  12
                  12
                  12
                  12
                  12
                  12
                  12
                  12
                  12
                  12
                  12
                  12
                  12
                  12
                  12
                  12
                  12
                  12
                  12
                  12
                  12
                  12
                  12
                  12
                  12
                  12
                  12
                  12
                  12
                  12
                  12
                  12
                  12
                  12
                  12
                  12
                  12
                  12
                  12
                  12
                  12
                  12
                  12
                  12
                  12
                  12
                  12
                  12
                  12
                  12
                  12
                  12
                  12
                  12
                  12
                  12
                  12
                  12
                  12
                  12
                  12
                  12
                  12
                  12
                  12
                  12
                  12
                  12
                  12
                  12
                  12
                  12
                  12
                  12
                  12
                  12
                  12
                  12
                  12
                  12
                  12
                  12
                  12
                  12
                  12
                  12
                  12
                  12
                  12
                  12
                  12
                  12
                  12
                  12
                  12
                  12
                  12
                  12
                  12
                  12
                  12
                  12
                  12
                  12
                  12
                  12
                  12
                  12
                  12
                  12
                  12
                  12
                  12
                  12
                  12
                  12
                  12
                  12
                  12
                  12
                  12
                  12
                  12
                  12
                  12
                  12
                  12
                  12
                  12
                  12
                  12
                  12
                  12
                  12
                  12
                  12
                  12
                  12
                  12
                  12
                  12
                  12
                  12
                  12
                  12
                  12
                  12
                  12
                  12
                  12
                  12
                  12
                  12
                  12
                  12
                  12
                  12
                  12
                  12
                  12
                  13
                  13
                  13
                  13
                  13
                  13
                  13
                  13
                  13
                  13
                  13
                  13
                  13
                  13
                  13
                  13
                  13
                  13
                  13
                  13
                  13
                  13
                  13
                  13
                  13
                  13
                  13
                  13
                  13
                  13
                  13
                  13
                  13
                  13
                  13
                  13
                  13
                  13
                  13
                  13
                  13
                  13
                  13
                  13
                  13
                  13
                  13
                  13
                  13
                  13
                  13
                  13
                  13
                  13
                  13
                  13
                  13
                  13
                  13
                  13
                  13
                  13
                  13
                  13
                  13
                  13
                  13
                  13
                  13
                  13
                  13
                  13
                  13
                  13
                  13
                  13
                  13
                  13
                  13
                  13
                  13
                  13
                  13
                  13
                  13
                  13
                  13
                  13
                  13
                  13
                  13
                  13
                  13
                  13
                  13
                  13
                  13
                  13
                  13
                  13
                  13
                  13
                  13
                  13
                  13
                  13
                  13
                  13
                  13
                  13
                  13
                  13
                  13
                  13
                  13
                  13
                  13
                  13
                  13
                  13
                  13
                  13
                  13
                  13
                  13
                  13
                  13
                  13
                  13
                  13
                  13
                  13
                  13
                  13
                  13
                  13
                  13
                  13
                  13
                  13
                  13
                  13
                  13
                  13
                  13
                  13
                  13
                  13
                  13
                  13
                  13
                  13
                  13
                  13
                  13
                  13
                  13
                  13
                  13
                  13
                  13
                  13
                  13
                  13
                  13
                  13
                  13
                  13
                  13
                  13
                  13
                  13
                  13
                  13
                  13
                  13
                  13
                  13
                  13
                  13
                  13
                  13
                  13
                  13
                  13
                  13
                  13
                  13
                  13
                  13
                  13
                  13
                  13
                  13
                  13
                  13
                  13
                  13
                  13
                  13
                  13
                  13
                  13
                  13
                  13
                  13
                  13
                  13
                  13
                  13
                  13
                  13
                  13
                  13
                  13
                  13
                  13
                  13
                  13
                  13
                  13
                  13
                  13
                  13
                  13
                  13
                  13
                  13
                  13
                  13
                  13
                  13
                  13
                  13
                  14
                  14
                  14
                  14
                  14
                  14
                  14
                  14
                  14
                  14
                  14
                  14
                  14
                  14
                  14
                  14
                  14
                  14
                  14
                  14
                  14
                  14
                  14
                  14
                  14
                  14
                  14
                  14
                  14
                  14
                  14
                  14
                  14
                  14
                  14
                  14
                  14
                  14
                  14
                  14
                  14
                  14
                  14
                  14
                  14
                  14
                  14
                  14
                  14
                  14
                  14
                  14
                  14
                  14
                  14
                  14
                  14
                  14
                  14
                  14
                  14
                  14
                  14
                  14
                  14
                  14
                  14
                  14
                  14
                  14
                  14
                  14
                  14
                  14
                  14
                  14
                  14
                  14
                  14
                  14
                  14
                  14
                  14
                  14
                  14
                  14
                  14
                  14
                  14
                  14
                  14
                  14
                  14
                  14
                  14
                  14
                  14
                  14
                  14
                  14
                  14
                  14
                  14
                  14
                  14
                  14
                  14
                  14
                  14
                  14
                  14
                  14
                  14
                  14
                  14
                  14
                  14
                  14
                  14
                  14
                  14
                  14
                  14
                  14
                  14
                  14
                  14
                  14
                  14
                  14
                  14
                  14
                  14
                  14
                  14
                  14
                  14
                  14
                  14
                  14
                  14
                  14
                  14
                  14
                  14
                  14
                  14
                  14
                  14
                  14
                  14
                  14
                  14
                  14
                  14
                  14
                  14
                  14
                  14
                  14
                  14
                  14
                  14
                  14
                  14
                  14
                  14
                  14
                  14
                  14
                  14
                  14
                  14
                  14
                  14
                  14
                  14
                  14
                  14
                  14
                  14
                  14
                  14
                  14
                  14
                  14
                  14
                  14
                  14
                  14
                  14
                  14
                  14
                  14
                  14
                  14
                  14
                  14
                  14
                  14
                  14
                  14
                  14
                  14
                  14
                  14
                  14
                  14
                  14
                  14
                  14
                  14
                  14
                  14
                  14
                  14
                  14
                  14
                  14
                  14
                  14
                  14
                  14
                  14
                  14
                  14
                  14
                  14
                  14
                  14
                  14
                  14
                  14
                  14
                  15
                  15
                  15
                  15
                  15
                  15
                  15
                  15
                  15
                  15
                  15
                  15
                  15
                  15
                  15
                  15
                  15
                  15
                  15
                  15
                  15
                  15
                  15
                  15
                  15
                  15
                  15
                  15
                  15
                  15
                  15
                  15
                  15
                  15
                  15
                  15
                  15
                  15
                  15
                  15
                  15
                  15
                  15
                  15
                  15
                  15
                  15
                  15
                  15
                  15
                  15
                  15
                  15
                  15
                  15
                  15
                  15
                  15
                  15
                  15
                  15
                  15
                  15
                  15
                  15
                  15
                  15
                  15
                  15
                  15
                  15
                  15
                  15
                  15
                  15
                  15
                  15
                  15
                  15
                  15
                  15
                  15
                  15
                  15
                  15
                  15
                  15
                  15
                  15
                  15
                  15
                  15
                  15
                  15
                  15
                  15
                  15
                  15
                  15
                  15
                  15
                  15
                  15
                  15
                  15
                  15
                  15
                  15
                  15
                  15
                  15
                  15
                  15
                  15
                  15
                  15
                  15
                  15
                  15
                  15
                  15
                  15
                  15
                  15
                  15
                  15
                  15
                  15
                  15
                  15
                  15
                  15
                  15
                  15
                  15
                  15
                  15
                  15
                  15
                  15
                  15
                  15
                  15
                  15
                  15
                  15
                  15
                  15
                  15
                  15
                  15
                  15
                  15
                  15
                  15
                  15
                  15
                  15
                  15
                  15
                  15
                  15
                  15
                  15
                  15
                  15
                  15
                  15
                  15
                  15
                  15
                  15
                  15
                  15
                  15
                  15
                  15
                  15
                  15
                  15
                  15
                  15
                  15
                  15
                  15
                  15
                  15
                  15
                  15
                  15
                  15
                  15
                  15
                  15
                  15
                  15
                  15
                  15
                  15
                  15
                  15
                  15
                  15
                  15
                  15
                  15
                  15
                  15
                  15
                  15
                  15
                  15
                  15
                  15
                  15
                  15
                  15
                  15
                  15
                  15
                  15
                  15
                  15
                  15
                  15
                  15
                  15
                  15
                  15
                  15
                  15
                  15
                  15
                  15
                  15
                  15
                  15
                  15
                  15
                  15
                  15
                  15
                  15
                  15
                  15
                  15
                  15
                  15
                  15
                  15
                  15
                  15
                  15
                  15
                  15
                  15
                  15
                  15
                  15
                  15
                  15
                  15
                  15
                  15
                  15
                  15
                  15
                  15
                  15
                  15
                  15
                  15
                  15
                  15
                  15
                  15
                  15
                  15
                  15
                  15
                  15
                  15
                  15
                  15
                  15
                  15
                  15
                  15
                  15
                  15
                  15
                  15
                  15
                  15
                  15
                  15
                  15
                  15
                  15
                  15
                  15
                  15
                  15
                  15
                  15
                  15
                  15
                  15
                  15
                  15
                  15
                  15
                  16
                  16
                  16
                  16
                  16
                  16
                  16
                  16
                  16
                  16
                  16
                  16
                  16
                  16
                  16
                  16
                  16
                  16
                  16
                  16
                  16
                  16
                  16
                  16
                  16
                  16
                  16
                  16
                  16
                  16
                  16
                  16
                  16
                  16
                  16
                  16
                  16
                  16
                  16
                  16
                  16
                  16
                  16
                  16
                  16
                  16
                  16
                  16
                  16
                  16
                  16
                  16
                  16
                  16
                  16
                  16
                  16
                  16
                  16
                  16
                  16
                  16
                  16
                  16
                  16
                  16
                  16
                  16
                  16
                  16
                  16
                  16
                  16
                  16
                  16
                  16
                  16
                  16
                  16
                  16
                  16
                  16
                  16
                  16
                  16
                  16
                  16
                  16
                  16
                  16
                  16
                  16
                  16
                  16
                  16
                  16
                  16
                  16
                  16
                  16
                  16
                  16
                  16
                  16
                  16
                  16
                  16
                  16
                  16
                  16
                  16
                  16
                  16
                  16
                  16
                  16
                  16
                  16
                  16
                  16
                  16
                  16
                  16
                  16
                  16
                  16
                  16
                  16
                  16
                  16
                  16
                  16
                  16
                  16
                  16
                  16
                  16
                  16
                  16
                  16
                  16
                  16
                  16
                  16
                  16
                  16
                  16
                  16
                  16
                  16
                  16
                  16
                  16
                  16
                  16
                  16
                  16
                  16
                  16
                  16
                  16
                  16
                  16
                  16
                  16
                  16
                  16
                  16
                  16
                  16
                  16
                  16
                  16
                  16
                  16
                  16
                  16
                  16
                  16
                  16
                  16
                  16
                  16
                  16
                  16
                  16
                  16
                  16
                  16
                  16
                  16
                  16
                  16
                  16
                  16
                  16
                  16
                  16
                  16
                  16
                  16
                  16
                  16
                  16
                  16
                  16
                  16
                  16
                  16
                  16
                  16
                  16
                  16
                  16
                  16
                  16
                  16
                  16
                  16
                  16
                  16
                  16
                  16
                  16
                  16
                  16
                  16
                  16
                  16
                  16
                  16
                  16
                  16
                  16
                  17
                  17
                  17
                  17
                  17
                  17
                  17
                  17
                  17
                  17
                  17
                  17
                  17
                  17
                  17
                  17
                  17
                  17
                  17
                  17
                  17
                  17
                  17
                  17
                  17
                  17
                  17
                  17
                  17
                  17
                  17
                  17
                  17
                  17
                  17
                  17
                  17
                  17
                  17
                  17
                  17
                  17
                  17
                  17
                  17
                  17
                  17
                  17
                  17
                  17
                  17
                  17
                  17
                  17
                  17
                  17
                  17
                  17
                  17
                  17
                  17
                  17
                  17
                  17
                  17
                  17
                  17
                  17
                  17
                  17
                  17
                  17
                  17
                  17
                  17
                  17
                  17
                  17
                  17
                  17
                  17
                  17
                  17
                  17
                  17
                  17
                  17
                  17
                  17
                  17
                  17
                  17
                  17
                  17
                  17
                  17
                  17
                  17
                  17
                  17
                  17
                  17
                  17
                  17
                  17
                  17
                  17
                  17
                  17
                  17
                  17
                  17
                  17
                  17
                  17
                  17
                  17
                  17
                  17
                  17
                  17
                  17
                  17
                  17
                  17
                  17
                  17
                  17
                  17
                  17
                  17
                  17
                  17
                  17
                  17
                  17
                  17
                  17
                  17
                  17
                  17
                  17
                  17
                  17
                  17
                  17
                  17
                  17
                  17
                  17
                  17
                  17
                  17
                  17
                  17
                  17
                  17
                  17
                  17
                  17
                  17
                  17
                  17
                  17
                  17
                  17
                  17
                  17
                  17
                  17
                  17
                  17
                  17
                  17
                  17
                  17
                  17
                  17
                  17
                  17
                  17
                  17
                  17
                  17
                  17
                  17
                  17
                  17
                  17
                  17
                  17
                  17
                  17
                  17
                  17
                  17
                  17
                  17
                  17
                  17
                  17
                  17
                  17
                  17
                  17
                  17
                  17
                  17
                  17
                  17
                  17
                  17
                  17
                  17
                  17
                  17
                  17
                  17
                  17
                  17
                  17
                  17
                  17
                  17
                  17
                  17
                  17
                  17
                  17
                  17
                  17
                  17
                  17
                  17
                  18
                  18
                  18
                  18
                  18
                  18
                  18
                  18
                  18
                  18
                  18
                  18
                  18
                  18
                  18
                  18
                  18
                  18
                  18
                  18
                  18
                  18
                  18
                  18
                  18
                  18
                  18
                  18
                  18
                  18
                  18
                  18
                  18
                  18
                  18
                  18
                  18
                  18
                  18
                  18
                  18
                  18
                  18
                  18
                  18
                  18
                  18
                  18
                  18
                  18
                  18
                  18
                  18
                  18
                  18
                  18
                  18
                  18
                  18
                  18
                  18
                  18
                  18
                  18
                  18
                  18
                  18
                  18
                  18
                  18
                  18
                  18
                  18
                  18
                  18
                  18
                  18
                  18
                  18
                  18
                  18
                  18
                  18
                  18
                  18
                  18
                  18
                  18
                  18
                  18
                  18
                  18
                  18
                  18
                  18
                  18
                  18
                  18
                  18
                  18
                  18
                  18
                  18
                  18
                  18
                  18
                  18
                  18
                  18
                  18
                  18
                  18
                  18
                  18
                  18
                  18
                  18
                  18
                  18
                  18
                  18
                  18
                  18
                  18
                  18
                  18
                  18
                  18
                  18
                  18
                  18
                  18
                  18
                  18
                  18
                  18
                  18
                  18
                  18
                  18
                  18
                  18
                  18
                  18
                  18
                  18
                  18
                  18
                  18
                  18
                  18
                  18
                  18
                  18
                  18
                  18
  
SCALARS                 displacement_x  double 1
LOOKUP_TABLE default
         0.00000E+00
         0.00000E+00
         0.00000E+00
         0.00000E+00
         0.00000E+00
         0.00000E+00
         0.00000E+00
         0.00000E+00
         0.00000E+00
         0.00000E+00
         0.00000E+00
         0.00000E+00
         0.00000E+00
         0.00000E+00
         0.00000E+00
         0.00000E+00
         0.00000E+00
         0.00000E+00
         0.00000E+00
         0.00000E+00
         0.00000E+00
         0.00000E+00
         0.00000E+00
         0.00000E+00
         0.00000E+00
         0.00000E+00
         0.00000E+00
         0.00000E+00
         0.00000E+00
         0.00000E+00
         0.00000E+00
         0.00000E+00
         0.00000E+00
         0.00000E+00
         0.00000E+00
         0.00000E+00
         0.00000E+00
         0.00000E+00
         0.00000E+00
         0.00000E+00
         0.00000E+00
         0.00000E+00
         0.00000E+00
         0.00000E+00
         0.00000E+00
         0.00000E+00
         0.00000E+00
         0.00000E+00
         0.00000E+00
         0.00000E+00
         0.00000E+00
         0.00000E+00
         0.00000E+00
         0.00000E+00
         0.00000E+00
         0.00000E+00
         0.00000E+00
         0.00000E+00
         0.00000E+00
         0.00000E+00
         0.00000E+00
         0.00000E+00
         0.00000E+00
         0.00000E+00
         0.00000E+00
         0.00000E+00
         0.00000E+00
         0.00000E+00
         0.00000E+00
         0.00000E+00
         0.00000E+00
         0.00000E+00
         0.00000E+00
         0.00000E+00
         0.00000E+00
         0.00000E+00
         0.00000E+00
         0.00000E+00
         0.00000E+00
         0.00000E+00
         0.00000E+00
         0.00000E+00
         0.00000E+00
         0.00000E+00
         0.00000E+00
         0.00000E+00
         0.00000E+00
         0.00000E+00
         0.00000E+00
         0.00000E+00
         0.00000E+00
         0.00000E+00
         0.00000E+00
         0.00000E+00
         0.00000E+00
         0.00000E+00
         0.00000E+00
         0.00000E+00
         0.00000E+00
         0.00000E+00
         0.00000E+00
         0.00000E+00
         0.00000E+00
         0.00000E+00
         0.00000E+00
         0.00000E+00
         0.00000E+00
         0.00000E+00
         0.00000E+00
         0.00000E+00
         0.00000E+00
         0.00000E+00
         0.00000E+00
         0.00000E+00
         0.00000E+00
         0.00000E+00
         0.00000E+00
         0.00000E+00
         0.00000E+00
         0.00000E+00
         0.00000E+00
         0.00000E+00
         0.00000E+00
         0.00000E+00
         0.00000E+00
         0.00000E+00
         0.00000E+00
         0.00000E+00
         0.00000E+00
         0.00000E+00
         0.00000E+00
         0.00000E+00
         0.00000E+00
         0.00000E+00
         0.00000E+00
         0.00000E+00
         0.00000E+00
         0.00000E+00
         0.00000E+00
         0.00000E+00
         0.00000E+00
         0.00000E+00
         0.00000E+00
         0.00000E+00
         0.00000E+00
         0.00000E+00
         0.00000E+00
         0.00000E+00
         0.00000E+00
         0.00000E+00
         0.00000E+00
         0.00000E+00
         0.00000E+00
         0.00000E+00
         0.00000E+00
         0.00000E+00
         0.00000E+00
         0.00000E+00
         0.00000E+00
         0.00000E+00
         0.00000E+00
         0.00000E+00
         0.00000E+00
         0.00000E+00
         0.00000E+00
         0.00000E+00
         0.00000E+00
         0.00000E+00
         0.00000E+00
         0.00000E+00
         0.00000E+00
         0.00000E+00
         0.00000E+00
         0.00000E+00
         0.00000E+00
         0.00000E+00
         0.00000E+00
         0.00000E+00
         0.00000E+00
         0.00000E+00
         0.00000E+00
         0.00000E+00
         0.00000E+00
         0.00000E+00
         0.00000E+00
         0.00000E+00
         0.00000E+00
         0.00000E+00
         0.00000E+00
         0.00000E+00
         0.00000E+00
         0.00000E+00
         0.00000E+00
         0.00000E+00
         0.00000E+00
         0.00000E+00
         0.00000E+00
         0.00000E+00
         0.00000E+00
         0.00000E+00
         0.00000E+00
         0.00000E+00
         0.00000E+00
         0.00000E+00
         0.00000E+00
         0.00000E+00
         0.00000E+00
         0.00000E+00
         0.00000E+00
         0.00000E+00
         0.00000E+00
         0.00000E+00
         0.00000E+00
         0.00000E+00
         0.00000E+00
         0.00000E+00
         0.00000E+00
         0.00000E+00
         0.00000E+00
         0.00000E+00
         0.00000E+00
         0.00000E+00
         0.00000E+00
         0.00000E+00
         0.00000E+00
         0.00000E+00
         0.00000E+00
         0.00000E+00
         0.00000E+00
         0.00000E+00
         0.00000E+00
         0.00000E+00
         0.00000E+00
         0.00000E+00
         0.00000E+00
         0.00000E+00
         0.00000E+00
         0.00000E+00
         0.00000E+00
         0.00000E+00
         0.00000E+00
         0.00000E+00
         0.00000E+00
         0.00000E+00
         0.00000E+00
         0.00000E+00
         0.00000E+00
         0.00000E+00
         0.00000E+00
         0.00000E+00
         0.00000E+00
         0.00000E+00
         0.00000E+00
         0.00000E+00
         0.00000E+00
         0.00000E+00
         0.00000E+00
         0.00000E+00
         0.00000E+00
         0.00000E+00
         0.00000E+00
         0.00000E+00
         0.00000E+00
         0.00000E+00
         0.00000E+00
         0.00000E+00
         0.00000E+00
         0.00000E+00
         0.00000E+00
         0.00000E+00
         0.00000E+00
         0.00000E+00
         0.00000E+00
         0.00000E+00
         0.00000E+00
         0.00000E+00
         0.00000E+00
         0.00000E+00
         0.00000E+00
         0.00000E+00
         0.00000E+00
         0.00000E+00
         0.00000E+00
         0.00000E+00
         0.00000E+00
         0.00000E+00
         0.00000E+00
         0.00000E+00
         0.00000E+00
         0.00000E+00
         0.00000E+00
         0.00000E+00
         0.00000E+00
         0.00000E+00
         0.00000E+00
         0.00000E+00
         0.00000E+00
         0.00000E+00
         0.00000E+00
         0.00000E+00
         0.00000E+00
         0.00000E+00
         0.00000E+00
         0.00000E+00
         0.00000E+00
         0.00000E+00
         0.00000E+00
         0.00000E+00
         0.00000E+00
         0.00000E+00
         0.00000E+00
         0.00000E+00
         0.00000E+00
         0.00000E+00
         0.00000E+00
         0.00000E+00
         0.00000E+00
         0.00000E+00
         0.00000E+00
         0.00000E+00
         0.00000E+00
         0.00000E+00
         0.00000E+00
         0.00000E+00
         0.00000E+00
         0.00000E+00
         0.00000E+00
         0.00000E+00
         0.00000E+00
         0.00000E+00
         0.00000E+00
         0.00000E+00
         0.00000E+00
         0.00000E+00
         0.00000E+00
         0.00000E+00
         0.00000E+00
         0.00000E+00
         0.00000E+00
         0.00000E+00
         0.00000E+00
         0.00000E+00
         0.00000E+00
         0.00000E+00
         0.00000E+00
         0.00000E+00
         0.00000E+00
         0.00000E+00
         0.00000E+00
         0.00000E+00
         0.00000E+00
         0.00000E+00
         0.00000E+00
         0.00000E+00
         0.00000E+00
         0.00000E+00
         0.00000E+00
         0.00000E+00
         0.00000E+00
         0.00000E+00
         0.00000E+00
         0.00000E+00
         0.00000E+00
         0.00000E+00
         0.00000E+00
         0.00000E+00
         0.00000E+00
         0.00000E+00
         0.00000E+00
         0.00000E+00
         0.00000E+00
         0.00000E+00
         0.00000E+00
         0.00000E+00
         0.00000E+00
         0.00000E+00
         0.00000E+00
         0.00000E+00
         0.00000E+00
         0.00000E+00
         0.00000E+00
         0.00000E+00
         0.00000E+00
         0.00000E+00
         0.00000E+00
         0.00000E+00
         0.00000E+00
         0.00000E+00
         0.00000E+00
         0.00000E+00
         0.00000E+00
         0.00000E+00
         0.00000E+00
         0.00000E+00
         0.00000E+00
         0.00000E+00
         0.00000E+00
         0.00000E+00
         0.00000E+00
         0.00000E+00
         0.00000E+00
         0.00000E+00
         0.00000E+00
         0.00000E+00
         0.00000E+00
         0.00000E+00
         0.00000E+00
         0.00000E+00
         0.00000E+00
         0.00000E+00
         0.00000E+00
         0.00000E+00
         0.00000E+00
         0.00000E+00
         0.00000E+00
         0.00000E+00
         0.00000E+00
         0.00000E+00
         0.00000E+00
         0.00000E+00
         0.00000E+00
         0.00000E+00
         0.00000E+00
         0.00000E+00
         0.00000E+00
         0.00000E+00
         0.00000E+00
         0.00000E+00
         0.00000E+00
         0.00000E+00
         0.00000E+00
         0.00000E+00
         0.00000E+00
         0.00000E+00
         0.00000E+00
         0.00000E+00
         0.00000E+00
         0.00000E+00
         0.00000E+00
         0.00000E+00
         0.00000E+00
         0.00000E+00
         0.00000E+00
         0.00000E+00
         0.00000E+00
         0.00000E+00
         0.00000E+00
         0.00000E+00
         0.00000E+00
         0.00000E+00
         0.00000E+00
         0.00000E+00
         0.00000E+00
         0.00000E+00
         0.00000E+00
         0.00000E+00
         0.00000E+00
         0.00000E+00
         0.00000E+00
         0.00000E+00
         0.00000E+00
         0.00000E+00
         0.00000E+00
         0.00000E+00
         0.00000E+00
         0.00000E+00
         0.00000E+00
         0.00000E+00
         0.00000E+00
         0.00000E+00
         0.00000E+00
         0.00000E+00
         0.00000E+00
         0.00000E+00
         0.00000E+00
         0.00000E+00
         0.00000E+00
         0.00000E+00
         0.00000E+00
         0.00000E+00
         0.00000E+00
         0.00000E+00
         0.00000E+00
         0.00000E+00
         0.00000E+00
         0.00000E+00
         0.00000E+00
         0.00000E+00
         0.00000E+00
         0.00000E+00
         0.00000E+00
         0.00000E+00
         0.00000E+00
         0.00000E+00
         0.00000E+00
         0.00000E+00
         0.00000E+00
         0.00000E+00
         0.00000E+00
         0.00000E+00
         0.00000E+00
         0.00000E+00
         0.00000E+00
         0.00000E+00
         0.00000E+00
         0.00000E+00
         0.00000E+00
         0.00000E+00
         0.00000E+00
         0.00000E+00
         0.00000E+00
         0.00000E+00
         0.00000E+00
         0.00000E+00
         0.00000E+00
         0.00000E+00
         0.00000E+00
         0.00000E+00
         0.00000E+00
         0.00000E+00
         0.00000E+00
         0.00000E+00
         0.00000E+00
         0.00000E+00
         0.00000E+00
         0.00000E+00
         0.00000E+00
         0.00000E+00
         0.00000E+00
         0.00000E+00
         0.00000E+00
         0.00000E+00
         0.00000E+00
         0.00000E+00
         0.00000E+00
         0.00000E+00
         0.00000E+00
         0.00000E+00
         0.00000E+00
         0.00000E+00
         0.00000E+00
         0.00000E+00
         0.00000E+00
         0.00000E+00
         0.00000E+00
         0.00000E+00
         0.00000E+00
         0.00000E+00
         0.00000E+00
         0.00000E+00
         0.00000E+00
         0.00000E+00
         0.00000E+00
         0.00000E+00
         0.00000E+00
         0.00000E+00
         0.00000E+00
         0.00000E+00
         0.00000E+00
         0.00000E+00
         0.00000E+00
         0.00000E+00
         0.00000E+00
         0.00000E+00
         0.00000E+00
         0.00000E+00
         0.00000E+00
         0.00000E+00
         0.00000E+00
         0.00000E+00
         0.00000E+00
         0.00000E+00
         0.00000E+00
         0.00000E+00
         0.00000E+00
         0.00000E+00
         0.00000E+00
         0.00000E+00
         0.00000E+00
         0.00000E+00
         0.00000E+00
         0.00000E+00
         0.00000E+00
         0.00000E+00
         0.00000E+00
         0.00000E+00
         0.00000E+00
         0.00000E+00
         0.00000E+00
         0.00000E+00
         0.00000E+00
         0.00000E+00
         0.00000E+00
         0.00000E+00
         0.00000E+00
         0.00000E+00
         0.00000E+00
         0.00000E+00
         0.00000E+00
         0.00000E+00
         0.00000E+00
         0.00000E+00
         0.00000E+00
         0.00000E+00
         0.00000E+00
         0.00000E+00
         0.00000E+00
         0.00000E+00
         0.00000E+00
         0.00000E+00
         0.00000E+00
         0.00000E+00
         0.00000E+00
         0.00000E+00
         0.00000E+00
         0.00000E+00
         0.00000E+00
         0.00000E+00
         0.00000E+00
         0.00000E+00
         0.00000E+00
         0.00000E+00
         0.00000E+00
         0.00000E+00
         0.00000E+00
         0.00000E+00
         0.00000E+00
         0.00000E+00
         0.00000E+00
         0.00000E+00
         0.00000E+00
         0.00000E+00
         0.00000E+00
         0.00000E+00
         0.00000E+00
         0.00000E+00
         0.00000E+00
         0.00000E+00
         0.00000E+00
         0.00000E+00
         0.00000E+00
         0.00000E+00
         0.00000E+00
         0.00000E+00
         0.00000E+00
         0.00000E+00
         0.00000E+00
         0.00000E+00
         0.00000E+00
         0.00000E+00
         0.00000E+00
         0.00000E+00
         0.00000E+00
         0.00000E+00
         0.00000E+00
         0.00000E+00
         0.00000E+00
         0.00000E+00
         0.00000E+00
         0.00000E+00
         0.00000E+00
         0.00000E+00
         0.00000E+00
         0.00000E+00
         0.00000E+00
         0.00000E+00
         0.00000E+00
         0.00000E+00
         0.00000E+00
         0.00000E+00
         0.00000E+00
         0.00000E+00
         0.00000E+00
         0.00000E+00
         0.00000E+00
         0.00000E+00
         0.00000E+00
         0.00000E+00
         0.00000E+00
         0.00000E+00
         0.00000E+00
         0.00000E+00
         0.00000E+00
         0.00000E+00
         0.00000E+00
         0.00000E+00
         0.00000E+00
         0.00000E+00
         0.00000E+00
         0.00000E+00
         0.00000E+00
         0.00000E+00
         0.00000E+00
         0.00000E+00
         0.00000E+00
         0.00000E+00
         0.00000E+00
         0.00000E+00
         0.00000E+00
         0.00000E+00
         0.00000E+00
         0.00000E+00
         0.00000E+00
         0.00000E+00
         0.00000E+00
         0.00000E+00
         0.00000E+00
         0.00000E+00
         0.00000E+00
         0.00000E+00
         0.00000E+00
         0.00000E+00
         0.00000E+00
         0.00000E+00
         0.00000E+00
         0.00000E+00
         0.00000E+00
         0.00000E+00
         0.00000E+00
         0.00000E+00
         0.00000E+00
         0.00000E+00
         0.00000E+00
         0.00000E+00
         0.00000E+00
         0.00000E+00
         0.00000E+00
         0.00000E+00
         0.00000E+00
         0.00000E+00
         0.00000E+00
         0.00000E+00
         0.00000E+00
         0.00000E+00
         0.00000E+00
         0.00000E+00
         0.00000E+00
         0.00000E+00
         0.00000E+00
         0.00000E+00
         0.00000E+00
         0.00000E+00
         0.00000E+00
         0.00000E+00
         0.00000E+00
         0.00000E+00
         0.00000E+00
         0.00000E+00
         0.00000E+00
         0.00000E+00
         0.00000E+00
         0.00000E+00
         0.00000E+00
         0.00000E+00
         0.00000E+00
         0.00000E+00
         0.00000E+00
         0.00000E+00
         0.00000E+00
         0.00000E+00
         0.00000E+00
         0.00000E+00
         0.00000E+00
         0.00000E+00
         0.00000E+00
         0.00000E+00
         0.00000E+00
         0.00000E+00
         0.00000E+00
         0.00000E+00
         0.00000E+00
         0.00000E+00
         0.00000E+00
         0.00000E+00
         0.00000E+00
         0.00000E+00
         0.00000E+00
         0.00000E+00
         0.00000E+00
         0.00000E+00
         0.00000E+00
         0.00000E+00
         0.00000E+00
         0.00000E+00
         0.00000E+00
         0.00000E+00
         0.00000E+00
         0.00000E+00
         0.00000E+00
         0.00000E+00
         0.00000E+00
         0.00000E+00
         0.00000E+00
         0.00000E+00
         0.00000E+00
         0.00000E+00
         0.00000E+00
         0.00000E+00
         0.00000E+00
         0.00000E+00
         0.00000E+00
         0.00000E+00
         0.00000E+00
         0.00000E+00
         0.00000E+00
         0.00000E+00
         0.00000E+00
         0.00000E+00
         0.00000E+00
         0.00000E+00
         0.00000E+00
         0.00000E+00
         0.00000E+00
         0.00000E+00
         0.00000E+00
         0.00000E+00
         0.00000E+00
         0.00000E+00
         0.00000E+00
         0.00000E+00
         0.00000E+00
         0.00000E+00
         0.00000E+00
         0.00000E+00
         0.00000E+00
         0.00000E+00
         0.00000E+00
         0.00000E+00
         0.00000E+00
         0.00000E+00
         0.00000E+00
         0.00000E+00
         0.00000E+00
         0.00000E+00
         0.00000E+00
         0.00000E+00
         0.00000E+00
         0.00000E+00
         0.00000E+00
         0.00000E+00
         0.00000E+00
         0.00000E+00
         0.00000E+00
         0.00000E+00
         0.00000E+00
         0.00000E+00
         0.00000E+00
         0.00000E+00
         0.00000E+00
         0.00000E+00
         0.00000E+00
         0.00000E+00
         0.00000E+00
         0.00000E+00
         0.00000E+00
         0.00000E+00
         0.00000E+00
         0.00000E+00
         0.00000E+00
         0.00000E+00
         0.00000E+00
         0.00000E+00
         0.00000E+00
         0.00000E+00
         0.00000E+00
         0.00000E+00
         0.00000E+00
         0.00000E+00
         0.00000E+00
         0.00000E+00
         0.00000E+00
         0.00000E+00
         0.00000E+00
         0.00000E+00
         0.00000E+00
         0.00000E+00
         0.00000E+00
         0.00000E+00
         0.00000E+00
         0.00000E+00
         0.00000E+00
         0.00000E+00
         0.00000E+00
         0.00000E+00
         0.00000E+00
         0.00000E+00
         0.00000E+00
         0.00000E+00
         0.00000E+00
         0.00000E+00
         0.00000E+00
         0.00000E+00
         0.00000E+00
         0.00000E+00
         0.00000E+00
         0.00000E+00
         0.00000E+00
         0.00000E+00
         0.00000E+00
         0.00000E+00
         0.00000E+00
         0.00000E+00
         0.00000E+00
         0.00000E+00
         0.00000E+00
         0.00000E+00
         0.00000E+00
         0.00000E+00
         0.00000E+00
         0.00000E+00
         0.00000E+00
         0.00000E+00
         0.00000E+00
         0.00000E+00
         0.00000E+00
         0.00000E+00
         0.00000E+00
         0.00000E+00
         0.00000E+00
         0.00000E+00
         0.00000E+00
         0.00000E+00
         0.00000E+00
         0.00000E+00
         0.00000E+00
         0.00000E+00
         0.00000E+00
         0.00000E+00
         0.00000E+00
         0.00000E+00
         0.00000E+00
         0.00000E+00
         0.00000E+00
         0.00000E+00
         0.00000E+00
         0.00000E+00
         0.00000E+00
         0.00000E+00
         0.00000E+00
         0.00000E+00
         0.00000E+00
         0.00000E+00
         0.00000E+00
         0.00000E+00
         0.00000E+00
         0.00000E+00
         0.00000E+00
         0.00000E+00
         0.00000E+00
         0.00000E+00
         0.00000E+00
         0.00000E+00
         0.00000E+00
         0.00000E+00
         0.00000E+00
         0.00000E+00
         0.00000E+00
         0.00000E+00
         0.00000E+00
         0.00000E+00
         0.00000E+00
         0.00000E+00
         0.00000E+00
         0.00000E+00
         0.00000E+00
         0.00000E+00
         0.00000E+00
         0.00000E+00
         0.00000E+00
         0.00000E+00
         0.00000E+00
         0.00000E+00
         0.00000E+00
         0.00000E+00
         0.00000E+00
         0.00000E+00
         0.00000E+00
         0.00000E+00
         0.00000E+00
         0.00000E+00
         0.00000E+00
         0.00000E+00
         0.00000E+00
         0.00000E+00
         0.00000E+00
         0.00000E+00
         0.00000E+00
         0.00000E+00
         0.00000E+00
         0.00000E+00
         0.00000E+00
         0.00000E+00
         0.00000E+00
         0.00000E+00
         0.00000E+00
         0.00000E+00
         0.00000E+00
         0.00000E+00
         0.00000E+00
         0.00000E+00
         0.00000E+00
         0.00000E+00
         0.00000E+00
         0.00000E+00
         0.00000E+00
         0.00000E+00
         0.00000E+00
         0.00000E+00
         0.00000E+00
         0.00000E+00
         0.00000E+00
         0.00000E+00
         0.00000E+00
         0.00000E+00
         0.00000E+00
         0.00000E+00
         0.00000E+00
         0.00000E+00
         0.00000E+00
         0.00000E+00
         0.00000E+00
         0.00000E+00
         0.00000E+00
         0.00000E+00
         0.00000E+00
         0.00000E+00
         0.00000E+00
         0.00000E+00
         0.00000E+00
         0.00000E+00
         0.00000E+00
         0.00000E+00
         0.00000E+00
         0.00000E+00
         0.00000E+00
         0.00000E+00
         0.00000E+00
         0.00000E+00
         0.00000E+00
         0.00000E+00
         0.00000E+00
         0.00000E+00
         0.00000E+00
         0.00000E+00
         0.00000E+00
         0.00000E+00
         0.00000E+00
         0.00000E+00
         0.00000E+00
         0.00000E+00
         0.00000E+00
         0.00000E+00
         0.00000E+00
         0.00000E+00
         0.00000E+00
         0.00000E+00
         0.00000E+00
         0.00000E+00
         0.00000E+00
         0.00000E+00
         0.00000E+00
         0.00000E+00
         0.00000E+00
         0.00000E+00
         0.00000E+00
         0.00000E+00
         0.00000E+00
         0.00000E+00
         0.00000E+00
         0.00000E+00
         0.00000E+00
         0.00000E+00
         0.00000E+00
         0.00000E+00
         0.00000E+00
         0.00000E+00
         0.00000E+00
         0.00000E+00
         0.00000E+00
         0.00000E+00
         0.00000E+00
         0.00000E+00
         0.00000E+00
         0.00000E+00
         0.00000E+00
         0.00000E+00
         0.00000E+00
         0.00000E+00
         0.00000E+00
         0.00000E+00
         0.00000E+00
         0.00000E+00
         0.00000E+00
         0.00000E+00
         0.00000E+00
         0.00000E+00
         0.00000E+00
         0.00000E+00
         0.00000E+00
         0.00000E+00
         0.00000E+00
         0.00000E+00
         0.00000E+00
         0.00000E+00
         0.00000E+00
         0.00000E+00
         0.00000E+00
         0.00000E+00
         0.00000E+00
         0.00000E+00
         0.00000E+00
         0.00000E+00
         0.00000E+00
         0.00000E+00
         0.00000E+00
         0.00000E+00
         0.00000E+00
         0.00000E+00
         0.00000E+00
         0.00000E+00
         0.00000E+00
         0.00000E+00
         0.00000E+00
         0.00000E+00
         0.00000E+00
         0.00000E+00
         0.00000E+00
         0.00000E+00
         0.00000E+00
         0.00000E+00
         0.00000E+00
         0.00000E+00
         0.00000E+00
         0.00000E+00
         0.00000E+00
         0.00000E+00
         0.00000E+00
         0.00000E+00
         0.00000E+00
         0.00000E+00
         0.00000E+00
         0.00000E+00
         0.00000E+00
         0.00000E+00
         0.00000E+00
         0.00000E+00
         0.00000E+00
         0.00000E+00
         0.00000E+00
         0.00000E+00
         0.00000E+00
         0.00000E+00
         0.00000E+00
         0.00000E+00
         0.00000E+00
         0.00000E+00
         0.00000E+00
         0.00000E+00
         0.00000E+00
         0.00000E+00
         0.00000E+00
         0.00000E+00
         0.00000E+00
         0.00000E+00
         0.00000E+00
         0.00000E+00
         0.00000E+00
         0.00000E+00
         0.00000E+00
         0.00000E+00
         0.00000E+00
         0.00000E+00
         0.00000E+00
         0.00000E+00
         0.00000E+00
         0.00000E+00
         0.00000E+00
         0.00000E+00
         0.00000E+00
         0.00000E+00
         0.00000E+00
         0.00000E+00
         0.00000E+00
         0.00000E+00
         0.00000E+00
         0.00000E+00
         0.00000E+00
         0.00000E+00
         0.00000E+00
         0.00000E+00
         0.00000E+00
         0.00000E+00
         0.00000E+00
         0.00000E+00
         0.00000E+00
         0.00000E+00
         0.00000E+00
         0.00000E+00
         0.00000E+00
         0.00000E+00
         0.00000E+00
         0.00000E+00
         0.00000E+00
         0.00000E+00
         0.00000E+00
         0.00000E+00
         0.00000E+00
         0.00000E+00
         0.00000E+00
         0.00000E+00
         0.00000E+00
         0.00000E+00
         0.00000E+00
         0.00000E+00
         0.00000E+00
         0.00000E+00
         0.00000E+00
         0.00000E+00
         0.00000E+00
         0.00000E+00
         0.00000E+00
         0.00000E+00
         0.00000E+00
         0.00000E+00
         0.00000E+00
         0.00000E+00
         0.00000E+00
         0.00000E+00
         0.00000E+00
         0.00000E+00
         0.00000E+00
         0.00000E+00
         0.00000E+00
         0.00000E+00
         0.00000E+00
         0.00000E+00
         0.00000E+00
         0.00000E+00
         0.00000E+00
         0.00000E+00
         0.00000E+00
         0.00000E+00
         0.00000E+00
         0.00000E+00
         0.00000E+00
         0.00000E+00
         0.00000E+00
         0.00000E+00
         0.00000E+00
         0.00000E+00
         0.00000E+00
         0.00000E+00
         0.00000E+00
         0.00000E+00
         0.00000E+00
         0.00000E+00
         0.00000E+00
         0.00000E+00
         0.00000E+00
         0.00000E+00
         0.00000E+00
         0.00000E+00
         0.00000E+00
         0.00000E+00
         0.00000E+00
         0.00000E+00
         0.00000E+00
         0.00000E+00
         0.00000E+00
         0.00000E+00
         0.00000E+00
         0.00000E+00
         0.00000E+00
         0.00000E+00
         0.00000E+00
         0.00000E+00
         0.00000E+00
         0.00000E+00
         0.00000E+00
         0.00000E+00
         0.00000E+00
         0.00000E+00
         0.00000E+00
         0.00000E+00
         0.00000E+00
         0.00000E+00
         0.00000E+00
         0.00000E+00
         0.00000E+00
         0.00000E+00
         0.00000E+00
         0.00000E+00
         0.00000E+00
         0.00000E+00
         0.00000E+00
         0.00000E+00
         0.00000E+00
         0.00000E+00
         0.00000E+00
         0.00000E+00
         0.00000E+00
         0.00000E+00
         0.00000E+00
         0.00000E+00
         0.00000E+00
         0.00000E+00
         0.00000E+00
         0.00000E+00
         0.00000E+00
         0.00000E+00
         0.00000E+00
         0.00000E+00
         0.00000E+00
         0.00000E+00
         0.00000E+00
         0.00000E+00
         0.00000E+00
         0.00000E+00
         0.00000E+00
         0.00000E+00
         0.00000E+00
         0.00000E+00
         0.00000E+00
         0.00000E+00
         0.00000E+00
         0.00000E+00
         0.00000E+00
         0.00000E+00
         0.00000E+00
         0.00000E+00
         0.00000E+00
         0.00000E+00
         0.00000E+00
         0.00000E+00
         0.00000E+00
         0.00000E+00
         0.00000E+00
         0.00000E+00
         0.00000E+00
         0.00000E+00
         0.00000E+00
         0.00000E+00
         0.00000E+00
         0.00000E+00
         0.00000E+00
         0.00000E+00
         0.00000E+00
         0.00000E+00
         0.00000E+00
         0.00000E+00
         0.00000E+00
         0.00000E+00
         0.00000E+00
         0.00000E+00
         0.00000E+00
         0.00000E+00
         0.00000E+00
         0.00000E+00
         0.00000E+00
         0.00000E+00
         0.00000E+00
         0.00000E+00
         0.00000E+00
         0.00000E+00
         0.00000E+00
         0.00000E+00
         0.00000E+00
         0.00000E+00
         0.00000E+00
         0.00000E+00
         0.00000E+00
         0.00000E+00
         0.00000E+00
         0.00000E+00
         0.00000E+00
         0.00000E+00
         0.00000E+00
         0.00000E+00
         0.00000E+00
         0.00000E+00
         0.00000E+00
         0.00000E+00
         0.00000E+00
         0.00000E+00
         0.00000E+00
         0.00000E+00
         0.00000E+00
         0.00000E+00
         0.00000E+00
         0.00000E+00
         0.00000E+00
         0.00000E+00
         0.00000E+00
         0.00000E+00
         0.00000E+00
         0.00000E+00
         0.00000E+00
         0.00000E+00
         0.00000E+00
         0.00000E+00
         0.00000E+00
         0.00000E+00
         0.00000E+00
         0.00000E+00
         0.00000E+00
         0.00000E+00
         0.00000E+00
         0.00000E+00
         0.00000E+00
         0.00000E+00
         0.00000E+00
         0.00000E+00
         0.00000E+00
         0.00000E+00
         0.00000E+00
         0.00000E+00
         0.00000E+00
         0.00000E+00
         0.00000E+00
         0.00000E+00
         0.00000E+00
         0.00000E+00
         0.00000E+00
         0.00000E+00
         0.00000E+00
         0.00000E+00
         0.00000E+00
         0.00000E+00
         0.00000E+00
         0.00000E+00
         0.00000E+00
         0.00000E+00
         0.00000E+00
         0.00000E+00
         0.00000E+00
         0.00000E+00
         0.00000E+00
         0.00000E+00
         0.00000E+00
         0.00000E+00
         0.00000E+00
         0.00000E+00
         0.00000E+00
         0.00000E+00
         0.00000E+00
         0.00000E+00
         0.00000E+00
         0.00000E+00
         0.00000E+00
         0.00000E+00
         0.00000E+00
         0.00000E+00
         0.00000E+00
         0.00000E+00
         0.00000E+00
         0.00000E+00
         0.00000E+00
         0.00000E+00
         0.00000E+00
         0.00000E+00
         0.00000E+00
         0.00000E+00
         0.00000E+00
         0.00000E+00
         0.00000E+00
         0.00000E+00
         0.00000E+00
         0.00000E+00
         0.00000E+00
         0.00000E+00
         0.00000E+00
         0.00000E+00
         0.00000E+00
         0.00000E+00
         0.00000E+00
         0.00000E+00
         0.00000E+00
         0.00000E+00
         0.00000E+00
         0.00000E+00
         0.00000E+00
         0.00000E+00
         0.00000E+00
         0.00000E+00
         0.00000E+00
         0.00000E+00
         0.00000E+00
         0.00000E+00
         0.00000E+00
         0.00000E+00
         0.00000E+00
         0.00000E+00
         0.00000E+00
         0.00000E+00
         0.00000E+00
         0.00000E+00
         0.00000E+00
         0.00000E+00
         0.00000E+00
         0.00000E+00
         0.00000E+00
         0.00000E+00
         0.00000E+00
         0.00000E+00
         0.00000E+00
         0.00000E+00
         0.00000E+00
         0.00000E+00
         0.00000E+00
         0.00000E+00
         0.00000E+00
         0.00000E+00
         0.00000E+00
         0.00000E+00
         0.00000E+00
         0.00000E+00
         0.00000E+00
         0.00000E+00
         0.00000E+00
         0.00000E+00
         0.00000E+00
         0.00000E+00
         0.00000E+00
         0.00000E+00
         0.00000E+00
         0.00000E+00
         0.00000E+00
         0.00000E+00
         0.00000E+00
         0.00000E+00
         0.00000E+00
         0.00000E+00
         0.00000E+00
         0.00000E+00
         0.00000E+00
         0.00000E+00
         0.00000E+00
         0.00000E+00
         0.00000E+00
         0.00000E+00
         0.00000E+00
         0.00000E+00
         0.00000E+00
         0.00000E+00
         0.00000E+00
         0.00000E+00
         0.00000E+00
         0.00000E+00
         0.00000E+00
         0.00000E+00
         0.00000E+00
         0.00000E+00
         0.00000E+00
         0.00000E+00
         0.00000E+00
         0.00000E+00
         0.00000E+00
         0.00000E+00
         0.00000E+00
         0.00000E+00
         0.00000E+00
         0.00000E+00
         0.00000E+00
         0.00000E+00
         0.00000E+00
         0.00000E+00
         0.00000E+00
         0.00000E+00
         0.00000E+00
         0.00000E+00
         0.00000E+00
         0.00000E+00
         0.00000E+00
         0.00000E+00
         0.00000E+00
         0.00000E+00
         0.00000E+00
         0.00000E+00
         0.00000E+00
         0.00000E+00
         0.00000E+00
         0.00000E+00
         0.00000E+00
         0.00000E+00
         0.00000E+00
         0.00000E+00
         0.00000E+00
         0.00000E+00
         0.00000E+00
         0.00000E+00
         0.00000E+00
         0.00000E+00
         0.00000E+00
         0.00000E+00
         0.00000E+00
         0.00000E+00
         0.00000E+00
         0.00000E+00
         0.00000E+00
         0.00000E+00
         0.00000E+00
         0.00000E+00
         0.00000E+00
         0.00000E+00
         0.00000E+00
         0.00000E+00
         0.00000E+00
         0.00000E+00
         0.00000E+00
         0.00000E+00
         0.00000E+00
         0.00000E+00
         0.00000E+00
         0.00000E+00
         0.00000E+00
         0.00000E+00
         0.00000E+00
         0.00000E+00
         0.00000E+00
         0.00000E+00
         0.00000E+00
         0.00000E+00
         0.00000E+00
         0.00000E+00
         0.00000E+00
         0.00000E+00
         0.00000E+00
         0.00000E+00
         0.00000E+00
         0.00000E+00
         0.00000E+00
         0.00000E+00
         0.00000E+00
         0.00000E+00
         0.00000E+00
         0.00000E+00
         0.00000E+00
         0.00000E+00
         0.00000E+00
         0.00000E+00
         0.00000E+00
         0.00000E+00
         0.00000E+00
         0.00000E+00
         0.00000E+00
         0.00000E+00
         0.00000E+00
         0.00000E+00
         0.00000E+00
         0.00000E+00
         0.00000E+00
         0.00000E+00
         0.00000E+00
         0.00000E+00
         0.00000E+00
         0.00000E+00
         0.00000E+00
         0.00000E+00
         0.00000E+00
         0.00000E+00
         0.00000E+00
         0.00000E+00
         0.00000E+00
         0.00000E+00
         0.00000E+00
         0.00000E+00
         0.00000E+00
         0.00000E+00
         0.00000E+00
         0.00000E+00
         0.00000E+00
         0.00000E+00
         0.00000E+00
         0.00000E+00
         0.00000E+00
         0.00000E+00
         0.00000E+00
         0.00000E+00
         0.00000E+00
         0.00000E+00
         0.00000E+00
         0.00000E+00
         0.00000E+00
         0.00000E+00
         0.00000E+00
         0.00000E+00
         0.00000E+00
         0.00000E+00
         0.00000E+00
         0.00000E+00
         0.00000E+00
         0.00000E+00
         0.00000E+00
         0.00000E+00
         0.00000E+00
         0.00000E+00
         0.00000E+00
         0.00000E+00
         0.00000E+00
         0.00000E+00
         0.00000E+00
         0.00000E+00
         0.00000E+00
         0.00000E+00
         0.00000E+00
         0.00000E+00
         0.00000E+00
         0.00000E+00
         0.00000E+00
         0.00000E+00
         0.00000E+00
         0.00000E+00
         0.00000E+00
         0.00000E+00
         0.00000E+00
         0.00000E+00
         0.00000E+00
         0.00000E+00
         0.00000E+00
         0.00000E+00
         0.00000E+00
         0.00000E+00
         0.00000E+00
         0.00000E+00
         0.00000E+00
         0.00000E+00
         0.00000E+00
         0.00000E+00
         0.00000E+00
         0.00000E+00
         0.00000E+00
         0.00000E+00
         0.00000E+00
         0.00000E+00
         0.00000E+00
         0.00000E+00
         0.00000E+00
         0.00000E+00
         0.00000E+00
         0.00000E+00
         0.00000E+00
         0.00000E+00
         0.00000E+00
         0.00000E+00
         0.00000E+00
         0.00000E+00
         0.00000E+00
         0.00000E+00
         0.00000E+00
         0.00000E+00
         0.00000E+00
         0.00000E+00
         0.00000E+00
         0.00000E+00
         0.00000E+00
         0.00000E+00
         0.00000E+00
         0.00000E+00
         0.00000E+00
         0.00000E+00
         0.00000E+00
         0.00000E+00
         0.00000E+00
         0.00000E+00
         0.00000E+00
         0.00000E+00
         0.00000E+00
         0.00000E+00
         0.00000E+00
         0.00000E+00
         0.00000E+00
         0.00000E+00
         0.00000E+00
         0.00000E+00
         0.00000E+00
         0.00000E+00
         0.00000E+00
         0.00000E+00
         0.00000E+00
         0.00000E+00
         0.00000E+00
         0.00000E+00
         0.00000E+00
         0.00000E+00
         0.00000E+00
         0.00000E+00
         0.00000E+00
         0.00000E+00
         0.00000E+00
         0.00000E+00
         0.00000E+00
         0.00000E+00
         0.00000E+00
         0.00000E+00
         0.00000E+00
         0.00000E+00
         0.00000E+00
         0.00000E+00
         0.00000E+00
         0.00000E+00
         0.00000E+00
         0.00000E+00
         0.00000E+00
         0.00000E+00
         0.00000E+00
         0.00000E+00
         0.00000E+00
         0.00000E+00
         0.00000E+00
         0.00000E+00
         0.00000E+00
         0.00000E+00
         0.00000E+00
         0.00000E+00
         0.00000E+00
         0.00000E+00
         0.00000E+00
         0.00000E+00
         0.00000E+00
         0.00000E+00
         0.00000E+00
         0.00000E+00
         0.00000E+00
         0.00000E+00
         0.00000E+00
         0.00000E+00
         0.00000E+00
         0.00000E+00
         0.00000E+00
         0.00000E+00
         0.00000E+00
         0.00000E+00
         0.00000E+00
         0.00000E+00
         0.00000E+00
         0.00000E+00
         0.00000E+00
         0.00000E+00
         0.00000E+00
         0.00000E+00
         0.00000E+00
         0.00000E+00
         0.00000E+00
         0.00000E+00
         0.00000E+00
         0.00000E+00
         0.00000E+00
         0.00000E+00
         0.00000E+00
         0.00000E+00
         0.00000E+00
         0.00000E+00
         0.00000E+00
         0.00000E+00
         0.00000E+00
         0.00000E+00
         0.00000E+00
         0.00000E+00
         0.00000E+00
         0.00000E+00
         0.00000E+00
         0.00000E+00
         0.00000E+00
         0.00000E+00
         0.00000E+00
         0.00000E+00
         0.00000E+00
         0.00000E+00
         0.00000E+00
         0.00000E+00
         0.00000E+00
         0.00000E+00
         0.00000E+00
         0.00000E+00
         0.00000E+00
         0.00000E+00
         0.00000E+00
         0.00000E+00
         0.00000E+00
         0.00000E+00
         0.00000E+00
         0.00000E+00
         0.00000E+00
         0.00000E+00
         0.00000E+00
         0.00000E+00
         0.00000E+00
         0.00000E+00
         0.00000E+00
         0.00000E+00
         0.00000E+00
         0.00000E+00
         0.00000E+00
         0.00000E+00
         0.00000E+00
         0.00000E+00
         0.00000E+00
         0.00000E+00
         0.00000E+00
         0.00000E+00
         0.00000E+00
         0.00000E+00
         0.00000E+00
         0.00000E+00
         0.00000E+00
         0.00000E+00
         0.00000E+00
         0.00000E+00
         0.00000E+00
         0.00000E+00
         0.00000E+00
         0.00000E+00
         0.00000E+00
         0.00000E+00
         0.00000E+00
         0.00000E+00
         0.00000E+00
         0.00000E+00
         0.00000E+00
         0.00000E+00
         0.00000E+00
         0.00000E+00
         0.00000E+00
         0.00000E+00
         0.00000E+00
         0.00000E+00
         0.00000E+00
         0.00000E+00
         0.00000E+00
         0.00000E+00
         0.00000E+00
         0.00000E+00
         0.00000E+00
         0.00000E+00
         0.00000E+00
         0.00000E+00
         0.00000E+00
         0.00000E+00
         0.00000E+00
         0.00000E+00
         0.00000E+00
         0.00000E+00
         0.00000E+00
         0.00000E+00
         0.00000E+00
         0.00000E+00
         0.00000E+00
         0.00000E+00
         0.00000E+00
         0.00000E+00
  
SCALARS                 displacement_y  double 1
LOOKUP_TABLE default
         0.00000E+00
         0.00000E+00
         0.00000E+00
         0.00000E+00
         0.00000E+00
         0.00000E+00
         0.00000E+00
         0.00000E+00
         0.00000E+00
         0.00000E+00
         0.00000E+00
         0.00000E+00
         0.00000E+00
         0.00000E+00
         0.00000E+00
         0.00000E+00
         0.00000E+00
         0.00000E+00
         0.00000E+00
         0.00000E+00
         0.00000E+00
         0.00000E+00
         0.00000E+00
         0.00000E+00
         0.00000E+00
         0.00000E+00
         0.00000E+00
         0.00000E+00
         0.00000E+00
         0.00000E+00
         0.00000E+00
         0.00000E+00
         0.00000E+00
         0.00000E+00
         0.00000E+00
         0.00000E+00
         0.00000E+00
         0.00000E+00
         0.00000E+00
         0.00000E+00
         0.00000E+00
         0.00000E+00
         0.00000E+00
         0.00000E+00
         0.00000E+00
         0.00000E+00
         0.00000E+00
         0.00000E+00
         0.00000E+00
         0.00000E+00
         0.00000E+00
         0.00000E+00
         0.00000E+00
         0.00000E+00
         0.00000E+00
         0.00000E+00
         0.00000E+00
         0.00000E+00
         0.00000E+00
         0.00000E+00
         0.00000E+00
         0.00000E+00
         0.00000E+00
         0.00000E+00
         0.00000E+00
         0.00000E+00
         0.00000E+00
         0.00000E+00
         0.00000E+00
         0.00000E+00
         0.00000E+00
         0.00000E+00
         0.00000E+00
         0.00000E+00
         0.00000E+00
         0.00000E+00
         0.00000E+00
         0.00000E+00
         0.00000E+00
         0.00000E+00
         0.00000E+00
         0.00000E+00
         0.00000E+00
         0.00000E+00
         0.00000E+00
         0.00000E+00
         0.00000E+00
         0.00000E+00
         0.00000E+00
         0.00000E+00
         0.00000E+00
         0.00000E+00
         0.00000E+00
         0.00000E+00
         0.00000E+00
         0.00000E+00
         0.00000E+00
         0.00000E+00
         0.00000E+00
         0.00000E+00
         0.00000E+00
         0.00000E+00
         0.00000E+00
         0.00000E+00
         0.00000E+00
         0.00000E+00
         0.00000E+00
         0.00000E+00
         0.00000E+00
         0.00000E+00
         0.00000E+00
         0.00000E+00
         0.00000E+00
         0.00000E+00
         0.00000E+00
         0.00000E+00
         0.00000E+00
         0.00000E+00
         0.00000E+00
         0.00000E+00
         0.00000E+00
         0.00000E+00
         0.00000E+00
         0.00000E+00
         0.00000E+00
         0.00000E+00
         0.00000E+00
         0.00000E+00
         0.00000E+00
         0.00000E+00
         0.00000E+00
         0.00000E+00
         0.00000E+00
         0.00000E+00
         0.00000E+00
         0.00000E+00
         0.00000E+00
         0.00000E+00
         0.00000E+00
         0.00000E+00
         0.00000E+00
         0.00000E+00
         0.00000E+00
         0.00000E+00
         0.00000E+00
         0.00000E+00
         0.00000E+00
         0.00000E+00
         0.00000E+00
         0.00000E+00
         0.00000E+00
         0.00000E+00
         0.00000E+00
         0.00000E+00
         0.00000E+00
         0.00000E+00
         0.00000E+00
         0.00000E+00
         0.00000E+00
         0.00000E+00
         0.00000E+00
         0.00000E+00
         0.00000E+00
         0.00000E+00
         0.00000E+00
         0.00000E+00
         0.00000E+00
         0.00000E+00
         0.00000E+00
         0.00000E+00
         0.00000E+00
         0.00000E+00
         0.00000E+00
         0.00000E+00
         0.00000E+00
         0.00000E+00
         0.00000E+00
         0.00000E+00
         0.00000E+00
         0.00000E+00
         0.00000E+00
         0.00000E+00
         0.00000E+00
         0.00000E+00
         0.00000E+00
         0.00000E+00
         0.00000E+00
         0.00000E+00
         0.00000E+00
         0.00000E+00
         0.00000E+00
         0.00000E+00
         0.00000E+00
         0.00000E+00
         0.00000E+00
         0.00000E+00
         0.00000E+00
         0.00000E+00
         0.00000E+00
         0.00000E+00
         0.00000E+00
         0.00000E+00
         0.00000E+00
         0.00000E+00
         0.00000E+00
         0.00000E+00
         0.00000E+00
         0.00000E+00
         0.00000E+00
         0.00000E+00
         0.00000E+00
         0.00000E+00
         0.00000E+00
         0.00000E+00
         0.00000E+00
         0.00000E+00
         0.00000E+00
         0.00000E+00
         0.00000E+00
         0.00000E+00
         0.00000E+00
         0.00000E+00
         0.00000E+00
         0.00000E+00
         0.00000E+00
         0.00000E+00
         0.00000E+00
         0.00000E+00
         0.00000E+00
         0.00000E+00
         0.00000E+00
         0.00000E+00
         0.00000E+00
         0.00000E+00
         0.00000E+00
         0.00000E+00
         0.00000E+00
         0.00000E+00
         0.00000E+00
         0.00000E+00
         0.00000E+00
         0.00000E+00
         0.00000E+00
         0.00000E+00
         0.00000E+00
         0.00000E+00
         0.00000E+00
         0.00000E+00
         0.00000E+00
         0.00000E+00
         0.00000E+00
         0.00000E+00
         0.00000E+00
         0.00000E+00
         0.00000E+00
         0.00000E+00
         0.00000E+00
         0.00000E+00
         0.00000E+00
         0.00000E+00
         0.00000E+00
         0.00000E+00
         0.00000E+00
         0.00000E+00
         0.00000E+00
         0.00000E+00
         0.00000E+00
         0.00000E+00
         0.00000E+00
         0.00000E+00
         0.00000E+00
         0.00000E+00
         0.00000E+00
         0.00000E+00
         0.00000E+00
         0.00000E+00
         0.00000E+00
         0.00000E+00
         0.00000E+00
         0.00000E+00
         0.00000E+00
         0.00000E+00
         0.00000E+00
         0.00000E+00
         0.00000E+00
         0.00000E+00
         0.00000E+00
         0.00000E+00
         0.00000E+00
         0.00000E+00
         0.00000E+00
         0.00000E+00
         0.00000E+00
         0.00000E+00
         0.00000E+00
         0.00000E+00
         0.00000E+00
         0.00000E+00
         0.00000E+00
         0.00000E+00
         0.00000E+00
         0.00000E+00
         0.00000E+00
         0.00000E+00
         0.00000E+00
         0.00000E+00
         0.00000E+00
         0.00000E+00
         0.00000E+00
         0.00000E+00
         0.00000E+00
         0.00000E+00
         0.00000E+00
         0.00000E+00
         0.00000E+00
         0.00000E+00
         0.00000E+00
         0.00000E+00
         0.00000E+00
         0.00000E+00
         0.00000E+00
         0.00000E+00
         0.00000E+00
         0.00000E+00
         0.00000E+00
         0.00000E+00
         0.00000E+00
         0.00000E+00
         0.00000E+00
         0.00000E+00
         0.00000E+00
         0.00000E+00
         0.00000E+00
         0.00000E+00
         0.00000E+00
         0.00000E+00
         0.00000E+00
         0.00000E+00
         0.00000E+00
         0.00000E+00
         0.00000E+00
         0.00000E+00
         0.00000E+00
         0.00000E+00
         0.00000E+00
         0.00000E+00
         0.00000E+00
         0.00000E+00
         0.00000E+00
         0.00000E+00
         0.00000E+00
         0.00000E+00
         0.00000E+00
         0.00000E+00
         0.00000E+00
         0.00000E+00
         0.00000E+00
         0.00000E+00
         0.00000E+00
         0.00000E+00
         0.00000E+00
         0.00000E+00
         0.00000E+00
         0.00000E+00
         0.00000E+00
         0.00000E+00
         0.00000E+00
         0.00000E+00
         0.00000E+00
         0.00000E+00
         0.00000E+00
         0.00000E+00
         0.00000E+00
         0.00000E+00
         0.00000E+00
         0.00000E+00
         0.00000E+00
         0.00000E+00
         0.00000E+00
         0.00000E+00
         0.00000E+00
         0.00000E+00
         0.00000E+00
         0.00000E+00
         0.00000E+00
         0.00000E+00
         0.00000E+00
         0.00000E+00
         0.00000E+00
         0.00000E+00
         0.00000E+00
         0.00000E+00
         0.00000E+00
         0.00000E+00
         0.00000E+00
         0.00000E+00
         0.00000E+00
         0.00000E+00
         0.00000E+00
         0.00000E+00
         0.00000E+00
         0.00000E+00
         0.00000E+00
         0.00000E+00
         0.00000E+00
         0.00000E+00
         0.00000E+00
         0.00000E+00
         0.00000E+00
         0.00000E+00
         0.00000E+00
         0.00000E+00
         0.00000E+00
         0.00000E+00
         0.00000E+00
         0.00000E+00
         0.00000E+00
         0.00000E+00
         0.00000E+00
         0.00000E+00
         0.00000E+00
         0.00000E+00
         0.00000E+00
         0.00000E+00
         0.00000E+00
         0.00000E+00
         0.00000E+00
         0.00000E+00
         0.00000E+00
         0.00000E+00
         0.00000E+00
         0.00000E+00
         0.00000E+00
         0.00000E+00
         0.00000E+00
         0.00000E+00
         0.00000E+00
         0.00000E+00
         0.00000E+00
         0.00000E+00
         0.00000E+00
         0.00000E+00
         0.00000E+00
         0.00000E+00
         0.00000E+00
         0.00000E+00
         0.00000E+00
         0.00000E+00
         0.00000E+00
         0.00000E+00
         0.00000E+00
         0.00000E+00
         0.00000E+00
         0.00000E+00
         0.00000E+00
         0.00000E+00
         0.00000E+00
         0.00000E+00
         0.00000E+00
         0.00000E+00
         0.00000E+00
         0.00000E+00
         0.00000E+00
         0.00000E+00
         0.00000E+00
         0.00000E+00
         0.00000E+00
         0.00000E+00
         0.00000E+00
         0.00000E+00
         0.00000E+00
         0.00000E+00
         0.00000E+00
         0.00000E+00
         0.00000E+00
         0.00000E+00
         0.00000E+00
         0.00000E+00
         0.00000E+00
         0.00000E+00
         0.00000E+00
         0.00000E+00
         0.00000E+00
         0.00000E+00
         0.00000E+00
         0.00000E+00
         0.00000E+00
         0.00000E+00
         0.00000E+00
         0.00000E+00
         0.00000E+00
         0.00000E+00
         0.00000E+00
         0.00000E+00
         0.00000E+00
         0.00000E+00
         0.00000E+00
         0.00000E+00
         0.00000E+00
         0.00000E+00
         0.00000E+00
         0.00000E+00
         0.00000E+00
         0.00000E+00
         0.00000E+00
         0.00000E+00
         0.00000E+00
         0.00000E+00
         0.00000E+00
         0.00000E+00
         0.00000E+00
         0.00000E+00
         0.00000E+00
         0.00000E+00
         0.00000E+00
         0.00000E+00
         0.00000E+00
         0.00000E+00
         0.00000E+00
         0.00000E+00
         0.00000E+00
         0.00000E+00
         0.00000E+00
         0.00000E+00
         0.00000E+00
         0.00000E+00
         0.00000E+00
         0.00000E+00
         0.00000E+00
         0.00000E+00
         0.00000E+00
         0.00000E+00
         0.00000E+00
         0.00000E+00
         0.00000E+00
         0.00000E+00
         0.00000E+00
         0.00000E+00
         0.00000E+00
         0.00000E+00
         0.00000E+00
         0.00000E+00
         0.00000E+00
         0.00000E+00
         0.00000E+00
         0.00000E+00
         0.00000E+00
         0.00000E+00
         0.00000E+00
         0.00000E+00
         0.00000E+00
         0.00000E+00
         0.00000E+00
         0.00000E+00
         0.00000E+00
         0.00000E+00
         0.00000E+00
         0.00000E+00
         0.00000E+00
         0.00000E+00
         0.00000E+00
         0.00000E+00
         0.00000E+00
         0.00000E+00
         0.00000E+00
         0.00000E+00
         0.00000E+00
         0.00000E+00
         0.00000E+00
         0.00000E+00
         0.00000E+00
         0.00000E+00
         0.00000E+00
         0.00000E+00
         0.00000E+00
         0.00000E+00
         0.00000E+00
         0.00000E+00
         0.00000E+00
         0.00000E+00
         0.00000E+00
         0.00000E+00
         0.00000E+00
         0.00000E+00
         0.00000E+00
         0.00000E+00
         0.00000E+00
         0.00000E+00
         0.00000E+00
         0.00000E+00
         0.00000E+00
         0.00000E+00
         0.00000E+00
         0.00000E+00
         0.00000E+00
         0.00000E+00
         0.00000E+00
         0.00000E+00
         0.00000E+00
         0.00000E+00
         0.00000E+00
         0.00000E+00
         0.00000E+00
         0.00000E+00
         0.00000E+00
         0.00000E+00
         0.00000E+00
         0.00000E+00
         0.00000E+00
         0.00000E+00
         0.00000E+00
         0.00000E+00
         0.00000E+00
         0.00000E+00
         0.00000E+00
         0.00000E+00
         0.00000E+00
         0.00000E+00
         0.00000E+00
         0.00000E+00
         0.00000E+00
         0.00000E+00
         0.00000E+00
         0.00000E+00
         0.00000E+00
         0.00000E+00
         0.00000E+00
         0.00000E+00
         0.00000E+00
         0.00000E+00
         0.00000E+00
         0.00000E+00
         0.00000E+00
         0.00000E+00
         0.00000E+00
         0.00000E+00
         0.00000E+00
         0.00000E+00
         0.00000E+00
         0.00000E+00
         0.00000E+00
         0.00000E+00
         0.00000E+00
         0.00000E+00
         0.00000E+00
         0.00000E+00
         0.00000E+00
         0.00000E+00
         0.00000E+00
         0.00000E+00
         0.00000E+00
         0.00000E+00
         0.00000E+00
         0.00000E+00
         0.00000E+00
         0.00000E+00
         0.00000E+00
         0.00000E+00
         0.00000E+00
         0.00000E+00
         0.00000E+00
         0.00000E+00
         0.00000E+00
         0.00000E+00
         0.00000E+00
         0.00000E+00
         0.00000E+00
         0.00000E+00
         0.00000E+00
         0.00000E+00
         0.00000E+00
         0.00000E+00
         0.00000E+00
         0.00000E+00
         0.00000E+00
         0.00000E+00
         0.00000E+00
         0.00000E+00
         0.00000E+00
         0.00000E+00
         0.00000E+00
         0.00000E+00
         0.00000E+00
         0.00000E+00
         0.00000E+00
         0.00000E+00
         0.00000E+00
         0.00000E+00
         0.00000E+00
         0.00000E+00
         0.00000E+00
         0.00000E+00
         0.00000E+00
         0.00000E+00
         0.00000E+00
         0.00000E+00
         0.00000E+00
         0.00000E+00
         0.00000E+00
         0.00000E+00
         0.00000E+00
         0.00000E+00
         0.00000E+00
         0.00000E+00
         0.00000E+00
         0.00000E+00
         0.00000E+00
         0.00000E+00
         0.00000E+00
         0.00000E+00
         0.00000E+00
         0.00000E+00
         0.00000E+00
         0.00000E+00
         0.00000E+00
         0.00000E+00
         0.00000E+00
         0.00000E+00
         0.00000E+00
         0.00000E+00
         0.00000E+00
         0.00000E+00
         0.00000E+00
         0.00000E+00
         0.00000E+00
         0.00000E+00
         0.00000E+00
         0.00000E+00
         0.00000E+00
         0.00000E+00
         0.00000E+00
         0.00000E+00
         0.00000E+00
         0.00000E+00
         0.00000E+00
         0.00000E+00
         0.00000E+00
         0.00000E+00
         0.00000E+00
         0.00000E+00
         0.00000E+00
         0.00000E+00
         0.00000E+00
         0.00000E+00
         0.00000E+00
         0.00000E+00
         0.00000E+00
         0.00000E+00
         0.00000E+00
         0.00000E+00
         0.00000E+00
         0.00000E+00
         0.00000E+00
         0.00000E+00
         0.00000E+00
         0.00000E+00
         0.00000E+00
         0.00000E+00
         0.00000E+00
         0.00000E+00
         0.00000E+00
         0.00000E+00
         0.00000E+00
         0.00000E+00
         0.00000E+00
         0.00000E+00
         0.00000E+00
         0.00000E+00
         0.00000E+00
         0.00000E+00
         0.00000E+00
         0.00000E+00
         0.00000E+00
         0.00000E+00
         0.00000E+00
         0.00000E+00
         0.00000E+00
         0.00000E+00
         0.00000E+00
         0.00000E+00
         0.00000E+00
         0.00000E+00
         0.00000E+00
         0.00000E+00
         0.00000E+00
         0.00000E+00
         0.00000E+00
         0.00000E+00
         0.00000E+00
         0.00000E+00
         0.00000E+00
         0.00000E+00
         0.00000E+00
         0.00000E+00
         0.00000E+00
         0.00000E+00
         0.00000E+00
         0.00000E+00
         0.00000E+00
         0.00000E+00
         0.00000E+00
         0.00000E+00
         0.00000E+00
         0.00000E+00
         0.00000E+00
         0.00000E+00
         0.00000E+00
         0.00000E+00
         0.00000E+00
         0.00000E+00
         0.00000E+00
         0.00000E+00
         0.00000E+00
         0.00000E+00
         0.00000E+00
         0.00000E+00
         0.00000E+00
         0.00000E+00
         0.00000E+00
         0.00000E+00
         0.00000E+00
         0.00000E+00
         0.00000E+00
         0.00000E+00
         0.00000E+00
         0.00000E+00
         0.00000E+00
         0.00000E+00
         0.00000E+00
         0.00000E+00
         0.00000E+00
         0.00000E+00
         0.00000E+00
         0.00000E+00
         0.00000E+00
         0.00000E+00
         0.00000E+00
         0.00000E+00
         0.00000E+00
         0.00000E+00
         0.00000E+00
         0.00000E+00
         0.00000E+00
         0.00000E+00
         0.00000E+00
         0.00000E+00
         0.00000E+00
         0.00000E+00
         0.00000E+00
         0.00000E+00
         0.00000E+00
         0.00000E+00
         0.00000E+00
         0.00000E+00
         0.00000E+00
         0.00000E+00
         0.00000E+00
         0.00000E+00
         0.00000E+00
         0.00000E+00
         0.00000E+00
         0.00000E+00
         0.00000E+00
         0.00000E+00
         0.00000E+00
         0.00000E+00
         0.00000E+00
         0.00000E+00
         0.00000E+00
         0.00000E+00
         0.00000E+00
         0.00000E+00
         0.00000E+00
         0.00000E+00
         0.00000E+00
         0.00000E+00
         0.00000E+00
         0.00000E+00
         0.00000E+00
         0.00000E+00
         0.00000E+00
         0.00000E+00
         0.00000E+00
         0.00000E+00
         0.00000E+00
         0.00000E+00
         0.00000E+00
         0.00000E+00
         0.00000E+00
         0.00000E+00
         0.00000E+00
         0.00000E+00
         0.00000E+00
         0.00000E+00
         0.00000E+00
         0.00000E+00
         0.00000E+00
         0.00000E+00
         0.00000E+00
         0.00000E+00
         0.00000E+00
         0.00000E+00
         0.00000E+00
         0.00000E+00
         0.00000E+00
         0.00000E+00
         0.00000E+00
         0.00000E+00
         0.00000E+00
         0.00000E+00
         0.00000E+00
         0.00000E+00
         0.00000E+00
         0.00000E+00
         0.00000E+00
         0.00000E+00
         0.00000E+00
         0.00000E+00
         0.00000E+00
         0.00000E+00
         0.00000E+00
         0.00000E+00
         0.00000E+00
         0.00000E+00
         0.00000E+00
         0.00000E+00
         0.00000E+00
         0.00000E+00
         0.00000E+00
         0.00000E+00
         0.00000E+00
         0.00000E+00
         0.00000E+00
         0.00000E+00
         0.00000E+00
         0.00000E+00
         0.00000E+00
         0.00000E+00
         0.00000E+00
         0.00000E+00
         0.00000E+00
         0.00000E+00
         0.00000E+00
         0.00000E+00
         0.00000E+00
         0.00000E+00
         0.00000E+00
         0.00000E+00
         0.00000E+00
         0.00000E+00
         0.00000E+00
         0.00000E+00
         0.00000E+00
         0.00000E+00
         0.00000E+00
         0.00000E+00
         0.00000E+00
         0.00000E+00
         0.00000E+00
         0.00000E+00
         0.00000E+00
         0.00000E+00
         0.00000E+00
         0.00000E+00
         0.00000E+00
         0.00000E+00
         0.00000E+00
         0.00000E+00
         0.00000E+00
         0.00000E+00
         0.00000E+00
         0.00000E+00
         0.00000E+00
         0.00000E+00
         0.00000E+00
         0.00000E+00
         0.00000E+00
         0.00000E+00
         0.00000E+00
         0.00000E+00
         0.00000E+00
         0.00000E+00
         0.00000E+00
         0.00000E+00
         0.00000E+00
         0.00000E+00
         0.00000E+00
         0.00000E+00
         0.00000E+00
         0.00000E+00
         0.00000E+00
         0.00000E+00
         0.00000E+00
         0.00000E+00
         0.00000E+00
         0.00000E+00
         0.00000E+00
         0.00000E+00
         0.00000E+00
         0.00000E+00
         0.00000E+00
         0.00000E+00
         0.00000E+00
         0.00000E+00
         0.00000E+00
         0.00000E+00
         0.00000E+00
         0.00000E+00
         0.00000E+00
         0.00000E+00
         0.00000E+00
         0.00000E+00
         0.00000E+00
         0.00000E+00
         0.00000E+00
         0.00000E+00
         0.00000E+00
         0.00000E+00
         0.00000E+00
         0.00000E+00
         0.00000E+00
         0.00000E+00
         0.00000E+00
         0.00000E+00
         0.00000E+00
         0.00000E+00
         0.00000E+00
         0.00000E+00
         0.00000E+00
         0.00000E+00
         0.00000E+00
         0.00000E+00
         0.00000E+00
         0.00000E+00
         0.00000E+00
         0.00000E+00
         0.00000E+00
         0.00000E+00
         0.00000E+00
         0.00000E+00
         0.00000E+00
         0.00000E+00
         0.00000E+00
         0.00000E+00
         0.00000E+00
         0.00000E+00
         0.00000E+00
         0.00000E+00
         0.00000E+00
         0.00000E+00
         0.00000E+00
         0.00000E+00
         0.00000E+00
         0.00000E+00
         0.00000E+00
         0.00000E+00
         0.00000E+00
         0.00000E+00
         0.00000E+00
         0.00000E+00
         0.00000E+00
         0.00000E+00
         0.00000E+00
         0.00000E+00
         0.00000E+00
         0.00000E+00
         0.00000E+00
         0.00000E+00
         0.00000E+00
         0.00000E+00
         0.00000E+00
         0.00000E+00
         0.00000E+00
         0.00000E+00
         0.00000E+00
         0.00000E+00
         0.00000E+00
         0.00000E+00
         0.00000E+00
         0.00000E+00
         0.00000E+00
         0.00000E+00
         0.00000E+00
         0.00000E+00
         0.00000E+00
         0.00000E+00
         0.00000E+00
         0.00000E+00
         0.00000E+00
         0.00000E+00
         0.00000E+00
         0.00000E+00
         0.00000E+00
         0.00000E+00
         0.00000E+00
         0.00000E+00
         0.00000E+00
         0.00000E+00
         0.00000E+00
         0.00000E+00
         0.00000E+00
         0.00000E+00
         0.00000E+00
         0.00000E+00
         0.00000E+00
         0.00000E+00
         0.00000E+00
         0.00000E+00
         0.00000E+00
         0.00000E+00
         0.00000E+00
         0.00000E+00
         0.00000E+00
         0.00000E+00
         0.00000E+00
         0.00000E+00
         0.00000E+00
         0.00000E+00
         0.00000E+00
         0.00000E+00
         0.00000E+00
         0.00000E+00
         0.00000E+00
         0.00000E+00
         0.00000E+00
         0.00000E+00
         0.00000E+00
         0.00000E+00
         0.00000E+00
         0.00000E+00
         0.00000E+00
         0.00000E+00
         0.00000E+00
         0.00000E+00
         0.00000E+00
         0.00000E+00
         0.00000E+00
         0.00000E+00
         0.00000E+00
         0.00000E+00
         0.00000E+00
         0.00000E+00
         0.00000E+00
         0.00000E+00
         0.00000E+00
         0.00000E+00
         0.00000E+00
         0.00000E+00
         0.00000E+00
         0.00000E+00
         0.00000E+00
         0.00000E+00
         0.00000E+00
         0.00000E+00
         0.00000E+00
         0.00000E+00
         0.00000E+00
         0.00000E+00
         0.00000E+00
         0.00000E+00
         0.00000E+00
         0.00000E+00
         0.00000E+00
         0.00000E+00
         0.00000E+00
         0.00000E+00
         0.00000E+00
         0.00000E+00
         0.00000E+00
         0.00000E+00
         0.00000E+00
         0.00000E+00
         0.00000E+00
         0.00000E+00
         0.00000E+00
         0.00000E+00
         0.00000E+00
         0.00000E+00
         0.00000E+00
         0.00000E+00
         0.00000E+00
         0.00000E+00
         0.00000E+00
         0.00000E+00
         0.00000E+00
         0.00000E+00
         0.00000E+00
         0.00000E+00
         0.00000E+00
         0.00000E+00
         0.00000E+00
         0.00000E+00
         0.00000E+00
         0.00000E+00
         0.00000E+00
         0.00000E+00
         0.00000E+00
         0.00000E+00
         0.00000E+00
         0.00000E+00
         0.00000E+00
         0.00000E+00
         0.00000E+00
         0.00000E+00
         0.00000E+00
         0.00000E+00
         0.00000E+00
         0.00000E+00
         0.00000E+00
         0.00000E+00
         0.00000E+00
         0.00000E+00
         0.00000E+00
         0.00000E+00
         0.00000E+00
         0.00000E+00
         0.00000E+00
         0.00000E+00
         0.00000E+00
         0.00000E+00
         0.00000E+00
         0.00000E+00
         0.00000E+00
         0.00000E+00
         0.00000E+00
         0.00000E+00
         0.00000E+00
         0.00000E+00
         0.00000E+00
         0.00000E+00
         0.00000E+00
         0.00000E+00
         0.00000E+00
         0.00000E+00
         0.00000E+00
         0.00000E+00
         0.00000E+00
         0.00000E+00
         0.00000E+00
         0.00000E+00
         0.00000E+00
         0.00000E+00
         0.00000E+00
         0.00000E+00
         0.00000E+00
         0.00000E+00
         0.00000E+00
         0.00000E+00
         0.00000E+00
         0.00000E+00
         0.00000E+00
         0.00000E+00
         0.00000E+00
         0.00000E+00
         0.00000E+00
         0.00000E+00
         0.00000E+00
         0.00000E+00
         0.00000E+00
         0.00000E+00
         0.00000E+00
         0.00000E+00
         0.00000E+00
         0.00000E+00
         0.00000E+00
         0.00000E+00
         0.00000E+00
         0.00000E+00
         0.00000E+00
         0.00000E+00
         0.00000E+00
         0.00000E+00
         0.00000E+00
         0.00000E+00
         0.00000E+00
         0.00000E+00
         0.00000E+00
         0.00000E+00
         0.00000E+00
         0.00000E+00
         0.00000E+00
         0.00000E+00
         0.00000E+00
         0.00000E+00
         0.00000E+00
         0.00000E+00
         0.00000E+00
         0.00000E+00
         0.00000E+00
         0.00000E+00
         0.00000E+00
         0.00000E+00
         0.00000E+00
         0.00000E+00
         0.00000E+00
         0.00000E+00
         0.00000E+00
         0.00000E+00
         0.00000E+00
         0.00000E+00
         0.00000E+00
         0.00000E+00
         0.00000E+00
         0.00000E+00
         0.00000E+00
         0.00000E+00
         0.00000E+00
         0.00000E+00
         0.00000E+00
         0.00000E+00
         0.00000E+00
         0.00000E+00
         0.00000E+00
         0.00000E+00
         0.00000E+00
         0.00000E+00
         0.00000E+00
         0.00000E+00
         0.00000E+00
         0.00000E+00
         0.00000E+00
         0.00000E+00
         0.00000E+00
         0.00000E+00
         0.00000E+00
         0.00000E+00
         0.00000E+00
         0.00000E+00
         0.00000E+00
         0.00000E+00
         0.00000E+00
         0.00000E+00
         0.00000E+00
         0.00000E+00
         0.00000E+00
         0.00000E+00
         0.00000E+00
         0.00000E+00
         0.00000E+00
         0.00000E+00
         0.00000E+00
         0.00000E+00
         0.00000E+00
         0.00000E+00
         0.00000E+00
         0.00000E+00
         0.00000E+00
         0.00000E+00
         0.00000E+00
         0.00000E+00
         0.00000E+00
         0.00000E+00
         0.00000E+00
         0.00000E+00
         0.00000E+00
         0.00000E+00
         0.00000E+00
         0.00000E+00
         0.00000E+00
         0.00000E+00
         0.00000E+00
         0.00000E+00
         0.00000E+00
         0.00000E+00
         0.00000E+00
         0.00000E+00
         0.00000E+00
         0.00000E+00
         0.00000E+00
         0.00000E+00
         0.00000E+00
         0.00000E+00
         0.00000E+00
         0.00000E+00
         0.00000E+00
         0.00000E+00
         0.00000E+00
         0.00000E+00
         0.00000E+00
         0.00000E+00
         0.00000E+00
         0.00000E+00
         0.00000E+00
         0.00000E+00
         0.00000E+00
         0.00000E+00
         0.00000E+00
         0.00000E+00
         0.00000E+00
         0.00000E+00
         0.00000E+00
         0.00000E+00
         0.00000E+00
         0.00000E+00
         0.00000E+00
         0.00000E+00
         0.00000E+00
         0.00000E+00
         0.00000E+00
         0.00000E+00
         0.00000E+00
         0.00000E+00
         0.00000E+00
         0.00000E+00
         0.00000E+00
         0.00000E+00
         0.00000E+00
         0.00000E+00
         0.00000E+00
         0.00000E+00
         0.00000E+00
         0.00000E+00
         0.00000E+00
         0.00000E+00
         0.00000E+00
         0.00000E+00
         0.00000E+00
         0.00000E+00
         0.00000E+00
         0.00000E+00
         0.00000E+00
         0.00000E+00
         0.00000E+00
         0.00000E+00
         0.00000E+00
         0.00000E+00
         0.00000E+00
         0.00000E+00
         0.00000E+00
         0.00000E+00
         0.00000E+00
         0.00000E+00
         0.00000E+00
         0.00000E+00
         0.00000E+00
         0.00000E+00
         0.00000E+00
         0.00000E+00
         0.00000E+00
         0.00000E+00
         0.00000E+00
         0.00000E+00
         0.00000E+00
         0.00000E+00
         0.00000E+00
         0.00000E+00
         0.00000E+00
         0.00000E+00
         0.00000E+00
         0.00000E+00
         0.00000E+00
         0.00000E+00
         0.00000E+00
         0.00000E+00
         0.00000E+00
         0.00000E+00
         0.00000E+00
         0.00000E+00
         0.00000E+00
         0.00000E+00
         0.00000E+00
         0.00000E+00
         0.00000E+00
         0.00000E+00
         0.00000E+00
         0.00000E+00
         0.00000E+00
         0.00000E+00
         0.00000E+00
         0.00000E+00
         0.00000E+00
         0.00000E+00
         0.00000E+00
         0.00000E+00
         0.00000E+00
         0.00000E+00
         0.00000E+00
         0.00000E+00
         0.00000E+00
         0.00000E+00
         0.00000E+00
         0.00000E+00
         0.00000E+00
         0.00000E+00
         0.00000E+00
         0.00000E+00
         0.00000E+00
         0.00000E+00
         0.00000E+00
         0.00000E+00
         0.00000E+00
         0.00000E+00
         0.00000E+00
         0.00000E+00
         0.00000E+00
         0.00000E+00
         0.00000E+00
         0.00000E+00
         0.00000E+00
         0.00000E+00
         0.00000E+00
         0.00000E+00
         0.00000E+00
         0.00000E+00
         0.00000E+00
         0.00000E+00
         0.00000E+00
         0.00000E+00
         0.00000E+00
         0.00000E+00
         0.00000E+00
         0.00000E+00
         0.00000E+00
         0.00000E+00
         0.00000E+00
         0.00000E+00
         0.00000E+00
         0.00000E+00
         0.00000E+00
         0.00000E+00
         0.00000E+00
         0.00000E+00
         0.00000E+00
         0.00000E+00
         0.00000E+00
         0.00000E+00
         0.00000E+00
         0.00000E+00
         0.00000E+00
         0.00000E+00
         0.00000E+00
         0.00000E+00
         0.00000E+00
         0.00000E+00
         0.00000E+00
         0.00000E+00
         0.00000E+00
         0.00000E+00
         0.00000E+00
         0.00000E+00
         0.00000E+00
         0.00000E+00
         0.00000E+00
         0.00000E+00
         0.00000E+00
         0.00000E+00
         0.00000E+00
         0.00000E+00
         0.00000E+00
         0.00000E+00
         0.00000E+00
         0.00000E+00
         0.00000E+00
         0.00000E+00
         0.00000E+00
         0.00000E+00
         0.00000E+00
         0.00000E+00
         0.00000E+00
         0.00000E+00
         0.00000E+00
         0.00000E+00
         0.00000E+00
         0.00000E+00
         0.00000E+00
         0.00000E+00
         0.00000E+00
         0.00000E+00
         0.00000E+00
         0.00000E+00
         0.00000E+00
         0.00000E+00
         0.00000E+00
         0.00000E+00
         0.00000E+00
         0.00000E+00
         0.00000E+00
         0.00000E+00
         0.00000E+00
         0.00000E+00
         0.00000E+00
         0.00000E+00
         0.00000E+00
         0.00000E+00
         0.00000E+00
         0.00000E+00
         0.00000E+00
         0.00000E+00
         0.00000E+00
         0.00000E+00
         0.00000E+00
         0.00000E+00
         0.00000E+00
         0.00000E+00
         0.00000E+00
         0.00000E+00
         0.00000E+00
         0.00000E+00
         0.00000E+00
         0.00000E+00
         0.00000E+00
         0.00000E+00
         0.00000E+00
         0.00000E+00
         0.00000E+00
         0.00000E+00
         0.00000E+00
         0.00000E+00
         0.00000E+00
         0.00000E+00
         0.00000E+00
         0.00000E+00
         0.00000E+00
         0.00000E+00
         0.00000E+00
         0.00000E+00
         0.00000E+00
         0.00000E+00
         0.00000E+00
         0.00000E+00
         0.00000E+00
         0.00000E+00
         0.00000E+00
         0.00000E+00
         0.00000E+00
         0.00000E+00
         0.00000E+00
         0.00000E+00
         0.00000E+00
         0.00000E+00
         0.00000E+00
         0.00000E+00
         0.00000E+00
         0.00000E+00
         0.00000E+00
         0.00000E+00
         0.00000E+00
         0.00000E+00
         0.00000E+00
         0.00000E+00
         0.00000E+00
         0.00000E+00
         0.00000E+00
         0.00000E+00
         0.00000E+00
         0.00000E+00
         0.00000E+00
         0.00000E+00
         0.00000E+00
         0.00000E+00
         0.00000E+00
         0.00000E+00
         0.00000E+00
         0.00000E+00
         0.00000E+00
         0.00000E+00
         0.00000E+00
         0.00000E+00
         0.00000E+00
         0.00000E+00
         0.00000E+00
         0.00000E+00
         0.00000E+00
         0.00000E+00
         0.00000E+00
         0.00000E+00
         0.00000E+00
         0.00000E+00
         0.00000E+00
         0.00000E+00
         0.00000E+00
         0.00000E+00
         0.00000E+00
         0.00000E+00
         0.00000E+00
         0.00000E+00
         0.00000E+00
         0.00000E+00
         0.00000E+00
         0.00000E+00
         0.00000E+00
         0.00000E+00
         0.00000E+00
         0.00000E+00
         0.00000E+00
         0.00000E+00
         0.00000E+00
         0.00000E+00
         0.00000E+00
         0.00000E+00
         0.00000E+00
         0.00000E+00
         0.00000E+00
         0.00000E+00
         0.00000E+00
         0.00000E+00
         0.00000E+00
         0.00000E+00
         0.00000E+00
         0.00000E+00
         0.00000E+00
         0.00000E+00
         0.00000E+00
         0.00000E+00
         0.00000E+00
         0.00000E+00
         0.00000E+00
         0.00000E+00
         0.00000E+00
         0.00000E+00
         0.00000E+00
         0.00000E+00
         0.00000E+00
         0.00000E+00
         0.00000E+00
         0.00000E+00
         0.00000E+00
         0.00000E+00
         0.00000E+00
         0.00000E+00
         0.00000E+00
         0.00000E+00
         0.00000E+00
         0.00000E+00
         0.00000E+00
         0.00000E+00
         0.00000E+00
         0.00000E+00
         0.00000E+00
         0.00000E+00
         0.00000E+00
         0.00000E+00
         0.00000E+00
         0.00000E+00
         0.00000E+00
         0.00000E+00
         0.00000E+00
         0.00000E+00
         0.00000E+00
         0.00000E+00
         0.00000E+00
         0.00000E+00
         0.00000E+00
         0.00000E+00
         0.00000E+00
         0.00000E+00
         0.00000E+00
         0.00000E+00
         0.00000E+00
         0.00000E+00
         0.00000E+00
         0.00000E+00
         0.00000E+00
         0.00000E+00
         0.00000E+00
         0.00000E+00
         0.00000E+00
         0.00000E+00
         0.00000E+00
         0.00000E+00
         0.00000E+00
         0.00000E+00
         0.00000E+00
         0.00000E+00
         0.00000E+00
         0.00000E+00
         0.00000E+00
         0.00000E+00
         0.00000E+00
         0.00000E+00
         0.00000E+00
         0.00000E+00
         0.00000E+00
         0.00000E+00
         0.00000E+00
         0.00000E+00
         0.00000E+00
         0.00000E+00
         0.00000E+00
         0.00000E+00
         0.00000E+00
         0.00000E+00
         0.00000E+00
         0.00000E+00
         0.00000E+00
         0.00000E+00
         0.00000E+00
         0.00000E+00
         0.00000E+00
         0.00000E+00
         0.00000E+00
         0.00000E+00
         0.00000E+00
         0.00000E+00
         0.00000E+00
         0.00000E+00
         0.00000E+00
         0.00000E+00
         0.00000E+00
         0.00000E+00
         0.00000E+00
         0.00000E+00
         0.00000E+00
         0.00000E+00
         0.00000E+00
         0.00000E+00
         0.00000E+00
         0.00000E+00
         0.00000E+00
         0.00000E+00
         0.00000E+00
         0.00000E+00
         0.00000E+00
         0.00000E+00
         0.00000E+00
         0.00000E+00
         0.00000E+00
         0.00000E+00
         0.00000E+00
         0.00000E+00
         0.00000E+00
         0.00000E+00
         0.00000E+00
         0.00000E+00
         0.00000E+00
         0.00000E+00
         0.00000E+00
         0.00000E+00
         0.00000E+00
         0.00000E+00
         0.00000E+00
         0.00000E+00
         0.00000E+00
         0.00000E+00
         0.00000E+00
         0.00000E+00
         0.00000E+00
         0.00000E+00
         0.00000E+00
         0.00000E+00
         0.00000E+00
         0.00000E+00
         0.00000E+00
         0.00000E+00
         0.00000E+00
         0.00000E+00
         0.00000E+00
         0.00000E+00
         0.00000E+00
         0.00000E+00
         0.00000E+00
         0.00000E+00
         0.00000E+00
         0.00000E+00
         0.00000E+00
         0.00000E+00
         0.00000E+00
         0.00000E+00
         0.00000E+00
         0.00000E+00
         0.00000E+00
         0.00000E+00
         0.00000E+00
         0.00000E+00
         0.00000E+00
         0.00000E+00
         0.00000E+00
         0.00000E+00
         0.00000E+00
         0.00000E+00
         0.00000E+00
         0.00000E+00
         0.00000E+00
         0.00000E+00
         0.00000E+00
         0.00000E+00
         0.00000E+00
         0.00000E+00
         0.00000E+00
         0.00000E+00
         0.00000E+00
         0.00000E+00
         0.00000E+00
         0.00000E+00
         0.00000E+00
         0.00000E+00
         0.00000E+00
         0.00000E+00
         0.00000E+00
         0.00000E+00
         0.00000E+00
         0.00000E+00
         0.00000E+00
         0.00000E+00
         0.00000E+00
         0.00000E+00
         0.00000E+00
         0.00000E+00
         0.00000E+00
         0.00000E+00
         0.00000E+00
         0.00000E+00
         0.00000E+00
         0.00000E+00
         0.00000E+00
         0.00000E+00
         0.00000E+00
         0.00000E+00
         0.00000E+00
         0.00000E+00
         0.00000E+00
         0.00000E+00
         0.00000E+00
         0.00000E+00
         0.00000E+00
         0.00000E+00
         0.00000E+00
         0.00000E+00
         0.00000E+00
         0.00000E+00
         0.00000E+00
         0.00000E+00
         0.00000E+00
         0.00000E+00
         0.00000E+00
         0.00000E+00
         0.00000E+00
         0.00000E+00
         0.00000E+00
         0.00000E+00
         0.00000E+00
         0.00000E+00
         0.00000E+00
         0.00000E+00
         0.00000E+00
         0.00000E+00
         0.00000E+00
         0.00000E+00
         0.00000E+00
         0.00000E+00
         0.00000E+00
         0.00000E+00
         0.00000E+00
         0.00000E+00
         0.00000E+00
         0.00000E+00
         0.00000E+00
         0.00000E+00
         0.00000E+00
         0.00000E+00
  
SCALARS                 displacement_z  double 1
LOOKUP_TABLE default
        -0.65021E-02
        -0.64918E-02
        -0.64902E-02
        -0.65093E-02
        -0.39957E-16
        -0.44804E-16
        -0.42902E-16
        -0.38976E-16
        -0.64708E-02
        -0.64937E-02
        -0.40291E-16
        -0.38992E-16
        -0.64805E-02
        -0.64951E-02
        -0.47873E-16
        -0.45012E-16
        -0.65030E-02
        -0.65057E-02
        -0.35375E-16
        -0.39234E-16
        -0.64727E-02
        -0.64638E-02
        -0.64681E-02
        -0.47447E-16
        -0.41437E-16
        -0.42788E-16
        -0.64908E-02
        -0.64849E-02
        -0.45518E-16
        -0.38387E-16
        -0.65112E-02
        -0.65162E-02
        -0.65077E-02
        -0.38845E-16
        -0.36113E-16
        -0.35111E-16
        -0.64905E-02
        -0.65115E-02
        -0.41096E-16
        -0.37500E-16
        -0.64844E-02
        -0.65021E-02
        -0.35519E-16
        -0.31444E-16
        -0.64681E-02
        -0.64764E-02
        -0.38923E-16
        -0.43491E-16
        -0.65177E-02
        -0.38024E-16
        -0.64879E-02
        -0.44681E-16
        -0.65099E-02
        -0.40153E-16
        -0.65163E-02
        -0.38516E-16
        -0.64987E-02
        -0.65127E-02
        -0.39244E-16
        -0.38220E-16
        -0.65065E-02
        -0.64878E-02
        -0.39353E-16
        -0.44487E-16
        -0.65053E-02
        -0.37973E-16
        -0.64976E-02
        -0.41443E-16
        -0.64418E-02
        -0.64643E-02
        -0.39892E-16
        -0.41799E-16
        -0.64727E-02
        -0.42150E-16
        -0.64970E-02
        -0.33301E-16
        -0.64947E-02
        -0.32324E-16
        -0.64735E-02
        -0.34083E-16
        -0.64493E-02
        -0.64796E-02
        -0.32473E-16
        -0.33855E-16
        -0.65042E-02
        -0.31532E-16
        -0.64702E-02
        -0.41349E-16
        -0.64614E-02
        -0.42320E-16
        -0.64394E-02
        -0.64693E-02
        -0.40641E-16
        -0.41116E-16
        -0.64897E-02
        -0.37345E-16
        -0.64867E-02
        -0.36812E-16
        -0.64705E-02
        -0.39408E-16
        -0.64472E-02
        -0.64744E-02
        -0.38646E-16
        -0.39780E-16
        -0.63798E-02
        -0.63905E-02
        -0.30004E-16
        -0.28221E-16
        -0.63893E-02
        -0.28650E-16
        -0.63815E-02
        -0.27470E-16
        -0.63822E-02
        -0.27088E-16
        -0.63812E-02
        -0.25599E-16
        -0.63874E-02
        -0.22741E-16
        -0.63901E-02
        -0.20478E-16
        -0.63885E-02
        -0.20335E-16
        -0.63872E-02
        -0.22052E-16
        -0.63778E-02
        -0.23176E-16
        -0.63898E-02
        -0.21162E-16
        -0.63941E-02
        -0.19076E-16
        -0.63930E-02
        -0.19054E-16
        -0.63881E-02
        -0.21298E-16
        -0.63834E-02
        -0.24284E-16
        -0.63809E-02
        -0.26088E-16
        -0.63884E-02
        -0.28175E-16
        -0.63812E-02
        -0.30185E-16
        -0.63920E-02
        -0.27652E-16
        -0.63883E-02
        -0.24258E-16
        -0.63848E-02
        -0.24183E-16
        -0.63910E-02
        -0.26459E-16
        -0.63823E-02
        -0.28208E-16
        -0.63910E-02
        -0.26769E-16
        -0.63912E-02
        -0.25880E-16
        -0.91645E-02
        -0.91627E-02
        -0.91625E-02
        -0.91653E-02
        -0.91596E-02
        -0.91630E-02
        -0.91609E-02
        -0.91631E-02
        -0.91650E-02
        -0.91652E-02
        -0.91601E-02
        -0.91588E-02
        -0.91590E-02
        -0.91625E-02
        -0.91618E-02
        -0.91654E-02
        -0.91667E-02
        -0.91654E-02
        -0.91627E-02
        -0.91660E-02
        -0.91617E-02
        -0.91647E-02
        -0.91592E-02
        -0.91606E-02
        -0.91668E-02
        -0.91620E-02
        -0.91657E-02
        -0.91664E-02
        -0.91636E-02
        -0.91660E-02
        -0.91652E-02
        -0.91620E-02
        -0.91649E-02
        -0.91634E-02
        -0.91556E-02
        -0.91584E-02
        -0.91597E-02
        -0.91639E-02
        -0.91634E-02
        -0.91599E-02
        -0.91565E-02
        -0.91608E-02
        -0.91648E-02
        -0.91593E-02
        -0.91580E-02
        -0.91553E-02
        -0.91591E-02
        -0.91624E-02
        -0.91619E-02
        -0.91593E-02
        -0.91564E-02
        -0.91600E-02
        -0.91489E-02
        -0.91507E-02
        -0.91506E-02
        -0.91497E-02
        -0.91497E-02
        -0.91498E-02
        -0.91507E-02
        -0.91509E-02
        -0.91503E-02
        -0.91499E-02
        -0.91484E-02
        -0.91505E-02
        -0.91515E-02
        -0.91513E-02
        -0.91506E-02
        -0.91499E-02
        -0.91495E-02
        -0.91505E-02
        -0.91493E-02
        -0.91512E-02
        -0.91510E-02
        -0.91502E-02
        -0.91508E-02
        -0.91493E-02
        -0.91508E-02
        -0.91513E-02
        -0.93826E-02
        -0.93826E-02
        -0.93826E-02
        -0.93826E-02
        -0.93826E-02
        -0.93826E-02
        -0.93826E-02
        -0.93826E-02
        -0.93826E-02
        -0.93826E-02
        -0.93826E-02
        -0.93826E-02
        -0.93826E-02
        -0.93826E-02
        -0.93826E-02
        -0.93826E-02
        -0.93826E-02
        -0.93826E-02
        -0.93826E-02
        -0.93826E-02
        -0.93826E-02
        -0.93826E-02
        -0.93826E-02
        -0.93826E-02
        -0.93826E-02
        -0.93826E-02
        -0.93826E-02
        -0.93826E-02
        -0.93826E-02
        -0.93826E-02
        -0.93826E-02
        -0.93826E-02
        -0.93826E-02
        -0.93826E-02
        -0.93826E-02
        -0.93826E-02
        -0.93826E-02
        -0.93826E-02
        -0.93826E-02
        -0.93826E-02
        -0.93826E-02
        -0.93826E-02
        -0.93826E-02
        -0.93826E-02
        -0.93826E-02
        -0.93826E-02
        -0.93826E-02
        -0.93826E-02
        -0.93826E-02
        -0.93826E-02
        -0.93826E-02
        -0.93826E-02
        -0.93826E-02
        -0.93826E-02
        -0.93826E-02
        -0.93826E-02
        -0.93826E-02
        -0.93826E-02
        -0.93826E-02
        -0.93826E-02
        -0.93826E-02
        -0.93826E-02
        -0.93826E-02
        -0.93826E-02
        -0.93826E-02
        -0.93826E-02
        -0.93826E-02
        -0.93826E-02
        -0.93826E-02
        -0.93826E-02
        -0.93826E-02
        -0.93826E-02
        -0.93826E-02
        -0.93826E-02
        -0.93826E-02
        -0.93826E-02
        -0.93826E-02
        -0.93826E-02
        -0.93826E-02
        -0.93826E-02
        -0.93826E-02
        -0.93826E-02
        -0.93826E-02
        -0.93826E-02
        -0.93826E-02
        -0.93826E-02
        -0.93826E-02
        -0.93826E-02
        -0.93826E-02
        -0.93826E-02
        -0.93826E-02
        -0.93826E-02
        -0.93826E-02
        -0.93826E-02
        -0.93826E-02
        -0.93826E-02
        -0.93826E-02
        -0.93826E-02
        -0.93826E-02
        -0.93826E-02
        -0.93826E-02
        -0.93826E-02
        -0.93826E-02
        -0.93826E-02
        -0.93826E-02
        -0.93826E-02
        -0.93826E-02
        -0.93826E-02
        -0.93826E-02
        -0.93826E-02
        -0.93826E-02
        -0.93826E-02
        -0.93826E-02
        -0.93826E-02
        -0.93826E-02
        -0.93826E-02
        -0.93826E-02
        -0.93826E-02
        -0.93826E-02
        -0.93826E-02
        -0.93826E-02
        -0.93826E-02
        -0.93826E-02
        -0.93826E-02
        -0.93826E-02
        -0.93826E-02
        -0.93826E-02
        -0.93826E-02
        -0.93826E-02
        -0.93826E-02
        -0.93826E-02
        -0.93826E-02
        -0.93826E-02
        -0.93826E-02
        -0.93826E-02
        -0.93826E-02
        -0.93826E-02
        -0.93826E-02
        -0.93826E-02
        -0.93826E-02
        -0.93826E-02
        -0.93826E-02
        -0.93826E-02
        -0.93826E-02
        -0.93826E-02
        -0.93826E-02
        -0.93826E-02
        -0.93826E-02
        -0.93826E-02
        -0.93826E-02
        -0.93826E-02
        -0.93826E-02
        -0.93826E-02
        -0.93826E-02
        -0.93826E-02
        -0.93826E-02
        -0.93826E-02
        -0.93826E-02
        -0.93826E-02
        -0.93826E-02
        -0.93826E-02
        -0.93826E-02
        -0.93826E-02
        -0.93826E-02
        -0.93826E-02
        -0.93826E-02
        -0.93826E-02
        -0.93826E-02
        -0.93826E-02
        -0.93826E-02
        -0.93826E-02
        -0.93826E-02
        -0.93826E-02
        -0.93826E-02
        -0.93826E-02
        -0.93826E-02
        -0.93826E-02
        -0.93826E-02
        -0.93826E-02
        -0.93826E-02
        -0.93826E-02
        -0.93826E-02
        -0.93826E-02
        -0.93826E-02
        -0.93826E-02
        -0.93826E-02
        -0.93826E-02
        -0.93826E-02
        -0.93826E-02
        -0.93826E-02
        -0.93826E-02
        -0.93826E-02
        -0.93826E-02
        -0.93826E-02
        -0.93826E-02
        -0.93826E-02
        -0.93826E-02
        -0.93826E-02
        -0.93826E-02
        -0.93826E-02
        -0.93826E-02
        -0.93826E-02
        -0.93826E-02
        -0.93826E-02
        -0.93826E-02
        -0.93826E-02
        -0.93826E-02
        -0.93826E-02
        -0.93826E-02
        -0.93826E-02
        -0.93826E-02
        -0.93826E-02
        -0.93826E-02
        -0.93826E-02
        -0.93826E-02
        -0.93826E-02
        -0.93826E-02
        -0.93826E-02
        -0.93826E-02
        -0.93826E-02
        -0.93826E-02
        -0.93826E-02
        -0.93826E-02
        -0.93826E-02
        -0.93826E-02
        -0.93826E-02
        -0.93826E-02
        -0.93826E-02
        -0.93826E-02
        -0.93826E-02
        -0.93826E-02
        -0.93826E-02
        -0.93826E-02
        -0.93826E-02
        -0.93826E-02
        -0.93826E-02
        -0.93826E-02
        -0.93826E-02
        -0.93826E-02
        -0.93826E-02
        -0.93826E-02
        -0.93826E-02
        -0.93826E-02
        -0.93826E-02
        -0.93826E-02
        -0.93826E-02
        -0.93826E-02
        -0.93826E-02
        -0.93826E-02
        -0.93826E-02
        -0.93826E-02
        -0.93826E-02
        -0.93826E-02
        -0.93826E-02
        -0.93826E-02
        -0.93826E-02
        -0.93826E-02
        -0.93826E-02
        -0.93826E-02
        -0.93826E-02
        -0.93826E-02
        -0.93826E-02
        -0.93826E-02
        -0.93826E-02
        -0.93826E-02
        -0.93826E-02
        -0.93826E-02
        -0.93826E-02
        -0.93826E-02
        -0.93826E-02
        -0.93826E-02
        -0.93826E-02
        -0.93826E-02
        -0.93826E-02
        -0.93826E-02
        -0.93826E-02
        -0.93826E-02
        -0.93826E-02
        -0.93826E-02
        -0.93826E-02
        -0.93826E-02
        -0.93826E-02
        -0.93826E-02
        -0.93826E-02
        -0.93826E-02
        -0.93826E-02
        -0.93826E-02
        -0.93826E-02
        -0.93826E-02
        -0.93826E-02
        -0.93826E-02
        -0.93826E-02
        -0.93826E-02
        -0.93826E-02
        -0.93826E-02
        -0.93826E-02
        -0.93826E-02
        -0.93826E-02
        -0.93826E-02
        -0.93826E-02
        -0.93826E-02
        -0.93826E-02
        -0.93826E-02
        -0.93826E-02
        -0.93826E-02
        -0.93826E-02
        -0.93826E-02
        -0.93826E-02
        -0.93826E-02
        -0.93826E-02
        -0.93826E-02
        -0.93826E-02
        -0.93826E-02
        -0.93826E-02
        -0.93826E-02
        -0.93826E-02
        -0.93826E-02
        -0.93826E-02
        -0.93826E-02
        -0.93826E-02
        -0.93826E-02
        -0.93826E-02
        -0.93826E-02
        -0.93826E-02
        -0.93826E-02
        -0.93826E-02
        -0.93826E-02
        -0.93826E-02
        -0.93826E-02
        -0.93826E-02
        -0.93826E-02
        -0.93826E-02
        -0.93826E-02
        -0.93826E-02
        -0.93826E-02
        -0.93826E-02
        -0.93826E-02
        -0.93826E-02
        -0.93826E-02
        -0.93826E-02
        -0.93826E-02
        -0.93826E-02
        -0.93826E-02
        -0.93826E-02
        -0.93826E-02
        -0.93826E-02
        -0.93826E-02
        -0.93826E-02
        -0.93826E-02
        -0.93826E-02
        -0.93826E-02
        -0.93826E-02
        -0.93826E-02
        -0.93826E-02
        -0.93826E-02
        -0.93826E-02
        -0.93826E-02
        -0.93826E-02
        -0.93826E-02
        -0.93826E-02
        -0.93826E-02
        -0.93826E-02
        -0.93826E-02
        -0.93826E-02
        -0.93826E-02
        -0.93826E-02
        -0.93826E-02
        -0.93826E-02
        -0.93826E-02
        -0.93826E-02
        -0.93826E-02
        -0.93826E-02
        -0.93826E-02
        -0.93826E-02
        -0.93826E-02
        -0.93826E-02
        -0.93826E-02
        -0.93826E-02
        -0.93826E-02
        -0.93826E-02
        -0.93826E-02
        -0.93826E-02
        -0.93826E-02
        -0.93826E-02
        -0.93826E-02
        -0.93826E-02
        -0.93826E-02
        -0.93826E-02
        -0.93826E-02
        -0.93826E-02
        -0.93826E-02
        -0.93826E-02
        -0.93826E-02
        -0.93826E-02
        -0.93826E-02
        -0.93826E-02
        -0.93826E-02
        -0.93826E-02
        -0.93826E-02
        -0.93826E-02
        -0.93826E-02
        -0.93826E-02
        -0.93826E-02
        -0.93826E-02
        -0.93826E-02
        -0.93826E-02
        -0.93826E-02
        -0.93826E-02
        -0.93826E-02
        -0.93826E-02
        -0.93826E-02
        -0.93826E-02
        -0.93826E-02
        -0.93826E-02
        -0.93826E-02
        -0.93826E-02
        -0.93826E-02
        -0.93826E-02
        -0.93826E-02
        -0.93826E-02
        -0.93826E-02
        -0.93826E-02
        -0.93826E-02
        -0.93826E-02
        -0.93826E-02
        -0.93826E-02
        -0.93826E-02
        -0.93826E-02
        -0.93826E-02
        -0.93826E-02
        -0.93826E-02
        -0.93826E-02
        -0.93826E-02
        -0.93826E-02
        -0.93826E-02
        -0.93826E-02
        -0.93826E-02
        -0.93826E-02
        -0.93826E-02
        -0.93826E-02
        -0.93826E-02
        -0.93826E-02
        -0.93826E-02
        -0.93826E-02
        -0.93826E-02
        -0.93826E-02
        -0.93826E-02
        -0.93826E-02
        -0.93826E-02
        -0.93826E-02
        -0.93826E-02
        -0.93826E-02
        -0.93826E-02
        -0.93826E-02
        -0.93826E-02
        -0.93826E-02
        -0.93826E-02
        -0.93826E-02
        -0.93826E-02
        -0.93826E-02
        -0.93826E-02
        -0.93826E-02
        -0.93826E-02
        -0.93826E-02
        -0.93826E-02
        -0.93826E-02
        -0.93826E-02
        -0.93826E-02
        -0.93826E-02
        -0.93826E-02
        -0.93826E-02
        -0.93826E-02
        -0.93826E-02
        -0.93826E-02
        -0.93826E-02
        -0.93826E-02
        -0.93826E-02
        -0.93826E-02
        -0.93826E-02
        -0.93826E-02
        -0.93826E-02
        -0.93826E-02
        -0.93826E-02
        -0.93826E-02
        -0.93826E-02
        -0.93826E-02
        -0.93826E-02
        -0.93826E-02
        -0.93826E-02
        -0.93826E-02
        -0.93826E-02
        -0.93826E-02
        -0.93826E-02
        -0.93826E-02
        -0.93826E-02
        -0.93826E-02
        -0.93826E-02
        -0.93826E-02
        -0.93826E-02
        -0.93826E-02
        -0.93826E-02
        -0.93826E-02
        -0.93826E-02
        -0.93826E-02
        -0.93826E-02
        -0.93826E-02
        -0.93826E-02
        -0.93826E-02
        -0.93826E-02
        -0.93826E-02
        -0.93826E-02
        -0.93826E-02
        -0.93826E-02
        -0.93826E-02
        -0.93826E-02
        -0.93826E-02
        -0.93826E-02
        -0.93826E-02
        -0.93826E-02
        -0.93826E-02
        -0.93826E-02
        -0.93826E-02
        -0.93826E-02
        -0.93826E-02
        -0.93826E-02
        -0.93826E-02
        -0.93826E-02
        -0.93826E-02
        -0.93826E-02
        -0.93826E-02
        -0.93826E-02
        -0.93826E-02
        -0.93826E-02
        -0.93826E-02
        -0.93826E-02
        -0.93826E-02
        -0.93826E-02
        -0.93826E-02
        -0.93826E-02
        -0.93826E-02
        -0.93826E-02
        -0.93826E-02
        -0.93826E-02
        -0.93826E-02
        -0.93826E-02
        -0.93826E-02
        -0.93826E-02
        -0.93826E-02
        -0.93826E-02
        -0.93826E-02
        -0.93826E-02
        -0.93826E-02
        -0.93826E-02
        -0.93826E-02
        -0.93826E-02
        -0.93826E-02
        -0.93826E-02
        -0.93826E-02
        -0.93826E-02
        -0.93826E-02
        -0.93826E-02
        -0.93826E-02
        -0.93826E-02
        -0.93826E-02
        -0.93826E-02
        -0.93826E-02
        -0.93826E-02
        -0.93826E-02
        -0.93826E-02
        -0.93826E-02
        -0.93826E-02
        -0.93826E-02
        -0.93826E-02
        -0.93826E-02
        -0.93826E-02
        -0.93826E-02
        -0.93826E-02
        -0.93826E-02
        -0.93826E-02
        -0.93826E-02
        -0.93826E-02
        -0.93826E-02
        -0.93826E-02
        -0.93826E-02
        -0.93826E-02
        -0.93826E-02
        -0.93826E-02
        -0.93826E-02
        -0.93826E-02
        -0.93826E-02
        -0.93826E-02
        -0.93826E-02
        -0.93826E-02
        -0.93826E-02
        -0.93826E-02
        -0.93826E-02
        -0.93826E-02
        -0.93826E-02
        -0.93826E-02
        -0.93826E-02
        -0.93826E-02
        -0.93826E-02
        -0.93826E-02
        -0.93826E-02
        -0.93826E-02
        -0.93826E-02
        -0.93826E-02
        -0.93826E-02
        -0.93826E-02
        -0.93826E-02
        -0.93826E-02
        -0.93826E-02
        -0.93826E-02
        -0.93826E-02
        -0.93826E-02
        -0.93826E-02
        -0.93826E-02
        -0.93826E-02
        -0.93826E-02
        -0.93826E-02
        -0.93826E-02
        -0.93826E-02
        -0.93826E-02
        -0.93826E-02
        -0.93826E-02
        -0.93826E-02
        -0.93826E-02
        -0.93826E-02
        -0.93826E-02
        -0.93826E-02
        -0.93826E-02
        -0.93826E-02
        -0.93826E-02
        -0.93826E-02
        -0.93826E-02
        -0.93826E-02
        -0.93826E-02
        -0.93826E-02
        -0.93826E-02
        -0.93826E-02
        -0.93826E-02
        -0.93826E-02
        -0.93826E-02
        -0.93826E-02
        -0.93826E-02
        -0.93826E-02
        -0.93826E-02
        -0.93826E-02
        -0.93826E-02
        -0.93826E-02
        -0.93826E-02
        -0.93826E-02
        -0.93826E-02
        -0.93826E-02
        -0.93826E-02
        -0.93826E-02
        -0.93826E-02
        -0.93826E-02
        -0.93826E-02
        -0.93826E-02
        -0.93826E-02
        -0.93826E-02
        -0.93826E-02
        -0.93826E-02
        -0.93826E-02
        -0.93826E-02
        -0.93826E-02
        -0.93826E-02
        -0.93826E-02
        -0.93826E-02
        -0.93826E-02
        -0.93826E-02
        -0.93826E-02
        -0.93826E-02
        -0.93826E-02
        -0.93826E-02
        -0.93826E-02
        -0.93826E-02
        -0.93826E-02
        -0.93826E-02
        -0.93826E-02
        -0.93826E-02
        -0.93826E-02
        -0.93826E-02
        -0.93826E-02
        -0.93826E-02
        -0.93826E-02
        -0.93826E-02
        -0.93826E-02
        -0.93826E-02
        -0.93826E-02
        -0.93826E-02
        -0.93826E-02
        -0.93826E-02
        -0.93826E-02
        -0.93826E-02
        -0.93826E-02
        -0.93826E-02
        -0.93826E-02
        -0.93826E-02
        -0.93826E-02
        -0.93826E-02
        -0.93826E-02
        -0.93826E-02
        -0.93826E-02
        -0.93826E-02
        -0.93826E-02
        -0.93826E-02
        -0.93826E-02
        -0.93826E-02
        -0.93826E-02
        -0.93826E-02
        -0.93826E-02
        -0.93826E-02
        -0.93826E-02
        -0.93826E-02
        -0.93826E-02
        -0.93826E-02
        -0.93826E-02
        -0.93826E-02
        -0.93826E-02
        -0.93826E-02
        -0.93826E-02
        -0.93826E-02
        -0.93826E-02
        -0.93826E-02
        -0.93826E-02
        -0.93826E-02
        -0.93826E-02
        -0.93826E-02
        -0.93826E-02
        -0.93826E-02
        -0.93826E-02
        -0.93826E-02
        -0.93826E-02
        -0.93826E-02
        -0.93826E-02
        -0.93826E-02
        -0.93826E-02
        -0.93826E-02
        -0.93826E-02
        -0.93826E-02
        -0.93826E-02
        -0.93826E-02
        -0.93826E-02
        -0.93826E-02
        -0.93826E-02
        -0.93826E-02
        -0.93826E-02
        -0.93826E-02
        -0.93826E-02
        -0.93826E-02
        -0.93826E-02
        -0.93826E-02
        -0.93826E-02
        -0.93826E-02
        -0.93826E-02
        -0.93826E-02
        -0.93826E-02
        -0.93826E-02
        -0.93826E-02
        -0.93826E-02
        -0.93826E-02
        -0.93826E-02
        -0.93826E-02
        -0.93826E-02
        -0.93826E-02
        -0.93826E-02
        -0.93826E-02
        -0.93826E-02
        -0.93826E-02
        -0.93826E-02
        -0.93826E-02
        -0.93826E-02
        -0.93826E-02
        -0.93826E-02
        -0.93826E-02
        -0.93826E-02
        -0.93826E-02
        -0.93826E-02
        -0.93826E-02
        -0.93826E-02
        -0.93826E-02
        -0.93826E-02
        -0.93826E-02
        -0.93826E-02
        -0.93826E-02
        -0.93826E-02
        -0.93826E-02
        -0.93826E-02
        -0.93826E-02
        -0.93826E-02
        -0.93826E-02
        -0.93826E-02
        -0.93826E-02
        -0.93826E-02
        -0.93826E-02
        -0.93826E-02
        -0.93826E-02
        -0.93826E-02
        -0.93826E-02
        -0.93826E-02
        -0.93826E-02
        -0.93826E-02
        -0.93826E-02
        -0.93826E-02
        -0.93826E-02
        -0.93826E-02
        -0.93826E-02
        -0.93826E-02
        -0.93826E-02
        -0.93826E-02
        -0.93826E-02
        -0.93826E-02
        -0.93826E-02
        -0.93826E-02
        -0.93826E-02
        -0.93826E-02
        -0.93826E-02
        -0.93826E-02
        -0.93826E-02
        -0.93826E-02
        -0.93826E-02
        -0.93826E-02
        -0.93826E-02
        -0.93826E-02
        -0.93826E-02
        -0.93826E-02
        -0.93826E-02
        -0.93826E-02
        -0.93826E-02
        -0.93826E-02
        -0.93826E-02
        -0.93826E-02
        -0.93826E-02
        -0.93826E-02
        -0.93826E-02
        -0.93826E-02
        -0.93826E-02
        -0.93826E-02
        -0.93826E-02
        -0.93826E-02
        -0.93826E-02
        -0.93826E-02
        -0.93826E-02
        -0.93826E-02
        -0.93826E-02
        -0.93826E-02
        -0.93826E-02
        -0.93826E-02
        -0.93826E-02
        -0.93826E-02
        -0.93826E-02
        -0.93826E-02
        -0.93826E-02
        -0.93826E-02
        -0.93826E-02
        -0.93826E-02
        -0.93826E-02
        -0.93826E-02
        -0.93826E-02
        -0.93826E-02
        -0.93826E-02
        -0.93826E-02
        -0.93826E-02
        -0.93826E-02
        -0.93826E-02
        -0.93826E-02
        -0.93826E-02
        -0.93826E-02
        -0.93826E-02
        -0.93826E-02
        -0.93826E-02
        -0.93826E-02
        -0.93826E-02
        -0.93826E-02
        -0.93826E-02
        -0.93826E-02
        -0.93826E-02
        -0.93826E-02
        -0.93826E-02
        -0.93826E-02
        -0.93826E-02
        -0.93826E-02
        -0.93826E-02
        -0.93826E-02
        -0.93826E-02
        -0.93826E-02
        -0.93826E-02
        -0.93826E-02
        -0.93826E-02
        -0.93826E-02
        -0.93826E-02
        -0.93826E-02
        -0.93826E-02
        -0.93826E-02
        -0.93826E-02
        -0.93826E-02
        -0.93826E-02
        -0.93826E-02
        -0.93826E-02
        -0.93826E-02
        -0.93826E-02
        -0.93826E-02
        -0.93826E-02
        -0.93826E-02
        -0.93826E-02
        -0.93826E-02
        -0.93826E-02
        -0.93826E-02
        -0.93826E-02
        -0.93826E-02
        -0.93826E-02
        -0.93826E-02
        -0.93826E-02
        -0.93826E-02
        -0.93826E-02
        -0.93826E-02
        -0.93826E-02
        -0.93826E-02
        -0.93826E-02
        -0.93826E-02
        -0.93826E-02
        -0.93826E-02
        -0.93826E-02
        -0.93826E-02
        -0.93826E-02
        -0.93826E-02
        -0.93826E-02
        -0.93826E-02
        -0.93826E-02
        -0.93826E-02
        -0.93826E-02
        -0.93826E-02
        -0.93826E-02
        -0.93826E-02
        -0.93826E-02
        -0.93826E-02
        -0.93826E-02
        -0.93826E-02
        -0.93826E-02
        -0.93826E-02
        -0.93826E-02
        -0.93826E-02
        -0.93826E-02
        -0.93826E-02
        -0.93826E-02
        -0.93826E-02
        -0.93826E-02
        -0.93826E-02
        -0.93826E-02
        -0.93826E-02
        -0.93826E-02
        -0.93826E-02
        -0.93826E-02
        -0.93826E-02
        -0.93826E-02
        -0.93826E-02
        -0.93826E-02
        -0.93826E-02
        -0.93826E-02
        -0.93826E-02
        -0.93826E-02
        -0.93826E-02
        -0.93826E-02
        -0.93826E-02
        -0.93826E-02
        -0.93826E-02
        -0.93826E-02
        -0.93826E-02
        -0.93826E-02
        -0.93826E-02
        -0.93826E-02
        -0.93826E-02
        -0.93826E-02
        -0.93826E-02
        -0.93826E-02
        -0.93826E-02
        -0.93826E-02
        -0.93826E-02
        -0.93826E-02
        -0.93826E-02
        -0.93826E-02
        -0.93826E-02
        -0.93826E-02
        -0.93826E-02
        -0.93826E-02
        -0.93826E-02
        -0.93826E-02
        -0.93826E-02
        -0.93826E-02
        -0.93826E-02
        -0.93826E-02
        -0.93826E-02
        -0.93826E-02
        -0.93826E-02
        -0.93826E-02
        -0.93826E-02
        -0.93826E-02
        -0.93826E-02
        -0.93826E-02
        -0.93826E-02
        -0.93826E-02
        -0.93826E-02
        -0.93826E-02
        -0.93826E-02
        -0.93826E-02
        -0.93826E-02
        -0.93826E-02
        -0.93826E-02
        -0.93826E-02
        -0.93826E-02
        -0.93826E-02
        -0.93826E-02
        -0.93826E-02
        -0.93826E-02
        -0.93826E-02
        -0.93826E-02
        -0.93826E-02
        -0.93826E-02
        -0.93826E-02
        -0.93826E-02
        -0.93826E-02
        -0.93826E-02
        -0.93826E-02
        -0.93826E-02
        -0.93826E-02
        -0.93826E-02
        -0.93826E-02
        -0.93826E-02
        -0.93826E-02
        -0.93826E-02
        -0.93826E-02
        -0.93826E-02
        -0.93826E-02
        -0.93826E-02
        -0.93826E-02
        -0.93826E-02
        -0.93826E-02
        -0.93826E-02
        -0.93826E-02
        -0.93826E-02
        -0.93826E-02
        -0.93826E-02
        -0.93826E-02
        -0.93826E-02
        -0.93826E-02
        -0.93826E-02
        -0.93826E-02
        -0.93826E-02
        -0.93826E-02
        -0.93826E-02
        -0.93826E-02
        -0.93826E-02
        -0.93826E-02
        -0.93826E-02
        -0.93826E-02
        -0.93826E-02
        -0.93826E-02
        -0.93826E-02
        -0.93826E-02
        -0.93826E-02
        -0.93826E-02
        -0.93826E-02
        -0.93826E-02
        -0.93826E-02
        -0.93826E-02
        -0.93826E-02
        -0.93826E-02
        -0.93826E-02
        -0.93826E-02
        -0.93826E-02
        -0.93826E-02
        -0.93826E-02
        -0.93826E-02
        -0.93826E-02
        -0.93826E-02
        -0.93826E-02
        -0.93826E-02
        -0.93826E-02
        -0.93826E-02
        -0.93826E-02
        -0.93826E-02
        -0.93826E-02
        -0.93826E-02
        -0.93826E-02
        -0.93826E-02
        -0.93826E-02
        -0.93826E-02
        -0.93826E-02
        -0.93826E-02
        -0.93826E-02
        -0.93826E-02
        -0.93826E-02
        -0.93826E-02
        -0.93826E-02
        -0.93826E-02
        -0.93826E-02
        -0.93826E-02
        -0.93826E-02
        -0.93826E-02
        -0.93826E-02
        -0.93826E-02
        -0.93826E-02
        -0.93826E-02
        -0.93826E-02
        -0.93826E-02
        -0.93826E-02
        -0.93826E-02
        -0.93826E-02
        -0.93826E-02
        -0.93826E-02
        -0.93826E-02
        -0.93826E-02
        -0.93826E-02
        -0.93826E-02
        -0.93826E-02
        -0.93826E-02
        -0.93826E-02
        -0.93826E-02
        -0.93826E-02
        -0.93826E-02
        -0.93826E-02
        -0.93826E-02
        -0.93826E-02
        -0.93826E-02
        -0.93826E-02
        -0.93826E-02
        -0.93826E-02
        -0.93826E-02
        -0.93826E-02
        -0.93826E-02
        -0.93826E-02
        -0.93826E-02
        -0.93826E-02
        -0.93826E-02
        -0.93826E-02
        -0.93826E-02
        -0.93826E-02
        -0.93826E-02
        -0.93826E-02
        -0.93826E-02
        -0.93826E-02
        -0.93826E-02
        -0.93826E-02
        -0.93826E-02
        -0.93826E-02
        -0.93826E-02
        -0.93826E-02
        -0.93826E-02
        -0.93826E-02
        -0.93826E-02
        -0.93826E-02
        -0.93826E-02
        -0.93826E-02
        -0.93826E-02
        -0.93826E-02
        -0.93826E-02
        -0.93826E-02
        -0.93826E-02
        -0.93826E-02
        -0.93826E-02
        -0.93826E-02
        -0.93826E-02
        -0.93826E-02
        -0.93826E-02
        -0.93826E-02
        -0.93826E-02
        -0.93826E-02
        -0.93826E-02
        -0.93826E-02
        -0.93826E-02
        -0.93826E-02
        -0.93826E-02
        -0.93826E-02
        -0.93826E-02
        -0.93826E-02
        -0.93826E-02
        -0.93826E-02
        -0.93826E-02
        -0.93826E-02
        -0.93826E-02
        -0.93826E-02
        -0.93826E-02
        -0.93826E-02
        -0.93826E-02
        -0.93826E-02
        -0.93826E-02
        -0.93826E-02
        -0.93826E-02
        -0.93826E-02
        -0.93826E-02
        -0.93826E-02
        -0.93826E-02
        -0.93826E-02
        -0.93826E-02
        -0.93826E-02
        -0.93826E-02
        -0.93826E-02
        -0.93826E-02
        -0.93826E-02
        -0.93826E-02
        -0.93826E-02
        -0.93826E-02
        -0.93826E-02
        -0.93826E-02
        -0.93826E-02
        -0.93826E-02
        -0.93826E-02
        -0.93826E-02
        -0.93826E-02
        -0.93826E-02
        -0.93826E-02
        -0.93826E-02
        -0.93826E-02
        -0.93826E-02
        -0.93826E-02
        -0.93826E-02
        -0.93826E-02
        -0.93826E-02
        -0.93826E-02
        -0.93826E-02
        -0.93826E-02
        -0.93826E-02
        -0.93826E-02
        -0.93826E-02
        -0.93826E-02
        -0.93826E-02
        -0.93826E-02
        -0.93826E-02
        -0.93826E-02
        -0.93826E-02
        -0.93826E-02
        -0.93826E-02
        -0.93826E-02
        -0.93826E-02
        -0.93826E-02
        -0.93826E-02
        -0.93826E-02
        -0.93826E-02
        -0.93826E-02
        -0.93826E-02
        -0.93826E-02
        -0.93826E-02
        -0.93826E-02
        -0.93826E-02
        -0.93826E-02
        -0.93826E-02
        -0.93826E-02
        -0.93826E-02
        -0.93826E-02
        -0.93826E-02
        -0.93826E-02
        -0.93826E-02
        -0.93826E-02
        -0.93826E-02
        -0.93826E-02
        -0.93826E-02
        -0.93826E-02
        -0.93826E-02
        -0.93826E-02
        -0.93826E-02
        -0.93826E-02
        -0.93826E-02
        -0.93826E-02
        -0.93826E-02
        -0.93826E-02
        -0.93826E-02
        -0.93826E-02
        -0.93826E-02
        -0.93826E-02
        -0.93826E-02
        -0.93826E-02
        -0.93826E-02
        -0.93826E-02
        -0.93826E-02
        -0.93826E-02
        -0.93826E-02
        -0.93826E-02
        -0.93826E-02
        -0.93826E-02
        -0.93826E-02
        -0.93826E-02
        -0.93826E-02
        -0.93826E-02
        -0.93826E-02
        -0.93826E-02
        -0.93826E-02
        -0.93826E-02
        -0.93826E-02
        -0.93826E-02
        -0.93826E-02
        -0.93826E-02
        -0.93826E-02
        -0.93826E-02
        -0.93826E-02
        -0.93826E-02
        -0.93826E-02
        -0.93826E-02
        -0.93826E-02
        -0.93826E-02
        -0.93826E-02
        -0.93826E-02
        -0.93826E-02
        -0.93826E-02
        -0.93826E-02
        -0.93826E-02
        -0.93826E-02
        -0.93826E-02
        -0.93826E-02
        -0.93826E-02
        -0.93826E-02
        -0.93826E-02
        -0.93826E-02
        -0.93826E-02
        -0.93826E-02
        -0.93826E-02
        -0.93826E-02
        -0.93826E-02
        -0.93826E-02
        -0.93826E-02
        -0.93826E-02
        -0.93826E-02
        -0.93826E-02
        -0.93826E-02
        -0.93826E-02
        -0.93826E-02
        -0.93826E-02
        -0.93826E-02
        -0.93826E-02
        -0.93826E-02
        -0.93826E-02
        -0.93826E-02
        -0.93826E-02
        -0.93826E-02
        -0.93826E-02
        -0.93826E-02
        -0.93826E-02
        -0.93826E-02
        -0.93826E-02
        -0.93826E-02
        -0.93826E-02
        -0.93826E-02
        -0.93826E-02
        -0.93826E-02
        -0.93826E-02
        -0.93826E-02
        -0.93826E-02
        -0.93826E-02
        -0.93826E-02
        -0.93826E-02
        -0.93826E-02
        -0.93826E-02
        -0.93826E-02
        -0.93826E-02
        -0.93826E-02
        -0.93826E-02
        -0.93826E-02
        -0.93826E-02
        -0.93826E-02
        -0.93826E-02
        -0.93826E-02
        -0.93826E-02
        -0.93826E-02
        -0.93826E-02
        -0.93826E-02
        -0.93826E-02
        -0.93826E-02
        -0.93826E-02
        -0.93826E-02
        -0.93826E-02
        -0.93826E-02
        -0.93826E-02
        -0.93826E-02
        -0.93826E-02
        -0.93826E-02
        -0.93826E-02
        -0.93826E-02
        -0.93826E-02
        -0.93826E-02
        -0.93826E-02
        -0.93826E-02
        -0.93826E-02
        -0.93826E-02
        -0.93826E-02
        -0.93826E-02
        -0.93826E-02
        -0.93826E-02
        -0.93826E-02
        -0.93826E-02
        -0.93826E-02
        -0.93826E-02
        -0.93826E-02
        -0.93826E-02
        -0.93826E-02
        -0.93826E-02
        -0.93826E-02
        -0.93826E-02
        -0.93826E-02
        -0.93826E-02
        -0.93826E-02
        -0.93826E-02
        -0.93826E-02
        -0.93826E-02
        -0.93826E-02
        -0.93826E-02
        -0.93826E-02
        -0.93826E-02
        -0.93826E-02
        -0.93826E-02
        -0.93826E-02
        -0.93826E-02
        -0.93826E-02
        -0.93826E-02
        -0.93826E-02
        -0.93826E-02
        -0.93826E-02
        -0.93826E-02
        -0.93826E-02
        -0.93826E-02
        -0.93826E-02
        -0.93826E-02
        -0.93826E-02
        -0.93826E-02
        -0.93826E-02
        -0.93826E-02
        -0.93826E-02
        -0.93826E-02
        -0.93826E-02
        -0.93826E-02
        -0.93826E-02
        -0.93826E-02
        -0.93826E-02
        -0.93826E-02
        -0.93826E-02
        -0.93826E-02
        -0.93826E-02
        -0.93826E-02
        -0.93826E-02
        -0.93826E-02
        -0.93826E-02
        -0.93826E-02
        -0.93826E-02
        -0.93826E-02
        -0.93826E-02
        -0.93826E-02
        -0.93826E-02
        -0.93826E-02
        -0.93826E-02
        -0.93826E-02
        -0.93826E-02
        -0.93826E-02
        -0.93826E-02
        -0.93826E-02
        -0.93826E-02
        -0.93826E-02
        -0.93826E-02
        -0.93826E-02
        -0.93826E-02
        -0.93826E-02
        -0.93826E-02
        -0.93826E-02
        -0.93826E-02
        -0.93826E-02
        -0.93826E-02
        -0.93826E-02
        -0.93826E-02
        -0.93826E-02
        -0.93826E-02
        -0.93826E-02
        -0.93826E-02
        -0.93826E-02
        -0.93826E-02
        -0.93826E-02
        -0.93826E-02
        -0.93826E-02
        -0.93826E-02
        -0.93826E-02
        -0.93826E-02
        -0.93826E-02
        -0.93826E-02
        -0.93826E-02
        -0.93826E-02
        -0.93826E-02
        -0.93826E-02
        -0.93826E-02
        -0.93826E-02
        -0.93826E-02
        -0.93826E-02
        -0.93826E-02
        -0.93826E-02
        -0.93826E-02
        -0.93826E-02
        -0.93826E-02
        -0.93826E-02
        -0.93826E-02
        -0.93826E-02
        -0.93826E-02
        -0.93826E-02
        -0.93826E-02
        -0.93826E-02
        -0.93826E-02
        -0.93826E-02
        -0.93826E-02
        -0.93826E-02
        -0.93826E-02
        -0.93826E-02
        -0.93826E-02
        -0.93826E-02
        -0.93826E-02
        -0.93826E-02
        -0.93826E-02
        -0.93826E-02
        -0.93826E-02
        -0.93826E-02
        -0.93826E-02
        -0.93826E-02
        -0.93826E-02
        -0.93826E-02
        -0.93826E-02
        -0.93826E-02
        -0.93826E-02
        -0.93826E-02
        -0.93826E-02
        -0.93826E-02
        -0.93826E-02
        -0.93826E-02
        -0.93826E-02
        -0.93826E-02
        -0.93826E-02
        -0.93826E-02
        -0.93826E-02
        -0.93826E-02
        -0.93826E-02
        -0.93826E-02
        -0.93826E-02
        -0.93826E-02
        -0.93826E-02
        -0.93826E-02
        -0.93826E-02
        -0.93826E-02
        -0.93826E-02
        -0.93826E-02
        -0.93826E-02
        -0.93826E-02
        -0.93826E-02
        -0.93826E-02
        -0.93826E-02
        -0.93826E-02
        -0.93826E-02
        -0.93826E-02
        -0.93826E-02
        -0.93826E-02
        -0.93826E-02
        -0.93826E-02
        -0.93826E-02
        -0.93826E-02
        -0.93826E-02
        -0.93826E-02
        -0.93826E-02
        -0.93826E-02
        -0.93826E-02
        -0.93826E-02
        -0.93826E-02
        -0.93826E-02
        -0.93826E-02
        -0.93826E-02
        -0.93826E-02
        -0.93826E-02
        -0.93826E-02
        -0.93826E-02
        -0.93826E-02
        -0.93826E-02
        -0.93826E-02
        -0.93826E-02
        -0.93826E-02
        -0.93826E-02
        -0.93826E-02
        -0.93826E-02
        -0.93826E-02
        -0.93826E-02
        -0.93826E-02
        -0.93826E-02
        -0.93826E-02
        -0.93826E-02
        -0.93826E-02
        -0.93826E-02
        -0.93826E-02
        -0.93826E-02
        -0.93826E-02
        -0.93826E-02
        -0.93826E-02
        -0.93826E-02
        -0.93826E-02
        -0.93826E-02
        -0.93826E-02
        -0.93826E-02
        -0.93826E-02
        -0.93826E-02
        -0.93826E-02
        -0.93826E-02
        -0.93826E-02
        -0.93826E-02
        -0.93826E-02
        -0.93826E-02
        -0.93826E-02
        -0.93826E-02
        -0.93826E-02
        -0.93826E-02
        -0.93826E-02
        -0.93826E-02
        -0.93826E-02
        -0.93826E-02
        -0.93826E-02
        -0.93826E-02
        -0.93826E-02
        -0.93826E-02
        -0.93826E-02
        -0.93826E-02
        -0.93826E-02
        -0.93826E-02
        -0.93826E-02
        -0.93826E-02
        -0.93826E-02
        -0.93826E-02
        -0.93826E-02
        -0.93826E-02
        -0.93826E-02
        -0.93826E-02
        -0.93826E-02
        -0.93826E-02
        -0.93826E-02
        -0.93826E-02
        -0.93826E-02
        -0.93826E-02
        -0.93826E-02
        -0.93826E-02
        -0.93826E-02
        -0.93826E-02
        -0.93826E-02
        -0.93826E-02
        -0.93826E-02
        -0.93826E-02
        -0.93826E-02
        -0.93826E-02
        -0.93826E-02
        -0.93826E-02
        -0.93826E-02
        -0.93826E-02
        -0.93826E-02
        -0.93826E-02
        -0.93826E-02
        -0.93826E-02
        -0.93826E-02
        -0.93826E-02
        -0.93826E-02
        -0.93826E-02
        -0.93826E-02
        -0.93826E-02
        -0.93826E-02
        -0.93826E-02
        -0.93826E-02
        -0.93826E-02
        -0.93826E-02
        -0.93826E-02
        -0.93826E-02
        -0.93826E-02
        -0.93826E-02
        -0.93826E-02
        -0.93826E-02
        -0.93826E-02
        -0.93826E-02
        -0.93826E-02
        -0.93826E-02
        -0.93826E-02
        -0.93826E-02
        -0.93826E-02
        -0.93826E-02
        -0.93826E-02
        -0.93826E-02
        -0.93826E-02
        -0.93826E-02
        -0.93826E-02
        -0.93826E-02
        -0.93826E-02
        -0.93826E-02
        -0.93826E-02
        -0.93826E-02
        -0.93826E-02
        -0.93826E-02
        -0.93826E-02
        -0.93826E-02
        -0.93826E-02
        -0.93826E-02
        -0.93826E-02
        -0.93826E-02
        -0.93826E-02
        -0.93826E-02
        -0.93826E-02
        -0.93826E-02
        -0.93826E-02
        -0.93826E-02
        -0.93826E-02
        -0.93826E-02
        -0.93826E-02
        -0.93826E-02
        -0.93826E-02
        -0.93826E-02
        -0.93826E-02
        -0.93826E-02
        -0.93826E-02
        -0.93826E-02
        -0.93826E-02
        -0.93826E-02
        -0.93826E-02
        -0.93826E-02
  
SCALARS                     velocity_x  double 1
LOOKUP_TABLE default
         0.00000E+00
         0.00000E+00
         0.00000E+00
         0.00000E+00
         0.00000E+00
         0.00000E+00
         0.00000E+00
         0.00000E+00
         0.00000E+00
         0.00000E+00
         0.00000E+00
         0.00000E+00
         0.00000E+00
         0.00000E+00
         0.00000E+00
         0.00000E+00
         0.00000E+00
         0.00000E+00
         0.00000E+00
         0.00000E+00
         0.00000E+00
         0.00000E+00
         0.00000E+00
         0.00000E+00
         0.00000E+00
         0.00000E+00
         0.00000E+00
         0.00000E+00
         0.00000E+00
         0.00000E+00
         0.00000E+00
         0.00000E+00
         0.00000E+00
         0.00000E+00
         0.00000E+00
         0.00000E+00
         0.00000E+00
         0.00000E+00
         0.00000E+00
         0.00000E+00
         0.00000E+00
         0.00000E+00
         0.00000E+00
         0.00000E+00
         0.00000E+00
         0.00000E+00
         0.00000E+00
         0.00000E+00
         0.00000E+00
         0.00000E+00
         0.00000E+00
         0.00000E+00
         0.00000E+00
         0.00000E+00
         0.00000E+00
         0.00000E+00
         0.00000E+00
         0.00000E+00
         0.00000E+00
         0.00000E+00
         0.00000E+00
         0.00000E+00
         0.00000E+00
         0.00000E+00
         0.00000E+00
         0.00000E+00
         0.00000E+00
         0.00000E+00
         0.00000E+00
         0.00000E+00
         0.00000E+00
         0.00000E+00
         0.00000E+00
         0.00000E+00
         0.00000E+00
         0.00000E+00
         0.00000E+00
         0.00000E+00
         0.00000E+00
         0.00000E+00
         0.00000E+00
         0.00000E+00
         0.00000E+00
         0.00000E+00
         0.00000E+00
         0.00000E+00
         0.00000E+00
         0.00000E+00
         0.00000E+00
         0.00000E+00
         0.00000E+00
         0.00000E+00
         0.00000E+00
         0.00000E+00
         0.00000E+00
         0.00000E+00
         0.00000E+00
         0.00000E+00
         0.00000E+00
         0.00000E+00
         0.00000E+00
         0.00000E+00
         0.00000E+00
         0.00000E+00
         0.00000E+00
         0.00000E+00
         0.00000E+00
         0.00000E+00
         0.00000E+00
         0.00000E+00
         0.00000E+00
         0.00000E+00
         0.00000E+00
         0.00000E+00
         0.00000E+00
         0.00000E+00
         0.00000E+00
         0.00000E+00
         0.00000E+00
         0.00000E+00
         0.00000E+00
         0.00000E+00
         0.00000E+00
         0.00000E+00
         0.00000E+00
         0.00000E+00
         0.00000E+00
         0.00000E+00
         0.00000E+00
         0.00000E+00
         0.00000E+00
         0.00000E+00
         0.00000E+00
         0.00000E+00
         0.00000E+00
         0.00000E+00
         0.00000E+00
         0.00000E+00
         0.00000E+00
         0.00000E+00
         0.00000E+00
         0.00000E+00
         0.00000E+00
         0.00000E+00
         0.00000E+00
         0.00000E+00
         0.00000E+00
         0.00000E+00
         0.00000E+00
         0.00000E+00
         0.00000E+00
         0.00000E+00
         0.00000E+00
         0.00000E+00
         0.00000E+00
         0.00000E+00
         0.00000E+00
         0.00000E+00
         0.00000E+00
         0.00000E+00
         0.00000E+00
         0.00000E+00
         0.00000E+00
         0.00000E+00
         0.00000E+00
         0.00000E+00
         0.00000E+00
         0.00000E+00
         0.00000E+00
         0.00000E+00
         0.00000E+00
         0.00000E+00
         0.00000E+00
         0.00000E+00
         0.00000E+00
         0.00000E+00
         0.00000E+00
         0.00000E+00
         0.00000E+00
         0.00000E+00
         0.00000E+00
         0.00000E+00
         0.00000E+00
         0.00000E+00
         0.00000E+00
         0.00000E+00
         0.00000E+00
         0.00000E+00
         0.00000E+00
         0.00000E+00
         0.00000E+00
         0.00000E+00
         0.00000E+00
         0.00000E+00
         0.00000E+00
         0.00000E+00
         0.00000E+00
         0.00000E+00
         0.00000E+00
         0.00000E+00
         0.00000E+00
         0.00000E+00
         0.00000E+00
         0.00000E+00
         0.00000E+00
         0.00000E+00
         0.00000E+00
         0.00000E+00
         0.00000E+00
         0.00000E+00
         0.00000E+00
         0.00000E+00
         0.00000E+00
         0.00000E+00
         0.00000E+00
         0.00000E+00
         0.00000E+00
         0.00000E+00
         0.00000E+00
         0.00000E+00
         0.00000E+00
         0.00000E+00
         0.00000E+00
         0.00000E+00
         0.00000E+00
         0.00000E+00
         0.00000E+00
         0.00000E+00
         0.00000E+00
         0.00000E+00
         0.00000E+00
         0.00000E+00
         0.00000E+00
         0.00000E+00
         0.00000E+00
         0.00000E+00
         0.00000E+00
         0.00000E+00
         0.00000E+00
         0.00000E+00
         0.00000E+00
         0.00000E+00
         0.00000E+00
         0.00000E+00
         0.00000E+00
         0.00000E+00
         0.00000E+00
         0.00000E+00
         0.00000E+00
         0.00000E+00
         0.00000E+00
         0.00000E+00
         0.00000E+00
         0.00000E+00
         0.00000E+00
         0.00000E+00
         0.00000E+00
         0.00000E+00
         0.00000E+00
         0.00000E+00
         0.00000E+00
         0.00000E+00
         0.00000E+00
         0.00000E+00
         0.00000E+00
         0.00000E+00
         0.00000E+00
         0.00000E+00
         0.00000E+00
         0.00000E+00
         0.00000E+00
         0.00000E+00
         0.00000E+00
         0.00000E+00
         0.00000E+00
         0.00000E+00
         0.00000E+00
         0.00000E+00
         0.00000E+00
         0.00000E+00
         0.00000E+00
         0.00000E+00
         0.00000E+00
         0.00000E+00
         0.00000E+00
         0.00000E+00
         0.00000E+00
         0.00000E+00
         0.00000E+00
         0.00000E+00
         0.00000E+00
         0.00000E+00
         0.00000E+00
         0.00000E+00
         0.00000E+00
         0.00000E+00
         0.00000E+00
         0.00000E+00
         0.00000E+00
         0.00000E+00
         0.00000E+00
         0.00000E+00
         0.00000E+00
         0.00000E+00
         0.00000E+00
         0.00000E+00
         0.00000E+00
         0.00000E+00
         0.00000E+00
         0.00000E+00
         0.00000E+00
         0.00000E+00
         0.00000E+00
         0.00000E+00
         0.00000E+00
         0.00000E+00
         0.00000E+00
         0.00000E+00
         0.00000E+00
         0.00000E+00
         0.00000E+00
         0.00000E+00
         0.00000E+00
         0.00000E+00
         0.00000E+00
         0.00000E+00
         0.00000E+00
         0.00000E+00
         0.00000E+00
         0.00000E+00
         0.00000E+00
         0.00000E+00
         0.00000E+00
         0.00000E+00
         0.00000E+00
         0.00000E+00
         0.00000E+00
         0.00000E+00
         0.00000E+00
         0.00000E+00
         0.00000E+00
         0.00000E+00
         0.00000E+00
         0.00000E+00
         0.00000E+00
         0.00000E+00
         0.00000E+00
         0.00000E+00
         0.00000E+00
         0.00000E+00
         0.00000E+00
         0.00000E+00
         0.00000E+00
         0.00000E+00
         0.00000E+00
         0.00000E+00
         0.00000E+00
         0.00000E+00
         0.00000E+00
         0.00000E+00
         0.00000E+00
         0.00000E+00
         0.00000E+00
         0.00000E+00
         0.00000E+00
         0.00000E+00
         0.00000E+00
         0.00000E+00
         0.00000E+00
         0.00000E+00
         0.00000E+00
         0.00000E+00
         0.00000E+00
         0.00000E+00
         0.00000E+00
         0.00000E+00
         0.00000E+00
         0.00000E+00
         0.00000E+00
         0.00000E+00
         0.00000E+00
         0.00000E+00
         0.00000E+00
         0.00000E+00
         0.00000E+00
         0.00000E+00
         0.00000E+00
         0.00000E+00
         0.00000E+00
         0.00000E+00
         0.00000E+00
         0.00000E+00
         0.00000E+00
         0.00000E+00
         0.00000E+00
         0.00000E+00
         0.00000E+00
         0.00000E+00
         0.00000E+00
         0.00000E+00
         0.00000E+00
         0.00000E+00
         0.00000E+00
         0.00000E+00
         0.00000E+00
         0.00000E+00
         0.00000E+00
         0.00000E+00
         0.00000E+00
         0.00000E+00
         0.00000E+00
         0.00000E+00
         0.00000E+00
         0.00000E+00
         0.00000E+00
         0.00000E+00
         0.00000E+00
         0.00000E+00
         0.00000E+00
         0.00000E+00
         0.00000E+00
         0.00000E+00
         0.00000E+00
         0.00000E+00
         0.00000E+00
         0.00000E+00
         0.00000E+00
         0.00000E+00
         0.00000E+00
         0.00000E+00
         0.00000E+00
         0.00000E+00
         0.00000E+00
         0.00000E+00
         0.00000E+00
         0.00000E+00
         0.00000E+00
         0.00000E+00
         0.00000E+00
         0.00000E+00
         0.00000E+00
         0.00000E+00
         0.00000E+00
         0.00000E+00
         0.00000E+00
         0.00000E+00
         0.00000E+00
         0.00000E+00
         0.00000E+00
         0.00000E+00
         0.00000E+00
         0.00000E+00
         0.00000E+00
         0.00000E+00
         0.00000E+00
         0.00000E+00
         0.00000E+00
         0.00000E+00
         0.00000E+00
         0.00000E+00
         0.00000E+00
         0.00000E+00
         0.00000E+00
         0.00000E+00
         0.00000E+00
         0.00000E+00
         0.00000E+00
         0.00000E+00
         0.00000E+00
         0.00000E+00
         0.00000E+00
         0.00000E+00
         0.00000E+00
         0.00000E+00
         0.00000E+00
         0.00000E+00
         0.00000E+00
         0.00000E+00
         0.00000E+00
         0.00000E+00
         0.00000E+00
         0.00000E+00
         0.00000E+00
         0.00000E+00
         0.00000E+00
         0.00000E+00
         0.00000E+00
         0.00000E+00
         0.00000E+00
         0.00000E+00
         0.00000E+00
         0.00000E+00
         0.00000E+00
         0.00000E+00
         0.00000E+00
         0.00000E+00
         0.00000E+00
         0.00000E+00
         0.00000E+00
         0.00000E+00
         0.00000E+00
         0.00000E+00
         0.00000E+00
         0.00000E+00
         0.00000E+00
         0.00000E+00
         0.00000E+00
         0.00000E+00
         0.00000E+00
         0.00000E+00
         0.00000E+00
         0.00000E+00
         0.00000E+00
         0.00000E+00
         0.00000E+00
         0.00000E+00
         0.00000E+00
         0.00000E+00
         0.00000E+00
         0.00000E+00
         0.00000E+00
         0.00000E+00
         0.00000E+00
         0.00000E+00
         0.00000E+00
         0.00000E+00
         0.00000E+00
         0.00000E+00
         0.00000E+00
         0.00000E+00
         0.00000E+00
         0.00000E+00
         0.00000E+00
         0.00000E+00
         0.00000E+00
         0.00000E+00
         0.00000E+00
         0.00000E+00
         0.00000E+00
         0.00000E+00
         0.00000E+00
         0.00000E+00
         0.00000E+00
         0.00000E+00
         0.00000E+00
         0.00000E+00
         0.00000E+00
         0.00000E+00
         0.00000E+00
         0.00000E+00
         0.00000E+00
         0.00000E+00
         0.00000E+00
         0.00000E+00
         0.00000E+00
         0.00000E+00
         0.00000E+00
         0.00000E+00
         0.00000E+00
         0.00000E+00
         0.00000E+00
         0.00000E+00
         0.00000E+00
         0.00000E+00
         0.00000E+00
         0.00000E+00
         0.00000E+00
         0.00000E+00
         0.00000E+00
         0.00000E+00
         0.00000E+00
         0.00000E+00
         0.00000E+00
         0.00000E+00
         0.00000E+00
         0.00000E+00
         0.00000E+00
         0.00000E+00
         0.00000E+00
         0.00000E+00
         0.00000E+00
         0.00000E+00
         0.00000E+00
         0.00000E+00
         0.00000E+00
         0.00000E+00
         0.00000E+00
         0.00000E+00
         0.00000E+00
         0.00000E+00
         0.00000E+00
         0.00000E+00
         0.00000E+00
         0.00000E+00
         0.00000E+00
         0.00000E+00
         0.00000E+00
         0.00000E+00
         0.00000E+00
         0.00000E+00
         0.00000E+00
         0.00000E+00
         0.00000E+00
         0.00000E+00
         0.00000E+00
         0.00000E+00
         0.00000E+00
         0.00000E+00
         0.00000E+00
         0.00000E+00
         0.00000E+00
         0.00000E+00
         0.00000E+00
         0.00000E+00
         0.00000E+00
         0.00000E+00
         0.00000E+00
         0.00000E+00
         0.00000E+00
         0.00000E+00
         0.00000E+00
         0.00000E+00
         0.00000E+00
         0.00000E+00
         0.00000E+00
         0.00000E+00
         0.00000E+00
         0.00000E+00
         0.00000E+00
         0.00000E+00
         0.00000E+00
         0.00000E+00
         0.00000E+00
         0.00000E+00
         0.00000E+00
         0.00000E+00
         0.00000E+00
         0.00000E+00
         0.00000E+00
         0.00000E+00
         0.00000E+00
         0.00000E+00
         0.00000E+00
         0.00000E+00
         0.00000E+00
         0.00000E+00
         0.00000E+00
         0.00000E+00
         0.00000E+00
         0.00000E+00
         0.00000E+00
         0.00000E+00
         0.00000E+00
         0.00000E+00
         0.00000E+00
         0.00000E+00
         0.00000E+00
         0.00000E+00
         0.00000E+00
         0.00000E+00
         0.00000E+00
         0.00000E+00
         0.00000E+00
         0.00000E+00
         0.00000E+00
         0.00000E+00
         0.00000E+00
         0.00000E+00
         0.00000E+00
         0.00000E+00
         0.00000E+00
         0.00000E+00
         0.00000E+00
         0.00000E+00
         0.00000E+00
         0.00000E+00
         0.00000E+00
         0.00000E+00
         0.00000E+00
         0.00000E+00
         0.00000E+00
         0.00000E+00
         0.00000E+00
         0.00000E+00
         0.00000E+00
         0.00000E+00
         0.00000E+00
         0.00000E+00
         0.00000E+00
         0.00000E+00
         0.00000E+00
         0.00000E+00
         0.00000E+00
         0.00000E+00
         0.00000E+00
         0.00000E+00
         0.00000E+00
         0.00000E+00
         0.00000E+00
         0.00000E+00
         0.00000E+00
         0.00000E+00
         0.00000E+00
         0.00000E+00
         0.00000E+00
         0.00000E+00
         0.00000E+00
         0.00000E+00
         0.00000E+00
         0.00000E+00
         0.00000E+00
         0.00000E+00
         0.00000E+00
         0.00000E+00
         0.00000E+00
         0.00000E+00
         0.00000E+00
         0.00000E+00
         0.00000E+00
         0.00000E+00
         0.00000E+00
         0.00000E+00
         0.00000E+00
         0.00000E+00
         0.00000E+00
         0.00000E+00
         0.00000E+00
         0.00000E+00
         0.00000E+00
         0.00000E+00
         0.00000E+00
         0.00000E+00
         0.00000E+00
         0.00000E+00
         0.00000E+00
         0.00000E+00
         0.00000E+00
         0.00000E+00
         0.00000E+00
         0.00000E+00
         0.00000E+00
         0.00000E+00
         0.00000E+00
         0.00000E+00
         0.00000E+00
         0.00000E+00
         0.00000E+00
         0.00000E+00
         0.00000E+00
         0.00000E+00
         0.00000E+00
         0.00000E+00
         0.00000E+00
         0.00000E+00
         0.00000E+00
         0.00000E+00
         0.00000E+00
         0.00000E+00
         0.00000E+00
         0.00000E+00
         0.00000E+00
         0.00000E+00
         0.00000E+00
         0.00000E+00
         0.00000E+00
         0.00000E+00
         0.00000E+00
         0.00000E+00
         0.00000E+00
         0.00000E+00
         0.00000E+00
         0.00000E+00
         0.00000E+00
         0.00000E+00
         0.00000E+00
         0.00000E+00
         0.00000E+00
         0.00000E+00
         0.00000E+00
         0.00000E+00
         0.00000E+00
         0.00000E+00
         0.00000E+00
         0.00000E+00
         0.00000E+00
         0.00000E+00
         0.00000E+00
         0.00000E+00
         0.00000E+00
         0.00000E+00
         0.00000E+00
         0.00000E+00
         0.00000E+00
         0.00000E+00
         0.00000E+00
         0.00000E+00
         0.00000E+00
         0.00000E+00
         0.00000E+00
         0.00000E+00
         0.00000E+00
         0.00000E+00
         0.00000E+00
         0.00000E+00
         0.00000E+00
         0.00000E+00
         0.00000E+00
         0.00000E+00
         0.00000E+00
         0.00000E+00
         0.00000E+00
         0.00000E+00
         0.00000E+00
         0.00000E+00
         0.00000E+00
         0.00000E+00
         0.00000E+00
         0.00000E+00
         0.00000E+00
         0.00000E+00
         0.00000E+00
         0.00000E+00
         0.00000E+00
         0.00000E+00
         0.00000E+00
         0.00000E+00
         0.00000E+00
         0.00000E+00
         0.00000E+00
         0.00000E+00
         0.00000E+00
         0.00000E+00
         0.00000E+00
         0.00000E+00
         0.00000E+00
         0.00000E+00
         0.00000E+00
         0.00000E+00
         0.00000E+00
         0.00000E+00
         0.00000E+00
         0.00000E+00
         0.00000E+00
         0.00000E+00
         0.00000E+00
         0.00000E+00
         0.00000E+00
         0.00000E+00
         0.00000E+00
         0.00000E+00
         0.00000E+00
         0.00000E+00
         0.00000E+00
         0.00000E+00
         0.00000E+00
         0.00000E+00
         0.00000E+00
         0.00000E+00
         0.00000E+00
         0.00000E+00
         0.00000E+00
         0.00000E+00
         0.00000E+00
         0.00000E+00
         0.00000E+00
         0.00000E+00
         0.00000E+00
         0.00000E+00
         0.00000E+00
         0.00000E+00
         0.00000E+00
         0.00000E+00
         0.00000E+00
         0.00000E+00
         0.00000E+00
         0.00000E+00
         0.00000E+00
         0.00000E+00
         0.00000E+00
         0.00000E+00
         0.00000E+00
         0.00000E+00
         0.00000E+00
         0.00000E+00
         0.00000E+00
         0.00000E+00
         0.00000E+00
         0.00000E+00
         0.00000E+00
         0.00000E+00
         0.00000E+00
         0.00000E+00
         0.00000E+00
         0.00000E+00
         0.00000E+00
         0.00000E+00
         0.00000E+00
         0.00000E+00
         0.00000E+00
         0.00000E+00
         0.00000E+00
         0.00000E+00
         0.00000E+00
         0.00000E+00
         0.00000E+00
         0.00000E+00
         0.00000E+00
         0.00000E+00
         0.00000E+00
         0.00000E+00
         0.00000E+00
         0.00000E+00
         0.00000E+00
         0.00000E+00
         0.00000E+00
         0.00000E+00
         0.00000E+00
         0.00000E+00
         0.00000E+00
         0.00000E+00
         0.00000E+00
         0.00000E+00
         0.00000E+00
         0.00000E+00
         0.00000E+00
         0.00000E+00
         0.00000E+00
         0.00000E+00
         0.00000E+00
         0.00000E+00
         0.00000E+00
         0.00000E+00
         0.00000E+00
         0.00000E+00
         0.00000E+00
         0.00000E+00
         0.00000E+00
         0.00000E+00
         0.00000E+00
         0.00000E+00
         0.00000E+00
         0.00000E+00
         0.00000E+00
         0.00000E+00
         0.00000E+00
         0.00000E+00
         0.00000E+00
         0.00000E+00
         0.00000E+00
         0.00000E+00
         0.00000E+00
         0.00000E+00
         0.00000E+00
         0.00000E+00
         0.00000E+00
         0.00000E+00
         0.00000E+00
         0.00000E+00
         0.00000E+00
         0.00000E+00
         0.00000E+00
         0.00000E+00
         0.00000E+00
         0.00000E+00
         0.00000E+00
         0.00000E+00
         0.00000E+00
         0.00000E+00
         0.00000E+00
         0.00000E+00
         0.00000E+00
         0.00000E+00
         0.00000E+00
         0.00000E+00
         0.00000E+00
         0.00000E+00
         0.00000E+00
         0.00000E+00
         0.00000E+00
         0.00000E+00
         0.00000E+00
         0.00000E+00
         0.00000E+00
         0.00000E+00
         0.00000E+00
         0.00000E+00
         0.00000E+00
         0.00000E+00
         0.00000E+00
         0.00000E+00
         0.00000E+00
         0.00000E+00
         0.00000E+00
         0.00000E+00
         0.00000E+00
         0.00000E+00
         0.00000E+00
         0.00000E+00
         0.00000E+00
         0.00000E+00
         0.00000E+00
         0.00000E+00
         0.00000E+00
         0.00000E+00
         0.00000E+00
         0.00000E+00
         0.00000E+00
         0.00000E+00
         0.00000E+00
         0.00000E+00
         0.00000E+00
         0.00000E+00
         0.00000E+00
         0.00000E+00
         0.00000E+00
         0.00000E+00
         0.00000E+00
         0.00000E+00
         0.00000E+00
         0.00000E+00
         0.00000E+00
         0.00000E+00
         0.00000E+00
         0.00000E+00
         0.00000E+00
         0.00000E+00
         0.00000E+00
         0.00000E+00
         0.00000E+00
         0.00000E+00
         0.00000E+00
         0.00000E+00
         0.00000E+00
         0.00000E+00
         0.00000E+00
         0.00000E+00
         0.00000E+00
         0.00000E+00
         0.00000E+00
         0.00000E+00
         0.00000E+00
         0.00000E+00
         0.00000E+00
         0.00000E+00
         0.00000E+00
         0.00000E+00
         0.00000E+00
         0.00000E+00
         0.00000E+00
         0.00000E+00
         0.00000E+00
         0.00000E+00
         0.00000E+00
         0.00000E+00
         0.00000E+00
         0.00000E+00
         0.00000E+00
         0.00000E+00
         0.00000E+00
         0.00000E+00
         0.00000E+00
         0.00000E+00
         0.00000E+00
         0.00000E+00
         0.00000E+00
         0.00000E+00
         0.00000E+00
         0.00000E+00
         0.00000E+00
         0.00000E+00
         0.00000E+00
         0.00000E+00
         0.00000E+00
         0.00000E+00
         0.00000E+00
         0.00000E+00
         0.00000E+00
         0.00000E+00
         0.00000E+00
         0.00000E+00
         0.00000E+00
         0.00000E+00
         0.00000E+00
         0.00000E+00
         0.00000E+00
         0.00000E+00
         0.00000E+00
         0.00000E+00
         0.00000E+00
         0.00000E+00
         0.00000E+00
         0.00000E+00
         0.00000E+00
         0.00000E+00
         0.00000E+00
         0.00000E+00
         0.00000E+00
         0.00000E+00
         0.00000E+00
         0.00000E+00
         0.00000E+00
         0.00000E+00
         0.00000E+00
         0.00000E+00
         0.00000E+00
         0.00000E+00
         0.00000E+00
         0.00000E+00
         0.00000E+00
         0.00000E+00
         0.00000E+00
         0.00000E+00
         0.00000E+00
         0.00000E+00
         0.00000E+00
         0.00000E+00
         0.00000E+00
         0.00000E+00
         0.00000E+00
         0.00000E+00
         0.00000E+00
         0.00000E+00
         0.00000E+00
         0.00000E+00
         0.00000E+00
         0.00000E+00
         0.00000E+00
         0.00000E+00
         0.00000E+00
         0.00000E+00
         0.00000E+00
         0.00000E+00
         0.00000E+00
         0.00000E+00
         0.00000E+00
         0.00000E+00
         0.00000E+00
         0.00000E+00
         0.00000E+00
         0.00000E+00
         0.00000E+00
         0.00000E+00
         0.00000E+00
         0.00000E+00
         0.00000E+00
         0.00000E+00
         0.00000E+00
         0.00000E+00
         0.00000E+00
         0.00000E+00
         0.00000E+00
         0.00000E+00
         0.00000E+00
         0.00000E+00
         0.00000E+00
         0.00000E+00
         0.00000E+00
         0.00000E+00
         0.00000E+00
         0.00000E+00
         0.00000E+00
         0.00000E+00
         0.00000E+00
         0.00000E+00
         0.00000E+00
         0.00000E+00
         0.00000E+00
         0.00000E+00
         0.00000E+00
         0.00000E+00
         0.00000E+00
         0.00000E+00
         0.00000E+00
         0.00000E+00
         0.00000E+00
         0.00000E+00
         0.00000E+00
         0.00000E+00
         0.00000E+00
         0.00000E+00
         0.00000E+00
         0.00000E+00
         0.00000E+00
         0.00000E+00
         0.00000E+00
         0.00000E+00
         0.00000E+00
         0.00000E+00
         0.00000E+00
         0.00000E+00
         0.00000E+00
         0.00000E+00
         0.00000E+00
         0.00000E+00
         0.00000E+00
         0.00000E+00
         0.00000E+00
         0.00000E+00
         0.00000E+00
         0.00000E+00
         0.00000E+00
         0.00000E+00
         0.00000E+00
         0.00000E+00
         0.00000E+00
         0.00000E+00
         0.00000E+00
         0.00000E+00
         0.00000E+00
         0.00000E+00
         0.00000E+00
         0.00000E+00
         0.00000E+00
         0.00000E+00
         0.00000E+00
         0.00000E+00
         0.00000E+00
         0.00000E+00
         0.00000E+00
         0.00000E+00
         0.00000E+00
         0.00000E+00
         0.00000E+00
         0.00000E+00
         0.00000E+00
         0.00000E+00
         0.00000E+00
         0.00000E+00
         0.00000E+00
         0.00000E+00
         0.00000E+00
         0.00000E+00
         0.00000E+00
         0.00000E+00
         0.00000E+00
         0.00000E+00
         0.00000E+00
         0.00000E+00
         0.00000E+00
         0.00000E+00
         0.00000E+00
         0.00000E+00
         0.00000E+00
         0.00000E+00
         0.00000E+00
         0.00000E+00
         0.00000E+00
         0.00000E+00
         0.00000E+00
         0.00000E+00
         0.00000E+00
         0.00000E+00
         0.00000E+00
         0.00000E+00
         0.00000E+00
         0.00000E+00
         0.00000E+00
         0.00000E+00
         0.00000E+00
         0.00000E+00
         0.00000E+00
         0.00000E+00
         0.00000E+00
         0.00000E+00
         0.00000E+00
         0.00000E+00
         0.00000E+00
         0.00000E+00
         0.00000E+00
         0.00000E+00
         0.00000E+00
         0.00000E+00
         0.00000E+00
         0.00000E+00
         0.00000E+00
         0.00000E+00
         0.00000E+00
         0.00000E+00
         0.00000E+00
         0.00000E+00
         0.00000E+00
         0.00000E+00
         0.00000E+00
         0.00000E+00
         0.00000E+00
         0.00000E+00
         0.00000E+00
         0.00000E+00
         0.00000E+00
         0.00000E+00
         0.00000E+00
         0.00000E+00
         0.00000E+00
         0.00000E+00
         0.00000E+00
         0.00000E+00
         0.00000E+00
         0.00000E+00
         0.00000E+00
         0.00000E+00
         0.00000E+00
         0.00000E+00
         0.00000E+00
         0.00000E+00
         0.00000E+00
         0.00000E+00
         0.00000E+00
         0.00000E+00
         0.00000E+00
         0.00000E+00
         0.00000E+00
         0.00000E+00
         0.00000E+00
         0.00000E+00
         0.00000E+00
         0.00000E+00
         0.00000E+00
         0.00000E+00
         0.00000E+00
         0.00000E+00
         0.00000E+00
         0.00000E+00
         0.00000E+00
         0.00000E+00
         0.00000E+00
         0.00000E+00
         0.00000E+00
         0.00000E+00
         0.00000E+00
         0.00000E+00
         0.00000E+00
         0.00000E+00
         0.00000E+00
         0.00000E+00
         0.00000E+00
         0.00000E+00
         0.00000E+00
         0.00000E+00
         0.00000E+00
         0.00000E+00
         0.00000E+00
         0.00000E+00
         0.00000E+00
         0.00000E+00
         0.00000E+00
         0.00000E+00
         0.00000E+00
         0.00000E+00
         0.00000E+00
         0.00000E+00
         0.00000E+00
         0.00000E+00
         0.00000E+00
         0.00000E+00
         0.00000E+00
         0.00000E+00
         0.00000E+00
         0.00000E+00
         0.00000E+00
         0.00000E+00
         0.00000E+00
         0.00000E+00
         0.00000E+00
         0.00000E+00
         0.00000E+00
         0.00000E+00
         0.00000E+00
         0.00000E+00
         0.00000E+00
         0.00000E+00
         0.00000E+00
         0.00000E+00
         0.00000E+00
         0.00000E+00
         0.00000E+00
         0.00000E+00
         0.00000E+00
         0.00000E+00
         0.00000E+00
         0.00000E+00
         0.00000E+00
         0.00000E+00
         0.00000E+00
         0.00000E+00
         0.00000E+00
         0.00000E+00
         0.00000E+00
         0.00000E+00
         0.00000E+00
         0.00000E+00
         0.00000E+00
         0.00000E+00
         0.00000E+00
         0.00000E+00
         0.00000E+00
         0.00000E+00
         0.00000E+00
         0.00000E+00
         0.00000E+00
         0.00000E+00
         0.00000E+00
         0.00000E+00
         0.00000E+00
         0.00000E+00
         0.00000E+00
         0.00000E+00
         0.00000E+00
         0.00000E+00
         0.00000E+00
         0.00000E+00
         0.00000E+00
         0.00000E+00
         0.00000E+00
         0.00000E+00
         0.00000E+00
         0.00000E+00
         0.00000E+00
         0.00000E+00
         0.00000E+00
         0.00000E+00
         0.00000E+00
         0.00000E+00
         0.00000E+00
         0.00000E+00
         0.00000E+00
         0.00000E+00
         0.00000E+00
         0.00000E+00
         0.00000E+00
         0.00000E+00
         0.00000E+00
         0.00000E+00
         0.00000E+00
         0.00000E+00
         0.00000E+00
         0.00000E+00
         0.00000E+00
         0.00000E+00
         0.00000E+00
         0.00000E+00
         0.00000E+00
         0.00000E+00
         0.00000E+00
         0.00000E+00
         0.00000E+00
         0.00000E+00
         0.00000E+00
         0.00000E+00
         0.00000E+00
         0.00000E+00
         0.00000E+00
         0.00000E+00
         0.00000E+00
         0.00000E+00
         0.00000E+00
         0.00000E+00
         0.00000E+00
         0.00000E+00
         0.00000E+00
         0.00000E+00
         0.00000E+00
         0.00000E+00
         0.00000E+00
         0.00000E+00
         0.00000E+00
         0.00000E+00
         0.00000E+00
         0.00000E+00
         0.00000E+00
         0.00000E+00
         0.00000E+00
         0.00000E+00
         0.00000E+00
         0.00000E+00
         0.00000E+00
         0.00000E+00
         0.00000E+00
         0.00000E+00
         0.00000E+00
         0.00000E+00
         0.00000E+00
         0.00000E+00
         0.00000E+00
         0.00000E+00
         0.00000E+00
         0.00000E+00
         0.00000E+00
         0.00000E+00
         0.00000E+00
         0.00000E+00
         0.00000E+00
         0.00000E+00
         0.00000E+00
         0.00000E+00
         0.00000E+00
         0.00000E+00
         0.00000E+00
         0.00000E+00
         0.00000E+00
         0.00000E+00
         0.00000E+00
         0.00000E+00
         0.00000E+00
         0.00000E+00
         0.00000E+00
         0.00000E+00
         0.00000E+00
         0.00000E+00
         0.00000E+00
         0.00000E+00
         0.00000E+00
         0.00000E+00
         0.00000E+00
         0.00000E+00
         0.00000E+00
         0.00000E+00
         0.00000E+00
         0.00000E+00
         0.00000E+00
         0.00000E+00
         0.00000E+00
         0.00000E+00
         0.00000E+00
         0.00000E+00
         0.00000E+00
         0.00000E+00
         0.00000E+00
         0.00000E+00
         0.00000E+00
         0.00000E+00
         0.00000E+00
         0.00000E+00
         0.00000E+00
         0.00000E+00
         0.00000E+00
         0.00000E+00
         0.00000E+00
         0.00000E+00
         0.00000E+00
         0.00000E+00
         0.00000E+00
         0.00000E+00
         0.00000E+00
         0.00000E+00
         0.00000E+00
         0.00000E+00
         0.00000E+00
         0.00000E+00
         0.00000E+00
         0.00000E+00
         0.00000E+00
         0.00000E+00
         0.00000E+00
         0.00000E+00
         0.00000E+00
         0.00000E+00
         0.00000E+00
         0.00000E+00
         0.00000E+00
         0.00000E+00
         0.00000E+00
         0.00000E+00
         0.00000E+00
         0.00000E+00
         0.00000E+00
         0.00000E+00
         0.00000E+00
         0.00000E+00
         0.00000E+00
         0.00000E+00
         0.00000E+00
         0.00000E+00
         0.00000E+00
         0.00000E+00
         0.00000E+00
         0.00000E+00
         0.00000E+00
         0.00000E+00
         0.00000E+00
         0.00000E+00
         0.00000E+00
         0.00000E+00
         0.00000E+00
         0.00000E+00
         0.00000E+00
         0.00000E+00
         0.00000E+00
         0.00000E+00
         0.00000E+00
         0.00000E+00
         0.00000E+00
         0.00000E+00
         0.00000E+00
         0.00000E+00
         0.00000E+00
         0.00000E+00
         0.00000E+00
         0.00000E+00
         0.00000E+00
         0.00000E+00
         0.00000E+00
         0.00000E+00
         0.00000E+00
         0.00000E+00
         0.00000E+00
         0.00000E+00
         0.00000E+00
         0.00000E+00
         0.00000E+00
         0.00000E+00
         0.00000E+00
         0.00000E+00
         0.00000E+00
         0.00000E+00
         0.00000E+00
         0.00000E+00
         0.00000E+00
         0.00000E+00
         0.00000E+00
         0.00000E+00
         0.00000E+00
         0.00000E+00
         0.00000E+00
         0.00000E+00
         0.00000E+00
         0.00000E+00
         0.00000E+00
         0.00000E+00
         0.00000E+00
         0.00000E+00
         0.00000E+00
         0.00000E+00
         0.00000E+00
         0.00000E+00
         0.00000E+00
         0.00000E+00
         0.00000E+00
         0.00000E+00
         0.00000E+00
         0.00000E+00
         0.00000E+00
         0.00000E+00
         0.00000E+00
         0.00000E+00
         0.00000E+00
         0.00000E+00
         0.00000E+00
         0.00000E+00
         0.00000E+00
         0.00000E+00
         0.00000E+00
         0.00000E+00
         0.00000E+00
         0.00000E+00
         0.00000E+00
         0.00000E+00
         0.00000E+00
         0.00000E+00
         0.00000E+00
         0.00000E+00
         0.00000E+00
         0.00000E+00
         0.00000E+00
         0.00000E+00
         0.00000E+00
         0.00000E+00
         0.00000E+00
         0.00000E+00
         0.00000E+00
         0.00000E+00
         0.00000E+00
         0.00000E+00
         0.00000E+00
         0.00000E+00
         0.00000E+00
         0.00000E+00
         0.00000E+00
         0.00000E+00
         0.00000E+00
         0.00000E+00
         0.00000E+00
         0.00000E+00
         0.00000E+00
         0.00000E+00
         0.00000E+00
         0.00000E+00
         0.00000E+00
         0.00000E+00
         0.00000E+00
         0.00000E+00
         0.00000E+00
         0.00000E+00
         0.00000E+00
         0.00000E+00
         0.00000E+00
         0.00000E+00
         0.00000E+00
         0.00000E+00
         0.00000E+00
         0.00000E+00
         0.00000E+00
         0.00000E+00
         0.00000E+00
         0.00000E+00
         0.00000E+00
         0.00000E+00
         0.00000E+00
         0.00000E+00
         0.00000E+00
         0.00000E+00
         0.00000E+00
         0.00000E+00
         0.00000E+00
         0.00000E+00
         0.00000E+00
         0.00000E+00
         0.00000E+00
         0.00000E+00
         0.00000E+00
         0.00000E+00
         0.00000E+00
         0.00000E+00
         0.00000E+00
         0.00000E+00
         0.00000E+00
         0.00000E+00
         0.00000E+00
         0.00000E+00
         0.00000E+00
         0.00000E+00
         0.00000E+00
         0.00000E+00
         0.00000E+00
         0.00000E+00
         0.00000E+00
         0.00000E+00
         0.00000E+00
         0.00000E+00
         0.00000E+00
         0.00000E+00
         0.00000E+00
         0.00000E+00
         0.00000E+00
         0.00000E+00
         0.00000E+00
         0.00000E+00
         0.00000E+00
         0.00000E+00
         0.00000E+00
         0.00000E+00
         0.00000E+00
         0.00000E+00
         0.00000E+00
         0.00000E+00
         0.00000E+00
         0.00000E+00
         0.00000E+00
         0.00000E+00
         0.00000E+00
         0.00000E+00
         0.00000E+00
         0.00000E+00
         0.00000E+00
         0.00000E+00
         0.00000E+00
         0.00000E+00
         0.00000E+00
         0.00000E+00
         0.00000E+00
         0.00000E+00
         0.00000E+00
         0.00000E+00
         0.00000E+00
         0.00000E+00
         0.00000E+00
         0.00000E+00
         0.00000E+00
         0.00000E+00
         0.00000E+00
         0.00000E+00
         0.00000E+00
         0.00000E+00
         0.00000E+00
         0.00000E+00
         0.00000E+00
         0.00000E+00
         0.00000E+00
         0.00000E+00
         0.00000E+00
         0.00000E+00
         0.00000E+00
         0.00000E+00
         0.00000E+00
         0.00000E+00
         0.00000E+00
         0.00000E+00
         0.00000E+00
         0.00000E+00
         0.00000E+00
         0.00000E+00
         0.00000E+00
         0.00000E+00
         0.00000E+00
         0.00000E+00
         0.00000E+00
         0.00000E+00
         0.00000E+00
         0.00000E+00
         0.00000E+00
         0.00000E+00
         0.00000E+00
         0.00000E+00
         0.00000E+00
         0.00000E+00
         0.00000E+00
         0.00000E+00
         0.00000E+00
         0.00000E+00
         0.00000E+00
         0.00000E+00
         0.00000E+00
         0.00000E+00
         0.00000E+00
         0.00000E+00
         0.00000E+00
         0.00000E+00
         0.00000E+00
         0.00000E+00
         0.00000E+00
         0.00000E+00
         0.00000E+00
         0.00000E+00
         0.00000E+00
         0.00000E+00
         0.00000E+00
         0.00000E+00
         0.00000E+00
         0.00000E+00
         0.00000E+00
         0.00000E+00
         0.00000E+00
         0.00000E+00
         0.00000E+00
         0.00000E+00
         0.00000E+00
         0.00000E+00
         0.00000E+00
         0.00000E+00
         0.00000E+00
         0.00000E+00
         0.00000E+00
         0.00000E+00
         0.00000E+00
         0.00000E+00
         0.00000E+00
         0.00000E+00
         0.00000E+00
         0.00000E+00
         0.00000E+00
         0.00000E+00
         0.00000E+00
         0.00000E+00
         0.00000E+00
         0.00000E+00
         0.00000E+00
         0.00000E+00
         0.00000E+00
         0.00000E+00
         0.00000E+00
         0.00000E+00
         0.00000E+00
         0.00000E+00
         0.00000E+00
         0.00000E+00
         0.00000E+00
         0.00000E+00
         0.00000E+00
         0.00000E+00
         0.00000E+00
         0.00000E+00
         0.00000E+00
         0.00000E+00
         0.00000E+00
         0.00000E+00
         0.00000E+00
         0.00000E+00
         0.00000E+00
         0.00000E+00
         0.00000E+00
         0.00000E+00
         0.00000E+00
         0.00000E+00
         0.00000E+00
         0.00000E+00
         0.00000E+00
         0.00000E+00
         0.00000E+00
         0.00000E+00
         0.00000E+00
         0.00000E+00
         0.00000E+00
         0.00000E+00
         0.00000E+00
         0.00000E+00
         0.00000E+00
         0.00000E+00
         0.00000E+00
         0.00000E+00
         0.00000E+00
         0.00000E+00
         0.00000E+00
         0.00000E+00
         0.00000E+00
         0.00000E+00
         0.00000E+00
         0.00000E+00
         0.00000E+00
         0.00000E+00
         0.00000E+00
         0.00000E+00
         0.00000E+00
         0.00000E+00
         0.00000E+00
         0.00000E+00
         0.00000E+00
         0.00000E+00
         0.00000E+00
         0.00000E+00
         0.00000E+00
         0.00000E+00
         0.00000E+00
         0.00000E+00
         0.00000E+00
         0.00000E+00
         0.00000E+00
         0.00000E+00
         0.00000E+00
         0.00000E+00
         0.00000E+00
         0.00000E+00
         0.00000E+00
         0.00000E+00
         0.00000E+00
         0.00000E+00
         0.00000E+00
         0.00000E+00
         0.00000E+00
         0.00000E+00
         0.00000E+00
         0.00000E+00
  
SCALARS                     velocity_y  double 1
LOOKUP_TABLE default
         0.00000E+00
         0.00000E+00
         0.00000E+00
         0.00000E+00
         0.00000E+00
         0.00000E+00
         0.00000E+00
         0.00000E+00
         0.00000E+00
         0.00000E+00
         0.00000E+00
         0.00000E+00
         0.00000E+00
         0.00000E+00
         0.00000E+00
         0.00000E+00
         0.00000E+00
         0.00000E+00
         0.00000E+00
         0.00000E+00
         0.00000E+00
         0.00000E+00
         0.00000E+00
         0.00000E+00
         0.00000E+00
         0.00000E+00
         0.00000E+00
         0.00000E+00
         0.00000E+00
         0.00000E+00
         0.00000E+00
         0.00000E+00
         0.00000E+00
         0.00000E+00
         0.00000E+00
         0.00000E+00
         0.00000E+00
         0.00000E+00
         0.00000E+00
         0.00000E+00
         0.00000E+00
         0.00000E+00
         0.00000E+00
         0.00000E+00
         0.00000E+00
         0.00000E+00
         0.00000E+00
         0.00000E+00
         0.00000E+00
         0.00000E+00
         0.00000E+00
         0.00000E+00
         0.00000E+00
         0.00000E+00
         0.00000E+00
         0.00000E+00
         0.00000E+00
         0.00000E+00
         0.00000E+00
         0.00000E+00
         0.00000E+00
         0.00000E+00
         0.00000E+00
         0.00000E+00
         0.00000E+00
         0.00000E+00
         0.00000E+00
         0.00000E+00
         0.00000E+00
         0.00000E+00
         0.00000E+00
         0.00000E+00
         0.00000E+00
         0.00000E+00
         0.00000E+00
         0.00000E+00
         0.00000E+00
         0.00000E+00
         0.00000E+00
         0.00000E+00
         0.00000E+00
         0.00000E+00
         0.00000E+00
         0.00000E+00
         0.00000E+00
         0.00000E+00
         0.00000E+00
         0.00000E+00
         0.00000E+00
         0.00000E+00
         0.00000E+00
         0.00000E+00
         0.00000E+00
         0.00000E+00
         0.00000E+00
         0.00000E+00
         0.00000E+00
         0.00000E+00
         0.00000E+00
         0.00000E+00
         0.00000E+00
         0.00000E+00
         0.00000E+00
         0.00000E+00
         0.00000E+00
         0.00000E+00
         0.00000E+00
         0.00000E+00
         0.00000E+00
         0.00000E+00
         0.00000E+00
         0.00000E+00
         0.00000E+00
         0.00000E+00
         0.00000E+00
         0.00000E+00
         0.00000E+00
         0.00000E+00
         0.00000E+00
         0.00000E+00
         0.00000E+00
         0.00000E+00
         0.00000E+00
         0.00000E+00
         0.00000E+00
         0.00000E+00
         0.00000E+00
         0.00000E+00
         0.00000E+00
         0.00000E+00
         0.00000E+00
         0.00000E+00
         0.00000E+00
         0.00000E+00
         0.00000E+00
         0.00000E+00
         0.00000E+00
         0.00000E+00
         0.00000E+00
         0.00000E+00
         0.00000E+00
         0.00000E+00
         0.00000E+00
         0.00000E+00
         0.00000E+00
         0.00000E+00
         0.00000E+00
         0.00000E+00
         0.00000E+00
         0.00000E+00
         0.00000E+00
         0.00000E+00
         0.00000E+00
         0.00000E+00
         0.00000E+00
         0.00000E+00
         0.00000E+00
         0.00000E+00
         0.00000E+00
         0.00000E+00
         0.00000E+00
         0.00000E+00
         0.00000E+00
         0.00000E+00
         0.00000E+00
         0.00000E+00
         0.00000E+00
         0.00000E+00
         0.00000E+00
         0.00000E+00
         0.00000E+00
         0.00000E+00
         0.00000E+00
         0.00000E+00
         0.00000E+00
         0.00000E+00
         0.00000E+00
         0.00000E+00
         0.00000E+00
         0.00000E+00
         0.00000E+00
         0.00000E+00
         0.00000E+00
         0.00000E+00
         0.00000E+00
         0.00000E+00
         0.00000E+00
         0.00000E+00
         0.00000E+00
         0.00000E+00
         0.00000E+00
         0.00000E+00
         0.00000E+00
         0.00000E+00
         0.00000E+00
         0.00000E+00
         0.00000E+00
         0.00000E+00
         0.00000E+00
         0.00000E+00
         0.00000E+00
         0.00000E+00
         0.00000E+00
         0.00000E+00
         0.00000E+00
         0.00000E+00
         0.00000E+00
         0.00000E+00
         0.00000E+00
         0.00000E+00
         0.00000E+00
         0.00000E+00
         0.00000E+00
         0.00000E+00
         0.00000E+00
         0.00000E+00
         0.00000E+00
         0.00000E+00
         0.00000E+00
         0.00000E+00
         0.00000E+00
         0.00000E+00
         0.00000E+00
         0.00000E+00
         0.00000E+00
         0.00000E+00
         0.00000E+00
         0.00000E+00
         0.00000E+00
         0.00000E+00
         0.00000E+00
         0.00000E+00
         0.00000E+00
         0.00000E+00
         0.00000E+00
         0.00000E+00
         0.00000E+00
         0.00000E+00
         0.00000E+00
         0.00000E+00
         0.00000E+00
         0.00000E+00
         0.00000E+00
         0.00000E+00
         0.00000E+00
         0.00000E+00
         0.00000E+00
         0.00000E+00
         0.00000E+00
         0.00000E+00
         0.00000E+00
         0.00000E+00
         0.00000E+00
         0.00000E+00
         0.00000E+00
         0.00000E+00
         0.00000E+00
         0.00000E+00
         0.00000E+00
         0.00000E+00
         0.00000E+00
         0.00000E+00
         0.00000E+00
         0.00000E+00
         0.00000E+00
         0.00000E+00
         0.00000E+00
         0.00000E+00
         0.00000E+00
         0.00000E+00
         0.00000E+00
         0.00000E+00
         0.00000E+00
         0.00000E+00
         0.00000E+00
         0.00000E+00
         0.00000E+00
         0.00000E+00
         0.00000E+00
         0.00000E+00
         0.00000E+00
         0.00000E+00
         0.00000E+00
         0.00000E+00
         0.00000E+00
         0.00000E+00
         0.00000E+00
         0.00000E+00
         0.00000E+00
         0.00000E+00
         0.00000E+00
         0.00000E+00
         0.00000E+00
         0.00000E+00
         0.00000E+00
         0.00000E+00
         0.00000E+00
         0.00000E+00
         0.00000E+00
         0.00000E+00
         0.00000E+00
         0.00000E+00
         0.00000E+00
         0.00000E+00
         0.00000E+00
         0.00000E+00
         0.00000E+00
         0.00000E+00
         0.00000E+00
         0.00000E+00
         0.00000E+00
         0.00000E+00
         0.00000E+00
         0.00000E+00
         0.00000E+00
         0.00000E+00
         0.00000E+00
         0.00000E+00
         0.00000E+00
         0.00000E+00
         0.00000E+00
         0.00000E+00
         0.00000E+00
         0.00000E+00
         0.00000E+00
         0.00000E+00
         0.00000E+00
         0.00000E+00
         0.00000E+00
         0.00000E+00
         0.00000E+00
         0.00000E+00
         0.00000E+00
         0.00000E+00
         0.00000E+00
         0.00000E+00
         0.00000E+00
         0.00000E+00
         0.00000E+00
         0.00000E+00
         0.00000E+00
         0.00000E+00
         0.00000E+00
         0.00000E+00
         0.00000E+00
         0.00000E+00
         0.00000E+00
         0.00000E+00
         0.00000E+00
         0.00000E+00
         0.00000E+00
         0.00000E+00
         0.00000E+00
         0.00000E+00
         0.00000E+00
         0.00000E+00
         0.00000E+00
         0.00000E+00
         0.00000E+00
         0.00000E+00
         0.00000E+00
         0.00000E+00
         0.00000E+00
         0.00000E+00
         0.00000E+00
         0.00000E+00
         0.00000E+00
         0.00000E+00
         0.00000E+00
         0.00000E+00
         0.00000E+00
         0.00000E+00
         0.00000E+00
         0.00000E+00
         0.00000E+00
         0.00000E+00
         0.00000E+00
         0.00000E+00
         0.00000E+00
         0.00000E+00
         0.00000E+00
         0.00000E+00
         0.00000E+00
         0.00000E+00
         0.00000E+00
         0.00000E+00
         0.00000E+00
         0.00000E+00
         0.00000E+00
         0.00000E+00
         0.00000E+00
         0.00000E+00
         0.00000E+00
         0.00000E+00
         0.00000E+00
         0.00000E+00
         0.00000E+00
         0.00000E+00
         0.00000E+00
         0.00000E+00
         0.00000E+00
         0.00000E+00
         0.00000E+00
         0.00000E+00
         0.00000E+00
         0.00000E+00
         0.00000E+00
         0.00000E+00
         0.00000E+00
         0.00000E+00
         0.00000E+00
         0.00000E+00
         0.00000E+00
         0.00000E+00
         0.00000E+00
         0.00000E+00
         0.00000E+00
         0.00000E+00
         0.00000E+00
         0.00000E+00
         0.00000E+00
         0.00000E+00
         0.00000E+00
         0.00000E+00
         0.00000E+00
         0.00000E+00
         0.00000E+00
         0.00000E+00
         0.00000E+00
         0.00000E+00
         0.00000E+00
         0.00000E+00
         0.00000E+00
         0.00000E+00
         0.00000E+00
         0.00000E+00
         0.00000E+00
         0.00000E+00
         0.00000E+00
         0.00000E+00
         0.00000E+00
         0.00000E+00
         0.00000E+00
         0.00000E+00
         0.00000E+00
         0.00000E+00
         0.00000E+00
         0.00000E+00
         0.00000E+00
         0.00000E+00
         0.00000E+00
         0.00000E+00
         0.00000E+00
         0.00000E+00
         0.00000E+00
         0.00000E+00
         0.00000E+00
         0.00000E+00
         0.00000E+00
         0.00000E+00
         0.00000E+00
         0.00000E+00
         0.00000E+00
         0.00000E+00
         0.00000E+00
         0.00000E+00
         0.00000E+00
         0.00000E+00
         0.00000E+00
         0.00000E+00
         0.00000E+00
         0.00000E+00
         0.00000E+00
         0.00000E+00
         0.00000E+00
         0.00000E+00
         0.00000E+00
         0.00000E+00
         0.00000E+00
         0.00000E+00
         0.00000E+00
         0.00000E+00
         0.00000E+00
         0.00000E+00
         0.00000E+00
         0.00000E+00
         0.00000E+00
         0.00000E+00
         0.00000E+00
         0.00000E+00
         0.00000E+00
         0.00000E+00
         0.00000E+00
         0.00000E+00
         0.00000E+00
         0.00000E+00
         0.00000E+00
         0.00000E+00
         0.00000E+00
         0.00000E+00
         0.00000E+00
         0.00000E+00
         0.00000E+00
         0.00000E+00
         0.00000E+00
         0.00000E+00
         0.00000E+00
         0.00000E+00
         0.00000E+00
         0.00000E+00
         0.00000E+00
         0.00000E+00
         0.00000E+00
         0.00000E+00
         0.00000E+00
         0.00000E+00
         0.00000E+00
         0.00000E+00
         0.00000E+00
         0.00000E+00
         0.00000E+00
         0.00000E+00
         0.00000E+00
         0.00000E+00
         0.00000E+00
         0.00000E+00
         0.00000E+00
         0.00000E+00
         0.00000E+00
         0.00000E+00
         0.00000E+00
         0.00000E+00
         0.00000E+00
         0.00000E+00
         0.00000E+00
         0.00000E+00
         0.00000E+00
         0.00000E+00
         0.00000E+00
         0.00000E+00
         0.00000E+00
         0.00000E+00
         0.00000E+00
         0.00000E+00
         0.00000E+00
         0.00000E+00
         0.00000E+00
         0.00000E+00
         0.00000E+00
         0.00000E+00
         0.00000E+00
         0.00000E+00
         0.00000E+00
         0.00000E+00
         0.00000E+00
         0.00000E+00
         0.00000E+00
         0.00000E+00
         0.00000E+00
         0.00000E+00
         0.00000E+00
         0.00000E+00
         0.00000E+00
         0.00000E+00
         0.00000E+00
         0.00000E+00
         0.00000E+00
         0.00000E+00
         0.00000E+00
         0.00000E+00
         0.00000E+00
         0.00000E+00
         0.00000E+00
         0.00000E+00
         0.00000E+00
         0.00000E+00
         0.00000E+00
         0.00000E+00
         0.00000E+00
         0.00000E+00
         0.00000E+00
         0.00000E+00
         0.00000E+00
         0.00000E+00
         0.00000E+00
         0.00000E+00
         0.00000E+00
         0.00000E+00
         0.00000E+00
         0.00000E+00
         0.00000E+00
         0.00000E+00
         0.00000E+00
         0.00000E+00
         0.00000E+00
         0.00000E+00
         0.00000E+00
         0.00000E+00
         0.00000E+00
         0.00000E+00
         0.00000E+00
         0.00000E+00
         0.00000E+00
         0.00000E+00
         0.00000E+00
         0.00000E+00
         0.00000E+00
         0.00000E+00
         0.00000E+00
         0.00000E+00
         0.00000E+00
         0.00000E+00
         0.00000E+00
         0.00000E+00
         0.00000E+00
         0.00000E+00
         0.00000E+00
         0.00000E+00
         0.00000E+00
         0.00000E+00
         0.00000E+00
         0.00000E+00
         0.00000E+00
         0.00000E+00
         0.00000E+00
         0.00000E+00
         0.00000E+00
         0.00000E+00
         0.00000E+00
         0.00000E+00
         0.00000E+00
         0.00000E+00
         0.00000E+00
         0.00000E+00
         0.00000E+00
         0.00000E+00
         0.00000E+00
         0.00000E+00
         0.00000E+00
         0.00000E+00
         0.00000E+00
         0.00000E+00
         0.00000E+00
         0.00000E+00
         0.00000E+00
         0.00000E+00
         0.00000E+00
         0.00000E+00
         0.00000E+00
         0.00000E+00
         0.00000E+00
         0.00000E+00
         0.00000E+00
         0.00000E+00
         0.00000E+00
         0.00000E+00
         0.00000E+00
         0.00000E+00
         0.00000E+00
         0.00000E+00
         0.00000E+00
         0.00000E+00
         0.00000E+00
         0.00000E+00
         0.00000E+00
         0.00000E+00
         0.00000E+00
         0.00000E+00
         0.00000E+00
         0.00000E+00
         0.00000E+00
         0.00000E+00
         0.00000E+00
         0.00000E+00
         0.00000E+00
         0.00000E+00
         0.00000E+00
         0.00000E+00
         0.00000E+00
         0.00000E+00
         0.00000E+00
         0.00000E+00
         0.00000E+00
         0.00000E+00
         0.00000E+00
         0.00000E+00
         0.00000E+00
         0.00000E+00
         0.00000E+00
         0.00000E+00
         0.00000E+00
         0.00000E+00
         0.00000E+00
         0.00000E+00
         0.00000E+00
         0.00000E+00
         0.00000E+00
         0.00000E+00
         0.00000E+00
         0.00000E+00
         0.00000E+00
         0.00000E+00
         0.00000E+00
         0.00000E+00
         0.00000E+00
         0.00000E+00
         0.00000E+00
         0.00000E+00
         0.00000E+00
         0.00000E+00
         0.00000E+00
         0.00000E+00
         0.00000E+00
         0.00000E+00
         0.00000E+00
         0.00000E+00
         0.00000E+00
         0.00000E+00
         0.00000E+00
         0.00000E+00
         0.00000E+00
         0.00000E+00
         0.00000E+00
         0.00000E+00
         0.00000E+00
         0.00000E+00
         0.00000E+00
         0.00000E+00
         0.00000E+00
         0.00000E+00
         0.00000E+00
         0.00000E+00
         0.00000E+00
         0.00000E+00
         0.00000E+00
         0.00000E+00
         0.00000E+00
         0.00000E+00
         0.00000E+00
         0.00000E+00
         0.00000E+00
         0.00000E+00
         0.00000E+00
         0.00000E+00
         0.00000E+00
         0.00000E+00
         0.00000E+00
         0.00000E+00
         0.00000E+00
         0.00000E+00
         0.00000E+00
         0.00000E+00
         0.00000E+00
         0.00000E+00
         0.00000E+00
         0.00000E+00
         0.00000E+00
         0.00000E+00
         0.00000E+00
         0.00000E+00
         0.00000E+00
         0.00000E+00
         0.00000E+00
         0.00000E+00
         0.00000E+00
         0.00000E+00
         0.00000E+00
         0.00000E+00
         0.00000E+00
         0.00000E+00
         0.00000E+00
         0.00000E+00
         0.00000E+00
         0.00000E+00
         0.00000E+00
         0.00000E+00
         0.00000E+00
         0.00000E+00
         0.00000E+00
         0.00000E+00
         0.00000E+00
         0.00000E+00
         0.00000E+00
         0.00000E+00
         0.00000E+00
         0.00000E+00
         0.00000E+00
         0.00000E+00
         0.00000E+00
         0.00000E+00
         0.00000E+00
         0.00000E+00
         0.00000E+00
         0.00000E+00
         0.00000E+00
         0.00000E+00
         0.00000E+00
         0.00000E+00
         0.00000E+00
         0.00000E+00
         0.00000E+00
         0.00000E+00
         0.00000E+00
         0.00000E+00
         0.00000E+00
         0.00000E+00
         0.00000E+00
         0.00000E+00
         0.00000E+00
         0.00000E+00
         0.00000E+00
         0.00000E+00
         0.00000E+00
         0.00000E+00
         0.00000E+00
         0.00000E+00
         0.00000E+00
         0.00000E+00
         0.00000E+00
         0.00000E+00
         0.00000E+00
         0.00000E+00
         0.00000E+00
         0.00000E+00
         0.00000E+00
         0.00000E+00
         0.00000E+00
         0.00000E+00
         0.00000E+00
         0.00000E+00
         0.00000E+00
         0.00000E+00
         0.00000E+00
         0.00000E+00
         0.00000E+00
         0.00000E+00
         0.00000E+00
         0.00000E+00
         0.00000E+00
         0.00000E+00
         0.00000E+00
         0.00000E+00
         0.00000E+00
         0.00000E+00
         0.00000E+00
         0.00000E+00
         0.00000E+00
         0.00000E+00
         0.00000E+00
         0.00000E+00
         0.00000E+00
         0.00000E+00
         0.00000E+00
         0.00000E+00
         0.00000E+00
         0.00000E+00
         0.00000E+00
         0.00000E+00
         0.00000E+00
         0.00000E+00
         0.00000E+00
         0.00000E+00
         0.00000E+00
         0.00000E+00
         0.00000E+00
         0.00000E+00
         0.00000E+00
         0.00000E+00
         0.00000E+00
         0.00000E+00
         0.00000E+00
         0.00000E+00
         0.00000E+00
         0.00000E+00
         0.00000E+00
         0.00000E+00
         0.00000E+00
         0.00000E+00
         0.00000E+00
         0.00000E+00
         0.00000E+00
         0.00000E+00
         0.00000E+00
         0.00000E+00
         0.00000E+00
         0.00000E+00
         0.00000E+00
         0.00000E+00
         0.00000E+00
         0.00000E+00
         0.00000E+00
         0.00000E+00
         0.00000E+00
         0.00000E+00
         0.00000E+00
         0.00000E+00
         0.00000E+00
         0.00000E+00
         0.00000E+00
         0.00000E+00
         0.00000E+00
         0.00000E+00
         0.00000E+00
         0.00000E+00
         0.00000E+00
         0.00000E+00
         0.00000E+00
         0.00000E+00
         0.00000E+00
         0.00000E+00
         0.00000E+00
         0.00000E+00
         0.00000E+00
         0.00000E+00
         0.00000E+00
         0.00000E+00
         0.00000E+00
         0.00000E+00
         0.00000E+00
         0.00000E+00
         0.00000E+00
         0.00000E+00
         0.00000E+00
         0.00000E+00
         0.00000E+00
         0.00000E+00
         0.00000E+00
         0.00000E+00
         0.00000E+00
         0.00000E+00
         0.00000E+00
         0.00000E+00
         0.00000E+00
         0.00000E+00
         0.00000E+00
         0.00000E+00
         0.00000E+00
         0.00000E+00
         0.00000E+00
         0.00000E+00
         0.00000E+00
         0.00000E+00
         0.00000E+00
         0.00000E+00
         0.00000E+00
         0.00000E+00
         0.00000E+00
         0.00000E+00
         0.00000E+00
         0.00000E+00
         0.00000E+00
         0.00000E+00
         0.00000E+00
         0.00000E+00
         0.00000E+00
         0.00000E+00
         0.00000E+00
         0.00000E+00
         0.00000E+00
         0.00000E+00
         0.00000E+00
         0.00000E+00
         0.00000E+00
         0.00000E+00
         0.00000E+00
         0.00000E+00
         0.00000E+00
         0.00000E+00
         0.00000E+00
         0.00000E+00
         0.00000E+00
         0.00000E+00
         0.00000E+00
         0.00000E+00
         0.00000E+00
         0.00000E+00
         0.00000E+00
         0.00000E+00
         0.00000E+00
         0.00000E+00
         0.00000E+00
         0.00000E+00
         0.00000E+00
         0.00000E+00
         0.00000E+00
         0.00000E+00
         0.00000E+00
         0.00000E+00
         0.00000E+00
         0.00000E+00
         0.00000E+00
         0.00000E+00
         0.00000E+00
         0.00000E+00
         0.00000E+00
         0.00000E+00
         0.00000E+00
         0.00000E+00
         0.00000E+00
         0.00000E+00
         0.00000E+00
         0.00000E+00
         0.00000E+00
         0.00000E+00
         0.00000E+00
         0.00000E+00
         0.00000E+00
         0.00000E+00
         0.00000E+00
         0.00000E+00
         0.00000E+00
         0.00000E+00
         0.00000E+00
         0.00000E+00
         0.00000E+00
         0.00000E+00
         0.00000E+00
         0.00000E+00
         0.00000E+00
         0.00000E+00
         0.00000E+00
         0.00000E+00
         0.00000E+00
         0.00000E+00
         0.00000E+00
         0.00000E+00
         0.00000E+00
         0.00000E+00
         0.00000E+00
         0.00000E+00
         0.00000E+00
         0.00000E+00
         0.00000E+00
         0.00000E+00
         0.00000E+00
         0.00000E+00
         0.00000E+00
         0.00000E+00
         0.00000E+00
         0.00000E+00
         0.00000E+00
         0.00000E+00
         0.00000E+00
         0.00000E+00
         0.00000E+00
         0.00000E+00
         0.00000E+00
         0.00000E+00
         0.00000E+00
         0.00000E+00
         0.00000E+00
         0.00000E+00
         0.00000E+00
         0.00000E+00
         0.00000E+00
         0.00000E+00
         0.00000E+00
         0.00000E+00
         0.00000E+00
         0.00000E+00
         0.00000E+00
         0.00000E+00
         0.00000E+00
         0.00000E+00
         0.00000E+00
         0.00000E+00
         0.00000E+00
         0.00000E+00
         0.00000E+00
         0.00000E+00
         0.00000E+00
         0.00000E+00
         0.00000E+00
         0.00000E+00
         0.00000E+00
         0.00000E+00
         0.00000E+00
         0.00000E+00
         0.00000E+00
         0.00000E+00
         0.00000E+00
         0.00000E+00
         0.00000E+00
         0.00000E+00
         0.00000E+00
         0.00000E+00
         0.00000E+00
         0.00000E+00
         0.00000E+00
         0.00000E+00
         0.00000E+00
         0.00000E+00
         0.00000E+00
         0.00000E+00
         0.00000E+00
         0.00000E+00
         0.00000E+00
         0.00000E+00
         0.00000E+00
         0.00000E+00
         0.00000E+00
         0.00000E+00
         0.00000E+00
         0.00000E+00
         0.00000E+00
         0.00000E+00
         0.00000E+00
         0.00000E+00
         0.00000E+00
         0.00000E+00
         0.00000E+00
         0.00000E+00
         0.00000E+00
         0.00000E+00
         0.00000E+00
         0.00000E+00
         0.00000E+00
         0.00000E+00
         0.00000E+00
         0.00000E+00
         0.00000E+00
         0.00000E+00
         0.00000E+00
         0.00000E+00
         0.00000E+00
         0.00000E+00
         0.00000E+00
         0.00000E+00
         0.00000E+00
         0.00000E+00
         0.00000E+00
         0.00000E+00
         0.00000E+00
         0.00000E+00
         0.00000E+00
         0.00000E+00
         0.00000E+00
         0.00000E+00
         0.00000E+00
         0.00000E+00
         0.00000E+00
         0.00000E+00
         0.00000E+00
         0.00000E+00
         0.00000E+00
         0.00000E+00
         0.00000E+00
         0.00000E+00
         0.00000E+00
         0.00000E+00
         0.00000E+00
         0.00000E+00
         0.00000E+00
         0.00000E+00
         0.00000E+00
         0.00000E+00
         0.00000E+00
         0.00000E+00
         0.00000E+00
         0.00000E+00
         0.00000E+00
         0.00000E+00
         0.00000E+00
         0.00000E+00
         0.00000E+00
         0.00000E+00
         0.00000E+00
         0.00000E+00
         0.00000E+00
         0.00000E+00
         0.00000E+00
         0.00000E+00
         0.00000E+00
         0.00000E+00
         0.00000E+00
         0.00000E+00
         0.00000E+00
         0.00000E+00
         0.00000E+00
         0.00000E+00
         0.00000E+00
         0.00000E+00
         0.00000E+00
         0.00000E+00
         0.00000E+00
         0.00000E+00
         0.00000E+00
         0.00000E+00
         0.00000E+00
         0.00000E+00
         0.00000E+00
         0.00000E+00
         0.00000E+00
         0.00000E+00
         0.00000E+00
         0.00000E+00
         0.00000E+00
         0.00000E+00
         0.00000E+00
         0.00000E+00
         0.00000E+00
         0.00000E+00
         0.00000E+00
         0.00000E+00
         0.00000E+00
         0.00000E+00
         0.00000E+00
         0.00000E+00
         0.00000E+00
         0.00000E+00
         0.00000E+00
         0.00000E+00
         0.00000E+00
         0.00000E+00
         0.00000E+00
         0.00000E+00
         0.00000E+00
         0.00000E+00
         0.00000E+00
         0.00000E+00
         0.00000E+00
         0.00000E+00
         0.00000E+00
         0.00000E+00
         0.00000E+00
         0.00000E+00
         0.00000E+00
         0.00000E+00
         0.00000E+00
         0.00000E+00
         0.00000E+00
         0.00000E+00
         0.00000E+00
         0.00000E+00
         0.00000E+00
         0.00000E+00
         0.00000E+00
         0.00000E+00
         0.00000E+00
         0.00000E+00
         0.00000E+00
         0.00000E+00
         0.00000E+00
         0.00000E+00
         0.00000E+00
         0.00000E+00
         0.00000E+00
         0.00000E+00
         0.00000E+00
         0.00000E+00
         0.00000E+00
         0.00000E+00
         0.00000E+00
         0.00000E+00
         0.00000E+00
         0.00000E+00
         0.00000E+00
         0.00000E+00
         0.00000E+00
         0.00000E+00
         0.00000E+00
         0.00000E+00
         0.00000E+00
         0.00000E+00
         0.00000E+00
         0.00000E+00
         0.00000E+00
         0.00000E+00
         0.00000E+00
         0.00000E+00
         0.00000E+00
         0.00000E+00
         0.00000E+00
         0.00000E+00
         0.00000E+00
         0.00000E+00
         0.00000E+00
         0.00000E+00
         0.00000E+00
         0.00000E+00
         0.00000E+00
         0.00000E+00
         0.00000E+00
         0.00000E+00
         0.00000E+00
         0.00000E+00
         0.00000E+00
         0.00000E+00
         0.00000E+00
         0.00000E+00
         0.00000E+00
         0.00000E+00
         0.00000E+00
         0.00000E+00
         0.00000E+00
         0.00000E+00
         0.00000E+00
         0.00000E+00
         0.00000E+00
         0.00000E+00
         0.00000E+00
         0.00000E+00
         0.00000E+00
         0.00000E+00
         0.00000E+00
         0.00000E+00
         0.00000E+00
         0.00000E+00
         0.00000E+00
         0.00000E+00
         0.00000E+00
         0.00000E+00
         0.00000E+00
         0.00000E+00
         0.00000E+00
         0.00000E+00
         0.00000E+00
         0.00000E+00
         0.00000E+00
         0.00000E+00
         0.00000E+00
         0.00000E+00
         0.00000E+00
         0.00000E+00
         0.00000E+00
         0.00000E+00
         0.00000E+00
         0.00000E+00
         0.00000E+00
         0.00000E+00
         0.00000E+00
         0.00000E+00
         0.00000E+00
         0.00000E+00
         0.00000E+00
         0.00000E+00
         0.00000E+00
         0.00000E+00
         0.00000E+00
         0.00000E+00
         0.00000E+00
         0.00000E+00
         0.00000E+00
         0.00000E+00
         0.00000E+00
         0.00000E+00
         0.00000E+00
         0.00000E+00
         0.00000E+00
         0.00000E+00
         0.00000E+00
         0.00000E+00
         0.00000E+00
         0.00000E+00
         0.00000E+00
         0.00000E+00
         0.00000E+00
         0.00000E+00
         0.00000E+00
         0.00000E+00
         0.00000E+00
         0.00000E+00
         0.00000E+00
         0.00000E+00
         0.00000E+00
         0.00000E+00
         0.00000E+00
         0.00000E+00
         0.00000E+00
         0.00000E+00
         0.00000E+00
         0.00000E+00
         0.00000E+00
         0.00000E+00
         0.00000E+00
         0.00000E+00
         0.00000E+00
         0.00000E+00
         0.00000E+00
         0.00000E+00
         0.00000E+00
         0.00000E+00
         0.00000E+00
         0.00000E+00
         0.00000E+00
         0.00000E+00
         0.00000E+00
         0.00000E+00
         0.00000E+00
         0.00000E+00
         0.00000E+00
         0.00000E+00
         0.00000E+00
         0.00000E+00
         0.00000E+00
         0.00000E+00
         0.00000E+00
         0.00000E+00
         0.00000E+00
         0.00000E+00
         0.00000E+00
         0.00000E+00
         0.00000E+00
         0.00000E+00
         0.00000E+00
         0.00000E+00
         0.00000E+00
         0.00000E+00
         0.00000E+00
         0.00000E+00
         0.00000E+00
         0.00000E+00
         0.00000E+00
         0.00000E+00
         0.00000E+00
         0.00000E+00
         0.00000E+00
         0.00000E+00
         0.00000E+00
         0.00000E+00
         0.00000E+00
         0.00000E+00
         0.00000E+00
         0.00000E+00
         0.00000E+00
         0.00000E+00
         0.00000E+00
         0.00000E+00
         0.00000E+00
         0.00000E+00
         0.00000E+00
         0.00000E+00
         0.00000E+00
         0.00000E+00
         0.00000E+00
         0.00000E+00
         0.00000E+00
         0.00000E+00
         0.00000E+00
         0.00000E+00
         0.00000E+00
         0.00000E+00
         0.00000E+00
         0.00000E+00
         0.00000E+00
         0.00000E+00
         0.00000E+00
         0.00000E+00
         0.00000E+00
         0.00000E+00
         0.00000E+00
         0.00000E+00
         0.00000E+00
         0.00000E+00
         0.00000E+00
         0.00000E+00
         0.00000E+00
         0.00000E+00
         0.00000E+00
         0.00000E+00
         0.00000E+00
         0.00000E+00
         0.00000E+00
         0.00000E+00
         0.00000E+00
         0.00000E+00
         0.00000E+00
         0.00000E+00
         0.00000E+00
         0.00000E+00
         0.00000E+00
         0.00000E+00
         0.00000E+00
         0.00000E+00
         0.00000E+00
         0.00000E+00
         0.00000E+00
         0.00000E+00
         0.00000E+00
         0.00000E+00
         0.00000E+00
         0.00000E+00
         0.00000E+00
         0.00000E+00
         0.00000E+00
         0.00000E+00
         0.00000E+00
         0.00000E+00
         0.00000E+00
         0.00000E+00
         0.00000E+00
         0.00000E+00
         0.00000E+00
         0.00000E+00
         0.00000E+00
         0.00000E+00
         0.00000E+00
         0.00000E+00
         0.00000E+00
         0.00000E+00
         0.00000E+00
         0.00000E+00
         0.00000E+00
         0.00000E+00
         0.00000E+00
         0.00000E+00
         0.00000E+00
         0.00000E+00
         0.00000E+00
         0.00000E+00
         0.00000E+00
         0.00000E+00
         0.00000E+00
         0.00000E+00
         0.00000E+00
         0.00000E+00
         0.00000E+00
         0.00000E+00
         0.00000E+00
         0.00000E+00
         0.00000E+00
         0.00000E+00
         0.00000E+00
         0.00000E+00
         0.00000E+00
         0.00000E+00
         0.00000E+00
         0.00000E+00
         0.00000E+00
         0.00000E+00
         0.00000E+00
         0.00000E+00
         0.00000E+00
         0.00000E+00
         0.00000E+00
         0.00000E+00
         0.00000E+00
         0.00000E+00
         0.00000E+00
         0.00000E+00
         0.00000E+00
         0.00000E+00
         0.00000E+00
         0.00000E+00
         0.00000E+00
         0.00000E+00
         0.00000E+00
         0.00000E+00
         0.00000E+00
         0.00000E+00
         0.00000E+00
         0.00000E+00
         0.00000E+00
         0.00000E+00
         0.00000E+00
         0.00000E+00
         0.00000E+00
         0.00000E+00
         0.00000E+00
         0.00000E+00
         0.00000E+00
         0.00000E+00
         0.00000E+00
         0.00000E+00
         0.00000E+00
         0.00000E+00
         0.00000E+00
         0.00000E+00
         0.00000E+00
         0.00000E+00
         0.00000E+00
         0.00000E+00
         0.00000E+00
         0.00000E+00
         0.00000E+00
         0.00000E+00
         0.00000E+00
         0.00000E+00
         0.00000E+00
         0.00000E+00
         0.00000E+00
         0.00000E+00
         0.00000E+00
         0.00000E+00
         0.00000E+00
         0.00000E+00
         0.00000E+00
         0.00000E+00
         0.00000E+00
         0.00000E+00
         0.00000E+00
         0.00000E+00
         0.00000E+00
         0.00000E+00
         0.00000E+00
         0.00000E+00
         0.00000E+00
         0.00000E+00
         0.00000E+00
         0.00000E+00
         0.00000E+00
         0.00000E+00
         0.00000E+00
         0.00000E+00
         0.00000E+00
         0.00000E+00
         0.00000E+00
         0.00000E+00
         0.00000E+00
         0.00000E+00
         0.00000E+00
         0.00000E+00
         0.00000E+00
         0.00000E+00
         0.00000E+00
         0.00000E+00
         0.00000E+00
         0.00000E+00
         0.00000E+00
         0.00000E+00
         0.00000E+00
         0.00000E+00
         0.00000E+00
         0.00000E+00
         0.00000E+00
         0.00000E+00
         0.00000E+00
         0.00000E+00
         0.00000E+00
         0.00000E+00
         0.00000E+00
         0.00000E+00
         0.00000E+00
         0.00000E+00
         0.00000E+00
         0.00000E+00
         0.00000E+00
         0.00000E+00
         0.00000E+00
         0.00000E+00
         0.00000E+00
         0.00000E+00
         0.00000E+00
         0.00000E+00
         0.00000E+00
         0.00000E+00
         0.00000E+00
         0.00000E+00
         0.00000E+00
         0.00000E+00
         0.00000E+00
         0.00000E+00
         0.00000E+00
         0.00000E+00
         0.00000E+00
         0.00000E+00
         0.00000E+00
         0.00000E+00
         0.00000E+00
         0.00000E+00
         0.00000E+00
         0.00000E+00
         0.00000E+00
         0.00000E+00
         0.00000E+00
         0.00000E+00
         0.00000E+00
         0.00000E+00
         0.00000E+00
         0.00000E+00
         0.00000E+00
         0.00000E+00
         0.00000E+00
         0.00000E+00
         0.00000E+00
         0.00000E+00
         0.00000E+00
         0.00000E+00
         0.00000E+00
         0.00000E+00
         0.00000E+00
         0.00000E+00
         0.00000E+00
         0.00000E+00
         0.00000E+00
         0.00000E+00
         0.00000E+00
         0.00000E+00
         0.00000E+00
         0.00000E+00
         0.00000E+00
         0.00000E+00
         0.00000E+00
         0.00000E+00
         0.00000E+00
         0.00000E+00
         0.00000E+00
         0.00000E+00
         0.00000E+00
         0.00000E+00
         0.00000E+00
         0.00000E+00
         0.00000E+00
         0.00000E+00
         0.00000E+00
         0.00000E+00
         0.00000E+00
         0.00000E+00
         0.00000E+00
         0.00000E+00
         0.00000E+00
         0.00000E+00
         0.00000E+00
         0.00000E+00
         0.00000E+00
         0.00000E+00
         0.00000E+00
         0.00000E+00
         0.00000E+00
         0.00000E+00
         0.00000E+00
         0.00000E+00
         0.00000E+00
         0.00000E+00
         0.00000E+00
         0.00000E+00
         0.00000E+00
         0.00000E+00
         0.00000E+00
         0.00000E+00
         0.00000E+00
         0.00000E+00
         0.00000E+00
         0.00000E+00
         0.00000E+00
         0.00000E+00
         0.00000E+00
         0.00000E+00
         0.00000E+00
         0.00000E+00
         0.00000E+00
         0.00000E+00
         0.00000E+00
         0.00000E+00
         0.00000E+00
         0.00000E+00
         0.00000E+00
         0.00000E+00
         0.00000E+00
         0.00000E+00
         0.00000E+00
         0.00000E+00
         0.00000E+00
         0.00000E+00
         0.00000E+00
         0.00000E+00
         0.00000E+00
         0.00000E+00
         0.00000E+00
         0.00000E+00
         0.00000E+00
         0.00000E+00
         0.00000E+00
         0.00000E+00
         0.00000E+00
         0.00000E+00
         0.00000E+00
         0.00000E+00
         0.00000E+00
         0.00000E+00
         0.00000E+00
         0.00000E+00
         0.00000E+00
         0.00000E+00
         0.00000E+00
         0.00000E+00
         0.00000E+00
         0.00000E+00
         0.00000E+00
         0.00000E+00
         0.00000E+00
         0.00000E+00
         0.00000E+00
         0.00000E+00
         0.00000E+00
         0.00000E+00
         0.00000E+00
         0.00000E+00
         0.00000E+00
         0.00000E+00
         0.00000E+00
         0.00000E+00
         0.00000E+00
         0.00000E+00
         0.00000E+00
         0.00000E+00
         0.00000E+00
         0.00000E+00
         0.00000E+00
         0.00000E+00
         0.00000E+00
         0.00000E+00
         0.00000E+00
         0.00000E+00
         0.00000E+00
         0.00000E+00
         0.00000E+00
         0.00000E+00
         0.00000E+00
         0.00000E+00
         0.00000E+00
         0.00000E+00
         0.00000E+00
         0.00000E+00
         0.00000E+00
         0.00000E+00
         0.00000E+00
         0.00000E+00
         0.00000E+00
         0.00000E+00
         0.00000E+00
         0.00000E+00
         0.00000E+00
         0.00000E+00
         0.00000E+00
         0.00000E+00
         0.00000E+00
         0.00000E+00
         0.00000E+00
         0.00000E+00
         0.00000E+00
         0.00000E+00
         0.00000E+00
         0.00000E+00
         0.00000E+00
         0.00000E+00
         0.00000E+00
         0.00000E+00
         0.00000E+00
         0.00000E+00
         0.00000E+00
         0.00000E+00
         0.00000E+00
         0.00000E+00
         0.00000E+00
         0.00000E+00
         0.00000E+00
         0.00000E+00
         0.00000E+00
         0.00000E+00
         0.00000E+00
         0.00000E+00
         0.00000E+00
         0.00000E+00
         0.00000E+00
         0.00000E+00
         0.00000E+00
         0.00000E+00
         0.00000E+00
         0.00000E+00
         0.00000E+00
         0.00000E+00
         0.00000E+00
         0.00000E+00
         0.00000E+00
         0.00000E+00
         0.00000E+00
         0.00000E+00
         0.00000E+00
         0.00000E+00
         0.00000E+00
         0.00000E+00
         0.00000E+00
         0.00000E+00
         0.00000E+00
         0.00000E+00
         0.00000E+00
         0.00000E+00
         0.00000E+00
         0.00000E+00
         0.00000E+00
         0.00000E+00
         0.00000E+00
         0.00000E+00
         0.00000E+00
         0.00000E+00
         0.00000E+00
         0.00000E+00
         0.00000E+00
         0.00000E+00
         0.00000E+00
         0.00000E+00
         0.00000E+00
         0.00000E+00
         0.00000E+00
         0.00000E+00
         0.00000E+00
         0.00000E+00
         0.00000E+00
         0.00000E+00
         0.00000E+00
         0.00000E+00
         0.00000E+00
         0.00000E+00
         0.00000E+00
         0.00000E+00
         0.00000E+00
         0.00000E+00
         0.00000E+00
         0.00000E+00
         0.00000E+00
         0.00000E+00
         0.00000E+00
         0.00000E+00
         0.00000E+00
         0.00000E+00
         0.00000E+00
         0.00000E+00
         0.00000E+00
         0.00000E+00
         0.00000E+00
         0.00000E+00
         0.00000E+00
         0.00000E+00
         0.00000E+00
         0.00000E+00
         0.00000E+00
         0.00000E+00
         0.00000E+00
         0.00000E+00
         0.00000E+00
         0.00000E+00
         0.00000E+00
         0.00000E+00
         0.00000E+00
         0.00000E+00
         0.00000E+00
         0.00000E+00
         0.00000E+00
         0.00000E+00
         0.00000E+00
         0.00000E+00
         0.00000E+00
         0.00000E+00
         0.00000E+00
         0.00000E+00
         0.00000E+00
         0.00000E+00
         0.00000E+00
         0.00000E+00
  
SCALARS                     velocity_z  double 1
LOOKUP_TABLE default
        -0.37300E+03
        -0.37300E+03
        -0.37300E+03
        -0.37300E+03
         0.00000E+00
         0.00000E+00
         0.00000E+00
         0.00000E+00
        -0.37300E+03
        -0.37300E+03
         0.00000E+00
         0.00000E+00
        -0.37300E+03
        -0.37300E+03
         0.00000E+00
         0.00000E+00
        -0.37300E+03
        -0.37300E+03
         0.00000E+00
         0.00000E+00
        -0.37300E+03
        -0.37300E+03
        -0.37300E+03
         0.00000E+00
         0.00000E+00
         0.00000E+00
        -0.37300E+03
        -0.37300E+03
         0.00000E+00
         0.00000E+00
        -0.37300E+03
        -0.37300E+03
        -0.37300E+03
         0.00000E+00
         0.00000E+00
         0.00000E+00
        -0.37300E+03
        -0.37300E+03
         0.00000E+00
         0.00000E+00
        -0.37300E+03
        -0.37300E+03
         0.00000E+00
         0.00000E+00
        -0.37300E+03
        -0.37300E+03
         0.00000E+00
         0.00000E+00
        -0.37300E+03
         0.00000E+00
        -0.37300E+03
         0.00000E+00
        -0.37300E+03
         0.00000E+00
        -0.37300E+03
         0.00000E+00
        -0.37300E+03
        -0.37300E+03
         0.00000E+00
         0.00000E+00
        -0.37300E+03
        -0.37300E+03
         0.00000E+00
         0.00000E+00
        -0.37300E+03
         0.00000E+00
        -0.37300E+03
         0.00000E+00
        -0.37300E+03
        -0.37300E+03
         0.00000E+00
         0.00000E+00
        -0.37300E+03
         0.00000E+00
        -0.37300E+03
         0.00000E+00
        -0.37300E+03
         0.00000E+00
        -0.37300E+03
         0.00000E+00
        -0.37300E+03
        -0.37300E+03
         0.00000E+00
         0.00000E+00
        -0.37300E+03
         0.00000E+00
        -0.37300E+03
         0.00000E+00
        -0.37300E+03
         0.00000E+00
        -0.37300E+03
        -0.37300E+03
         0.00000E+00
         0.00000E+00
        -0.37300E+03
         0.00000E+00
        -0.37300E+03
         0.00000E+00
        -0.37300E+03
         0.00000E+00
        -0.37300E+03
        -0.37300E+03
         0.00000E+00
         0.00000E+00
        -0.37300E+03
        -0.37300E+03
         0.00000E+00
         0.00000E+00
        -0.37300E+03
         0.00000E+00
        -0.37300E+03
         0.00000E+00
        -0.37300E+03
         0.00000E+00
        -0.37300E+03
         0.00000E+00
        -0.37300E+03
         0.00000E+00
        -0.37300E+03
         0.00000E+00
        -0.37300E+03
         0.00000E+00
        -0.37300E+03
         0.00000E+00
        -0.37300E+03
         0.00000E+00
        -0.37300E+03
         0.00000E+00
        -0.37300E+03
         0.00000E+00
        -0.37300E+03
         0.00000E+00
        -0.37300E+03
         0.00000E+00
        -0.37300E+03
         0.00000E+00
        -0.37300E+03
         0.00000E+00
        -0.37300E+03
         0.00000E+00
        -0.37300E+03
         0.00000E+00
        -0.37300E+03
         0.00000E+00
        -0.37300E+03
         0.00000E+00
        -0.37300E+03
         0.00000E+00
        -0.37300E+03
         0.00000E+00
        -0.37300E+03
         0.00000E+00
        -0.37300E+03
         0.00000E+00
        -0.37300E+03
         0.00000E+00
        -0.37300E+03
        -0.37300E+03
        -0.37300E+03
        -0.37300E+03
        -0.37300E+03
        -0.37300E+03
        -0.37300E+03
        -0.37300E+03
        -0.37300E+03
        -0.37300E+03
        -0.37300E+03
        -0.37300E+03
        -0.37300E+03
        -0.37300E+03
        -0.37300E+03
        -0.37300E+03
        -0.37300E+03
        -0.37300E+03
        -0.37300E+03
        -0.37300E+03
        -0.37300E+03
        -0.37300E+03
        -0.37300E+03
        -0.37300E+03
        -0.37300E+03
        -0.37300E+03
        -0.37300E+03
        -0.37300E+03
        -0.37300E+03
        -0.37300E+03
        -0.37300E+03
        -0.37300E+03
        -0.37300E+03
        -0.37300E+03
        -0.37300E+03
        -0.37300E+03
        -0.37300E+03
        -0.37300E+03
        -0.37300E+03
        -0.37300E+03
        -0.37300E+03
        -0.37300E+03
        -0.37300E+03
        -0.37300E+03
        -0.37300E+03
        -0.37300E+03
        -0.37300E+03
        -0.37300E+03
        -0.37300E+03
        -0.37300E+03
        -0.37300E+03
        -0.37300E+03
        -0.37300E+03
        -0.37300E+03
        -0.37300E+03
        -0.37300E+03
        -0.37300E+03
        -0.37300E+03
        -0.37300E+03
        -0.37300E+03
        -0.37300E+03
        -0.37300E+03
        -0.37300E+03
        -0.37300E+03
        -0.37300E+03
        -0.37300E+03
        -0.37300E+03
        -0.37300E+03
        -0.37300E+03
        -0.37300E+03
        -0.37300E+03
        -0.37300E+03
        -0.37300E+03
        -0.37300E+03
        -0.37300E+03
        -0.37300E+03
        -0.37300E+03
        -0.37300E+03
        -0.37300E+03
        -0.37300E+03
        -0.37300E+03
        -0.37300E+03
        -0.37300E+03
        -0.37300E+03
        -0.37300E+03
        -0.37300E+03
        -0.37300E+03
        -0.37300E+03
        -0.37300E+03
        -0.37300E+03
        -0.37300E+03
        -0.37300E+03
        -0.37300E+03
        -0.37300E+03
        -0.37300E+03
        -0.37300E+03
        -0.37300E+03
        -0.37300E+03
        -0.37300E+03
        -0.37300E+03
        -0.37300E+03
        -0.37300E+03
        -0.37300E+03
        -0.37300E+03
        -0.37300E+03
        -0.37300E+03
        -0.37300E+03
        -0.37300E+03
        -0.37300E+03
        -0.37300E+03
        -0.37300E+03
        -0.37300E+03
        -0.37300E+03
        -0.37300E+03
        -0.37300E+03
        -0.37300E+03
        -0.37300E+03
        -0.37300E+03
        -0.37300E+03
        -0.37300E+03
        -0.37300E+03
        -0.37300E+03
        -0.37300E+03
        -0.37300E+03
        -0.37300E+03
        -0.37300E+03
        -0.37300E+03
        -0.37300E+03
        -0.37300E+03
        -0.37300E+03
        -0.37300E+03
        -0.37300E+03
        -0.37300E+03
        -0.37300E+03
        -0.37300E+03
        -0.37300E+03
        -0.37300E+03
        -0.37300E+03
        -0.37300E+03
        -0.37300E+03
        -0.37300E+03
        -0.37300E+03
        -0.37300E+03
        -0.37300E+03
        -0.37300E+03
        -0.37300E+03
        -0.37300E+03
        -0.37300E+03
        -0.37300E+03
        -0.37300E+03
        -0.37300E+03
        -0.37300E+03
        -0.37300E+03
        -0.37300E+03
        -0.37300E+03
        -0.37300E+03
        -0.37300E+03
        -0.37300E+03
        -0.37300E+03
        -0.37300E+03
        -0.37300E+03
        -0.37300E+03
        -0.37300E+03
        -0.37300E+03
        -0.37300E+03
        -0.37300E+03
        -0.37300E+03
        -0.37300E+03
        -0.37300E+03
        -0.37300E+03
        -0.37300E+03
        -0.37300E+03
        -0.37300E+03
        -0.37300E+03
        -0.37300E+03
        -0.37300E+03
        -0.37300E+03
        -0.37300E+03
        -0.37300E+03
        -0.37300E+03
        -0.37300E+03
        -0.37300E+03
        -0.37300E+03
        -0.37300E+03
        -0.37300E+03
        -0.37300E+03
        -0.37300E+03
        -0.37300E+03
        -0.37300E+03
        -0.37300E+03
        -0.37300E+03
        -0.37300E+03
        -0.37300E+03
        -0.37300E+03
        -0.37300E+03
        -0.37300E+03
        -0.37300E+03
        -0.37300E+03
        -0.37300E+03
        -0.37300E+03
        -0.37300E+03
        -0.37300E+03
        -0.37300E+03
        -0.37300E+03
        -0.37300E+03
        -0.37300E+03
        -0.37300E+03
        -0.37300E+03
        -0.37300E+03
        -0.37300E+03
        -0.37300E+03
        -0.37300E+03
        -0.37300E+03
        -0.37300E+03
        -0.37300E+03
        -0.37300E+03
        -0.37300E+03
        -0.37300E+03
        -0.37300E+03
        -0.37300E+03
        -0.37300E+03
        -0.37300E+03
        -0.37300E+03
        -0.37300E+03
        -0.37300E+03
        -0.37300E+03
        -0.37300E+03
        -0.37300E+03
        -0.37300E+03
        -0.37300E+03
        -0.37300E+03
        -0.37300E+03
        -0.37300E+03
        -0.37300E+03
        -0.37300E+03
        -0.37300E+03
        -0.37300E+03
        -0.37300E+03
        -0.37300E+03
        -0.37300E+03
        -0.37300E+03
        -0.37300E+03
        -0.37300E+03
        -0.37300E+03
        -0.37300E+03
        -0.37300E+03
        -0.37300E+03
        -0.37300E+03
        -0.37300E+03
        -0.37300E+03
        -0.37300E+03
        -0.37300E+03
        -0.37300E+03
        -0.37300E+03
        -0.37300E+03
        -0.37300E+03
        -0.37300E+03
        -0.37300E+03
        -0.37300E+03
        -0.37300E+03
        -0.37300E+03
        -0.37300E+03
        -0.37300E+03
        -0.37300E+03
        -0.37300E+03
        -0.37300E+03
        -0.37300E+03
        -0.37300E+03
        -0.37300E+03
        -0.37300E+03
        -0.37300E+03
        -0.37300E+03
        -0.37300E+03
        -0.37300E+03
        -0.37300E+03
        -0.37300E+03
        -0.37300E+03
        -0.37300E+03
        -0.37300E+03
        -0.37300E+03
        -0.37300E+03
        -0.37300E+03
        -0.37300E+03
        -0.37300E+03
        -0.37300E+03
        -0.37300E+03
        -0.37300E+03
        -0.37300E+03
        -0.37300E+03
        -0.37300E+03
        -0.37300E+03
        -0.37300E+03
        -0.37300E+03
        -0.37300E+03
        -0.37300E+03
        -0.37300E+03
        -0.37300E+03
        -0.37300E+03
        -0.37300E+03
        -0.37300E+03
        -0.37300E+03
        -0.37300E+03
        -0.37300E+03
        -0.37300E+03
        -0.37300E+03
        -0.37300E+03
        -0.37300E+03
        -0.37300E+03
        -0.37300E+03
        -0.37300E+03
        -0.37300E+03
        -0.37300E+03
        -0.37300E+03
        -0.37300E+03
        -0.37300E+03
        -0.37300E+03
        -0.37300E+03
        -0.37300E+03
        -0.37300E+03
        -0.37300E+03
        -0.37300E+03
        -0.37300E+03
        -0.37300E+03
        -0.37300E+03
        -0.37300E+03
        -0.37300E+03
        -0.37300E+03
        -0.37300E+03
        -0.37300E+03
        -0.37300E+03
        -0.37300E+03
        -0.37300E+03
        -0.37300E+03
        -0.37300E+03
        -0.37300E+03
        -0.37300E+03
        -0.37300E+03
        -0.37300E+03
        -0.37300E+03
        -0.37300E+03
        -0.37300E+03
        -0.37300E+03
        -0.37300E+03
        -0.37300E+03
        -0.37300E+03
        -0.37300E+03
        -0.37300E+03
        -0.37300E+03
        -0.37300E+03
        -0.37300E+03
        -0.37300E+03
        -0.37300E+03
        -0.37300E+03
        -0.37300E+03
        -0.37300E+03
        -0.37300E+03
        -0.37300E+03
        -0.37300E+03
        -0.37300E+03
        -0.37300E+03
        -0.37300E+03
        -0.37300E+03
        -0.37300E+03
        -0.37300E+03
        -0.37300E+03
        -0.37300E+03
        -0.37300E+03
        -0.37300E+03
        -0.37300E+03
        -0.37300E+03
        -0.37300E+03
        -0.37300E+03
        -0.37300E+03
        -0.37300E+03
        -0.37300E+03
        -0.37300E+03
        -0.37300E+03
        -0.37300E+03
        -0.37300E+03
        -0.37300E+03
        -0.37300E+03
        -0.37300E+03
        -0.37300E+03
        -0.37300E+03
        -0.37300E+03
        -0.37300E+03
        -0.37300E+03
        -0.37300E+03
        -0.37300E+03
        -0.37300E+03
        -0.37300E+03
        -0.37300E+03
        -0.37300E+03
        -0.37300E+03
        -0.37300E+03
        -0.37300E+03
        -0.37300E+03
        -0.37300E+03
        -0.37300E+03
        -0.37300E+03
        -0.37300E+03
        -0.37300E+03
        -0.37300E+03
        -0.37300E+03
        -0.37300E+03
        -0.37300E+03
        -0.37300E+03
        -0.37300E+03
        -0.37300E+03
        -0.37300E+03
        -0.37300E+03
        -0.37300E+03
        -0.37300E+03
        -0.37300E+03
        -0.37300E+03
        -0.37300E+03
        -0.37300E+03
        -0.37300E+03
        -0.37300E+03
        -0.37300E+03
        -0.37300E+03
        -0.37300E+03
        -0.37300E+03
        -0.37300E+03
        -0.37300E+03
        -0.37300E+03
        -0.37300E+03
        -0.37300E+03
        -0.37300E+03
        -0.37300E+03
        -0.37300E+03
        -0.37300E+03
        -0.37300E+03
        -0.37300E+03
        -0.37300E+03
        -0.37300E+03
        -0.37300E+03
        -0.37300E+03
        -0.37300E+03
        -0.37300E+03
        -0.37300E+03
        -0.37300E+03
        -0.37300E+03
        -0.37300E+03
        -0.37300E+03
        -0.37300E+03
        -0.37300E+03
        -0.37300E+03
        -0.37300E+03
        -0.37300E+03
        -0.37300E+03
        -0.37300E+03
        -0.37300E+03
        -0.37300E+03
        -0.37300E+03
        -0.37300E+03
        -0.37300E+03
        -0.37300E+03
        -0.37300E+03
        -0.37300E+03
        -0.37300E+03
        -0.37300E+03
        -0.37300E+03
        -0.37300E+03
        -0.37300E+03
        -0.37300E+03
        -0.37300E+03
        -0.37300E+03
        -0.37300E+03
        -0.37300E+03
        -0.37300E+03
        -0.37300E+03
        -0.37300E+03
        -0.37300E+03
        -0.37300E+03
        -0.37300E+03
        -0.37300E+03
        -0.37300E+03
        -0.37300E+03
        -0.37300E+03
        -0.37300E+03
        -0.37300E+03
        -0.37300E+03
        -0.37300E+03
        -0.37300E+03
        -0.37300E+03
        -0.37300E+03
        -0.37300E+03
        -0.37300E+03
        -0.37300E+03
        -0.37300E+03
        -0.37300E+03
        -0.37300E+03
        -0.37300E+03
        -0.37300E+03
        -0.37300E+03
        -0.37300E+03
        -0.37300E+03
        -0.37300E+03
        -0.37300E+03
        -0.37300E+03
        -0.37300E+03
        -0.37300E+03
        -0.37300E+03
        -0.37300E+03
        -0.37300E+03
        -0.37300E+03
        -0.37300E+03
        -0.37300E+03
        -0.37300E+03
        -0.37300E+03
        -0.37300E+03
        -0.37300E+03
        -0.37300E+03
        -0.37300E+03
        -0.37300E+03
        -0.37300E+03
        -0.37300E+03
        -0.37300E+03
        -0.37300E+03
        -0.37300E+03
        -0.37300E+03
        -0.37300E+03
        -0.37300E+03
        -0.37300E+03
        -0.37300E+03
        -0.37300E+03
        -0.37300E+03
        -0.37300E+03
        -0.37300E+03
        -0.37300E+03
        -0.37300E+03
        -0.37300E+03
        -0.37300E+03
        -0.37300E+03
        -0.37300E+03
        -0.37300E+03
        -0.37300E+03
        -0.37300E+03
        -0.37300E+03
        -0.37300E+03
        -0.37300E+03
        -0.37300E+03
        -0.37300E+03
        -0.37300E+03
        -0.37300E+03
        -0.37300E+03
        -0.37300E+03
        -0.37300E+03
        -0.37300E+03
        -0.37300E+03
        -0.37300E+03
        -0.37300E+03
        -0.37300E+03
        -0.37300E+03
        -0.37300E+03
        -0.37300E+03
        -0.37300E+03
        -0.37300E+03
        -0.37300E+03
        -0.37300E+03
        -0.37300E+03
        -0.37300E+03
        -0.37300E+03
        -0.37300E+03
        -0.37300E+03
        -0.37300E+03
        -0.37300E+03
        -0.37300E+03
        -0.37300E+03
        -0.37300E+03
        -0.37300E+03
        -0.37300E+03
        -0.37300E+03
        -0.37300E+03
        -0.37300E+03
        -0.37300E+03
        -0.37300E+03
        -0.37300E+03
        -0.37300E+03
        -0.37300E+03
        -0.37300E+03
        -0.37300E+03
        -0.37300E+03
        -0.37300E+03
        -0.37300E+03
        -0.37300E+03
        -0.37300E+03
        -0.37300E+03
        -0.37300E+03
        -0.37300E+03
        -0.37300E+03
        -0.37300E+03
        -0.37300E+03
        -0.37300E+03
        -0.37300E+03
        -0.37300E+03
        -0.37300E+03
        -0.37300E+03
        -0.37300E+03
        -0.37300E+03
        -0.37300E+03
        -0.37300E+03
        -0.37300E+03
        -0.37300E+03
        -0.37300E+03
        -0.37300E+03
        -0.37300E+03
        -0.37300E+03
        -0.37300E+03
        -0.37300E+03
        -0.37300E+03
        -0.37300E+03
        -0.37300E+03
        -0.37300E+03
        -0.37300E+03
        -0.37300E+03
        -0.37300E+03
        -0.37300E+03
        -0.37300E+03
        -0.37300E+03
        -0.37300E+03
        -0.37300E+03
        -0.37300E+03
        -0.37300E+03
        -0.37300E+03
        -0.37300E+03
        -0.37300E+03
        -0.37300E+03
        -0.37300E+03
        -0.37300E+03
        -0.37300E+03
        -0.37300E+03
        -0.37300E+03
        -0.37300E+03
        -0.37300E+03
        -0.37300E+03
        -0.37300E+03
        -0.37300E+03
        -0.37300E+03
        -0.37300E+03
        -0.37300E+03
        -0.37300E+03
        -0.37300E+03
        -0.37300E+03
        -0.37300E+03
        -0.37300E+03
        -0.37300E+03
        -0.37300E+03
        -0.37300E+03
        -0.37300E+03
        -0.37300E+03
        -0.37300E+03
        -0.37300E+03
        -0.37300E+03
        -0.37300E+03
        -0.37300E+03
        -0.37300E+03
        -0.37300E+03
        -0.37300E+03
        -0.37300E+03
        -0.37300E+03
        -0.37300E+03
        -0.37300E+03
        -0.37300E+03
        -0.37300E+03
        -0.37300E+03
        -0.37300E+03
        -0.37300E+03
        -0.37300E+03
        -0.37300E+03
        -0.37300E+03
        -0.37300E+03
        -0.37300E+03
        -0.37300E+03
        -0.37300E+03
        -0.37300E+03
        -0.37300E+03
        -0.37300E+03
        -0.37300E+03
        -0.37300E+03
        -0.37300E+03
        -0.37300E+03
        -0.37300E+03
        -0.37300E+03
        -0.37300E+03
        -0.37300E+03
        -0.37300E+03
        -0.37300E+03
        -0.37300E+03
        -0.37300E+03
        -0.37300E+03
        -0.37300E+03
        -0.37300E+03
        -0.37300E+03
        -0.37300E+03
        -0.37300E+03
        -0.37300E+03
        -0.37300E+03
        -0.37300E+03
        -0.37300E+03
        -0.37300E+03
        -0.37300E+03
        -0.37300E+03
        -0.37300E+03
        -0.37300E+03
        -0.37300E+03
        -0.37300E+03
        -0.37300E+03
        -0.37300E+03
        -0.37300E+03
        -0.37300E+03
        -0.37300E+03
        -0.37300E+03
        -0.37300E+03
        -0.37300E+03
        -0.37300E+03
        -0.37300E+03
        -0.37300E+03
        -0.37300E+03
        -0.37300E+03
        -0.37300E+03
        -0.37300E+03
        -0.37300E+03
        -0.37300E+03
        -0.37300E+03
        -0.37300E+03
        -0.37300E+03
        -0.37300E+03
        -0.37300E+03
        -0.37300E+03
        -0.37300E+03
        -0.37300E+03
        -0.37300E+03
        -0.37300E+03
        -0.37300E+03
        -0.37300E+03
        -0.37300E+03
        -0.37300E+03
        -0.37300E+03
        -0.37300E+03
        -0.37300E+03
        -0.37300E+03
        -0.37300E+03
        -0.37300E+03
        -0.37300E+03
        -0.37300E+03
        -0.37300E+03
        -0.37300E+03
        -0.37300E+03
        -0.37300E+03
        -0.37300E+03
        -0.37300E+03
        -0.37300E+03
        -0.37300E+03
        -0.37300E+03
        -0.37300E+03
        -0.37300E+03
        -0.37300E+03
        -0.37300E+03
        -0.37300E+03
        -0.37300E+03
        -0.37300E+03
        -0.37300E+03
        -0.37300E+03
        -0.37300E+03
        -0.37300E+03
        -0.37300E+03
        -0.37300E+03
        -0.37300E+03
        -0.37300E+03
        -0.37300E+03
        -0.37300E+03
        -0.37300E+03
        -0.37300E+03
        -0.37300E+03
        -0.37300E+03
        -0.37300E+03
        -0.37300E+03
        -0.37300E+03
        -0.37300E+03
        -0.37300E+03
        -0.37300E+03
        -0.37300E+03
        -0.37300E+03
        -0.37300E+03
        -0.37300E+03
        -0.37300E+03
        -0.37300E+03
        -0.37300E+03
        -0.37300E+03
        -0.37300E+03
        -0.37300E+03
        -0.37300E+03
        -0.37300E+03
        -0.37300E+03
        -0.37300E+03
        -0.37300E+03
        -0.37300E+03
        -0.37300E+03
        -0.37300E+03
        -0.37300E+03
        -0.37300E+03
        -0.37300E+03
        -0.37300E+03
        -0.37300E+03
        -0.37300E+03
        -0.37300E+03
        -0.37300E+03
        -0.37300E+03
        -0.37300E+03
        -0.37300E+03
        -0.37300E+03
        -0.37300E+03
        -0.37300E+03
        -0.37300E+03
        -0.37300E+03
        -0.37300E+03
        -0.37300E+03
        -0.37300E+03
        -0.37300E+03
        -0.37300E+03
        -0.37300E+03
        -0.37300E+03
        -0.37300E+03
        -0.37300E+03
        -0.37300E+03
        -0.37300E+03
        -0.37300E+03
        -0.37300E+03
        -0.37300E+03
        -0.37300E+03
        -0.37300E+03
        -0.37300E+03
        -0.37300E+03
        -0.37300E+03
        -0.37300E+03
        -0.37300E+03
        -0.37300E+03
        -0.37300E+03
        -0.37300E+03
        -0.37300E+03
        -0.37300E+03
        -0.37300E+03
        -0.37300E+03
        -0.37300E+03
        -0.37300E+03
        -0.37300E+03
        -0.37300E+03
        -0.37300E+03
        -0.37300E+03
        -0.37300E+03
        -0.37300E+03
        -0.37300E+03
        -0.37300E+03
        -0.37300E+03
        -0.37300E+03
        -0.37300E+03
        -0.37300E+03
        -0.37300E+03
        -0.37300E+03
        -0.37300E+03
        -0.37300E+03
        -0.37300E+03
        -0.37300E+03
        -0.37300E+03
        -0.37300E+03
        -0.37300E+03
        -0.37300E+03
        -0.37300E+03
        -0.37300E+03
        -0.37300E+03
        -0.37300E+03
        -0.37300E+03
        -0.37300E+03
        -0.37300E+03
        -0.37300E+03
        -0.37300E+03
        -0.37300E+03
        -0.37300E+03
        -0.37300E+03
        -0.37300E+03
        -0.37300E+03
        -0.37300E+03
        -0.37300E+03
        -0.37300E+03
        -0.37300E+03
        -0.37300E+03
        -0.37300E+03
        -0.37300E+03
        -0.37300E+03
        -0.37300E+03
        -0.37300E+03
        -0.37300E+03
        -0.37300E+03
        -0.37300E+03
        -0.37300E+03
        -0.37300E+03
        -0.37300E+03
        -0.37300E+03
        -0.37300E+03
        -0.37300E+03
        -0.37300E+03
        -0.37300E+03
        -0.37300E+03
        -0.37300E+03
        -0.37300E+03
        -0.37300E+03
        -0.37300E+03
        -0.37300E+03
        -0.37300E+03
        -0.37300E+03
        -0.37300E+03
        -0.37300E+03
        -0.37300E+03
        -0.37300E+03
        -0.37300E+03
        -0.37300E+03
        -0.37300E+03
        -0.37300E+03
        -0.37300E+03
        -0.37300E+03
        -0.37300E+03
        -0.37300E+03
        -0.37300E+03
        -0.37300E+03
        -0.37300E+03
        -0.37300E+03
        -0.37300E+03
        -0.37300E+03
        -0.37300E+03
        -0.37300E+03
        -0.37300E+03
        -0.37300E+03
        -0.37300E+03
        -0.37300E+03
        -0.37300E+03
        -0.37300E+03
        -0.37300E+03
        -0.37300E+03
        -0.37300E+03
        -0.37300E+03
        -0.37300E+03
        -0.37300E+03
        -0.37300E+03
        -0.37300E+03
        -0.37300E+03
        -0.37300E+03
        -0.37300E+03
        -0.37300E+03
        -0.37300E+03
        -0.37300E+03
        -0.37300E+03
        -0.37300E+03
        -0.37300E+03
        -0.37300E+03
        -0.37300E+03
        -0.37300E+03
        -0.37300E+03
        -0.37300E+03
        -0.37300E+03
        -0.37300E+03
        -0.37300E+03
        -0.37300E+03
        -0.37300E+03
        -0.37300E+03
        -0.37300E+03
        -0.37300E+03
        -0.37300E+03
        -0.37300E+03
        -0.37300E+03
        -0.37300E+03
        -0.37300E+03
        -0.37300E+03
        -0.37300E+03
        -0.37300E+03
        -0.37300E+03
        -0.37300E+03
        -0.37300E+03
        -0.37300E+03
        -0.37300E+03
        -0.37300E+03
        -0.37300E+03
        -0.37300E+03
        -0.37300E+03
        -0.37300E+03
        -0.37300E+03
        -0.37300E+03
        -0.37300E+03
        -0.37300E+03
        -0.37300E+03
        -0.37300E+03
        -0.37300E+03
        -0.37300E+03
        -0.37300E+03
        -0.37300E+03
        -0.37300E+03
        -0.37300E+03
        -0.37300E+03
        -0.37300E+03
        -0.37300E+03
        -0.37300E+03
        -0.37300E+03
        -0.37300E+03
        -0.37300E+03
        -0.37300E+03
        -0.37300E+03
        -0.37300E+03
        -0.37300E+03
        -0.37300E+03
        -0.37300E+03
        -0.37300E+03
        -0.37300E+03
        -0.37300E+03
        -0.37300E+03
        -0.37300E+03
        -0.37300E+03
        -0.37300E+03
        -0.37300E+03
        -0.37300E+03
        -0.37300E+03
        -0.37300E+03
        -0.37300E+03
        -0.37300E+03
        -0.37300E+03
        -0.37300E+03
        -0.37300E+03
        -0.37300E+03
        -0.37300E+03
        -0.37300E+03
        -0.37300E+03
        -0.37300E+03
        -0.37300E+03
        -0.37300E+03
        -0.37300E+03
        -0.37300E+03
        -0.37300E+03
        -0.37300E+03
        -0.37300E+03
        -0.37300E+03
        -0.37300E+03
        -0.37300E+03
        -0.37300E+03
        -0.37300E+03
        -0.37300E+03
        -0.37300E+03
        -0.37300E+03
        -0.37300E+03
        -0.37300E+03
        -0.37300E+03
        -0.37300E+03
        -0.37300E+03
        -0.37300E+03
        -0.37300E+03
        -0.37300E+03
        -0.37300E+03
        -0.37300E+03
        -0.37300E+03
        -0.37300E+03
        -0.37300E+03
        -0.37300E+03
        -0.37300E+03
        -0.37300E+03
        -0.37300E+03
        -0.37300E+03
        -0.37300E+03
        -0.37300E+03
        -0.37300E+03
        -0.37300E+03
        -0.37300E+03
        -0.37300E+03
        -0.37300E+03
        -0.37300E+03
        -0.37300E+03
        -0.37300E+03
        -0.37300E+03
        -0.37300E+03
        -0.37300E+03
        -0.37300E+03
        -0.37300E+03
        -0.37300E+03
        -0.37300E+03
        -0.37300E+03
        -0.37300E+03
        -0.37300E+03
        -0.37300E+03
        -0.37300E+03
        -0.37300E+03
        -0.37300E+03
        -0.37300E+03
        -0.37300E+03
        -0.37300E+03
        -0.37300E+03
        -0.37300E+03
        -0.37300E+03
        -0.37300E+03
        -0.37300E+03
        -0.37300E+03
        -0.37300E+03
        -0.37300E+03
        -0.37300E+03
        -0.37300E+03
        -0.37300E+03
        -0.37300E+03
        -0.37300E+03
        -0.37300E+03
        -0.37300E+03
        -0.37300E+03
        -0.37300E+03
        -0.37300E+03
        -0.37300E+03
        -0.37300E+03
        -0.37300E+03
        -0.37300E+03
        -0.37300E+03
        -0.37300E+03
        -0.37300E+03
        -0.37300E+03
        -0.37300E+03
        -0.37300E+03
        -0.37300E+03
        -0.37300E+03
        -0.37300E+03
        -0.37300E+03
        -0.37300E+03
        -0.37300E+03
        -0.37300E+03
        -0.37300E+03
        -0.37300E+03
        -0.37300E+03
        -0.37300E+03
        -0.37300E+03
        -0.37300E+03
        -0.37300E+03
        -0.37300E+03
        -0.37300E+03
        -0.37300E+03
        -0.37300E+03
        -0.37300E+03
        -0.37300E+03
        -0.37300E+03
        -0.37300E+03
        -0.37300E+03
        -0.37300E+03
        -0.37300E+03
        -0.37300E+03
        -0.37300E+03
        -0.37300E+03
        -0.37300E+03
        -0.37300E+03
        -0.37300E+03
        -0.37300E+03
        -0.37300E+03
        -0.37300E+03
        -0.37300E+03
        -0.37300E+03
        -0.37300E+03
        -0.37300E+03
        -0.37300E+03
        -0.37300E+03
        -0.37300E+03
        -0.37300E+03
        -0.37300E+03
        -0.37300E+03
        -0.37300E+03
        -0.37300E+03
        -0.37300E+03
        -0.37300E+03
        -0.37300E+03
        -0.37300E+03
        -0.37300E+03
        -0.37300E+03
        -0.37300E+03
        -0.37300E+03
        -0.37300E+03
        -0.37300E+03
        -0.37300E+03
        -0.37300E+03
        -0.37300E+03
        -0.37300E+03
        -0.37300E+03
        -0.37300E+03
        -0.37300E+03
        -0.37300E+03
        -0.37300E+03
        -0.37300E+03
        -0.37300E+03
        -0.37300E+03
        -0.37300E+03
        -0.37300E+03
        -0.37300E+03
        -0.37300E+03
        -0.37300E+03
        -0.37300E+03
        -0.37300E+03
        -0.37300E+03
        -0.37300E+03
        -0.37300E+03
        -0.37300E+03
        -0.37300E+03
        -0.37300E+03
        -0.37300E+03
        -0.37300E+03
        -0.37300E+03
        -0.37300E+03
        -0.37300E+03
        -0.37300E+03
        -0.37300E+03
        -0.37300E+03
        -0.37300E+03
        -0.37300E+03
        -0.37300E+03
        -0.37300E+03
        -0.37300E+03
        -0.37300E+03
        -0.37300E+03
        -0.37300E+03
        -0.37300E+03
        -0.37300E+03
        -0.37300E+03
        -0.37300E+03
        -0.37300E+03
        -0.37300E+03
        -0.37300E+03
        -0.37300E+03
        -0.37300E+03
        -0.37300E+03
        -0.37300E+03
        -0.37300E+03
        -0.37300E+03
        -0.37300E+03
        -0.37300E+03
        -0.37300E+03
        -0.37300E+03
        -0.37300E+03
        -0.37300E+03
        -0.37300E+03
        -0.37300E+03
        -0.37300E+03
        -0.37300E+03
        -0.37300E+03
        -0.37300E+03
        -0.37300E+03
        -0.37300E+03
        -0.37300E+03
        -0.37300E+03
        -0.37300E+03
        -0.37300E+03
        -0.37300E+03
        -0.37300E+03
        -0.37300E+03
        -0.37300E+03
        -0.37300E+03
        -0.37300E+03
        -0.37300E+03
        -0.37300E+03
        -0.37300E+03
        -0.37300E+03
        -0.37300E+03
        -0.37300E+03
        -0.37300E+03
        -0.37300E+03
        -0.37300E+03
        -0.37300E+03
        -0.37300E+03
        -0.37300E+03
        -0.37300E+03
        -0.37300E+03
        -0.37300E+03
        -0.37300E+03
        -0.37300E+03
        -0.37300E+03
        -0.37300E+03
        -0.37300E+03
        -0.37300E+03
        -0.37300E+03
        -0.37300E+03
        -0.37300E+03
        -0.37300E+03
        -0.37300E+03
        -0.37300E+03
        -0.37300E+03
        -0.37300E+03
        -0.37300E+03
        -0.37300E+03
        -0.37300E+03
        -0.37300E+03
        -0.37300E+03
        -0.37300E+03
        -0.37300E+03
        -0.37300E+03
        -0.37300E+03
        -0.37300E+03
        -0.37300E+03
        -0.37300E+03
        -0.37300E+03
        -0.37300E+03
        -0.37300E+03
        -0.37300E+03
        -0.37300E+03
        -0.37300E+03
        -0.37300E+03
        -0.37300E+03
        -0.37300E+03
        -0.37300E+03
        -0.37300E+03
        -0.37300E+03
        -0.37300E+03
        -0.37300E+03
        -0.37300E+03
        -0.37300E+03
        -0.37300E+03
        -0.37300E+03
        -0.37300E+03
        -0.37300E+03
        -0.37300E+03
        -0.37300E+03
        -0.37300E+03
        -0.37300E+03
        -0.37300E+03
        -0.37300E+03
        -0.37300E+03
        -0.37300E+03
        -0.37300E+03
        -0.37300E+03
        -0.37300E+03
        -0.37300E+03
        -0.37300E+03
        -0.37300E+03
        -0.37300E+03
        -0.37300E+03
        -0.37300E+03
        -0.37300E+03
        -0.37300E+03
        -0.37300E+03
        -0.37300E+03
        -0.37300E+03
        -0.37300E+03
        -0.37300E+03
        -0.37300E+03
        -0.37300E+03
        -0.37300E+03
        -0.37300E+03
        -0.37300E+03
        -0.37300E+03
        -0.37300E+03
        -0.37300E+03
        -0.37300E+03
        -0.37300E+03
        -0.37300E+03
        -0.37300E+03
        -0.37300E+03
        -0.37300E+03
        -0.37300E+03
        -0.37300E+03
        -0.37300E+03
        -0.37300E+03
        -0.37300E+03
        -0.37300E+03
        -0.37300E+03
        -0.37300E+03
        -0.37300E+03
        -0.37300E+03
        -0.37300E+03
        -0.37300E+03
        -0.37300E+03
        -0.37300E+03
        -0.37300E+03
        -0.37300E+03
        -0.37300E+03
        -0.37300E+03
        -0.37300E+03
        -0.37300E+03
        -0.37300E+03
        -0.37300E+03
        -0.37300E+03
        -0.37300E+03
        -0.37300E+03
        -0.37300E+03
        -0.37300E+03
        -0.37300E+03
        -0.37300E+03
        -0.37300E+03
        -0.37300E+03
        -0.37300E+03
        -0.37300E+03
        -0.37300E+03
        -0.37300E+03
        -0.37300E+03
        -0.37300E+03
        -0.37300E+03
        -0.37300E+03
        -0.37300E+03
        -0.37300E+03
        -0.37300E+03
        -0.37300E+03
        -0.37300E+03
        -0.37300E+03
        -0.37300E+03
        -0.37300E+03
        -0.37300E+03
        -0.37300E+03
        -0.37300E+03
        -0.37300E+03
        -0.37300E+03
        -0.37300E+03
        -0.37300E+03
        -0.37300E+03
        -0.37300E+03
        -0.37300E+03
        -0.37300E+03
        -0.37300E+03
        -0.37300E+03
        -0.37300E+03
        -0.37300E+03
        -0.37300E+03
        -0.37300E+03
        -0.37300E+03
        -0.37300E+03
        -0.37300E+03
        -0.37300E+03
        -0.37300E+03
        -0.37300E+03
        -0.37300E+03
        -0.37300E+03
        -0.37300E+03
        -0.37300E+03
        -0.37300E+03
        -0.37300E+03
        -0.37300E+03
        -0.37300E+03
        -0.37300E+03
        -0.37300E+03
        -0.37300E+03
        -0.37300E+03
        -0.37300E+03
        -0.37300E+03
        -0.37300E+03
        -0.37300E+03
        -0.37300E+03
        -0.37300E+03
        -0.37300E+03
        -0.37300E+03
        -0.37300E+03
        -0.37300E+03
        -0.37300E+03
        -0.37300E+03
        -0.37300E+03
        -0.37300E+03
        -0.37300E+03
        -0.37300E+03
        -0.37300E+03
        -0.37300E+03
        -0.37300E+03
        -0.37300E+03
        -0.37300E+03
        -0.37300E+03
        -0.37300E+03
        -0.37300E+03
        -0.37300E+03
        -0.37300E+03
        -0.37300E+03
        -0.37300E+03
        -0.37300E+03
        -0.37300E+03
        -0.37300E+03
        -0.37300E+03
        -0.37300E+03
        -0.37300E+03
        -0.37300E+03
        -0.37300E+03
        -0.37300E+03
        -0.37300E+03
        -0.37300E+03
        -0.37300E+03
        -0.37300E+03
        -0.37300E+03
        -0.37300E+03
        -0.37300E+03
        -0.37300E+03
        -0.37300E+03
        -0.37300E+03
        -0.37300E+03
        -0.37300E+03
        -0.37300E+03
        -0.37300E+03
        -0.37300E+03
        -0.37300E+03
        -0.37300E+03
        -0.37300E+03
        -0.37300E+03
        -0.37300E+03
        -0.37300E+03
        -0.37300E+03
        -0.37300E+03
        -0.37300E+03
        -0.37300E+03
        -0.37300E+03
        -0.37300E+03
        -0.37300E+03
        -0.37300E+03
        -0.37300E+03
        -0.37300E+03
        -0.37300E+03
        -0.37300E+03
        -0.37300E+03
        -0.37300E+03
        -0.37300E+03
        -0.37300E+03
        -0.37300E+03
        -0.37300E+03
        -0.37300E+03
        -0.37300E+03
        -0.37300E+03
        -0.37300E+03
        -0.37300E+03
        -0.37300E+03
        -0.37300E+03
        -0.37300E+03
        -0.37300E+03
        -0.37300E+03
        -0.37300E+03
        -0.37300E+03
        -0.37300E+03
        -0.37300E+03
        -0.37300E+03
        -0.37300E+03
        -0.37300E+03
        -0.37300E+03
        -0.37300E+03
        -0.37300E+03
        -0.37300E+03
        -0.37300E+03
        -0.37300E+03
        -0.37300E+03
        -0.37300E+03
        -0.37300E+03
        -0.37300E+03
        -0.37300E+03
        -0.37300E+03
        -0.37300E+03
        -0.37300E+03
        -0.37300E+03
        -0.37300E+03
        -0.37300E+03
        -0.37300E+03
        -0.37300E+03
        -0.37300E+03
        -0.37300E+03
        -0.37300E+03
        -0.37300E+03
        -0.37300E+03
        -0.37300E+03
        -0.37300E+03
        -0.37300E+03
        -0.37300E+03
        -0.37300E+03
        -0.37300E+03
        -0.37300E+03
        -0.37300E+03
        -0.37300E+03
        -0.37300E+03
        -0.37300E+03
        -0.37300E+03
        -0.37300E+03
        -0.37300E+03
        -0.37300E+03
        -0.37300E+03
        -0.37300E+03
        -0.37300E+03
        -0.37300E+03
        -0.37300E+03
        -0.37300E+03
        -0.37300E+03
        -0.37300E+03
        -0.37300E+03
        -0.37300E+03
        -0.37300E+03
        -0.37300E+03
        -0.37300E+03
        -0.37300E+03
        -0.37300E+03
        -0.37300E+03
        -0.37300E+03
        -0.37300E+03
        -0.37300E+03
        -0.37300E+03
        -0.37300E+03
        -0.37300E+03
        -0.37300E+03
        -0.37300E+03
        -0.37300E+03
        -0.37300E+03
        -0.37300E+03
        -0.37300E+03
        -0.37300E+03
        -0.37300E+03
        -0.37300E+03
        -0.37300E+03
        -0.37300E+03
        -0.37300E+03
        -0.37300E+03
        -0.37300E+03
        -0.37300E+03
        -0.37300E+03
        -0.37300E+03
        -0.37300E+03
        -0.37300E+03
        -0.37300E+03
        -0.37300E+03
        -0.37300E+03
        -0.37300E+03
        -0.37300E+03
        -0.37300E+03
        -0.37300E+03
        -0.37300E+03
        -0.37300E+03
        -0.37300E+03
        -0.37300E+03
        -0.37300E+03
        -0.37300E+03
        -0.37300E+03
        -0.37300E+03
        -0.37300E+03
        -0.37300E+03
        -0.37300E+03
        -0.37300E+03
        -0.37300E+03
        -0.37300E+03
        -0.37300E+03
        -0.37300E+03
        -0.37300E+03
        -0.37300E+03
        -0.37300E+03
        -0.37300E+03
        -0.37300E+03
        -0.37300E+03
        -0.37300E+03
        -0.37300E+03
        -0.37300E+03
        -0.37300E+03
        -0.37300E+03
        -0.37300E+03
        -0.37300E+03
        -0.37300E+03
        -0.37300E+03
        -0.37300E+03
        -0.37300E+03
        -0.37300E+03
        -0.37300E+03
        -0.37300E+03
        -0.37300E+03
        -0.37300E+03
        -0.37300E+03
        -0.37300E+03
        -0.37300E+03
        -0.37300E+03
        -0.37300E+03
        -0.37300E+03
        -0.37300E+03
        -0.37300E+03
        -0.37300E+03
        -0.37300E+03
        -0.37300E+03
        -0.37300E+03
        -0.37300E+03
        -0.37300E+03
        -0.37300E+03
        -0.37300E+03
        -0.37300E+03
        -0.37300E+03
        -0.37300E+03
        -0.37300E+03
        -0.37300E+03
        -0.37300E+03
        -0.37300E+03
        -0.37300E+03
        -0.37300E+03
        -0.37300E+03
        -0.37300E+03
        -0.37300E+03
        -0.37300E+03
        -0.37300E+03
        -0.37300E+03
        -0.37300E+03
        -0.37300E+03
        -0.37300E+03
        -0.37300E+03
        -0.37300E+03
        -0.37300E+03
        -0.37300E+03
        -0.37300E+03
        -0.37300E+03
        -0.37300E+03
        -0.37300E+03
        -0.37300E+03
        -0.37300E+03
        -0.37300E+03
        -0.37300E+03
        -0.37300E+03
        -0.37300E+03
        -0.37300E+03
        -0.37300E+03
        -0.37300E+03
        -0.37300E+03
        -0.37300E+03
        -0.37300E+03
        -0.37300E+03
        -0.37300E+03
        -0.37300E+03
        -0.37300E+03
        -0.37300E+03
        -0.37300E+03
        -0.37300E+03
        -0.37300E+03
        -0.37300E+03
        -0.37300E+03
        -0.37300E+03
        -0.37300E+03
        -0.37300E+03
        -0.37300E+03
        -0.37300E+03
        -0.37300E+03
        -0.37300E+03
        -0.37300E+03
        -0.37300E+03
        -0.37300E+03
        -0.37300E+03
        -0.37300E+03
        -0.37300E+03
        -0.37300E+03
        -0.37300E+03
        -0.37300E+03
        -0.37300E+03
        -0.37300E+03
        -0.37300E+03
        -0.37300E+03
        -0.37300E+03
        -0.37300E+03
        -0.37300E+03
        -0.37300E+03
        -0.37300E+03
        -0.37300E+03
        -0.37300E+03
        -0.37300E+03
        -0.37300E+03
        -0.37300E+03
        -0.37300E+03
        -0.37300E+03
        -0.37300E+03
        -0.37300E+03
        -0.37300E+03
        -0.37300E+03
        -0.37300E+03
        -0.37300E+03
        -0.37300E+03
        -0.37300E+03
        -0.37300E+03
        -0.37300E+03
        -0.37300E+03
        -0.37300E+03
        -0.37300E+03
        -0.37300E+03
        -0.37300E+03
        -0.37300E+03
        -0.37300E+03
        -0.37300E+03
        -0.37300E+03
        -0.37300E+03
        -0.37300E+03
        -0.37300E+03
        -0.37300E+03
        -0.37300E+03
        -0.37300E+03
        -0.37300E+03
        -0.37300E+03
        -0.37300E+03
        -0.37300E+03
        -0.37300E+03
        -0.37300E+03
        -0.37300E+03
        -0.37300E+03
        -0.37300E+03
        -0.37300E+03
        -0.37300E+03
        -0.37300E+03
        -0.37300E+03
        -0.37300E+03
        -0.37300E+03
        -0.37300E+03
        -0.37300E+03
        -0.37300E+03
        -0.37300E+03
        -0.37300E+03
  
SCALARS                 acceleration_x  double 1
LOOKUP_TABLE default
         0.00000E+00
         0.00000E+00
         0.00000E+00
         0.00000E+00
         0.00000E+00
         0.00000E+00
         0.00000E+00
         0.00000E+00
         0.00000E+00
         0.00000E+00
         0.00000E+00
         0.00000E+00
         0.00000E+00
         0.00000E+00
         0.00000E+00
         0.00000E+00
         0.00000E+00
         0.00000E+00
         0.00000E+00
         0.00000E+00
         0.00000E+00
         0.00000E+00
         0.00000E+00
         0.00000E+00
         0.00000E+00
         0.00000E+00
         0.00000E+00
         0.00000E+00
         0.00000E+00
         0.00000E+00
         0.00000E+00
         0.00000E+00
         0.00000E+00
         0.00000E+00
         0.00000E+00
         0.00000E+00
         0.00000E+00
         0.00000E+00
         0.00000E+00
         0.00000E+00
         0.00000E+00
         0.00000E+00
         0.00000E+00
         0.00000E+00
         0.00000E+00
         0.00000E+00
         0.00000E+00
         0.00000E+00
         0.00000E+00
         0.00000E+00
         0.00000E+00
         0.00000E+00
         0.00000E+00
         0.00000E+00
         0.00000E+00
         0.00000E+00
         0.00000E+00
         0.00000E+00
         0.00000E+00
         0.00000E+00
         0.00000E+00
         0.00000E+00
         0.00000E+00
         0.00000E+00
         0.00000E+00
         0.00000E+00
         0.00000E+00
         0.00000E+00
         0.00000E+00
         0.00000E+00
         0.00000E+00
         0.00000E+00
         0.00000E+00
         0.00000E+00
         0.00000E+00
         0.00000E+00
         0.00000E+00
         0.00000E+00
         0.00000E+00
         0.00000E+00
         0.00000E+00
         0.00000E+00
         0.00000E+00
         0.00000E+00
         0.00000E+00
         0.00000E+00
         0.00000E+00
         0.00000E+00
         0.00000E+00
         0.00000E+00
         0.00000E+00
         0.00000E+00
         0.00000E+00
         0.00000E+00
         0.00000E+00
         0.00000E+00
         0.00000E+00
         0.00000E+00
         0.00000E+00
         0.00000E+00
         0.00000E+00
         0.00000E+00
         0.00000E+00
         0.00000E+00
         0.00000E+00
         0.00000E+00
         0.00000E+00
         0.00000E+00
         0.00000E+00
         0.00000E+00
         0.00000E+00
         0.00000E+00
         0.00000E+00
         0.00000E+00
         0.00000E+00
         0.00000E+00
         0.00000E+00
         0.00000E+00
         0.00000E+00
         0.00000E+00
         0.00000E+00
         0.00000E+00
         0.00000E+00
         0.00000E+00
         0.00000E+00
         0.00000E+00
         0.00000E+00
         0.00000E+00
         0.00000E+00
         0.00000E+00
         0.00000E+00
         0.00000E+00
         0.00000E+00
         0.00000E+00
         0.00000E+00
         0.00000E+00
         0.00000E+00
         0.00000E+00
         0.00000E+00
         0.00000E+00
         0.00000E+00
         0.00000E+00
         0.00000E+00
         0.00000E+00
         0.00000E+00
         0.00000E+00
         0.00000E+00
         0.00000E+00
         0.00000E+00
         0.00000E+00
         0.00000E+00
         0.00000E+00
         0.00000E+00
         0.00000E+00
         0.00000E+00
         0.00000E+00
         0.00000E+00
         0.00000E+00
         0.00000E+00
         0.00000E+00
         0.00000E+00
         0.00000E+00
         0.00000E+00
         0.00000E+00
         0.00000E+00
         0.00000E+00
         0.00000E+00
         0.00000E+00
         0.00000E+00
         0.00000E+00
         0.00000E+00
         0.00000E+00
         0.00000E+00
         0.00000E+00
         0.00000E+00
         0.00000E+00
         0.00000E+00
         0.00000E+00
         0.00000E+00
         0.00000E+00
         0.00000E+00
         0.00000E+00
         0.00000E+00
         0.00000E+00
         0.00000E+00
         0.00000E+00
         0.00000E+00
         0.00000E+00
         0.00000E+00
         0.00000E+00
         0.00000E+00
         0.00000E+00
         0.00000E+00
         0.00000E+00
         0.00000E+00
         0.00000E+00
         0.00000E+00
         0.00000E+00
         0.00000E+00
         0.00000E+00
         0.00000E+00
         0.00000E+00
         0.00000E+00
         0.00000E+00
         0.00000E+00
         0.00000E+00
         0.00000E+00
         0.00000E+00
         0.00000E+00
         0.00000E+00
         0.00000E+00
         0.00000E+00
         0.00000E+00
         0.00000E+00
         0.00000E+00
         0.00000E+00
         0.00000E+00
         0.00000E+00
         0.00000E+00
         0.00000E+00
         0.00000E+00
         0.00000E+00
         0.00000E+00
         0.00000E+00
         0.00000E+00
         0.00000E+00
         0.00000E+00
         0.00000E+00
         0.00000E+00
         0.00000E+00
         0.00000E+00
         0.00000E+00
         0.00000E+00
         0.00000E+00
         0.00000E+00
         0.00000E+00
         0.00000E+00
         0.00000E+00
         0.00000E+00
         0.00000E+00
         0.00000E+00
         0.00000E+00
         0.00000E+00
         0.00000E+00
         0.00000E+00
         0.00000E+00
         0.00000E+00
         0.00000E+00
         0.00000E+00
         0.00000E+00
         0.00000E+00
         0.00000E+00
         0.00000E+00
         0.00000E+00
         0.00000E+00
         0.00000E+00
         0.00000E+00
         0.00000E+00
         0.00000E+00
         0.00000E+00
         0.00000E+00
         0.00000E+00
         0.00000E+00
         0.00000E+00
         0.00000E+00
         0.00000E+00
         0.00000E+00
         0.00000E+00
         0.00000E+00
         0.00000E+00
         0.00000E+00
         0.00000E+00
         0.00000E+00
         0.00000E+00
         0.00000E+00
         0.00000E+00
         0.00000E+00
         0.00000E+00
         0.00000E+00
         0.00000E+00
         0.00000E+00
         0.00000E+00
         0.00000E+00
         0.00000E+00
         0.00000E+00
         0.00000E+00
         0.00000E+00
         0.00000E+00
         0.00000E+00
         0.00000E+00
         0.00000E+00
         0.00000E+00
         0.00000E+00
         0.00000E+00
         0.00000E+00
         0.00000E+00
         0.00000E+00
         0.00000E+00
         0.00000E+00
         0.00000E+00
         0.00000E+00
         0.00000E+00
         0.00000E+00
         0.00000E+00
         0.00000E+00
         0.00000E+00
         0.00000E+00
         0.00000E+00
         0.00000E+00
         0.00000E+00
         0.00000E+00
         0.00000E+00
         0.00000E+00
         0.00000E+00
         0.00000E+00
         0.00000E+00
         0.00000E+00
         0.00000E+00
         0.00000E+00
         0.00000E+00
         0.00000E+00
         0.00000E+00
         0.00000E+00
         0.00000E+00
         0.00000E+00
         0.00000E+00
         0.00000E+00
         0.00000E+00
         0.00000E+00
         0.00000E+00
         0.00000E+00
         0.00000E+00
         0.00000E+00
         0.00000E+00
         0.00000E+00
         0.00000E+00
         0.00000E+00
         0.00000E+00
         0.00000E+00
         0.00000E+00
         0.00000E+00
         0.00000E+00
         0.00000E+00
         0.00000E+00
         0.00000E+00
         0.00000E+00
         0.00000E+00
         0.00000E+00
         0.00000E+00
         0.00000E+00
         0.00000E+00
         0.00000E+00
         0.00000E+00
         0.00000E+00
         0.00000E+00
         0.00000E+00
         0.00000E+00
         0.00000E+00
         0.00000E+00
         0.00000E+00
         0.00000E+00
         0.00000E+00
         0.00000E+00
         0.00000E+00
         0.00000E+00
         0.00000E+00
         0.00000E+00
         0.00000E+00
         0.00000E+00
         0.00000E+00
         0.00000E+00
         0.00000E+00
         0.00000E+00
         0.00000E+00
         0.00000E+00
         0.00000E+00
         0.00000E+00
         0.00000E+00
         0.00000E+00
         0.00000E+00
         0.00000E+00
         0.00000E+00
         0.00000E+00
         0.00000E+00
         0.00000E+00
         0.00000E+00
         0.00000E+00
         0.00000E+00
         0.00000E+00
         0.00000E+00
         0.00000E+00
         0.00000E+00
         0.00000E+00
         0.00000E+00
         0.00000E+00
         0.00000E+00
         0.00000E+00
         0.00000E+00
         0.00000E+00
         0.00000E+00
         0.00000E+00
         0.00000E+00
         0.00000E+00
         0.00000E+00
         0.00000E+00
         0.00000E+00
         0.00000E+00
         0.00000E+00
         0.00000E+00
         0.00000E+00
         0.00000E+00
         0.00000E+00
         0.00000E+00
         0.00000E+00
         0.00000E+00
         0.00000E+00
         0.00000E+00
         0.00000E+00
         0.00000E+00
         0.00000E+00
         0.00000E+00
         0.00000E+00
         0.00000E+00
         0.00000E+00
         0.00000E+00
         0.00000E+00
         0.00000E+00
         0.00000E+00
         0.00000E+00
         0.00000E+00
         0.00000E+00
         0.00000E+00
         0.00000E+00
         0.00000E+00
         0.00000E+00
         0.00000E+00
         0.00000E+00
         0.00000E+00
         0.00000E+00
         0.00000E+00
         0.00000E+00
         0.00000E+00
         0.00000E+00
         0.00000E+00
         0.00000E+00
         0.00000E+00
         0.00000E+00
         0.00000E+00
         0.00000E+00
         0.00000E+00
         0.00000E+00
         0.00000E+00
         0.00000E+00
         0.00000E+00
         0.00000E+00
         0.00000E+00
         0.00000E+00
         0.00000E+00
         0.00000E+00
         0.00000E+00
         0.00000E+00
         0.00000E+00
         0.00000E+00
         0.00000E+00
         0.00000E+00
         0.00000E+00
         0.00000E+00
         0.00000E+00
         0.00000E+00
         0.00000E+00
         0.00000E+00
         0.00000E+00
         0.00000E+00
         0.00000E+00
         0.00000E+00
         0.00000E+00
         0.00000E+00
         0.00000E+00
         0.00000E+00
         0.00000E+00
         0.00000E+00
         0.00000E+00
         0.00000E+00
         0.00000E+00
         0.00000E+00
         0.00000E+00
         0.00000E+00
         0.00000E+00
         0.00000E+00
         0.00000E+00
         0.00000E+00
         0.00000E+00
         0.00000E+00
         0.00000E+00
         0.00000E+00
         0.00000E+00
         0.00000E+00
         0.00000E+00
         0.00000E+00
         0.00000E+00
         0.00000E+00
         0.00000E+00
         0.00000E+00
         0.00000E+00
         0.00000E+00
         0.00000E+00
         0.00000E+00
         0.00000E+00
         0.00000E+00
         0.00000E+00
         0.00000E+00
         0.00000E+00
         0.00000E+00
         0.00000E+00
         0.00000E+00
         0.00000E+00
         0.00000E+00
         0.00000E+00
         0.00000E+00
         0.00000E+00
         0.00000E+00
         0.00000E+00
         0.00000E+00
         0.00000E+00
         0.00000E+00
         0.00000E+00
         0.00000E+00
         0.00000E+00
         0.00000E+00
         0.00000E+00
         0.00000E+00
         0.00000E+00
         0.00000E+00
         0.00000E+00
         0.00000E+00
         0.00000E+00
         0.00000E+00
         0.00000E+00
         0.00000E+00
         0.00000E+00
         0.00000E+00
         0.00000E+00
         0.00000E+00
         0.00000E+00
         0.00000E+00
         0.00000E+00
         0.00000E+00
         0.00000E+00
         0.00000E+00
         0.00000E+00
         0.00000E+00
         0.00000E+00
         0.00000E+00
         0.00000E+00
         0.00000E+00
         0.00000E+00
         0.00000E+00
         0.00000E+00
         0.00000E+00
         0.00000E+00
         0.00000E+00
         0.00000E+00
         0.00000E+00
         0.00000E+00
         0.00000E+00
         0.00000E+00
         0.00000E+00
         0.00000E+00
         0.00000E+00
         0.00000E+00
         0.00000E+00
         0.00000E+00
         0.00000E+00
         0.00000E+00
         0.00000E+00
         0.00000E+00
         0.00000E+00
         0.00000E+00
         0.00000E+00
         0.00000E+00
         0.00000E+00
         0.00000E+00
         0.00000E+00
         0.00000E+00
         0.00000E+00
         0.00000E+00
         0.00000E+00
         0.00000E+00
         0.00000E+00
         0.00000E+00
         0.00000E+00
         0.00000E+00
         0.00000E+00
         0.00000E+00
         0.00000E+00
         0.00000E+00
         0.00000E+00
         0.00000E+00
         0.00000E+00
         0.00000E+00
         0.00000E+00
         0.00000E+00
         0.00000E+00
         0.00000E+00
         0.00000E+00
         0.00000E+00
         0.00000E+00
         0.00000E+00
         0.00000E+00
         0.00000E+00
         0.00000E+00
         0.00000E+00
         0.00000E+00
         0.00000E+00
         0.00000E+00
         0.00000E+00
         0.00000E+00
         0.00000E+00
         0.00000E+00
         0.00000E+00
         0.00000E+00
         0.00000E+00
         0.00000E+00
         0.00000E+00
         0.00000E+00
         0.00000E+00
         0.00000E+00
         0.00000E+00
         0.00000E+00
         0.00000E+00
         0.00000E+00
         0.00000E+00
         0.00000E+00
         0.00000E+00
         0.00000E+00
         0.00000E+00
         0.00000E+00
         0.00000E+00
         0.00000E+00
         0.00000E+00
         0.00000E+00
         0.00000E+00
         0.00000E+00
         0.00000E+00
         0.00000E+00
         0.00000E+00
         0.00000E+00
         0.00000E+00
         0.00000E+00
         0.00000E+00
         0.00000E+00
         0.00000E+00
         0.00000E+00
         0.00000E+00
         0.00000E+00
         0.00000E+00
         0.00000E+00
         0.00000E+00
         0.00000E+00
         0.00000E+00
         0.00000E+00
         0.00000E+00
         0.00000E+00
         0.00000E+00
         0.00000E+00
         0.00000E+00
         0.00000E+00
         0.00000E+00
         0.00000E+00
         0.00000E+00
         0.00000E+00
         0.00000E+00
         0.00000E+00
         0.00000E+00
         0.00000E+00
         0.00000E+00
         0.00000E+00
         0.00000E+00
         0.00000E+00
         0.00000E+00
         0.00000E+00
         0.00000E+00
         0.00000E+00
         0.00000E+00
         0.00000E+00
         0.00000E+00
         0.00000E+00
         0.00000E+00
         0.00000E+00
         0.00000E+00
         0.00000E+00
         0.00000E+00
         0.00000E+00
         0.00000E+00
         0.00000E+00
         0.00000E+00
         0.00000E+00
         0.00000E+00
         0.00000E+00
         0.00000E+00
         0.00000E+00
         0.00000E+00
         0.00000E+00
         0.00000E+00
         0.00000E+00
         0.00000E+00
         0.00000E+00
         0.00000E+00
         0.00000E+00
         0.00000E+00
         0.00000E+00
         0.00000E+00
         0.00000E+00
         0.00000E+00
         0.00000E+00
         0.00000E+00
         0.00000E+00
         0.00000E+00
         0.00000E+00
         0.00000E+00
         0.00000E+00
         0.00000E+00
         0.00000E+00
         0.00000E+00
         0.00000E+00
         0.00000E+00
         0.00000E+00
         0.00000E+00
         0.00000E+00
         0.00000E+00
         0.00000E+00
         0.00000E+00
         0.00000E+00
         0.00000E+00
         0.00000E+00
         0.00000E+00
         0.00000E+00
         0.00000E+00
         0.00000E+00
         0.00000E+00
         0.00000E+00
         0.00000E+00
         0.00000E+00
         0.00000E+00
         0.00000E+00
         0.00000E+00
         0.00000E+00
         0.00000E+00
         0.00000E+00
         0.00000E+00
         0.00000E+00
         0.00000E+00
         0.00000E+00
         0.00000E+00
         0.00000E+00
         0.00000E+00
         0.00000E+00
         0.00000E+00
         0.00000E+00
         0.00000E+00
         0.00000E+00
         0.00000E+00
         0.00000E+00
         0.00000E+00
         0.00000E+00
         0.00000E+00
         0.00000E+00
         0.00000E+00
         0.00000E+00
         0.00000E+00
         0.00000E+00
         0.00000E+00
         0.00000E+00
         0.00000E+00
         0.00000E+00
         0.00000E+00
         0.00000E+00
         0.00000E+00
         0.00000E+00
         0.00000E+00
         0.00000E+00
         0.00000E+00
         0.00000E+00
         0.00000E+00
         0.00000E+00
         0.00000E+00
         0.00000E+00
         0.00000E+00
         0.00000E+00
         0.00000E+00
         0.00000E+00
         0.00000E+00
         0.00000E+00
         0.00000E+00
         0.00000E+00
         0.00000E+00
         0.00000E+00
         0.00000E+00
         0.00000E+00
         0.00000E+00
         0.00000E+00
         0.00000E+00
         0.00000E+00
         0.00000E+00
         0.00000E+00
         0.00000E+00
         0.00000E+00
         0.00000E+00
         0.00000E+00
         0.00000E+00
         0.00000E+00
         0.00000E+00
         0.00000E+00
         0.00000E+00
         0.00000E+00
         0.00000E+00
         0.00000E+00
         0.00000E+00
         0.00000E+00
         0.00000E+00
         0.00000E+00
         0.00000E+00
         0.00000E+00
         0.00000E+00
         0.00000E+00
         0.00000E+00
         0.00000E+00
         0.00000E+00
         0.00000E+00
         0.00000E+00
         0.00000E+00
         0.00000E+00
         0.00000E+00
         0.00000E+00
         0.00000E+00
         0.00000E+00
         0.00000E+00
         0.00000E+00
         0.00000E+00
         0.00000E+00
         0.00000E+00
         0.00000E+00
         0.00000E+00
         0.00000E+00
         0.00000E+00
         0.00000E+00
         0.00000E+00
         0.00000E+00
         0.00000E+00
         0.00000E+00
         0.00000E+00
         0.00000E+00
         0.00000E+00
         0.00000E+00
         0.00000E+00
         0.00000E+00
         0.00000E+00
         0.00000E+00
         0.00000E+00
         0.00000E+00
         0.00000E+00
         0.00000E+00
         0.00000E+00
         0.00000E+00
         0.00000E+00
         0.00000E+00
         0.00000E+00
         0.00000E+00
         0.00000E+00
         0.00000E+00
         0.00000E+00
         0.00000E+00
         0.00000E+00
         0.00000E+00
         0.00000E+00
         0.00000E+00
         0.00000E+00
         0.00000E+00
         0.00000E+00
         0.00000E+00
         0.00000E+00
         0.00000E+00
         0.00000E+00
         0.00000E+00
         0.00000E+00
         0.00000E+00
         0.00000E+00
         0.00000E+00
         0.00000E+00
         0.00000E+00
         0.00000E+00
         0.00000E+00
         0.00000E+00
         0.00000E+00
         0.00000E+00
         0.00000E+00
         0.00000E+00
         0.00000E+00
         0.00000E+00
         0.00000E+00
         0.00000E+00
         0.00000E+00
         0.00000E+00
         0.00000E+00
         0.00000E+00
         0.00000E+00
         0.00000E+00
         0.00000E+00
         0.00000E+00
         0.00000E+00
         0.00000E+00
         0.00000E+00
         0.00000E+00
         0.00000E+00
         0.00000E+00
         0.00000E+00
         0.00000E+00
         0.00000E+00
         0.00000E+00
         0.00000E+00
         0.00000E+00
         0.00000E+00
         0.00000E+00
         0.00000E+00
         0.00000E+00
         0.00000E+00
         0.00000E+00
         0.00000E+00
         0.00000E+00
         0.00000E+00
         0.00000E+00
         0.00000E+00
         0.00000E+00
         0.00000E+00
         0.00000E+00
         0.00000E+00
         0.00000E+00
         0.00000E+00
         0.00000E+00
         0.00000E+00
         0.00000E+00
         0.00000E+00
         0.00000E+00
         0.00000E+00
         0.00000E+00
         0.00000E+00
         0.00000E+00
         0.00000E+00
         0.00000E+00
         0.00000E+00
         0.00000E+00
         0.00000E+00
         0.00000E+00
         0.00000E+00
         0.00000E+00
         0.00000E+00
         0.00000E+00
         0.00000E+00
         0.00000E+00
         0.00000E+00
         0.00000E+00
         0.00000E+00
         0.00000E+00
         0.00000E+00
         0.00000E+00
         0.00000E+00
         0.00000E+00
         0.00000E+00
         0.00000E+00
         0.00000E+00
         0.00000E+00
         0.00000E+00
         0.00000E+00
         0.00000E+00
         0.00000E+00
         0.00000E+00
         0.00000E+00
         0.00000E+00
         0.00000E+00
         0.00000E+00
         0.00000E+00
         0.00000E+00
         0.00000E+00
         0.00000E+00
         0.00000E+00
         0.00000E+00
         0.00000E+00
         0.00000E+00
         0.00000E+00
         0.00000E+00
         0.00000E+00
         0.00000E+00
         0.00000E+00
         0.00000E+00
         0.00000E+00
         0.00000E+00
         0.00000E+00
         0.00000E+00
         0.00000E+00
         0.00000E+00
         0.00000E+00
         0.00000E+00
         0.00000E+00
         0.00000E+00
         0.00000E+00
         0.00000E+00
         0.00000E+00
         0.00000E+00
         0.00000E+00
         0.00000E+00
         0.00000E+00
         0.00000E+00
         0.00000E+00
         0.00000E+00
         0.00000E+00
         0.00000E+00
         0.00000E+00
         0.00000E+00
         0.00000E+00
         0.00000E+00
         0.00000E+00
         0.00000E+00
         0.00000E+00
         0.00000E+00
         0.00000E+00
         0.00000E+00
         0.00000E+00
         0.00000E+00
         0.00000E+00
         0.00000E+00
         0.00000E+00
         0.00000E+00
         0.00000E+00
         0.00000E+00
         0.00000E+00
         0.00000E+00
         0.00000E+00
         0.00000E+00
         0.00000E+00
         0.00000E+00
         0.00000E+00
         0.00000E+00
         0.00000E+00
         0.00000E+00
         0.00000E+00
         0.00000E+00
         0.00000E+00
         0.00000E+00
         0.00000E+00
         0.00000E+00
         0.00000E+00
         0.00000E+00
         0.00000E+00
         0.00000E+00
         0.00000E+00
         0.00000E+00
         0.00000E+00
         0.00000E+00
         0.00000E+00
         0.00000E+00
         0.00000E+00
         0.00000E+00
         0.00000E+00
         0.00000E+00
         0.00000E+00
         0.00000E+00
         0.00000E+00
         0.00000E+00
         0.00000E+00
         0.00000E+00
         0.00000E+00
         0.00000E+00
         0.00000E+00
         0.00000E+00
         0.00000E+00
         0.00000E+00
         0.00000E+00
         0.00000E+00
         0.00000E+00
         0.00000E+00
         0.00000E+00
         0.00000E+00
         0.00000E+00
         0.00000E+00
         0.00000E+00
         0.00000E+00
         0.00000E+00
         0.00000E+00
         0.00000E+00
         0.00000E+00
         0.00000E+00
         0.00000E+00
         0.00000E+00
         0.00000E+00
         0.00000E+00
         0.00000E+00
         0.00000E+00
         0.00000E+00
         0.00000E+00
         0.00000E+00
         0.00000E+00
         0.00000E+00
         0.00000E+00
         0.00000E+00
         0.00000E+00
         0.00000E+00
         0.00000E+00
         0.00000E+00
         0.00000E+00
         0.00000E+00
         0.00000E+00
         0.00000E+00
         0.00000E+00
         0.00000E+00
         0.00000E+00
         0.00000E+00
         0.00000E+00
         0.00000E+00
         0.00000E+00
         0.00000E+00
         0.00000E+00
         0.00000E+00
         0.00000E+00
         0.00000E+00
         0.00000E+00
         0.00000E+00
         0.00000E+00
         0.00000E+00
         0.00000E+00
         0.00000E+00
         0.00000E+00
         0.00000E+00
         0.00000E+00
         0.00000E+00
         0.00000E+00
         0.00000E+00
         0.00000E+00
         0.00000E+00
         0.00000E+00
         0.00000E+00
         0.00000E+00
         0.00000E+00
         0.00000E+00
         0.00000E+00
         0.00000E+00
         0.00000E+00
         0.00000E+00
         0.00000E+00
         0.00000E+00
         0.00000E+00
         0.00000E+00
         0.00000E+00
         0.00000E+00
         0.00000E+00
         0.00000E+00
         0.00000E+00
         0.00000E+00
         0.00000E+00
         0.00000E+00
         0.00000E+00
         0.00000E+00
         0.00000E+00
         0.00000E+00
         0.00000E+00
         0.00000E+00
         0.00000E+00
         0.00000E+00
         0.00000E+00
         0.00000E+00
         0.00000E+00
         0.00000E+00
         0.00000E+00
         0.00000E+00
         0.00000E+00
         0.00000E+00
         0.00000E+00
         0.00000E+00
         0.00000E+00
         0.00000E+00
         0.00000E+00
         0.00000E+00
         0.00000E+00
         0.00000E+00
         0.00000E+00
         0.00000E+00
         0.00000E+00
         0.00000E+00
         0.00000E+00
         0.00000E+00
         0.00000E+00
         0.00000E+00
         0.00000E+00
         0.00000E+00
         0.00000E+00
         0.00000E+00
         0.00000E+00
         0.00000E+00
         0.00000E+00
         0.00000E+00
         0.00000E+00
         0.00000E+00
         0.00000E+00
         0.00000E+00
         0.00000E+00
         0.00000E+00
         0.00000E+00
         0.00000E+00
         0.00000E+00
         0.00000E+00
         0.00000E+00
         0.00000E+00
         0.00000E+00
         0.00000E+00
         0.00000E+00
         0.00000E+00
         0.00000E+00
         0.00000E+00
         0.00000E+00
         0.00000E+00
         0.00000E+00
         0.00000E+00
         0.00000E+00
         0.00000E+00
         0.00000E+00
         0.00000E+00
         0.00000E+00
         0.00000E+00
         0.00000E+00
         0.00000E+00
         0.00000E+00
         0.00000E+00
         0.00000E+00
         0.00000E+00
         0.00000E+00
         0.00000E+00
         0.00000E+00
         0.00000E+00
         0.00000E+00
         0.00000E+00
         0.00000E+00
         0.00000E+00
         0.00000E+00
         0.00000E+00
         0.00000E+00
         0.00000E+00
         0.00000E+00
         0.00000E+00
         0.00000E+00
         0.00000E+00
         0.00000E+00
         0.00000E+00
         0.00000E+00
         0.00000E+00
         0.00000E+00
         0.00000E+00
         0.00000E+00
         0.00000E+00
         0.00000E+00
         0.00000E+00
         0.00000E+00
         0.00000E+00
         0.00000E+00
         0.00000E+00
         0.00000E+00
         0.00000E+00
         0.00000E+00
         0.00000E+00
         0.00000E+00
         0.00000E+00
         0.00000E+00
         0.00000E+00
         0.00000E+00
         0.00000E+00
         0.00000E+00
         0.00000E+00
         0.00000E+00
         0.00000E+00
         0.00000E+00
         0.00000E+00
         0.00000E+00
         0.00000E+00
         0.00000E+00
         0.00000E+00
         0.00000E+00
         0.00000E+00
         0.00000E+00
         0.00000E+00
         0.00000E+00
         0.00000E+00
         0.00000E+00
         0.00000E+00
         0.00000E+00
         0.00000E+00
         0.00000E+00
         0.00000E+00
         0.00000E+00
         0.00000E+00
         0.00000E+00
         0.00000E+00
         0.00000E+00
         0.00000E+00
         0.00000E+00
         0.00000E+00
         0.00000E+00
         0.00000E+00
         0.00000E+00
         0.00000E+00
         0.00000E+00
         0.00000E+00
         0.00000E+00
         0.00000E+00
         0.00000E+00
         0.00000E+00
         0.00000E+00
         0.00000E+00
         0.00000E+00
         0.00000E+00
         0.00000E+00
         0.00000E+00
         0.00000E+00
         0.00000E+00
         0.00000E+00
         0.00000E+00
         0.00000E+00
         0.00000E+00
         0.00000E+00
         0.00000E+00
         0.00000E+00
         0.00000E+00
         0.00000E+00
         0.00000E+00
         0.00000E+00
         0.00000E+00
         0.00000E+00
         0.00000E+00
         0.00000E+00
         0.00000E+00
         0.00000E+00
         0.00000E+00
         0.00000E+00
         0.00000E+00
         0.00000E+00
         0.00000E+00
         0.00000E+00
         0.00000E+00
         0.00000E+00
         0.00000E+00
         0.00000E+00
         0.00000E+00
         0.00000E+00
         0.00000E+00
         0.00000E+00
         0.00000E+00
         0.00000E+00
         0.00000E+00
         0.00000E+00
         0.00000E+00
         0.00000E+00
         0.00000E+00
         0.00000E+00
         0.00000E+00
         0.00000E+00
         0.00000E+00
         0.00000E+00
         0.00000E+00
         0.00000E+00
         0.00000E+00
         0.00000E+00
         0.00000E+00
         0.00000E+00
         0.00000E+00
         0.00000E+00
         0.00000E+00
         0.00000E+00
         0.00000E+00
         0.00000E+00
         0.00000E+00
         0.00000E+00
         0.00000E+00
         0.00000E+00
         0.00000E+00
         0.00000E+00
         0.00000E+00
         0.00000E+00
         0.00000E+00
         0.00000E+00
         0.00000E+00
         0.00000E+00
         0.00000E+00
         0.00000E+00
         0.00000E+00
         0.00000E+00
         0.00000E+00
         0.00000E+00
         0.00000E+00
         0.00000E+00
         0.00000E+00
         0.00000E+00
         0.00000E+00
         0.00000E+00
         0.00000E+00
         0.00000E+00
         0.00000E+00
         0.00000E+00
         0.00000E+00
         0.00000E+00
         0.00000E+00
         0.00000E+00
         0.00000E+00
         0.00000E+00
         0.00000E+00
         0.00000E+00
         0.00000E+00
         0.00000E+00
         0.00000E+00
         0.00000E+00
         0.00000E+00
         0.00000E+00
         0.00000E+00
         0.00000E+00
         0.00000E+00
         0.00000E+00
         0.00000E+00
         0.00000E+00
         0.00000E+00
         0.00000E+00
         0.00000E+00
         0.00000E+00
         0.00000E+00
         0.00000E+00
         0.00000E+00
         0.00000E+00
         0.00000E+00
         0.00000E+00
         0.00000E+00
         0.00000E+00
         0.00000E+00
         0.00000E+00
         0.00000E+00
         0.00000E+00
         0.00000E+00
         0.00000E+00
         0.00000E+00
         0.00000E+00
         0.00000E+00
         0.00000E+00
         0.00000E+00
         0.00000E+00
         0.00000E+00
         0.00000E+00
         0.00000E+00
         0.00000E+00
         0.00000E+00
         0.00000E+00
         0.00000E+00
         0.00000E+00
         0.00000E+00
         0.00000E+00
         0.00000E+00
         0.00000E+00
         0.00000E+00
         0.00000E+00
         0.00000E+00
         0.00000E+00
         0.00000E+00
         0.00000E+00
         0.00000E+00
         0.00000E+00
         0.00000E+00
         0.00000E+00
         0.00000E+00
         0.00000E+00
         0.00000E+00
         0.00000E+00
         0.00000E+00
         0.00000E+00
         0.00000E+00
         0.00000E+00
         0.00000E+00
         0.00000E+00
         0.00000E+00
         0.00000E+00
         0.00000E+00
         0.00000E+00
         0.00000E+00
         0.00000E+00
         0.00000E+00
         0.00000E+00
         0.00000E+00
         0.00000E+00
         0.00000E+00
         0.00000E+00
         0.00000E+00
         0.00000E+00
         0.00000E+00
         0.00000E+00
         0.00000E+00
         0.00000E+00
         0.00000E+00
         0.00000E+00
         0.00000E+00
         0.00000E+00
         0.00000E+00
         0.00000E+00
         0.00000E+00
         0.00000E+00
         0.00000E+00
         0.00000E+00
         0.00000E+00
         0.00000E+00
         0.00000E+00
         0.00000E+00
         0.00000E+00
         0.00000E+00
         0.00000E+00
         0.00000E+00
         0.00000E+00
         0.00000E+00
         0.00000E+00
         0.00000E+00
         0.00000E+00
         0.00000E+00
         0.00000E+00
         0.00000E+00
         0.00000E+00
         0.00000E+00
         0.00000E+00
         0.00000E+00
         0.00000E+00
         0.00000E+00
         0.00000E+00
         0.00000E+00
         0.00000E+00
         0.00000E+00
         0.00000E+00
         0.00000E+00
         0.00000E+00
         0.00000E+00
         0.00000E+00
         0.00000E+00
         0.00000E+00
         0.00000E+00
         0.00000E+00
         0.00000E+00
         0.00000E+00
         0.00000E+00
         0.00000E+00
         0.00000E+00
         0.00000E+00
         0.00000E+00
         0.00000E+00
         0.00000E+00
         0.00000E+00
         0.00000E+00
         0.00000E+00
         0.00000E+00
         0.00000E+00
         0.00000E+00
         0.00000E+00
         0.00000E+00
         0.00000E+00
         0.00000E+00
         0.00000E+00
         0.00000E+00
         0.00000E+00
         0.00000E+00
         0.00000E+00
         0.00000E+00
         0.00000E+00
         0.00000E+00
         0.00000E+00
         0.00000E+00
         0.00000E+00
         0.00000E+00
         0.00000E+00
         0.00000E+00
         0.00000E+00
         0.00000E+00
         0.00000E+00
         0.00000E+00
         0.00000E+00
         0.00000E+00
         0.00000E+00
         0.00000E+00
         0.00000E+00
         0.00000E+00
         0.00000E+00
         0.00000E+00
         0.00000E+00
         0.00000E+00
         0.00000E+00
         0.00000E+00
         0.00000E+00
         0.00000E+00
         0.00000E+00
         0.00000E+00
         0.00000E+00
         0.00000E+00
         0.00000E+00
         0.00000E+00
         0.00000E+00
         0.00000E+00
         0.00000E+00
         0.00000E+00
         0.00000E+00
         0.00000E+00
         0.00000E+00
         0.00000E+00
         0.00000E+00
         0.00000E+00
         0.00000E+00
         0.00000E+00
         0.00000E+00
         0.00000E+00
         0.00000E+00
         0.00000E+00
         0.00000E+00
         0.00000E+00
         0.00000E+00
         0.00000E+00
         0.00000E+00
         0.00000E+00
         0.00000E+00
         0.00000E+00
         0.00000E+00
         0.00000E+00
         0.00000E+00
         0.00000E+00
         0.00000E+00
         0.00000E+00
         0.00000E+00
         0.00000E+00
         0.00000E+00
         0.00000E+00
         0.00000E+00
         0.00000E+00
         0.00000E+00
         0.00000E+00
         0.00000E+00
         0.00000E+00
         0.00000E+00
         0.00000E+00
         0.00000E+00
         0.00000E+00
         0.00000E+00
         0.00000E+00
         0.00000E+00
         0.00000E+00
         0.00000E+00
         0.00000E+00
         0.00000E+00
         0.00000E+00
         0.00000E+00
         0.00000E+00
         0.00000E+00
         0.00000E+00
         0.00000E+00
         0.00000E+00
         0.00000E+00
         0.00000E+00
         0.00000E+00
         0.00000E+00
         0.00000E+00
         0.00000E+00
         0.00000E+00
         0.00000E+00
         0.00000E+00
         0.00000E+00
         0.00000E+00
         0.00000E+00
         0.00000E+00
         0.00000E+00
         0.00000E+00
         0.00000E+00
         0.00000E+00
         0.00000E+00
         0.00000E+00
         0.00000E+00
         0.00000E+00
         0.00000E+00
         0.00000E+00
         0.00000E+00
         0.00000E+00
         0.00000E+00
         0.00000E+00
         0.00000E+00
         0.00000E+00
         0.00000E+00
         0.00000E+00
         0.00000E+00
         0.00000E+00
         0.00000E+00
         0.00000E+00
         0.00000E+00
         0.00000E+00
         0.00000E+00
         0.00000E+00
         0.00000E+00
         0.00000E+00
         0.00000E+00
         0.00000E+00
         0.00000E+00
         0.00000E+00
         0.00000E+00
         0.00000E+00
         0.00000E+00
         0.00000E+00
         0.00000E+00
         0.00000E+00
         0.00000E+00
         0.00000E+00
         0.00000E+00
         0.00000E+00
         0.00000E+00
         0.00000E+00
         0.00000E+00
         0.00000E+00
         0.00000E+00
         0.00000E+00
         0.00000E+00
         0.00000E+00
         0.00000E+00
         0.00000E+00
         0.00000E+00
         0.00000E+00
         0.00000E+00
         0.00000E+00
         0.00000E+00
         0.00000E+00
         0.00000E+00
         0.00000E+00
         0.00000E+00
         0.00000E+00
         0.00000E+00
         0.00000E+00
         0.00000E+00
         0.00000E+00
         0.00000E+00
         0.00000E+00
         0.00000E+00
         0.00000E+00
         0.00000E+00
         0.00000E+00
         0.00000E+00
         0.00000E+00
         0.00000E+00
         0.00000E+00
         0.00000E+00
         0.00000E+00
         0.00000E+00
         0.00000E+00
         0.00000E+00
         0.00000E+00
         0.00000E+00
         0.00000E+00
         0.00000E+00
         0.00000E+00
         0.00000E+00
         0.00000E+00
         0.00000E+00
         0.00000E+00
         0.00000E+00
         0.00000E+00
         0.00000E+00
         0.00000E+00
         0.00000E+00
         0.00000E+00
         0.00000E+00
         0.00000E+00
         0.00000E+00
         0.00000E+00
         0.00000E+00
         0.00000E+00
         0.00000E+00
         0.00000E+00
         0.00000E+00
         0.00000E+00
         0.00000E+00
         0.00000E+00
         0.00000E+00
         0.00000E+00
         0.00000E+00
         0.00000E+00
         0.00000E+00
         0.00000E+00
         0.00000E+00
         0.00000E+00
         0.00000E+00
         0.00000E+00
         0.00000E+00
         0.00000E+00
         0.00000E+00
         0.00000E+00
         0.00000E+00
         0.00000E+00
         0.00000E+00
         0.00000E+00
         0.00000E+00
         0.00000E+00
         0.00000E+00
         0.00000E+00
         0.00000E+00
         0.00000E+00
         0.00000E+00
         0.00000E+00
         0.00000E+00
         0.00000E+00
         0.00000E+00
         0.00000E+00
         0.00000E+00
         0.00000E+00
         0.00000E+00
         0.00000E+00
         0.00000E+00
         0.00000E+00
         0.00000E+00
         0.00000E+00
         0.00000E+00
         0.00000E+00
         0.00000E+00
         0.00000E+00
         0.00000E+00
         0.00000E+00
         0.00000E+00
         0.00000E+00
         0.00000E+00
         0.00000E+00
         0.00000E+00
         0.00000E+00
         0.00000E+00
         0.00000E+00
         0.00000E+00
         0.00000E+00
         0.00000E+00
         0.00000E+00
         0.00000E+00
         0.00000E+00
         0.00000E+00
         0.00000E+00
         0.00000E+00
         0.00000E+00
         0.00000E+00
         0.00000E+00
         0.00000E+00
         0.00000E+00
         0.00000E+00
         0.00000E+00
         0.00000E+00
         0.00000E+00
         0.00000E+00
         0.00000E+00
         0.00000E+00
         0.00000E+00
         0.00000E+00
         0.00000E+00
         0.00000E+00
         0.00000E+00
         0.00000E+00
         0.00000E+00
         0.00000E+00
         0.00000E+00
         0.00000E+00
         0.00000E+00
         0.00000E+00
         0.00000E+00
         0.00000E+00
         0.00000E+00
         0.00000E+00
         0.00000E+00
         0.00000E+00
         0.00000E+00
         0.00000E+00
         0.00000E+00
         0.00000E+00
         0.00000E+00
         0.00000E+00
         0.00000E+00
         0.00000E+00
         0.00000E+00
         0.00000E+00
         0.00000E+00
         0.00000E+00
         0.00000E+00
         0.00000E+00
         0.00000E+00
         0.00000E+00
         0.00000E+00
         0.00000E+00
         0.00000E+00
         0.00000E+00
         0.00000E+00
         0.00000E+00
         0.00000E+00
         0.00000E+00
         0.00000E+00
         0.00000E+00
         0.00000E+00
         0.00000E+00
         0.00000E+00
         0.00000E+00
         0.00000E+00
         0.00000E+00
         0.00000E+00
         0.00000E+00
         0.00000E+00
         0.00000E+00
         0.00000E+00
         0.00000E+00
         0.00000E+00
         0.00000E+00
         0.00000E+00
         0.00000E+00
         0.00000E+00
         0.00000E+00
         0.00000E+00
         0.00000E+00
         0.00000E+00
         0.00000E+00
         0.00000E+00
         0.00000E+00
         0.00000E+00
         0.00000E+00
         0.00000E+00
         0.00000E+00
         0.00000E+00
         0.00000E+00
         0.00000E+00
         0.00000E+00
         0.00000E+00
         0.00000E+00
         0.00000E+00
         0.00000E+00
         0.00000E+00
         0.00000E+00
         0.00000E+00
         0.00000E+00
         0.00000E+00
         0.00000E+00
         0.00000E+00
         0.00000E+00
         0.00000E+00
         0.00000E+00
         0.00000E+00
         0.00000E+00
         0.00000E+00
         0.00000E+00
         0.00000E+00
         0.00000E+00
         0.00000E+00
         0.00000E+00
  
SCALARS                 acceleration_y  double 1
LOOKUP_TABLE default
         0.00000E+00
         0.00000E+00
         0.00000E+00
         0.00000E+00
         0.00000E+00
         0.00000E+00
         0.00000E+00
         0.00000E+00
         0.00000E+00
         0.00000E+00
         0.00000E+00
         0.00000E+00
         0.00000E+00
         0.00000E+00
         0.00000E+00
         0.00000E+00
         0.00000E+00
         0.00000E+00
         0.00000E+00
         0.00000E+00
         0.00000E+00
         0.00000E+00
         0.00000E+00
         0.00000E+00
         0.00000E+00
         0.00000E+00
         0.00000E+00
         0.00000E+00
         0.00000E+00
         0.00000E+00
         0.00000E+00
         0.00000E+00
         0.00000E+00
         0.00000E+00
         0.00000E+00
         0.00000E+00
         0.00000E+00
         0.00000E+00
         0.00000E+00
         0.00000E+00
         0.00000E+00
         0.00000E+00
         0.00000E+00
         0.00000E+00
         0.00000E+00
         0.00000E+00
         0.00000E+00
         0.00000E+00
         0.00000E+00
         0.00000E+00
         0.00000E+00
         0.00000E+00
         0.00000E+00
         0.00000E+00
         0.00000E+00
         0.00000E+00
         0.00000E+00
         0.00000E+00
         0.00000E+00
         0.00000E+00
         0.00000E+00
         0.00000E+00
         0.00000E+00
         0.00000E+00
         0.00000E+00
         0.00000E+00
         0.00000E+00
         0.00000E+00
         0.00000E+00
         0.00000E+00
         0.00000E+00
         0.00000E+00
         0.00000E+00
         0.00000E+00
         0.00000E+00
         0.00000E+00
         0.00000E+00
         0.00000E+00
         0.00000E+00
         0.00000E+00
         0.00000E+00
         0.00000E+00
         0.00000E+00
         0.00000E+00
         0.00000E+00
         0.00000E+00
         0.00000E+00
         0.00000E+00
         0.00000E+00
         0.00000E+00
         0.00000E+00
         0.00000E+00
         0.00000E+00
         0.00000E+00
         0.00000E+00
         0.00000E+00
         0.00000E+00
         0.00000E+00
         0.00000E+00
         0.00000E+00
         0.00000E+00
         0.00000E+00
         0.00000E+00
         0.00000E+00
         0.00000E+00
         0.00000E+00
         0.00000E+00
         0.00000E+00
         0.00000E+00
         0.00000E+00
         0.00000E+00
         0.00000E+00
         0.00000E+00
         0.00000E+00
         0.00000E+00
         0.00000E+00
         0.00000E+00
         0.00000E+00
         0.00000E+00
         0.00000E+00
         0.00000E+00
         0.00000E+00
         0.00000E+00
         0.00000E+00
         0.00000E+00
         0.00000E+00
         0.00000E+00
         0.00000E+00
         0.00000E+00
         0.00000E+00
         0.00000E+00
         0.00000E+00
         0.00000E+00
         0.00000E+00
         0.00000E+00
         0.00000E+00
         0.00000E+00
         0.00000E+00
         0.00000E+00
         0.00000E+00
         0.00000E+00
         0.00000E+00
         0.00000E+00
         0.00000E+00
         0.00000E+00
         0.00000E+00
         0.00000E+00
         0.00000E+00
         0.00000E+00
         0.00000E+00
         0.00000E+00
         0.00000E+00
         0.00000E+00
         0.00000E+00
         0.00000E+00
         0.00000E+00
         0.00000E+00
         0.00000E+00
         0.00000E+00
         0.00000E+00
         0.00000E+00
         0.00000E+00
         0.00000E+00
         0.00000E+00
         0.00000E+00
         0.00000E+00
         0.00000E+00
         0.00000E+00
         0.00000E+00
         0.00000E+00
         0.00000E+00
         0.00000E+00
         0.00000E+00
         0.00000E+00
         0.00000E+00
         0.00000E+00
         0.00000E+00
         0.00000E+00
         0.00000E+00
         0.00000E+00
         0.00000E+00
         0.00000E+00
         0.00000E+00
         0.00000E+00
         0.00000E+00
         0.00000E+00
         0.00000E+00
         0.00000E+00
         0.00000E+00
         0.00000E+00
         0.00000E+00
         0.00000E+00
         0.00000E+00
         0.00000E+00
         0.00000E+00
         0.00000E+00
         0.00000E+00
         0.00000E+00
         0.00000E+00
         0.00000E+00
         0.00000E+00
         0.00000E+00
         0.00000E+00
         0.00000E+00
         0.00000E+00
         0.00000E+00
         0.00000E+00
         0.00000E+00
         0.00000E+00
         0.00000E+00
         0.00000E+00
         0.00000E+00
         0.00000E+00
         0.00000E+00
         0.00000E+00
         0.00000E+00
         0.00000E+00
         0.00000E+00
         0.00000E+00
         0.00000E+00
         0.00000E+00
         0.00000E+00
         0.00000E+00
         0.00000E+00
         0.00000E+00
         0.00000E+00
         0.00000E+00
         0.00000E+00
         0.00000E+00
         0.00000E+00
         0.00000E+00
         0.00000E+00
         0.00000E+00
         0.00000E+00
         0.00000E+00
         0.00000E+00
         0.00000E+00
         0.00000E+00
         0.00000E+00
         0.00000E+00
         0.00000E+00
         0.00000E+00
         0.00000E+00
         0.00000E+00
         0.00000E+00
         0.00000E+00
         0.00000E+00
         0.00000E+00
         0.00000E+00
         0.00000E+00
         0.00000E+00
         0.00000E+00
         0.00000E+00
         0.00000E+00
         0.00000E+00
         0.00000E+00
         0.00000E+00
         0.00000E+00
         0.00000E+00
         0.00000E+00
         0.00000E+00
         0.00000E+00
         0.00000E+00
         0.00000E+00
         0.00000E+00
         0.00000E+00
         0.00000E+00
         0.00000E+00
         0.00000E+00
         0.00000E+00
         0.00000E+00
         0.00000E+00
         0.00000E+00
         0.00000E+00
         0.00000E+00
         0.00000E+00
         0.00000E+00
         0.00000E+00
         0.00000E+00
         0.00000E+00
         0.00000E+00
         0.00000E+00
         0.00000E+00
         0.00000E+00
         0.00000E+00
         0.00000E+00
         0.00000E+00
         0.00000E+00
         0.00000E+00
         0.00000E+00
         0.00000E+00
         0.00000E+00
         0.00000E+00
         0.00000E+00
         0.00000E+00
         0.00000E+00
         0.00000E+00
         0.00000E+00
         0.00000E+00
         0.00000E+00
         0.00000E+00
         0.00000E+00
         0.00000E+00
         0.00000E+00
         0.00000E+00
         0.00000E+00
         0.00000E+00
         0.00000E+00
         0.00000E+00
         0.00000E+00
         0.00000E+00
         0.00000E+00
         0.00000E+00
         0.00000E+00
         0.00000E+00
         0.00000E+00
         0.00000E+00
         0.00000E+00
         0.00000E+00
         0.00000E+00
         0.00000E+00
         0.00000E+00
         0.00000E+00
         0.00000E+00
         0.00000E+00
         0.00000E+00
         0.00000E+00
         0.00000E+00
         0.00000E+00
         0.00000E+00
         0.00000E+00
         0.00000E+00
         0.00000E+00
         0.00000E+00
         0.00000E+00
         0.00000E+00
         0.00000E+00
         0.00000E+00
         0.00000E+00
         0.00000E+00
         0.00000E+00
         0.00000E+00
         0.00000E+00
         0.00000E+00
         0.00000E+00
         0.00000E+00
         0.00000E+00
         0.00000E+00
         0.00000E+00
         0.00000E+00
         0.00000E+00
         0.00000E+00
         0.00000E+00
         0.00000E+00
         0.00000E+00
         0.00000E+00
         0.00000E+00
         0.00000E+00
         0.00000E+00
         0.00000E+00
         0.00000E+00
         0.00000E+00
         0.00000E+00
         0.00000E+00
         0.00000E+00
         0.00000E+00
         0.00000E+00
         0.00000E+00
         0.00000E+00
         0.00000E+00
         0.00000E+00
         0.00000E+00
         0.00000E+00
         0.00000E+00
         0.00000E+00
         0.00000E+00
         0.00000E+00
         0.00000E+00
         0.00000E+00
         0.00000E+00
         0.00000E+00
         0.00000E+00
         0.00000E+00
         0.00000E+00
         0.00000E+00
         0.00000E+00
         0.00000E+00
         0.00000E+00
         0.00000E+00
         0.00000E+00
         0.00000E+00
         0.00000E+00
         0.00000E+00
         0.00000E+00
         0.00000E+00
         0.00000E+00
         0.00000E+00
         0.00000E+00
         0.00000E+00
         0.00000E+00
         0.00000E+00
         0.00000E+00
         0.00000E+00
         0.00000E+00
         0.00000E+00
         0.00000E+00
         0.00000E+00
         0.00000E+00
         0.00000E+00
         0.00000E+00
         0.00000E+00
         0.00000E+00
         0.00000E+00
         0.00000E+00
         0.00000E+00
         0.00000E+00
         0.00000E+00
         0.00000E+00
         0.00000E+00
         0.00000E+00
         0.00000E+00
         0.00000E+00
         0.00000E+00
         0.00000E+00
         0.00000E+00
         0.00000E+00
         0.00000E+00
         0.00000E+00
         0.00000E+00
         0.00000E+00
         0.00000E+00
         0.00000E+00
         0.00000E+00
         0.00000E+00
         0.00000E+00
         0.00000E+00
         0.00000E+00
         0.00000E+00
         0.00000E+00
         0.00000E+00
         0.00000E+00
         0.00000E+00
         0.00000E+00
         0.00000E+00
         0.00000E+00
         0.00000E+00
         0.00000E+00
         0.00000E+00
         0.00000E+00
         0.00000E+00
         0.00000E+00
         0.00000E+00
         0.00000E+00
         0.00000E+00
         0.00000E+00
         0.00000E+00
         0.00000E+00
         0.00000E+00
         0.00000E+00
         0.00000E+00
         0.00000E+00
         0.00000E+00
         0.00000E+00
         0.00000E+00
         0.00000E+00
         0.00000E+00
         0.00000E+00
         0.00000E+00
         0.00000E+00
         0.00000E+00
         0.00000E+00
         0.00000E+00
         0.00000E+00
         0.00000E+00
         0.00000E+00
         0.00000E+00
         0.00000E+00
         0.00000E+00
         0.00000E+00
         0.00000E+00
         0.00000E+00
         0.00000E+00
         0.00000E+00
         0.00000E+00
         0.00000E+00
         0.00000E+00
         0.00000E+00
         0.00000E+00
         0.00000E+00
         0.00000E+00
         0.00000E+00
         0.00000E+00
         0.00000E+00
         0.00000E+00
         0.00000E+00
         0.00000E+00
         0.00000E+00
         0.00000E+00
         0.00000E+00
         0.00000E+00
         0.00000E+00
         0.00000E+00
         0.00000E+00
         0.00000E+00
         0.00000E+00
         0.00000E+00
         0.00000E+00
         0.00000E+00
         0.00000E+00
         0.00000E+00
         0.00000E+00
         0.00000E+00
         0.00000E+00
         0.00000E+00
         0.00000E+00
         0.00000E+00
         0.00000E+00
         0.00000E+00
         0.00000E+00
         0.00000E+00
         0.00000E+00
         0.00000E+00
         0.00000E+00
         0.00000E+00
         0.00000E+00
         0.00000E+00
         0.00000E+00
         0.00000E+00
         0.00000E+00
         0.00000E+00
         0.00000E+00
         0.00000E+00
         0.00000E+00
         0.00000E+00
         0.00000E+00
         0.00000E+00
         0.00000E+00
         0.00000E+00
         0.00000E+00
         0.00000E+00
         0.00000E+00
         0.00000E+00
         0.00000E+00
         0.00000E+00
         0.00000E+00
         0.00000E+00
         0.00000E+00
         0.00000E+00
         0.00000E+00
         0.00000E+00
         0.00000E+00
         0.00000E+00
         0.00000E+00
         0.00000E+00
         0.00000E+00
         0.00000E+00
         0.00000E+00
         0.00000E+00
         0.00000E+00
         0.00000E+00
         0.00000E+00
         0.00000E+00
         0.00000E+00
         0.00000E+00
         0.00000E+00
         0.00000E+00
         0.00000E+00
         0.00000E+00
         0.00000E+00
         0.00000E+00
         0.00000E+00
         0.00000E+00
         0.00000E+00
         0.00000E+00
         0.00000E+00
         0.00000E+00
         0.00000E+00
         0.00000E+00
         0.00000E+00
         0.00000E+00
         0.00000E+00
         0.00000E+00
         0.00000E+00
         0.00000E+00
         0.00000E+00
         0.00000E+00
         0.00000E+00
         0.00000E+00
         0.00000E+00
         0.00000E+00
         0.00000E+00
         0.00000E+00
         0.00000E+00
         0.00000E+00
         0.00000E+00
         0.00000E+00
         0.00000E+00
         0.00000E+00
         0.00000E+00
         0.00000E+00
         0.00000E+00
         0.00000E+00
         0.00000E+00
         0.00000E+00
         0.00000E+00
         0.00000E+00
         0.00000E+00
         0.00000E+00
         0.00000E+00
         0.00000E+00
         0.00000E+00
         0.00000E+00
         0.00000E+00
         0.00000E+00
         0.00000E+00
         0.00000E+00
         0.00000E+00
         0.00000E+00
         0.00000E+00
         0.00000E+00
         0.00000E+00
         0.00000E+00
         0.00000E+00
         0.00000E+00
         0.00000E+00
         0.00000E+00
         0.00000E+00
         0.00000E+00
         0.00000E+00
         0.00000E+00
         0.00000E+00
         0.00000E+00
         0.00000E+00
         0.00000E+00
         0.00000E+00
         0.00000E+00
         0.00000E+00
         0.00000E+00
         0.00000E+00
         0.00000E+00
         0.00000E+00
         0.00000E+00
         0.00000E+00
         0.00000E+00
         0.00000E+00
         0.00000E+00
         0.00000E+00
         0.00000E+00
         0.00000E+00
         0.00000E+00
         0.00000E+00
         0.00000E+00
         0.00000E+00
         0.00000E+00
         0.00000E+00
         0.00000E+00
         0.00000E+00
         0.00000E+00
         0.00000E+00
         0.00000E+00
         0.00000E+00
         0.00000E+00
         0.00000E+00
         0.00000E+00
         0.00000E+00
         0.00000E+00
         0.00000E+00
         0.00000E+00
         0.00000E+00
         0.00000E+00
         0.00000E+00
         0.00000E+00
         0.00000E+00
         0.00000E+00
         0.00000E+00
         0.00000E+00
         0.00000E+00
         0.00000E+00
         0.00000E+00
         0.00000E+00
         0.00000E+00
         0.00000E+00
         0.00000E+00
         0.00000E+00
         0.00000E+00
         0.00000E+00
         0.00000E+00
         0.00000E+00
         0.00000E+00
         0.00000E+00
         0.00000E+00
         0.00000E+00
         0.00000E+00
         0.00000E+00
         0.00000E+00
         0.00000E+00
         0.00000E+00
         0.00000E+00
         0.00000E+00
         0.00000E+00
         0.00000E+00
         0.00000E+00
         0.00000E+00
         0.00000E+00
         0.00000E+00
         0.00000E+00
         0.00000E+00
         0.00000E+00
         0.00000E+00
         0.00000E+00
         0.00000E+00
         0.00000E+00
         0.00000E+00
         0.00000E+00
         0.00000E+00
         0.00000E+00
         0.00000E+00
         0.00000E+00
         0.00000E+00
         0.00000E+00
         0.00000E+00
         0.00000E+00
         0.00000E+00
         0.00000E+00
         0.00000E+00
         0.00000E+00
         0.00000E+00
         0.00000E+00
         0.00000E+00
         0.00000E+00
         0.00000E+00
         0.00000E+00
         0.00000E+00
         0.00000E+00
         0.00000E+00
         0.00000E+00
         0.00000E+00
         0.00000E+00
         0.00000E+00
         0.00000E+00
         0.00000E+00
         0.00000E+00
         0.00000E+00
         0.00000E+00
         0.00000E+00
         0.00000E+00
         0.00000E+00
         0.00000E+00
         0.00000E+00
         0.00000E+00
         0.00000E+00
         0.00000E+00
         0.00000E+00
         0.00000E+00
         0.00000E+00
         0.00000E+00
         0.00000E+00
         0.00000E+00
         0.00000E+00
         0.00000E+00
         0.00000E+00
         0.00000E+00
         0.00000E+00
         0.00000E+00
         0.00000E+00
         0.00000E+00
         0.00000E+00
         0.00000E+00
         0.00000E+00
         0.00000E+00
         0.00000E+00
         0.00000E+00
         0.00000E+00
         0.00000E+00
         0.00000E+00
         0.00000E+00
         0.00000E+00
         0.00000E+00
         0.00000E+00
         0.00000E+00
         0.00000E+00
         0.00000E+00
         0.00000E+00
         0.00000E+00
         0.00000E+00
         0.00000E+00
         0.00000E+00
         0.00000E+00
         0.00000E+00
         0.00000E+00
         0.00000E+00
         0.00000E+00
         0.00000E+00
         0.00000E+00
         0.00000E+00
         0.00000E+00
         0.00000E+00
         0.00000E+00
         0.00000E+00
         0.00000E+00
         0.00000E+00
         0.00000E+00
         0.00000E+00
         0.00000E+00
         0.00000E+00
         0.00000E+00
         0.00000E+00
         0.00000E+00
         0.00000E+00
         0.00000E+00
         0.00000E+00
         0.00000E+00
         0.00000E+00
         0.00000E+00
         0.00000E+00
         0.00000E+00
         0.00000E+00
         0.00000E+00
         0.00000E+00
         0.00000E+00
         0.00000E+00
         0.00000E+00
         0.00000E+00
         0.00000E+00
         0.00000E+00
         0.00000E+00
         0.00000E+00
         0.00000E+00
         0.00000E+00
         0.00000E+00
         0.00000E+00
         0.00000E+00
         0.00000E+00
         0.00000E+00
         0.00000E+00
         0.00000E+00
         0.00000E+00
         0.00000E+00
         0.00000E+00
         0.00000E+00
         0.00000E+00
         0.00000E+00
         0.00000E+00
         0.00000E+00
         0.00000E+00
         0.00000E+00
         0.00000E+00
         0.00000E+00
         0.00000E+00
         0.00000E+00
         0.00000E+00
         0.00000E+00
         0.00000E+00
         0.00000E+00
         0.00000E+00
         0.00000E+00
         0.00000E+00
         0.00000E+00
         0.00000E+00
         0.00000E+00
         0.00000E+00
         0.00000E+00
         0.00000E+00
         0.00000E+00
         0.00000E+00
         0.00000E+00
         0.00000E+00
         0.00000E+00
         0.00000E+00
         0.00000E+00
         0.00000E+00
         0.00000E+00
         0.00000E+00
         0.00000E+00
         0.00000E+00
         0.00000E+00
         0.00000E+00
         0.00000E+00
         0.00000E+00
         0.00000E+00
         0.00000E+00
         0.00000E+00
         0.00000E+00
         0.00000E+00
         0.00000E+00
         0.00000E+00
         0.00000E+00
         0.00000E+00
         0.00000E+00
         0.00000E+00
         0.00000E+00
         0.00000E+00
         0.00000E+00
         0.00000E+00
         0.00000E+00
         0.00000E+00
         0.00000E+00
         0.00000E+00
         0.00000E+00
         0.00000E+00
         0.00000E+00
         0.00000E+00
         0.00000E+00
         0.00000E+00
         0.00000E+00
         0.00000E+00
         0.00000E+00
         0.00000E+00
         0.00000E+00
         0.00000E+00
         0.00000E+00
         0.00000E+00
         0.00000E+00
         0.00000E+00
         0.00000E+00
         0.00000E+00
         0.00000E+00
         0.00000E+00
         0.00000E+00
         0.00000E+00
         0.00000E+00
         0.00000E+00
         0.00000E+00
         0.00000E+00
         0.00000E+00
         0.00000E+00
         0.00000E+00
         0.00000E+00
         0.00000E+00
         0.00000E+00
         0.00000E+00
         0.00000E+00
         0.00000E+00
         0.00000E+00
         0.00000E+00
         0.00000E+00
         0.00000E+00
         0.00000E+00
         0.00000E+00
         0.00000E+00
         0.00000E+00
         0.00000E+00
         0.00000E+00
         0.00000E+00
         0.00000E+00
         0.00000E+00
         0.00000E+00
         0.00000E+00
         0.00000E+00
         0.00000E+00
         0.00000E+00
         0.00000E+00
         0.00000E+00
         0.00000E+00
         0.00000E+00
         0.00000E+00
         0.00000E+00
         0.00000E+00
         0.00000E+00
         0.00000E+00
         0.00000E+00
         0.00000E+00
         0.00000E+00
         0.00000E+00
         0.00000E+00
         0.00000E+00
         0.00000E+00
         0.00000E+00
         0.00000E+00
         0.00000E+00
         0.00000E+00
         0.00000E+00
         0.00000E+00
         0.00000E+00
         0.00000E+00
         0.00000E+00
         0.00000E+00
         0.00000E+00
         0.00000E+00
         0.00000E+00
         0.00000E+00
         0.00000E+00
         0.00000E+00
         0.00000E+00
         0.00000E+00
         0.00000E+00
         0.00000E+00
         0.00000E+00
         0.00000E+00
         0.00000E+00
         0.00000E+00
         0.00000E+00
         0.00000E+00
         0.00000E+00
         0.00000E+00
         0.00000E+00
         0.00000E+00
         0.00000E+00
         0.00000E+00
         0.00000E+00
         0.00000E+00
         0.00000E+00
         0.00000E+00
         0.00000E+00
         0.00000E+00
         0.00000E+00
         0.00000E+00
         0.00000E+00
         0.00000E+00
         0.00000E+00
         0.00000E+00
         0.00000E+00
         0.00000E+00
         0.00000E+00
         0.00000E+00
         0.00000E+00
         0.00000E+00
         0.00000E+00
         0.00000E+00
         0.00000E+00
         0.00000E+00
         0.00000E+00
         0.00000E+00
         0.00000E+00
         0.00000E+00
         0.00000E+00
         0.00000E+00
         0.00000E+00
         0.00000E+00
         0.00000E+00
         0.00000E+00
         0.00000E+00
         0.00000E+00
         0.00000E+00
         0.00000E+00
         0.00000E+00
         0.00000E+00
         0.00000E+00
         0.00000E+00
         0.00000E+00
         0.00000E+00
         0.00000E+00
         0.00000E+00
         0.00000E+00
         0.00000E+00
         0.00000E+00
         0.00000E+00
         0.00000E+00
         0.00000E+00
         0.00000E+00
         0.00000E+00
         0.00000E+00
         0.00000E+00
         0.00000E+00
         0.00000E+00
         0.00000E+00
         0.00000E+00
         0.00000E+00
         0.00000E+00
         0.00000E+00
         0.00000E+00
         0.00000E+00
         0.00000E+00
         0.00000E+00
         0.00000E+00
         0.00000E+00
         0.00000E+00
         0.00000E+00
         0.00000E+00
         0.00000E+00
         0.00000E+00
         0.00000E+00
         0.00000E+00
         0.00000E+00
         0.00000E+00
         0.00000E+00
         0.00000E+00
         0.00000E+00
         0.00000E+00
         0.00000E+00
         0.00000E+00
         0.00000E+00
         0.00000E+00
         0.00000E+00
         0.00000E+00
         0.00000E+00
         0.00000E+00
         0.00000E+00
         0.00000E+00
         0.00000E+00
         0.00000E+00
         0.00000E+00
         0.00000E+00
         0.00000E+00
         0.00000E+00
         0.00000E+00
         0.00000E+00
         0.00000E+00
         0.00000E+00
         0.00000E+00
         0.00000E+00
         0.00000E+00
         0.00000E+00
         0.00000E+00
         0.00000E+00
         0.00000E+00
         0.00000E+00
         0.00000E+00
         0.00000E+00
         0.00000E+00
         0.00000E+00
         0.00000E+00
         0.00000E+00
         0.00000E+00
         0.00000E+00
         0.00000E+00
         0.00000E+00
         0.00000E+00
         0.00000E+00
         0.00000E+00
         0.00000E+00
         0.00000E+00
         0.00000E+00
         0.00000E+00
         0.00000E+00
         0.00000E+00
         0.00000E+00
         0.00000E+00
         0.00000E+00
         0.00000E+00
         0.00000E+00
         0.00000E+00
         0.00000E+00
         0.00000E+00
         0.00000E+00
         0.00000E+00
         0.00000E+00
         0.00000E+00
         0.00000E+00
         0.00000E+00
         0.00000E+00
         0.00000E+00
         0.00000E+00
         0.00000E+00
         0.00000E+00
         0.00000E+00
         0.00000E+00
         0.00000E+00
         0.00000E+00
         0.00000E+00
         0.00000E+00
         0.00000E+00
         0.00000E+00
         0.00000E+00
         0.00000E+00
         0.00000E+00
         0.00000E+00
         0.00000E+00
         0.00000E+00
         0.00000E+00
         0.00000E+00
         0.00000E+00
         0.00000E+00
         0.00000E+00
         0.00000E+00
         0.00000E+00
         0.00000E+00
         0.00000E+00
         0.00000E+00
         0.00000E+00
         0.00000E+00
         0.00000E+00
         0.00000E+00
         0.00000E+00
         0.00000E+00
         0.00000E+00
         0.00000E+00
         0.00000E+00
         0.00000E+00
         0.00000E+00
         0.00000E+00
         0.00000E+00
         0.00000E+00
         0.00000E+00
         0.00000E+00
         0.00000E+00
         0.00000E+00
         0.00000E+00
         0.00000E+00
         0.00000E+00
         0.00000E+00
         0.00000E+00
         0.00000E+00
         0.00000E+00
         0.00000E+00
         0.00000E+00
         0.00000E+00
         0.00000E+00
         0.00000E+00
         0.00000E+00
         0.00000E+00
         0.00000E+00
         0.00000E+00
         0.00000E+00
         0.00000E+00
         0.00000E+00
         0.00000E+00
         0.00000E+00
         0.00000E+00
         0.00000E+00
         0.00000E+00
         0.00000E+00
         0.00000E+00
         0.00000E+00
         0.00000E+00
         0.00000E+00
         0.00000E+00
         0.00000E+00
         0.00000E+00
         0.00000E+00
         0.00000E+00
         0.00000E+00
         0.00000E+00
         0.00000E+00
         0.00000E+00
         0.00000E+00
         0.00000E+00
         0.00000E+00
         0.00000E+00
         0.00000E+00
         0.00000E+00
         0.00000E+00
         0.00000E+00
         0.00000E+00
         0.00000E+00
         0.00000E+00
         0.00000E+00
         0.00000E+00
         0.00000E+00
         0.00000E+00
         0.00000E+00
         0.00000E+00
         0.00000E+00
         0.00000E+00
         0.00000E+00
         0.00000E+00
         0.00000E+00
         0.00000E+00
         0.00000E+00
         0.00000E+00
         0.00000E+00
         0.00000E+00
         0.00000E+00
         0.00000E+00
         0.00000E+00
         0.00000E+00
         0.00000E+00
         0.00000E+00
         0.00000E+00
         0.00000E+00
         0.00000E+00
         0.00000E+00
         0.00000E+00
         0.00000E+00
         0.00000E+00
         0.00000E+00
         0.00000E+00
         0.00000E+00
         0.00000E+00
         0.00000E+00
         0.00000E+00
         0.00000E+00
         0.00000E+00
         0.00000E+00
         0.00000E+00
         0.00000E+00
         0.00000E+00
         0.00000E+00
         0.00000E+00
         0.00000E+00
         0.00000E+00
         0.00000E+00
         0.00000E+00
         0.00000E+00
         0.00000E+00
         0.00000E+00
         0.00000E+00
         0.00000E+00
         0.00000E+00
         0.00000E+00
         0.00000E+00
         0.00000E+00
         0.00000E+00
         0.00000E+00
         0.00000E+00
         0.00000E+00
         0.00000E+00
         0.00000E+00
         0.00000E+00
         0.00000E+00
         0.00000E+00
         0.00000E+00
         0.00000E+00
         0.00000E+00
         0.00000E+00
         0.00000E+00
         0.00000E+00
         0.00000E+00
         0.00000E+00
         0.00000E+00
         0.00000E+00
         0.00000E+00
         0.00000E+00
         0.00000E+00
         0.00000E+00
         0.00000E+00
         0.00000E+00
         0.00000E+00
         0.00000E+00
         0.00000E+00
         0.00000E+00
         0.00000E+00
         0.00000E+00
         0.00000E+00
         0.00000E+00
         0.00000E+00
         0.00000E+00
         0.00000E+00
         0.00000E+00
         0.00000E+00
         0.00000E+00
         0.00000E+00
         0.00000E+00
         0.00000E+00
         0.00000E+00
         0.00000E+00
         0.00000E+00
         0.00000E+00
         0.00000E+00
         0.00000E+00
         0.00000E+00
         0.00000E+00
         0.00000E+00
         0.00000E+00
         0.00000E+00
         0.00000E+00
         0.00000E+00
         0.00000E+00
         0.00000E+00
         0.00000E+00
         0.00000E+00
         0.00000E+00
         0.00000E+00
         0.00000E+00
         0.00000E+00
         0.00000E+00
         0.00000E+00
         0.00000E+00
         0.00000E+00
         0.00000E+00
         0.00000E+00
         0.00000E+00
         0.00000E+00
         0.00000E+00
         0.00000E+00
         0.00000E+00
         0.00000E+00
         0.00000E+00
         0.00000E+00
         0.00000E+00
         0.00000E+00
         0.00000E+00
         0.00000E+00
         0.00000E+00
         0.00000E+00
         0.00000E+00
         0.00000E+00
         0.00000E+00
         0.00000E+00
         0.00000E+00
         0.00000E+00
         0.00000E+00
         0.00000E+00
         0.00000E+00
         0.00000E+00
         0.00000E+00
         0.00000E+00
         0.00000E+00
         0.00000E+00
         0.00000E+00
         0.00000E+00
         0.00000E+00
         0.00000E+00
         0.00000E+00
         0.00000E+00
         0.00000E+00
         0.00000E+00
         0.00000E+00
         0.00000E+00
         0.00000E+00
         0.00000E+00
         0.00000E+00
         0.00000E+00
         0.00000E+00
         0.00000E+00
         0.00000E+00
         0.00000E+00
         0.00000E+00
         0.00000E+00
         0.00000E+00
         0.00000E+00
         0.00000E+00
         0.00000E+00
         0.00000E+00
         0.00000E+00
         0.00000E+00
         0.00000E+00
         0.00000E+00
         0.00000E+00
         0.00000E+00
         0.00000E+00
         0.00000E+00
         0.00000E+00
         0.00000E+00
         0.00000E+00
         0.00000E+00
         0.00000E+00
         0.00000E+00
         0.00000E+00
         0.00000E+00
         0.00000E+00
         0.00000E+00
         0.00000E+00
         0.00000E+00
         0.00000E+00
         0.00000E+00
         0.00000E+00
         0.00000E+00
         0.00000E+00
         0.00000E+00
         0.00000E+00
         0.00000E+00
         0.00000E+00
         0.00000E+00
         0.00000E+00
         0.00000E+00
         0.00000E+00
         0.00000E+00
         0.00000E+00
         0.00000E+00
         0.00000E+00
         0.00000E+00
         0.00000E+00
         0.00000E+00
         0.00000E+00
         0.00000E+00
         0.00000E+00
         0.00000E+00
         0.00000E+00
         0.00000E+00
         0.00000E+00
         0.00000E+00
         0.00000E+00
         0.00000E+00
         0.00000E+00
         0.00000E+00
         0.00000E+00
         0.00000E+00
         0.00000E+00
         0.00000E+00
         0.00000E+00
         0.00000E+00
         0.00000E+00
         0.00000E+00
         0.00000E+00
         0.00000E+00
         0.00000E+00
         0.00000E+00
         0.00000E+00
         0.00000E+00
         0.00000E+00
         0.00000E+00
         0.00000E+00
         0.00000E+00
         0.00000E+00
         0.00000E+00
         0.00000E+00
         0.00000E+00
         0.00000E+00
         0.00000E+00
         0.00000E+00
         0.00000E+00
         0.00000E+00
         0.00000E+00
         0.00000E+00
         0.00000E+00
         0.00000E+00
         0.00000E+00
         0.00000E+00
         0.00000E+00
         0.00000E+00
         0.00000E+00
         0.00000E+00
         0.00000E+00
         0.00000E+00
         0.00000E+00
         0.00000E+00
         0.00000E+00
         0.00000E+00
         0.00000E+00
         0.00000E+00
         0.00000E+00
         0.00000E+00
         0.00000E+00
         0.00000E+00
         0.00000E+00
         0.00000E+00
         0.00000E+00
         0.00000E+00
         0.00000E+00
         0.00000E+00
         0.00000E+00
         0.00000E+00
         0.00000E+00
         0.00000E+00
         0.00000E+00
         0.00000E+00
         0.00000E+00
         0.00000E+00
         0.00000E+00
         0.00000E+00
         0.00000E+00
         0.00000E+00
         0.00000E+00
         0.00000E+00
         0.00000E+00
         0.00000E+00
         0.00000E+00
         0.00000E+00
         0.00000E+00
         0.00000E+00
         0.00000E+00
         0.00000E+00
         0.00000E+00
         0.00000E+00
         0.00000E+00
         0.00000E+00
         0.00000E+00
         0.00000E+00
         0.00000E+00
         0.00000E+00
         0.00000E+00
         0.00000E+00
         0.00000E+00
         0.00000E+00
         0.00000E+00
         0.00000E+00
         0.00000E+00
         0.00000E+00
         0.00000E+00
         0.00000E+00
         0.00000E+00
         0.00000E+00
         0.00000E+00
         0.00000E+00
         0.00000E+00
         0.00000E+00
         0.00000E+00
         0.00000E+00
         0.00000E+00
         0.00000E+00
         0.00000E+00
         0.00000E+00
         0.00000E+00
         0.00000E+00
         0.00000E+00
         0.00000E+00
         0.00000E+00
         0.00000E+00
         0.00000E+00
         0.00000E+00
         0.00000E+00
         0.00000E+00
         0.00000E+00
         0.00000E+00
         0.00000E+00
         0.00000E+00
         0.00000E+00
         0.00000E+00
         0.00000E+00
         0.00000E+00
         0.00000E+00
         0.00000E+00
         0.00000E+00
         0.00000E+00
         0.00000E+00
         0.00000E+00
         0.00000E+00
         0.00000E+00
         0.00000E+00
         0.00000E+00
         0.00000E+00
         0.00000E+00
         0.00000E+00
         0.00000E+00
         0.00000E+00
         0.00000E+00
         0.00000E+00
         0.00000E+00
         0.00000E+00
         0.00000E+00
         0.00000E+00
         0.00000E+00
         0.00000E+00
         0.00000E+00
         0.00000E+00
         0.00000E+00
         0.00000E+00
         0.00000E+00
         0.00000E+00
         0.00000E+00
         0.00000E+00
         0.00000E+00
         0.00000E+00
         0.00000E+00
         0.00000E+00
         0.00000E+00
         0.00000E+00
         0.00000E+00
         0.00000E+00
         0.00000E+00
         0.00000E+00
         0.00000E+00
         0.00000E+00
         0.00000E+00
         0.00000E+00
         0.00000E+00
         0.00000E+00
         0.00000E+00
         0.00000E+00
         0.00000E+00
         0.00000E+00
         0.00000E+00
         0.00000E+00
         0.00000E+00
         0.00000E+00
         0.00000E+00
         0.00000E+00
         0.00000E+00
         0.00000E+00
         0.00000E+00
         0.00000E+00
         0.00000E+00
         0.00000E+00
         0.00000E+00
         0.00000E+00
         0.00000E+00
         0.00000E+00
         0.00000E+00
         0.00000E+00
         0.00000E+00
         0.00000E+00
         0.00000E+00
         0.00000E+00
         0.00000E+00
         0.00000E+00
         0.00000E+00
         0.00000E+00
         0.00000E+00
         0.00000E+00
         0.00000E+00
         0.00000E+00
         0.00000E+00
         0.00000E+00
         0.00000E+00
         0.00000E+00
         0.00000E+00
         0.00000E+00
         0.00000E+00
         0.00000E+00
         0.00000E+00
         0.00000E+00
         0.00000E+00
         0.00000E+00
         0.00000E+00
         0.00000E+00
         0.00000E+00
         0.00000E+00
         0.00000E+00
         0.00000E+00
         0.00000E+00
         0.00000E+00
         0.00000E+00
         0.00000E+00
         0.00000E+00
         0.00000E+00
         0.00000E+00
         0.00000E+00
         0.00000E+00
         0.00000E+00
         0.00000E+00
         0.00000E+00
         0.00000E+00
         0.00000E+00
         0.00000E+00
         0.00000E+00
         0.00000E+00
         0.00000E+00
         0.00000E+00
         0.00000E+00
         0.00000E+00
         0.00000E+00
         0.00000E+00
         0.00000E+00
         0.00000E+00
         0.00000E+00
         0.00000E+00
         0.00000E+00
         0.00000E+00
         0.00000E+00
         0.00000E+00
         0.00000E+00
         0.00000E+00
         0.00000E+00
         0.00000E+00
         0.00000E+00
         0.00000E+00
         0.00000E+00
         0.00000E+00
         0.00000E+00
         0.00000E+00
         0.00000E+00
         0.00000E+00
         0.00000E+00
         0.00000E+00
         0.00000E+00
         0.00000E+00
         0.00000E+00
         0.00000E+00
         0.00000E+00
         0.00000E+00
         0.00000E+00
         0.00000E+00
         0.00000E+00
         0.00000E+00
         0.00000E+00
         0.00000E+00
         0.00000E+00
         0.00000E+00
         0.00000E+00
         0.00000E+00
         0.00000E+00
         0.00000E+00
         0.00000E+00
         0.00000E+00
         0.00000E+00
         0.00000E+00
         0.00000E+00
         0.00000E+00
         0.00000E+00
         0.00000E+00
         0.00000E+00
         0.00000E+00
         0.00000E+00
         0.00000E+00
         0.00000E+00
         0.00000E+00
         0.00000E+00
         0.00000E+00
         0.00000E+00
         0.00000E+00
         0.00000E+00
         0.00000E+00
         0.00000E+00
         0.00000E+00
         0.00000E+00
         0.00000E+00
         0.00000E+00
         0.00000E+00
         0.00000E+00
         0.00000E+00
         0.00000E+00
         0.00000E+00
         0.00000E+00
         0.00000E+00
         0.00000E+00
         0.00000E+00
         0.00000E+00
         0.00000E+00
         0.00000E+00
         0.00000E+00
         0.00000E+00
         0.00000E+00
         0.00000E+00
         0.00000E+00
         0.00000E+00
         0.00000E+00
         0.00000E+00
         0.00000E+00
         0.00000E+00
         0.00000E+00
         0.00000E+00
         0.00000E+00
         0.00000E+00
         0.00000E+00
         0.00000E+00
         0.00000E+00
         0.00000E+00
         0.00000E+00
         0.00000E+00
         0.00000E+00
         0.00000E+00
         0.00000E+00
         0.00000E+00
         0.00000E+00
         0.00000E+00
         0.00000E+00
         0.00000E+00
         0.00000E+00
         0.00000E+00
         0.00000E+00
         0.00000E+00
         0.00000E+00
         0.00000E+00
         0.00000E+00
         0.00000E+00
         0.00000E+00
         0.00000E+00
         0.00000E+00
         0.00000E+00
         0.00000E+00
         0.00000E+00
         0.00000E+00
         0.00000E+00
         0.00000E+00
         0.00000E+00
         0.00000E+00
         0.00000E+00
         0.00000E+00
         0.00000E+00
         0.00000E+00
         0.00000E+00
         0.00000E+00
         0.00000E+00
         0.00000E+00
         0.00000E+00
         0.00000E+00
         0.00000E+00
         0.00000E+00
         0.00000E+00
         0.00000E+00
         0.00000E+00
         0.00000E+00
         0.00000E+00
         0.00000E+00
         0.00000E+00
         0.00000E+00
         0.00000E+00
         0.00000E+00
         0.00000E+00
         0.00000E+00
         0.00000E+00
         0.00000E+00
         0.00000E+00
         0.00000E+00
         0.00000E+00
         0.00000E+00
         0.00000E+00
         0.00000E+00
         0.00000E+00
         0.00000E+00
         0.00000E+00
         0.00000E+00
         0.00000E+00
         0.00000E+00
         0.00000E+00
         0.00000E+00
         0.00000E+00
         0.00000E+00
         0.00000E+00
         0.00000E+00
         0.00000E+00
         0.00000E+00
         0.00000E+00
         0.00000E+00
         0.00000E+00
         0.00000E+00
         0.00000E+00
         0.00000E+00
         0.00000E+00
         0.00000E+00
         0.00000E+00
         0.00000E+00
         0.00000E+00
         0.00000E+00
         0.00000E+00
         0.00000E+00
         0.00000E+00
         0.00000E+00
         0.00000E+00
         0.00000E+00
         0.00000E+00
         0.00000E+00
         0.00000E+00
         0.00000E+00
         0.00000E+00
         0.00000E+00
         0.00000E+00
         0.00000E+00
         0.00000E+00
         0.00000E+00
         0.00000E+00
         0.00000E+00
         0.00000E+00
         0.00000E+00
         0.00000E+00
         0.00000E+00
         0.00000E+00
         0.00000E+00
         0.00000E+00
         0.00000E+00
         0.00000E+00
         0.00000E+00
         0.00000E+00
         0.00000E+00
         0.00000E+00
         0.00000E+00
         0.00000E+00
         0.00000E+00
         0.00000E+00
         0.00000E+00
         0.00000E+00
         0.00000E+00
         0.00000E+00
         0.00000E+00
         0.00000E+00
         0.00000E+00
         0.00000E+00
         0.00000E+00
         0.00000E+00
         0.00000E+00
         0.00000E+00
         0.00000E+00
         0.00000E+00
         0.00000E+00
         0.00000E+00
         0.00000E+00
         0.00000E+00
         0.00000E+00
         0.00000E+00
  
SCALARS                 acceleration_z  double 1
LOOKUP_TABLE default
         0.00000E+00
         0.00000E+00
         0.00000E+00
         0.00000E+00
         0.00000E+00
         0.00000E+00
         0.00000E+00
         0.00000E+00
         0.00000E+00
         0.00000E+00
         0.00000E+00
         0.00000E+00
         0.00000E+00
         0.00000E+00
         0.00000E+00
         0.00000E+00
         0.00000E+00
         0.00000E+00
         0.00000E+00
         0.00000E+00
         0.00000E+00
         0.00000E+00
         0.00000E+00
         0.00000E+00
         0.00000E+00
         0.00000E+00
         0.00000E+00
         0.00000E+00
         0.00000E+00
         0.00000E+00
         0.00000E+00
         0.00000E+00
         0.00000E+00
         0.00000E+00
         0.00000E+00
         0.00000E+00
         0.00000E+00
         0.00000E+00
         0.00000E+00
         0.00000E+00
         0.00000E+00
         0.00000E+00
         0.00000E+00
         0.00000E+00
         0.00000E+00
         0.00000E+00
         0.00000E+00
         0.00000E+00
         0.00000E+00
         0.00000E+00
         0.00000E+00
         0.00000E+00
         0.00000E+00
         0.00000E+00
         0.00000E+00
         0.00000E+00
         0.00000E+00
         0.00000E+00
         0.00000E+00
         0.00000E+00
         0.00000E+00
         0.00000E+00
         0.00000E+00
         0.00000E+00
         0.00000E+00
         0.00000E+00
         0.00000E+00
         0.00000E+00
         0.00000E+00
         0.00000E+00
         0.00000E+00
         0.00000E+00
         0.00000E+00
         0.00000E+00
         0.00000E+00
         0.00000E+00
         0.00000E+00
         0.00000E+00
         0.00000E+00
         0.00000E+00
         0.00000E+00
         0.00000E+00
         0.00000E+00
         0.00000E+00
         0.00000E+00
         0.00000E+00
         0.00000E+00
         0.00000E+00
         0.00000E+00
         0.00000E+00
         0.00000E+00
         0.00000E+00
         0.00000E+00
         0.00000E+00
         0.00000E+00
         0.00000E+00
         0.00000E+00
         0.00000E+00
         0.00000E+00
         0.00000E+00
         0.00000E+00
         0.00000E+00
         0.00000E+00
         0.00000E+00
         0.00000E+00
         0.00000E+00
         0.00000E+00
         0.00000E+00
         0.00000E+00
         0.00000E+00
         0.00000E+00
         0.00000E+00
         0.00000E+00
         0.00000E+00
         0.00000E+00
         0.00000E+00
         0.00000E+00
         0.00000E+00
         0.00000E+00
         0.00000E+00
         0.00000E+00
         0.00000E+00
         0.00000E+00
         0.00000E+00
         0.00000E+00
         0.00000E+00
         0.00000E+00
         0.00000E+00
         0.00000E+00
         0.00000E+00
         0.00000E+00
         0.00000E+00
         0.00000E+00
         0.00000E+00
         0.00000E+00
         0.00000E+00
         0.00000E+00
         0.00000E+00
         0.00000E+00
         0.00000E+00
         0.00000E+00
         0.00000E+00
         0.00000E+00
         0.00000E+00
         0.00000E+00
         0.00000E+00
         0.00000E+00
         0.00000E+00
         0.00000E+00
         0.00000E+00
         0.00000E+00
         0.00000E+00
         0.00000E+00
         0.00000E+00
         0.00000E+00
         0.00000E+00
         0.00000E+00
         0.00000E+00
         0.00000E+00
         0.00000E+00
         0.00000E+00
         0.00000E+00
         0.00000E+00
         0.00000E+00
         0.00000E+00
         0.00000E+00
         0.00000E+00
         0.00000E+00
         0.00000E+00
         0.00000E+00
         0.00000E+00
         0.00000E+00
         0.00000E+00
         0.00000E+00
         0.00000E+00
         0.00000E+00
         0.00000E+00
         0.00000E+00
         0.00000E+00
         0.00000E+00
         0.00000E+00
         0.00000E+00
         0.00000E+00
         0.00000E+00
         0.00000E+00
         0.00000E+00
         0.00000E+00
         0.00000E+00
         0.00000E+00
         0.00000E+00
         0.00000E+00
         0.00000E+00
         0.00000E+00
         0.00000E+00
         0.00000E+00
         0.00000E+00
         0.00000E+00
         0.00000E+00
         0.00000E+00
         0.00000E+00
         0.00000E+00
         0.00000E+00
         0.00000E+00
         0.00000E+00
         0.00000E+00
         0.00000E+00
         0.00000E+00
         0.00000E+00
         0.00000E+00
         0.00000E+00
         0.00000E+00
         0.00000E+00
         0.00000E+00
         0.00000E+00
         0.00000E+00
         0.00000E+00
         0.00000E+00
         0.00000E+00
         0.00000E+00
         0.00000E+00
         0.00000E+00
         0.00000E+00
         0.00000E+00
         0.00000E+00
         0.00000E+00
         0.00000E+00
         0.00000E+00
         0.00000E+00
         0.00000E+00
         0.00000E+00
         0.00000E+00
         0.00000E+00
         0.00000E+00
         0.00000E+00
         0.00000E+00
         0.00000E+00
         0.00000E+00
         0.00000E+00
         0.00000E+00
         0.00000E+00
         0.00000E+00
         0.00000E+00
         0.00000E+00
         0.00000E+00
         0.00000E+00
         0.00000E+00
         0.00000E+00
         0.00000E+00
         0.00000E+00
         0.00000E+00
         0.00000E+00
         0.00000E+00
         0.00000E+00
         0.00000E+00
         0.00000E+00
         0.00000E+00
         0.00000E+00
         0.00000E+00
         0.00000E+00
         0.00000E+00
         0.00000E+00
         0.00000E+00
         0.00000E+00
         0.00000E+00
         0.00000E+00
         0.00000E+00
         0.00000E+00
         0.00000E+00
         0.00000E+00
         0.00000E+00
         0.00000E+00
         0.00000E+00
         0.00000E+00
         0.00000E+00
         0.00000E+00
         0.00000E+00
         0.00000E+00
         0.00000E+00
         0.00000E+00
         0.00000E+00
         0.00000E+00
         0.00000E+00
         0.00000E+00
         0.00000E+00
         0.00000E+00
         0.00000E+00
         0.00000E+00
         0.00000E+00
         0.00000E+00
         0.00000E+00
         0.00000E+00
         0.00000E+00
         0.00000E+00
         0.00000E+00
         0.00000E+00
         0.00000E+00
         0.00000E+00
         0.00000E+00
         0.00000E+00
         0.00000E+00
         0.00000E+00
         0.00000E+00
         0.00000E+00
         0.00000E+00
         0.00000E+00
         0.00000E+00
         0.00000E+00
         0.00000E+00
         0.00000E+00
         0.00000E+00
         0.00000E+00
         0.00000E+00
         0.00000E+00
         0.00000E+00
         0.00000E+00
         0.00000E+00
         0.00000E+00
         0.00000E+00
         0.00000E+00
         0.00000E+00
         0.00000E+00
         0.00000E+00
         0.00000E+00
         0.00000E+00
         0.00000E+00
         0.00000E+00
         0.00000E+00
         0.00000E+00
         0.00000E+00
         0.00000E+00
         0.00000E+00
         0.00000E+00
         0.00000E+00
         0.00000E+00
         0.00000E+00
         0.00000E+00
         0.00000E+00
         0.00000E+00
         0.00000E+00
         0.00000E+00
         0.00000E+00
         0.00000E+00
         0.00000E+00
         0.00000E+00
         0.00000E+00
         0.00000E+00
         0.00000E+00
         0.00000E+00
         0.00000E+00
         0.00000E+00
         0.00000E+00
         0.00000E+00
         0.00000E+00
         0.00000E+00
         0.00000E+00
         0.00000E+00
         0.00000E+00
         0.00000E+00
         0.00000E+00
         0.00000E+00
         0.00000E+00
         0.00000E+00
         0.00000E+00
         0.00000E+00
         0.00000E+00
         0.00000E+00
         0.00000E+00
         0.00000E+00
         0.00000E+00
         0.00000E+00
         0.00000E+00
         0.00000E+00
         0.00000E+00
         0.00000E+00
         0.00000E+00
         0.00000E+00
         0.00000E+00
         0.00000E+00
         0.00000E+00
         0.00000E+00
         0.00000E+00
         0.00000E+00
         0.00000E+00
         0.00000E+00
         0.00000E+00
         0.00000E+00
         0.00000E+00
         0.00000E+00
         0.00000E+00
         0.00000E+00
         0.00000E+00
         0.00000E+00
         0.00000E+00
         0.00000E+00
         0.00000E+00
         0.00000E+00
         0.00000E+00
         0.00000E+00
         0.00000E+00
         0.00000E+00
         0.00000E+00
         0.00000E+00
         0.00000E+00
         0.00000E+00
         0.00000E+00
         0.00000E+00
         0.00000E+00
         0.00000E+00
         0.00000E+00
         0.00000E+00
         0.00000E+00
         0.00000E+00
         0.00000E+00
         0.00000E+00
         0.00000E+00
         0.00000E+00
         0.00000E+00
         0.00000E+00
         0.00000E+00
         0.00000E+00
         0.00000E+00
         0.00000E+00
         0.00000E+00
         0.00000E+00
         0.00000E+00
         0.00000E+00
         0.00000E+00
         0.00000E+00
         0.00000E+00
         0.00000E+00
         0.00000E+00
         0.00000E+00
         0.00000E+00
         0.00000E+00
         0.00000E+00
         0.00000E+00
         0.00000E+00
         0.00000E+00
         0.00000E+00
         0.00000E+00
         0.00000E+00
         0.00000E+00
         0.00000E+00
         0.00000E+00
         0.00000E+00
         0.00000E+00
         0.00000E+00
         0.00000E+00
         0.00000E+00
         0.00000E+00
         0.00000E+00
         0.00000E+00
         0.00000E+00
         0.00000E+00
         0.00000E+00
         0.00000E+00
         0.00000E+00
         0.00000E+00
         0.00000E+00
         0.00000E+00
         0.00000E+00
         0.00000E+00
         0.00000E+00
         0.00000E+00
         0.00000E+00
         0.00000E+00
         0.00000E+00
         0.00000E+00
         0.00000E+00
         0.00000E+00
         0.00000E+00
         0.00000E+00
         0.00000E+00
         0.00000E+00
         0.00000E+00
         0.00000E+00
         0.00000E+00
         0.00000E+00
         0.00000E+00
         0.00000E+00
         0.00000E+00
         0.00000E+00
         0.00000E+00
         0.00000E+00
         0.00000E+00
         0.00000E+00
         0.00000E+00
         0.00000E+00
         0.00000E+00
         0.00000E+00
         0.00000E+00
         0.00000E+00
         0.00000E+00
         0.00000E+00
         0.00000E+00
         0.00000E+00
         0.00000E+00
         0.00000E+00
         0.00000E+00
         0.00000E+00
         0.00000E+00
         0.00000E+00
         0.00000E+00
         0.00000E+00
         0.00000E+00
         0.00000E+00
         0.00000E+00
         0.00000E+00
         0.00000E+00
         0.00000E+00
         0.00000E+00
         0.00000E+00
         0.00000E+00
         0.00000E+00
         0.00000E+00
         0.00000E+00
         0.00000E+00
         0.00000E+00
         0.00000E+00
         0.00000E+00
         0.00000E+00
         0.00000E+00
         0.00000E+00
         0.00000E+00
         0.00000E+00
         0.00000E+00
         0.00000E+00
         0.00000E+00
         0.00000E+00
         0.00000E+00
         0.00000E+00
         0.00000E+00
         0.00000E+00
         0.00000E+00
         0.00000E+00
         0.00000E+00
         0.00000E+00
         0.00000E+00
         0.00000E+00
         0.00000E+00
         0.00000E+00
         0.00000E+00
         0.00000E+00
         0.00000E+00
         0.00000E+00
         0.00000E+00
         0.00000E+00
         0.00000E+00
         0.00000E+00
         0.00000E+00
         0.00000E+00
         0.00000E+00
         0.00000E+00
         0.00000E+00
         0.00000E+00
         0.00000E+00
         0.00000E+00
         0.00000E+00
         0.00000E+00
         0.00000E+00
         0.00000E+00
         0.00000E+00
         0.00000E+00
         0.00000E+00
         0.00000E+00
         0.00000E+00
         0.00000E+00
         0.00000E+00
         0.00000E+00
         0.00000E+00
         0.00000E+00
         0.00000E+00
         0.00000E+00
         0.00000E+00
         0.00000E+00
         0.00000E+00
         0.00000E+00
         0.00000E+00
         0.00000E+00
         0.00000E+00
         0.00000E+00
         0.00000E+00
         0.00000E+00
         0.00000E+00
         0.00000E+00
         0.00000E+00
         0.00000E+00
         0.00000E+00
         0.00000E+00
         0.00000E+00
         0.00000E+00
         0.00000E+00
         0.00000E+00
         0.00000E+00
         0.00000E+00
         0.00000E+00
         0.00000E+00
         0.00000E+00
         0.00000E+00
         0.00000E+00
         0.00000E+00
         0.00000E+00
         0.00000E+00
         0.00000E+00
         0.00000E+00
         0.00000E+00
         0.00000E+00
         0.00000E+00
         0.00000E+00
         0.00000E+00
         0.00000E+00
         0.00000E+00
         0.00000E+00
         0.00000E+00
         0.00000E+00
         0.00000E+00
         0.00000E+00
         0.00000E+00
         0.00000E+00
         0.00000E+00
         0.00000E+00
         0.00000E+00
         0.00000E+00
         0.00000E+00
         0.00000E+00
         0.00000E+00
         0.00000E+00
         0.00000E+00
         0.00000E+00
         0.00000E+00
         0.00000E+00
         0.00000E+00
         0.00000E+00
         0.00000E+00
         0.00000E+00
         0.00000E+00
         0.00000E+00
         0.00000E+00
         0.00000E+00
         0.00000E+00
         0.00000E+00
         0.00000E+00
         0.00000E+00
         0.00000E+00
         0.00000E+00
         0.00000E+00
         0.00000E+00
         0.00000E+00
         0.00000E+00
         0.00000E+00
         0.00000E+00
         0.00000E+00
         0.00000E+00
         0.00000E+00
         0.00000E+00
         0.00000E+00
         0.00000E+00
         0.00000E+00
         0.00000E+00
         0.00000E+00
         0.00000E+00
         0.00000E+00
         0.00000E+00
         0.00000E+00
         0.00000E+00
         0.00000E+00
         0.00000E+00
         0.00000E+00
         0.00000E+00
         0.00000E+00
         0.00000E+00
         0.00000E+00
         0.00000E+00
         0.00000E+00
         0.00000E+00
         0.00000E+00
         0.00000E+00
         0.00000E+00
         0.00000E+00
         0.00000E+00
         0.00000E+00
         0.00000E+00
         0.00000E+00
         0.00000E+00
         0.00000E+00
         0.00000E+00
         0.00000E+00
         0.00000E+00
         0.00000E+00
         0.00000E+00
         0.00000E+00
         0.00000E+00
         0.00000E+00
         0.00000E+00
         0.00000E+00
         0.00000E+00
         0.00000E+00
         0.00000E+00
         0.00000E+00
         0.00000E+00
         0.00000E+00
         0.00000E+00
         0.00000E+00
         0.00000E+00
         0.00000E+00
         0.00000E+00
         0.00000E+00
         0.00000E+00
         0.00000E+00
         0.00000E+00
         0.00000E+00
         0.00000E+00
         0.00000E+00
         0.00000E+00
         0.00000E+00
         0.00000E+00
         0.00000E+00
         0.00000E+00
         0.00000E+00
         0.00000E+00
         0.00000E+00
         0.00000E+00
         0.00000E+00
         0.00000E+00
         0.00000E+00
         0.00000E+00
         0.00000E+00
         0.00000E+00
         0.00000E+00
         0.00000E+00
         0.00000E+00
         0.00000E+00
         0.00000E+00
         0.00000E+00
         0.00000E+00
         0.00000E+00
         0.00000E+00
         0.00000E+00
         0.00000E+00
         0.00000E+00
         0.00000E+00
         0.00000E+00
         0.00000E+00
         0.00000E+00
         0.00000E+00
         0.00000E+00
         0.00000E+00
         0.00000E+00
         0.00000E+00
         0.00000E+00
         0.00000E+00
         0.00000E+00
         0.00000E+00
         0.00000E+00
         0.00000E+00
         0.00000E+00
         0.00000E+00
         0.00000E+00
         0.00000E+00
         0.00000E+00
         0.00000E+00
         0.00000E+00
         0.00000E+00
         0.00000E+00
         0.00000E+00
         0.00000E+00
         0.00000E+00
         0.00000E+00
         0.00000E+00
         0.00000E+00
         0.00000E+00
         0.00000E+00
         0.00000E+00
         0.00000E+00
         0.00000E+00
         0.00000E+00
         0.00000E+00
         0.00000E+00
         0.00000E+00
         0.00000E+00
         0.00000E+00
         0.00000E+00
         0.00000E+00
         0.00000E+00
         0.00000E+00
         0.00000E+00
         0.00000E+00
         0.00000E+00
         0.00000E+00
         0.00000E+00
         0.00000E+00
         0.00000E+00
         0.00000E+00
         0.00000E+00
         0.00000E+00
         0.00000E+00
         0.00000E+00
         0.00000E+00
         0.00000E+00
         0.00000E+00
         0.00000E+00
         0.00000E+00
         0.00000E+00
         0.00000E+00
         0.00000E+00
         0.00000E+00
         0.00000E+00
         0.00000E+00
         0.00000E+00
         0.00000E+00
         0.00000E+00
         0.00000E+00
         0.00000E+00
         0.00000E+00
         0.00000E+00
         0.00000E+00
         0.00000E+00
         0.00000E+00
         0.00000E+00
         0.00000E+00
         0.00000E+00
         0.00000E+00
         0.00000E+00
         0.00000E+00
         0.00000E+00
         0.00000E+00
         0.00000E+00
         0.00000E+00
         0.00000E+00
         0.00000E+00
         0.00000E+00
         0.00000E+00
         0.00000E+00
         0.00000E+00
         0.00000E+00
         0.00000E+00
         0.00000E+00
         0.00000E+00
         0.00000E+00
         0.00000E+00
         0.00000E+00
         0.00000E+00
         0.00000E+00
         0.00000E+00
         0.00000E+00
         0.00000E+00
         0.00000E+00
         0.00000E+00
         0.00000E+00
         0.00000E+00
         0.00000E+00
         0.00000E+00
         0.00000E+00
         0.00000E+00
         0.00000E+00
         0.00000E+00
         0.00000E+00
         0.00000E+00
         0.00000E+00
         0.00000E+00
         0.00000E+00
         0.00000E+00
         0.00000E+00
         0.00000E+00
         0.00000E+00
         0.00000E+00
         0.00000E+00
         0.00000E+00
         0.00000E+00
         0.00000E+00
         0.00000E+00
         0.00000E+00
         0.00000E+00
         0.00000E+00
         0.00000E+00
         0.00000E+00
         0.00000E+00
         0.00000E+00
         0.00000E+00
         0.00000E+00
         0.00000E+00
         0.00000E+00
         0.00000E+00
         0.00000E+00
         0.00000E+00
         0.00000E+00
         0.00000E+00
         0.00000E+00
         0.00000E+00
         0.00000E+00
         0.00000E+00
         0.00000E+00
         0.00000E+00
         0.00000E+00
         0.00000E+00
         0.00000E+00
         0.00000E+00
         0.00000E+00
         0.00000E+00
         0.00000E+00
         0.00000E+00
         0.00000E+00
         0.00000E+00
         0.00000E+00
         0.00000E+00
         0.00000E+00
         0.00000E+00
         0.00000E+00
         0.00000E+00
         0.00000E+00
         0.00000E+00
         0.00000E+00
         0.00000E+00
         0.00000E+00
         0.00000E+00
         0.00000E+00
         0.00000E+00
         0.00000E+00
         0.00000E+00
         0.00000E+00
         0.00000E+00
         0.00000E+00
         0.00000E+00
         0.00000E+00
         0.00000E+00
         0.00000E+00
         0.00000E+00
         0.00000E+00
         0.00000E+00
         0.00000E+00
         0.00000E+00
         0.00000E+00
         0.00000E+00
         0.00000E+00
         0.00000E+00
         0.00000E+00
         0.00000E+00
         0.00000E+00
         0.00000E+00
         0.00000E+00
         0.00000E+00
         0.00000E+00
         0.00000E+00
         0.00000E+00
         0.00000E+00
         0.00000E+00
         0.00000E+00
         0.00000E+00
         0.00000E+00
         0.00000E+00
         0.00000E+00
         0.00000E+00
         0.00000E+00
         0.00000E+00
         0.00000E+00
         0.00000E+00
         0.00000E+00
         0.00000E+00
         0.00000E+00
         0.00000E+00
         0.00000E+00
         0.00000E+00
         0.00000E+00
         0.00000E+00
         0.00000E+00
         0.00000E+00
         0.00000E+00
         0.00000E+00
         0.00000E+00
         0.00000E+00
         0.00000E+00
         0.00000E+00
         0.00000E+00
         0.00000E+00
         0.00000E+00
         0.00000E+00
         0.00000E+00
         0.00000E+00
         0.00000E+00
         0.00000E+00
         0.00000E+00
         0.00000E+00
         0.00000E+00
         0.00000E+00
         0.00000E+00
         0.00000E+00
         0.00000E+00
         0.00000E+00
         0.00000E+00
         0.00000E+00
         0.00000E+00
         0.00000E+00
         0.00000E+00
         0.00000E+00
         0.00000E+00
         0.00000E+00
         0.00000E+00
         0.00000E+00
         0.00000E+00
         0.00000E+00
         0.00000E+00
         0.00000E+00
         0.00000E+00
         0.00000E+00
         0.00000E+00
         0.00000E+00
         0.00000E+00
         0.00000E+00
         0.00000E+00
         0.00000E+00
         0.00000E+00
         0.00000E+00
         0.00000E+00
         0.00000E+00
         0.00000E+00
         0.00000E+00
         0.00000E+00
         0.00000E+00
         0.00000E+00
         0.00000E+00
         0.00000E+00
         0.00000E+00
         0.00000E+00
         0.00000E+00
         0.00000E+00
         0.00000E+00
         0.00000E+00
         0.00000E+00
         0.00000E+00
         0.00000E+00
         0.00000E+00
         0.00000E+00
         0.00000E+00
         0.00000E+00
         0.00000E+00
         0.00000E+00
         0.00000E+00
         0.00000E+00
         0.00000E+00
         0.00000E+00
         0.00000E+00
         0.00000E+00
         0.00000E+00
         0.00000E+00
         0.00000E+00
         0.00000E+00
         0.00000E+00
         0.00000E+00
         0.00000E+00
         0.00000E+00
         0.00000E+00
         0.00000E+00
         0.00000E+00
         0.00000E+00
         0.00000E+00
         0.00000E+00
         0.00000E+00
         0.00000E+00
         0.00000E+00
         0.00000E+00
         0.00000E+00
         0.00000E+00
         0.00000E+00
         0.00000E+00
         0.00000E+00
         0.00000E+00
         0.00000E+00
         0.00000E+00
         0.00000E+00
         0.00000E+00
         0.00000E+00
         0.00000E+00
         0.00000E+00
         0.00000E+00
         0.00000E+00
         0.00000E+00
         0.00000E+00
         0.00000E+00
         0.00000E+00
         0.00000E+00
         0.00000E+00
         0.00000E+00
         0.00000E+00
         0.00000E+00
         0.00000E+00
         0.00000E+00
         0.00000E+00
         0.00000E+00
         0.00000E+00
         0.00000E+00
         0.00000E+00
         0.00000E+00
         0.00000E+00
         0.00000E+00
         0.00000E+00
         0.00000E+00
         0.00000E+00
         0.00000E+00
         0.00000E+00
         0.00000E+00
         0.00000E+00
         0.00000E+00
         0.00000E+00
         0.00000E+00
         0.00000E+00
         0.00000E+00
         0.00000E+00
         0.00000E+00
         0.00000E+00
         0.00000E+00
         0.00000E+00
         0.00000E+00
         0.00000E+00
         0.00000E+00
         0.00000E+00
         0.00000E+00
         0.00000E+00
         0.00000E+00
         0.00000E+00
         0.00000E+00
         0.00000E+00
         0.00000E+00
         0.00000E+00
         0.00000E+00
         0.00000E+00
         0.00000E+00
         0.00000E+00
         0.00000E+00
         0.00000E+00
         0.00000E+00
         0.00000E+00
         0.00000E+00
         0.00000E+00
         0.00000E+00
         0.00000E+00
         0.00000E+00
         0.00000E+00
         0.00000E+00
         0.00000E+00
         0.00000E+00
         0.00000E+00
         0.00000E+00
         0.00000E+00
         0.00000E+00
         0.00000E+00
         0.00000E+00
         0.00000E+00
         0.00000E+00
         0.00000E+00
         0.00000E+00
         0.00000E+00
         0.00000E+00
         0.00000E+00
         0.00000E+00
         0.00000E+00
         0.00000E+00
         0.00000E+00
         0.00000E+00
         0.00000E+00
         0.00000E+00
         0.00000E+00
         0.00000E+00
         0.00000E+00
         0.00000E+00
         0.00000E+00
         0.00000E+00
         0.00000E+00
         0.00000E+00
         0.00000E+00
         0.00000E+00
         0.00000E+00
         0.00000E+00
         0.00000E+00
         0.00000E+00
         0.00000E+00
         0.00000E+00
         0.00000E+00
         0.00000E+00
         0.00000E+00
         0.00000E+00
         0.00000E+00
         0.00000E+00
         0.00000E+00
         0.00000E+00
         0.00000E+00
         0.00000E+00
         0.00000E+00
         0.00000E+00
         0.00000E+00
         0.00000E+00
         0.00000E+00
         0.00000E+00
         0.00000E+00
         0.00000E+00
         0.00000E+00
         0.00000E+00
         0.00000E+00
         0.00000E+00
         0.00000E+00
         0.00000E+00
         0.00000E+00
         0.00000E+00
         0.00000E+00
         0.00000E+00
         0.00000E+00
         0.00000E+00
         0.00000E+00
         0.00000E+00
         0.00000E+00
         0.00000E+00
         0.00000E+00
         0.00000E+00
         0.00000E+00
         0.00000E+00
         0.00000E+00
         0.00000E+00
         0.00000E+00
         0.00000E+00
         0.00000E+00
         0.00000E+00
         0.00000E+00
         0.00000E+00
         0.00000E+00
         0.00000E+00
         0.00000E+00
         0.00000E+00
         0.00000E+00
         0.00000E+00
         0.00000E+00
         0.00000E+00
         0.00000E+00
         0.00000E+00
         0.00000E+00
         0.00000E+00
         0.00000E+00
         0.00000E+00
         0.00000E+00
         0.00000E+00
         0.00000E+00
         0.00000E+00
         0.00000E+00
         0.00000E+00
         0.00000E+00
         0.00000E+00
         0.00000E+00
         0.00000E+00
         0.00000E+00
         0.00000E+00
         0.00000E+00
         0.00000E+00
         0.00000E+00
         0.00000E+00
         0.00000E+00
         0.00000E+00
         0.00000E+00
         0.00000E+00
         0.00000E+00
         0.00000E+00
         0.00000E+00
         0.00000E+00
         0.00000E+00
         0.00000E+00
         0.00000E+00
         0.00000E+00
         0.00000E+00
         0.00000E+00
         0.00000E+00
         0.00000E+00
         0.00000E+00
         0.00000E+00
         0.00000E+00
         0.00000E+00
         0.00000E+00
         0.00000E+00
         0.00000E+00
         0.00000E+00
         0.00000E+00
         0.00000E+00
         0.00000E+00
         0.00000E+00
         0.00000E+00
         0.00000E+00
         0.00000E+00
         0.00000E+00
         0.00000E+00
         0.00000E+00
         0.00000E+00
         0.00000E+00
         0.00000E+00
         0.00000E+00
         0.00000E+00
         0.00000E+00
         0.00000E+00
         0.00000E+00
         0.00000E+00
         0.00000E+00
         0.00000E+00
         0.00000E+00
         0.00000E+00
         0.00000E+00
         0.00000E+00
         0.00000E+00
         0.00000E+00
         0.00000E+00
         0.00000E+00
         0.00000E+00
         0.00000E+00
         0.00000E+00
         0.00000E+00
         0.00000E+00
         0.00000E+00
         0.00000E+00
         0.00000E+00
         0.00000E+00
         0.00000E+00
         0.00000E+00
         0.00000E+00
         0.00000E+00
         0.00000E+00
         0.00000E+00
         0.00000E+00
         0.00000E+00
         0.00000E+00
         0.00000E+00
         0.00000E+00
         0.00000E+00
         0.00000E+00
         0.00000E+00
         0.00000E+00
         0.00000E+00
         0.00000E+00
         0.00000E+00
         0.00000E+00
         0.00000E+00
         0.00000E+00
         0.00000E+00
         0.00000E+00
         0.00000E+00
         0.00000E+00
         0.00000E+00
         0.00000E+00
         0.00000E+00
         0.00000E+00
         0.00000E+00
         0.00000E+00
         0.00000E+00
         0.00000E+00
         0.00000E+00
         0.00000E+00
         0.00000E+00
         0.00000E+00
         0.00000E+00
         0.00000E+00
         0.00000E+00
         0.00000E+00
         0.00000E+00
         0.00000E+00
         0.00000E+00
         0.00000E+00
         0.00000E+00
         0.00000E+00
         0.00000E+00
         0.00000E+00
         0.00000E+00
         0.00000E+00
         0.00000E+00
         0.00000E+00
         0.00000E+00
         0.00000E+00
         0.00000E+00
         0.00000E+00
         0.00000E+00
         0.00000E+00
         0.00000E+00
         0.00000E+00
         0.00000E+00
         0.00000E+00
         0.00000E+00
         0.00000E+00
         0.00000E+00
         0.00000E+00
         0.00000E+00
         0.00000E+00
         0.00000E+00
         0.00000E+00
         0.00000E+00
         0.00000E+00
         0.00000E+00
         0.00000E+00
         0.00000E+00
         0.00000E+00
         0.00000E+00
         0.00000E+00
         0.00000E+00
         0.00000E+00
         0.00000E+00
         0.00000E+00
         0.00000E+00
         0.00000E+00
         0.00000E+00
         0.00000E+00
         0.00000E+00
         0.00000E+00
         0.00000E+00
         0.00000E+00
         0.00000E+00
         0.00000E+00
         0.00000E+00
         0.00000E+00
         0.00000E+00
         0.00000E+00
         0.00000E+00
         0.00000E+00
         0.00000E+00
         0.00000E+00
         0.00000E+00
         0.00000E+00
         0.00000E+00
         0.00000E+00
         0.00000E+00
         0.00000E+00
         0.00000E+00
         0.00000E+00
         0.00000E+00
         0.00000E+00
         0.00000E+00
         0.00000E+00
         0.00000E+00
         0.00000E+00
         0.00000E+00
         0.00000E+00
         0.00000E+00
         0.00000E+00
         0.00000E+00
         0.00000E+00
         0.00000E+00
         0.00000E+00
         0.00000E+00
         0.00000E+00
         0.00000E+00
         0.00000E+00
         0.00000E+00
         0.00000E+00
         0.00000E+00
         0.00000E+00
         0.00000E+00
         0.00000E+00
         0.00000E+00
         0.00000E+00
         0.00000E+00
         0.00000E+00
         0.00000E+00
         0.00000E+00
         0.00000E+00
         0.00000E+00
         0.00000E+00
         0.00000E+00
         0.00000E+00
         0.00000E+00
         0.00000E+00
         0.00000E+00
         0.00000E+00
         0.00000E+00
         0.00000E+00
         0.00000E+00
         0.00000E+00
         0.00000E+00
         0.00000E+00
         0.00000E+00
         0.00000E+00
         0.00000E+00
         0.00000E+00
         0.00000E+00
         0.00000E+00
         0.00000E+00
         0.00000E+00
         0.00000E+00
         0.00000E+00
         0.00000E+00
         0.00000E+00
         0.00000E+00
         0.00000E+00
         0.00000E+00
         0.00000E+00
         0.00000E+00
         0.00000E+00
         0.00000E+00
         0.00000E+00
         0.00000E+00
         0.00000E+00
         0.00000E+00
         0.00000E+00
         0.00000E+00
         0.00000E+00
         0.00000E+00
         0.00000E+00
         0.00000E+00
         0.00000E+00
         0.00000E+00
         0.00000E+00
         0.00000E+00
         0.00000E+00
         0.00000E+00
         0.00000E+00
         0.00000E+00
         0.00000E+00
         0.00000E+00
         0.00000E+00
         0.00000E+00
         0.00000E+00
         0.00000E+00
         0.00000E+00
         0.00000E+00
         0.00000E+00
         0.00000E+00
         0.00000E+00
         0.00000E+00
         0.00000E+00
         0.00000E+00
         0.00000E+00
         0.00000E+00
         0.00000E+00
         0.00000E+00
         0.00000E+00
         0.00000E+00
         0.00000E+00
         0.00000E+00
         0.00000E+00
         0.00000E+00
         0.00000E+00
         0.00000E+00
         0.00000E+00
         0.00000E+00
         0.00000E+00
         0.00000E+00
         0.00000E+00
         0.00000E+00
         0.00000E+00
         0.00000E+00
         0.00000E+00
         0.00000E+00
         0.00000E+00
         0.00000E+00
         0.00000E+00
         0.00000E+00
         0.00000E+00
         0.00000E+00
         0.00000E+00
         0.00000E+00
         0.00000E+00
         0.00000E+00
         0.00000E+00
         0.00000E+00
         0.00000E+00
         0.00000E+00
         0.00000E+00
         0.00000E+00
         0.00000E+00
         0.00000E+00
         0.00000E+00
         0.00000E+00
         0.00000E+00
         0.00000E+00
         0.00000E+00
         0.00000E+00
         0.00000E+00
         0.00000E+00
         0.00000E+00
         0.00000E+00
         0.00000E+00
         0.00000E+00
         0.00000E+00
         0.00000E+00
         0.00000E+00
         0.00000E+00
         0.00000E+00
         0.00000E+00
         0.00000E+00
         0.00000E+00
         0.00000E+00
         0.00000E+00
         0.00000E+00
         0.00000E+00
         0.00000E+00
         0.00000E+00
         0.00000E+00
         0.00000E+00
         0.00000E+00
         0.00000E+00
         0.00000E+00
         0.00000E+00
         0.00000E+00
         0.00000E+00
         0.00000E+00
         0.00000E+00
         0.00000E+00
         0.00000E+00
         0.00000E+00
         0.00000E+00
         0.00000E+00
         0.00000E+00
         0.00000E+00
         0.00000E+00
         0.00000E+00
         0.00000E+00
         0.00000E+00
         0.00000E+00
         0.00000E+00
         0.00000E+00
         0.00000E+00
         0.00000E+00
         0.00000E+00
         0.00000E+00
         0.00000E+00
         0.00000E+00
         0.00000E+00
         0.00000E+00
         0.00000E+00
         0.00000E+00
         0.00000E+00
         0.00000E+00
         0.00000E+00
         0.00000E+00
         0.00000E+00
         0.00000E+00
         0.00000E+00
         0.00000E+00
         0.00000E+00
         0.00000E+00
         0.00000E+00
         0.00000E+00
         0.00000E+00
         0.00000E+00
         0.00000E+00
         0.00000E+00
         0.00000E+00
         0.00000E+00
         0.00000E+00
         0.00000E+00
         0.00000E+00
         0.00000E+00
         0.00000E+00
         0.00000E+00
         0.00000E+00
         0.00000E+00
         0.00000E+00
         0.00000E+00
         0.00000E+00
         0.00000E+00
         0.00000E+00
         0.00000E+00
         0.00000E+00
         0.00000E+00
         0.00000E+00
         0.00000E+00
         0.00000E+00
         0.00000E+00
         0.00000E+00
         0.00000E+00
         0.00000E+00
         0.00000E+00
         0.00000E+00
         0.00000E+00
         0.00000E+00
         0.00000E+00
         0.00000E+00
         0.00000E+00
         0.00000E+00
         0.00000E+00
         0.00000E+00
         0.00000E+00
         0.00000E+00
         0.00000E+00
         0.00000E+00
         0.00000E+00
         0.00000E+00
         0.00000E+00
         0.00000E+00
         0.00000E+00
         0.00000E+00
         0.00000E+00
         0.00000E+00
         0.00000E+00
         0.00000E+00
         0.00000E+00
         0.00000E+00
         0.00000E+00
         0.00000E+00
         0.00000E+00
         0.00000E+00
         0.00000E+00
         0.00000E+00
         0.00000E+00
         0.00000E+00
         0.00000E+00
         0.00000E+00
         0.00000E+00
         0.00000E+00
         0.00000E+00
         0.00000E+00
         0.00000E+00
         0.00000E+00
         0.00000E+00
         0.00000E+00
         0.00000E+00
         0.00000E+00
         0.00000E+00
         0.00000E+00
         0.00000E+00
         0.00000E+00
         0.00000E+00
         0.00000E+00
         0.00000E+00
         0.00000E+00
         0.00000E+00
         0.00000E+00
         0.00000E+00
         0.00000E+00
         0.00000E+00
         0.00000E+00
         0.00000E+00
         0.00000E+00
         0.00000E+00
         0.00000E+00
         0.00000E+00
         0.00000E+00
         0.00000E+00
         0.00000E+00
         0.00000E+00
         0.00000E+00
         0.00000E+00
         0.00000E+00
         0.00000E+00
         0.00000E+00
         0.00000E+00
         0.00000E+00
         0.00000E+00
         0.00000E+00
         0.00000E+00
         0.00000E+00
         0.00000E+00
         0.00000E+00
         0.00000E+00
         0.00000E+00
         0.00000E+00
         0.00000E+00
         0.00000E+00
         0.00000E+00
         0.00000E+00
         0.00000E+00
         0.00000E+00
         0.00000E+00
         0.00000E+00
         0.00000E+00
         0.00000E+00
         0.00000E+00
         0.00000E+00
         0.00000E+00
         0.00000E+00
         0.00000E+00
         0.00000E+00
         0.00000E+00
         0.00000E+00
         0.00000E+00
         0.00000E+00
         0.00000E+00
         0.00000E+00
         0.00000E+00
         0.00000E+00
         0.00000E+00
         0.00000E+00
         0.00000E+00
         0.00000E+00
         0.00000E+00
         0.00000E+00
         0.00000E+00
         0.00000E+00
         0.00000E+00
         0.00000E+00
         0.00000E+00
         0.00000E+00
         0.00000E+00
         0.00000E+00
         0.00000E+00
         0.00000E+00
         0.00000E+00
         0.00000E+00
         0.00000E+00
         0.00000E+00
         0.00000E+00
         0.00000E+00
         0.00000E+00
         0.00000E+00
         0.00000E+00
         0.00000E+00
         0.00000E+00
         0.00000E+00
         0.00000E+00
         0.00000E+00
         0.00000E+00
         0.00000E+00
         0.00000E+00
         0.00000E+00
         0.00000E+00
         0.00000E+00
         0.00000E+00
         0.00000E+00
         0.00000E+00
         0.00000E+00
         0.00000E+00
         0.00000E+00
         0.00000E+00
         0.00000E+00
         0.00000E+00
         0.00000E+00
         0.00000E+00
         0.00000E+00
         0.00000E+00
         0.00000E+00
         0.00000E+00
         0.00000E+00
         0.00000E+00
         0.00000E+00
         0.00000E+00
         0.00000E+00
         0.00000E+00
         0.00000E+00
         0.00000E+00
         0.00000E+00
         0.00000E+00
         0.00000E+00
         0.00000E+00
         0.00000E+00
         0.00000E+00
         0.00000E+00
         0.00000E+00
         0.00000E+00
         0.00000E+00
         0.00000E+00
         0.00000E+00
         0.00000E+00
         0.00000E+00
         0.00000E+00
         0.00000E+00
         0.00000E+00
         0.00000E+00
         0.00000E+00
         0.00000E+00
         0.00000E+00
         0.00000E+00
         0.00000E+00
         0.00000E+00
         0.00000E+00
         0.00000E+00
         0.00000E+00
         0.00000E+00
         0.00000E+00
         0.00000E+00
         0.00000E+00
         0.00000E+00
         0.00000E+00
         0.00000E+00
         0.00000E+00
         0.00000E+00
         0.00000E+00
         0.00000E+00
         0.00000E+00
         0.00000E+00
         0.00000E+00
         0.00000E+00
         0.00000E+00
         0.00000E+00
         0.00000E+00
         0.00000E+00
         0.00000E+00
         0.00000E+00
         0.00000E+00
         0.00000E+00
         0.00000E+00
         0.00000E+00
         0.00000E+00
         0.00000E+00
         0.00000E+00
         0.00000E+00
         0.00000E+00
         0.00000E+00
         0.00000E+00
         0.00000E+00
         0.00000E+00
         0.00000E+00
         0.00000E+00
         0.00000E+00
         0.00000E+00
         0.00000E+00
         0.00000E+00
         0.00000E+00
         0.00000E+00
         0.00000E+00
         0.00000E+00
         0.00000E+00
         0.00000E+00
         0.00000E+00
         0.00000E+00
         0.00000E+00
         0.00000E+00
         0.00000E+00
         0.00000E+00
         0.00000E+00
         0.00000E+00
         0.00000E+00
         0.00000E+00
         0.00000E+00
         0.00000E+00
         0.00000E+00
         0.00000E+00
         0.00000E+00
         0.00000E+00
         0.00000E+00
         0.00000E+00
         0.00000E+00
         0.00000E+00
         0.00000E+00
         0.00000E+00
         0.00000E+00
         0.00000E+00
         0.00000E+00
         0.00000E+00
         0.00000E+00
         0.00000E+00
         0.00000E+00
         0.00000E+00
         0.00000E+00
         0.00000E+00
         0.00000E+00
         0.00000E+00
         0.00000E+00
         0.00000E+00
         0.00000E+00
         0.00000E+00
         0.00000E+00
         0.00000E+00
         0.00000E+00
         0.00000E+00
         0.00000E+00
         0.00000E+00
         0.00000E+00
         0.00000E+00
         0.00000E+00
         0.00000E+00
         0.00000E+00
  
SCALARS                         fint_x  double 1
LOOKUP_TABLE default
         0.00000E+00
         0.00000E+00
         0.00000E+00
         0.00000E+00
         0.00000E+00
         0.00000E+00
         0.00000E+00
         0.00000E+00
         0.00000E+00
         0.00000E+00
         0.00000E+00
         0.00000E+00
         0.00000E+00
         0.00000E+00
         0.00000E+00
         0.00000E+00
         0.00000E+00
         0.00000E+00
         0.00000E+00
         0.00000E+00
         0.00000E+00
         0.00000E+00
         0.00000E+00
         0.00000E+00
         0.00000E+00
         0.00000E+00
         0.00000E+00
         0.00000E+00
         0.00000E+00
         0.00000E+00
         0.00000E+00
         0.00000E+00
         0.00000E+00
         0.00000E+00
         0.00000E+00
         0.00000E+00
         0.00000E+00
         0.00000E+00
         0.00000E+00
         0.00000E+00
         0.00000E+00
         0.00000E+00
         0.00000E+00
         0.00000E+00
         0.00000E+00
         0.00000E+00
         0.00000E+00
         0.00000E+00
         0.00000E+00
         0.00000E+00
         0.00000E+00
         0.00000E+00
         0.00000E+00
         0.00000E+00
         0.00000E+00
         0.00000E+00
         0.00000E+00
         0.00000E+00
         0.00000E+00
         0.00000E+00
         0.00000E+00
         0.00000E+00
         0.00000E+00
         0.00000E+00
         0.00000E+00
         0.00000E+00
         0.00000E+00
         0.00000E+00
         0.00000E+00
         0.00000E+00
         0.00000E+00
         0.00000E+00
         0.00000E+00
         0.00000E+00
         0.00000E+00
         0.00000E+00
         0.00000E+00
         0.00000E+00
         0.00000E+00
         0.00000E+00
         0.00000E+00
         0.00000E+00
         0.00000E+00
         0.00000E+00
         0.00000E+00
         0.00000E+00
         0.00000E+00
         0.00000E+00
         0.00000E+00
         0.00000E+00
         0.00000E+00
         0.00000E+00
         0.00000E+00
         0.00000E+00
         0.00000E+00
         0.00000E+00
         0.00000E+00
         0.00000E+00
         0.00000E+00
         0.00000E+00
         0.00000E+00
         0.00000E+00
         0.00000E+00
         0.00000E+00
         0.00000E+00
         0.00000E+00
         0.00000E+00
         0.00000E+00
         0.00000E+00
         0.00000E+00
         0.00000E+00
         0.00000E+00
         0.00000E+00
         0.00000E+00
         0.00000E+00
         0.00000E+00
         0.00000E+00
         0.00000E+00
         0.00000E+00
         0.00000E+00
         0.00000E+00
         0.00000E+00
         0.00000E+00
         0.00000E+00
         0.00000E+00
         0.00000E+00
         0.00000E+00
         0.00000E+00
         0.00000E+00
         0.00000E+00
         0.00000E+00
         0.00000E+00
         0.00000E+00
         0.00000E+00
         0.00000E+00
         0.00000E+00
         0.00000E+00
         0.00000E+00
         0.00000E+00
         0.00000E+00
         0.00000E+00
         0.00000E+00
         0.00000E+00
         0.00000E+00
         0.00000E+00
         0.00000E+00
         0.00000E+00
         0.00000E+00
         0.00000E+00
         0.00000E+00
         0.00000E+00
         0.00000E+00
         0.00000E+00
         0.00000E+00
         0.00000E+00
         0.00000E+00
         0.00000E+00
         0.00000E+00
         0.00000E+00
         0.00000E+00
         0.00000E+00
         0.00000E+00
         0.00000E+00
         0.00000E+00
         0.00000E+00
         0.00000E+00
         0.00000E+00
         0.00000E+00
         0.00000E+00
         0.00000E+00
         0.00000E+00
         0.00000E+00
         0.00000E+00
         0.00000E+00
         0.00000E+00
         0.00000E+00
         0.00000E+00
         0.00000E+00
         0.00000E+00
         0.00000E+00
         0.00000E+00
         0.00000E+00
         0.00000E+00
         0.00000E+00
         0.00000E+00
         0.00000E+00
         0.00000E+00
         0.00000E+00
         0.00000E+00
         0.00000E+00
         0.00000E+00
         0.00000E+00
         0.00000E+00
         0.00000E+00
         0.00000E+00
         0.00000E+00
         0.00000E+00
         0.00000E+00
         0.00000E+00
         0.00000E+00
         0.00000E+00
         0.00000E+00
         0.00000E+00
         0.00000E+00
         0.00000E+00
         0.00000E+00
         0.00000E+00
         0.00000E+00
         0.00000E+00
         0.00000E+00
         0.00000E+00
         0.00000E+00
         0.00000E+00
         0.00000E+00
         0.00000E+00
         0.00000E+00
         0.00000E+00
         0.00000E+00
         0.00000E+00
         0.00000E+00
         0.00000E+00
         0.00000E+00
         0.00000E+00
         0.00000E+00
         0.00000E+00
         0.00000E+00
         0.00000E+00
         0.00000E+00
         0.00000E+00
         0.00000E+00
         0.00000E+00
         0.00000E+00
         0.00000E+00
         0.00000E+00
         0.00000E+00
         0.00000E+00
         0.00000E+00
         0.00000E+00
         0.00000E+00
         0.00000E+00
         0.00000E+00
         0.00000E+00
         0.00000E+00
         0.00000E+00
         0.00000E+00
         0.00000E+00
         0.00000E+00
         0.00000E+00
         0.00000E+00
         0.00000E+00
         0.00000E+00
         0.00000E+00
         0.00000E+00
         0.00000E+00
         0.00000E+00
         0.00000E+00
         0.00000E+00
         0.00000E+00
         0.00000E+00
         0.00000E+00
         0.00000E+00
         0.00000E+00
         0.00000E+00
         0.00000E+00
         0.00000E+00
         0.00000E+00
         0.00000E+00
         0.00000E+00
         0.00000E+00
         0.00000E+00
         0.00000E+00
         0.00000E+00
         0.00000E+00
         0.00000E+00
         0.00000E+00
         0.00000E+00
         0.00000E+00
         0.00000E+00
         0.00000E+00
         0.00000E+00
         0.00000E+00
         0.00000E+00
         0.00000E+00
         0.00000E+00
         0.00000E+00
         0.00000E+00
         0.00000E+00
         0.00000E+00
         0.00000E+00
         0.00000E+00
         0.00000E+00
         0.00000E+00
         0.00000E+00
         0.00000E+00
         0.00000E+00
         0.00000E+00
         0.00000E+00
         0.00000E+00
         0.00000E+00
         0.00000E+00
         0.00000E+00
         0.00000E+00
         0.00000E+00
         0.00000E+00
         0.00000E+00
         0.00000E+00
         0.00000E+00
         0.00000E+00
         0.00000E+00
         0.00000E+00
         0.00000E+00
         0.00000E+00
         0.00000E+00
         0.00000E+00
         0.00000E+00
         0.00000E+00
         0.00000E+00
         0.00000E+00
         0.00000E+00
         0.00000E+00
         0.00000E+00
         0.00000E+00
         0.00000E+00
         0.00000E+00
         0.00000E+00
         0.00000E+00
         0.00000E+00
         0.00000E+00
         0.00000E+00
         0.00000E+00
         0.00000E+00
         0.00000E+00
         0.00000E+00
         0.00000E+00
         0.00000E+00
         0.00000E+00
         0.00000E+00
         0.00000E+00
         0.00000E+00
         0.00000E+00
         0.00000E+00
         0.00000E+00
         0.00000E+00
         0.00000E+00
         0.00000E+00
         0.00000E+00
         0.00000E+00
         0.00000E+00
         0.00000E+00
         0.00000E+00
         0.00000E+00
         0.00000E+00
         0.00000E+00
         0.00000E+00
         0.00000E+00
         0.00000E+00
         0.00000E+00
         0.00000E+00
         0.00000E+00
         0.00000E+00
         0.00000E+00
         0.00000E+00
         0.00000E+00
         0.00000E+00
         0.00000E+00
         0.00000E+00
         0.00000E+00
         0.00000E+00
         0.00000E+00
         0.00000E+00
         0.00000E+00
         0.00000E+00
         0.00000E+00
         0.00000E+00
         0.00000E+00
         0.00000E+00
         0.00000E+00
         0.00000E+00
         0.00000E+00
         0.00000E+00
         0.00000E+00
         0.00000E+00
         0.00000E+00
         0.00000E+00
         0.00000E+00
         0.00000E+00
         0.00000E+00
         0.00000E+00
         0.00000E+00
         0.00000E+00
         0.00000E+00
         0.00000E+00
         0.00000E+00
         0.00000E+00
         0.00000E+00
         0.00000E+00
         0.00000E+00
         0.00000E+00
         0.00000E+00
         0.00000E+00
         0.00000E+00
         0.00000E+00
         0.00000E+00
         0.00000E+00
         0.00000E+00
         0.00000E+00
         0.00000E+00
         0.00000E+00
         0.00000E+00
         0.00000E+00
         0.00000E+00
         0.00000E+00
         0.00000E+00
         0.00000E+00
         0.00000E+00
         0.00000E+00
         0.00000E+00
         0.00000E+00
         0.00000E+00
         0.00000E+00
         0.00000E+00
         0.00000E+00
         0.00000E+00
         0.00000E+00
         0.00000E+00
         0.00000E+00
         0.00000E+00
         0.00000E+00
         0.00000E+00
         0.00000E+00
         0.00000E+00
         0.00000E+00
         0.00000E+00
         0.00000E+00
         0.00000E+00
         0.00000E+00
         0.00000E+00
         0.00000E+00
         0.00000E+00
         0.00000E+00
         0.00000E+00
         0.00000E+00
         0.00000E+00
         0.00000E+00
         0.00000E+00
         0.00000E+00
         0.00000E+00
         0.00000E+00
         0.00000E+00
         0.00000E+00
         0.00000E+00
         0.00000E+00
         0.00000E+00
         0.00000E+00
         0.00000E+00
         0.00000E+00
         0.00000E+00
         0.00000E+00
         0.00000E+00
         0.00000E+00
         0.00000E+00
         0.00000E+00
         0.00000E+00
         0.00000E+00
         0.00000E+00
         0.00000E+00
         0.00000E+00
         0.00000E+00
         0.00000E+00
         0.00000E+00
         0.00000E+00
         0.00000E+00
         0.00000E+00
         0.00000E+00
         0.00000E+00
         0.00000E+00
         0.00000E+00
         0.00000E+00
         0.00000E+00
         0.00000E+00
         0.00000E+00
         0.00000E+00
         0.00000E+00
         0.00000E+00
         0.00000E+00
         0.00000E+00
         0.00000E+00
         0.00000E+00
         0.00000E+00
         0.00000E+00
         0.00000E+00
         0.00000E+00
         0.00000E+00
         0.00000E+00
         0.00000E+00
         0.00000E+00
         0.00000E+00
         0.00000E+00
         0.00000E+00
         0.00000E+00
         0.00000E+00
         0.00000E+00
         0.00000E+00
         0.00000E+00
         0.00000E+00
         0.00000E+00
         0.00000E+00
         0.00000E+00
         0.00000E+00
         0.00000E+00
         0.00000E+00
         0.00000E+00
         0.00000E+00
         0.00000E+00
         0.00000E+00
         0.00000E+00
         0.00000E+00
         0.00000E+00
         0.00000E+00
         0.00000E+00
         0.00000E+00
         0.00000E+00
         0.00000E+00
         0.00000E+00
         0.00000E+00
         0.00000E+00
         0.00000E+00
         0.00000E+00
         0.00000E+00
         0.00000E+00
         0.00000E+00
         0.00000E+00
         0.00000E+00
         0.00000E+00
         0.00000E+00
         0.00000E+00
         0.00000E+00
         0.00000E+00
         0.00000E+00
         0.00000E+00
         0.00000E+00
         0.00000E+00
         0.00000E+00
         0.00000E+00
         0.00000E+00
         0.00000E+00
         0.00000E+00
         0.00000E+00
         0.00000E+00
         0.00000E+00
         0.00000E+00
         0.00000E+00
         0.00000E+00
         0.00000E+00
         0.00000E+00
         0.00000E+00
         0.00000E+00
         0.00000E+00
         0.00000E+00
         0.00000E+00
         0.00000E+00
         0.00000E+00
         0.00000E+00
         0.00000E+00
         0.00000E+00
         0.00000E+00
         0.00000E+00
         0.00000E+00
         0.00000E+00
         0.00000E+00
         0.00000E+00
         0.00000E+00
         0.00000E+00
         0.00000E+00
         0.00000E+00
         0.00000E+00
         0.00000E+00
         0.00000E+00
         0.00000E+00
         0.00000E+00
         0.00000E+00
         0.00000E+00
         0.00000E+00
         0.00000E+00
         0.00000E+00
         0.00000E+00
         0.00000E+00
         0.00000E+00
         0.00000E+00
         0.00000E+00
         0.00000E+00
         0.00000E+00
         0.00000E+00
         0.00000E+00
         0.00000E+00
         0.00000E+00
         0.00000E+00
         0.00000E+00
         0.00000E+00
         0.00000E+00
         0.00000E+00
         0.00000E+00
         0.00000E+00
         0.00000E+00
         0.00000E+00
         0.00000E+00
         0.00000E+00
         0.00000E+00
         0.00000E+00
         0.00000E+00
         0.00000E+00
         0.00000E+00
         0.00000E+00
         0.00000E+00
         0.00000E+00
         0.00000E+00
         0.00000E+00
         0.00000E+00
         0.00000E+00
         0.00000E+00
         0.00000E+00
         0.00000E+00
         0.00000E+00
         0.00000E+00
         0.00000E+00
         0.00000E+00
         0.00000E+00
         0.00000E+00
         0.00000E+00
         0.00000E+00
         0.00000E+00
         0.00000E+00
         0.00000E+00
         0.00000E+00
         0.00000E+00
         0.00000E+00
         0.00000E+00
         0.00000E+00
         0.00000E+00
         0.00000E+00
         0.00000E+00
         0.00000E+00
         0.00000E+00
         0.00000E+00
         0.00000E+00
         0.00000E+00
         0.00000E+00
         0.00000E+00
         0.00000E+00
         0.00000E+00
         0.00000E+00
         0.00000E+00
         0.00000E+00
         0.00000E+00
         0.00000E+00
         0.00000E+00
         0.00000E+00
         0.00000E+00
         0.00000E+00
         0.00000E+00
         0.00000E+00
         0.00000E+00
         0.00000E+00
         0.00000E+00
         0.00000E+00
         0.00000E+00
         0.00000E+00
         0.00000E+00
         0.00000E+00
         0.00000E+00
         0.00000E+00
         0.00000E+00
         0.00000E+00
         0.00000E+00
         0.00000E+00
         0.00000E+00
         0.00000E+00
         0.00000E+00
         0.00000E+00
         0.00000E+00
         0.00000E+00
         0.00000E+00
         0.00000E+00
         0.00000E+00
         0.00000E+00
         0.00000E+00
         0.00000E+00
         0.00000E+00
         0.00000E+00
         0.00000E+00
         0.00000E+00
         0.00000E+00
         0.00000E+00
         0.00000E+00
         0.00000E+00
         0.00000E+00
         0.00000E+00
         0.00000E+00
         0.00000E+00
         0.00000E+00
         0.00000E+00
         0.00000E+00
         0.00000E+00
         0.00000E+00
         0.00000E+00
         0.00000E+00
         0.00000E+00
         0.00000E+00
         0.00000E+00
         0.00000E+00
         0.00000E+00
         0.00000E+00
         0.00000E+00
         0.00000E+00
         0.00000E+00
         0.00000E+00
         0.00000E+00
         0.00000E+00
         0.00000E+00
         0.00000E+00
         0.00000E+00
         0.00000E+00
         0.00000E+00
         0.00000E+00
         0.00000E+00
         0.00000E+00
         0.00000E+00
         0.00000E+00
         0.00000E+00
         0.00000E+00
         0.00000E+00
         0.00000E+00
         0.00000E+00
         0.00000E+00
         0.00000E+00
         0.00000E+00
         0.00000E+00
         0.00000E+00
         0.00000E+00
         0.00000E+00
         0.00000E+00
         0.00000E+00
         0.00000E+00
         0.00000E+00
         0.00000E+00
         0.00000E+00
         0.00000E+00
         0.00000E+00
         0.00000E+00
         0.00000E+00
         0.00000E+00
         0.00000E+00
         0.00000E+00
         0.00000E+00
         0.00000E+00
         0.00000E+00
         0.00000E+00
         0.00000E+00
         0.00000E+00
         0.00000E+00
         0.00000E+00
         0.00000E+00
         0.00000E+00
         0.00000E+00
         0.00000E+00
         0.00000E+00
         0.00000E+00
         0.00000E+00
         0.00000E+00
         0.00000E+00
         0.00000E+00
         0.00000E+00
         0.00000E+00
         0.00000E+00
         0.00000E+00
         0.00000E+00
         0.00000E+00
         0.00000E+00
         0.00000E+00
         0.00000E+00
         0.00000E+00
         0.00000E+00
         0.00000E+00
         0.00000E+00
         0.00000E+00
         0.00000E+00
         0.00000E+00
         0.00000E+00
         0.00000E+00
         0.00000E+00
         0.00000E+00
         0.00000E+00
         0.00000E+00
         0.00000E+00
         0.00000E+00
         0.00000E+00
         0.00000E+00
         0.00000E+00
         0.00000E+00
         0.00000E+00
         0.00000E+00
         0.00000E+00
         0.00000E+00
         0.00000E+00
         0.00000E+00
         0.00000E+00
         0.00000E+00
         0.00000E+00
         0.00000E+00
         0.00000E+00
         0.00000E+00
         0.00000E+00
         0.00000E+00
         0.00000E+00
         0.00000E+00
         0.00000E+00
         0.00000E+00
         0.00000E+00
         0.00000E+00
         0.00000E+00
         0.00000E+00
         0.00000E+00
         0.00000E+00
         0.00000E+00
         0.00000E+00
         0.00000E+00
         0.00000E+00
         0.00000E+00
         0.00000E+00
         0.00000E+00
         0.00000E+00
         0.00000E+00
         0.00000E+00
         0.00000E+00
         0.00000E+00
         0.00000E+00
         0.00000E+00
         0.00000E+00
         0.00000E+00
         0.00000E+00
         0.00000E+00
         0.00000E+00
         0.00000E+00
         0.00000E+00
         0.00000E+00
         0.00000E+00
         0.00000E+00
         0.00000E+00
         0.00000E+00
         0.00000E+00
         0.00000E+00
         0.00000E+00
         0.00000E+00
         0.00000E+00
         0.00000E+00
         0.00000E+00
         0.00000E+00
         0.00000E+00
         0.00000E+00
         0.00000E+00
         0.00000E+00
         0.00000E+00
         0.00000E+00
         0.00000E+00
         0.00000E+00
         0.00000E+00
         0.00000E+00
         0.00000E+00
         0.00000E+00
         0.00000E+00
         0.00000E+00
         0.00000E+00
         0.00000E+00
         0.00000E+00
         0.00000E+00
         0.00000E+00
         0.00000E+00
         0.00000E+00
         0.00000E+00
         0.00000E+00
         0.00000E+00
         0.00000E+00
         0.00000E+00
         0.00000E+00
         0.00000E+00
         0.00000E+00
         0.00000E+00
         0.00000E+00
         0.00000E+00
         0.00000E+00
         0.00000E+00
         0.00000E+00
         0.00000E+00
         0.00000E+00
         0.00000E+00
         0.00000E+00
         0.00000E+00
         0.00000E+00
         0.00000E+00
         0.00000E+00
         0.00000E+00
         0.00000E+00
         0.00000E+00
         0.00000E+00
         0.00000E+00
         0.00000E+00
         0.00000E+00
         0.00000E+00
         0.00000E+00
         0.00000E+00
         0.00000E+00
         0.00000E+00
         0.00000E+00
         0.00000E+00
         0.00000E+00
         0.00000E+00
         0.00000E+00
         0.00000E+00
         0.00000E+00
         0.00000E+00
         0.00000E+00
         0.00000E+00
         0.00000E+00
         0.00000E+00
         0.00000E+00
         0.00000E+00
         0.00000E+00
         0.00000E+00
         0.00000E+00
         0.00000E+00
         0.00000E+00
         0.00000E+00
         0.00000E+00
         0.00000E+00
         0.00000E+00
         0.00000E+00
         0.00000E+00
         0.00000E+00
         0.00000E+00
         0.00000E+00
         0.00000E+00
         0.00000E+00
         0.00000E+00
         0.00000E+00
         0.00000E+00
         0.00000E+00
         0.00000E+00
         0.00000E+00
         0.00000E+00
         0.00000E+00
         0.00000E+00
         0.00000E+00
         0.00000E+00
         0.00000E+00
         0.00000E+00
         0.00000E+00
         0.00000E+00
         0.00000E+00
         0.00000E+00
         0.00000E+00
         0.00000E+00
         0.00000E+00
         0.00000E+00
         0.00000E+00
         0.00000E+00
         0.00000E+00
         0.00000E+00
         0.00000E+00
         0.00000E+00
         0.00000E+00
         0.00000E+00
         0.00000E+00
         0.00000E+00
         0.00000E+00
         0.00000E+00
         0.00000E+00
         0.00000E+00
         0.00000E+00
         0.00000E+00
         0.00000E+00
         0.00000E+00
         0.00000E+00
         0.00000E+00
         0.00000E+00
         0.00000E+00
         0.00000E+00
         0.00000E+00
         0.00000E+00
         0.00000E+00
         0.00000E+00
         0.00000E+00
         0.00000E+00
         0.00000E+00
         0.00000E+00
         0.00000E+00
         0.00000E+00
         0.00000E+00
         0.00000E+00
         0.00000E+00
         0.00000E+00
         0.00000E+00
         0.00000E+00
         0.00000E+00
         0.00000E+00
         0.00000E+00
         0.00000E+00
         0.00000E+00
         0.00000E+00
         0.00000E+00
         0.00000E+00
         0.00000E+00
         0.00000E+00
         0.00000E+00
         0.00000E+00
         0.00000E+00
         0.00000E+00
         0.00000E+00
         0.00000E+00
         0.00000E+00
         0.00000E+00
         0.00000E+00
         0.00000E+00
         0.00000E+00
         0.00000E+00
         0.00000E+00
         0.00000E+00
         0.00000E+00
         0.00000E+00
         0.00000E+00
         0.00000E+00
         0.00000E+00
         0.00000E+00
         0.00000E+00
         0.00000E+00
         0.00000E+00
         0.00000E+00
         0.00000E+00
         0.00000E+00
         0.00000E+00
         0.00000E+00
         0.00000E+00
         0.00000E+00
         0.00000E+00
         0.00000E+00
         0.00000E+00
         0.00000E+00
         0.00000E+00
         0.00000E+00
         0.00000E+00
         0.00000E+00
         0.00000E+00
         0.00000E+00
         0.00000E+00
         0.00000E+00
         0.00000E+00
         0.00000E+00
         0.00000E+00
         0.00000E+00
         0.00000E+00
         0.00000E+00
         0.00000E+00
         0.00000E+00
         0.00000E+00
         0.00000E+00
         0.00000E+00
         0.00000E+00
         0.00000E+00
         0.00000E+00
         0.00000E+00
         0.00000E+00
         0.00000E+00
         0.00000E+00
         0.00000E+00
         0.00000E+00
         0.00000E+00
         0.00000E+00
         0.00000E+00
         0.00000E+00
         0.00000E+00
         0.00000E+00
         0.00000E+00
         0.00000E+00
         0.00000E+00
         0.00000E+00
         0.00000E+00
         0.00000E+00
         0.00000E+00
         0.00000E+00
         0.00000E+00
         0.00000E+00
         0.00000E+00
         0.00000E+00
         0.00000E+00
         0.00000E+00
         0.00000E+00
         0.00000E+00
         0.00000E+00
         0.00000E+00
         0.00000E+00
         0.00000E+00
         0.00000E+00
         0.00000E+00
         0.00000E+00
         0.00000E+00
         0.00000E+00
         0.00000E+00
         0.00000E+00
         0.00000E+00
         0.00000E+00
         0.00000E+00
         0.00000E+00
         0.00000E+00
         0.00000E+00
         0.00000E+00
         0.00000E+00
         0.00000E+00
         0.00000E+00
         0.00000E+00
         0.00000E+00
         0.00000E+00
         0.00000E+00
         0.00000E+00
         0.00000E+00
         0.00000E+00
         0.00000E+00
         0.00000E+00
         0.00000E+00
         0.00000E+00
         0.00000E+00
         0.00000E+00
         0.00000E+00
         0.00000E+00
         0.00000E+00
         0.00000E+00
         0.00000E+00
         0.00000E+00
         0.00000E+00
         0.00000E+00
         0.00000E+00
         0.00000E+00
         0.00000E+00
         0.00000E+00
         0.00000E+00
         0.00000E+00
         0.00000E+00
         0.00000E+00
         0.00000E+00
         0.00000E+00
         0.00000E+00
         0.00000E+00
         0.00000E+00
         0.00000E+00
         0.00000E+00
         0.00000E+00
         0.00000E+00
         0.00000E+00
         0.00000E+00
         0.00000E+00
         0.00000E+00
         0.00000E+00
         0.00000E+00
         0.00000E+00
         0.00000E+00
         0.00000E+00
         0.00000E+00
         0.00000E+00
         0.00000E+00
         0.00000E+00
         0.00000E+00
         0.00000E+00
         0.00000E+00
         0.00000E+00
         0.00000E+00
         0.00000E+00
         0.00000E+00
         0.00000E+00
         0.00000E+00
         0.00000E+00
         0.00000E+00
         0.00000E+00
         0.00000E+00
         0.00000E+00
         0.00000E+00
         0.00000E+00
         0.00000E+00
         0.00000E+00
         0.00000E+00
         0.00000E+00
         0.00000E+00
         0.00000E+00
         0.00000E+00
         0.00000E+00
         0.00000E+00
         0.00000E+00
         0.00000E+00
         0.00000E+00
         0.00000E+00
         0.00000E+00
         0.00000E+00
         0.00000E+00
         0.00000E+00
         0.00000E+00
         0.00000E+00
         0.00000E+00
         0.00000E+00
         0.00000E+00
         0.00000E+00
         0.00000E+00
         0.00000E+00
         0.00000E+00
         0.00000E+00
         0.00000E+00
         0.00000E+00
         0.00000E+00
         0.00000E+00
         0.00000E+00
         0.00000E+00
         0.00000E+00
         0.00000E+00
         0.00000E+00
         0.00000E+00
         0.00000E+00
         0.00000E+00
         0.00000E+00
         0.00000E+00
         0.00000E+00
         0.00000E+00
         0.00000E+00
         0.00000E+00
         0.00000E+00
         0.00000E+00
         0.00000E+00
         0.00000E+00
         0.00000E+00
         0.00000E+00
         0.00000E+00
         0.00000E+00
         0.00000E+00
         0.00000E+00
         0.00000E+00
         0.00000E+00
         0.00000E+00
         0.00000E+00
         0.00000E+00
         0.00000E+00
         0.00000E+00
         0.00000E+00
         0.00000E+00
         0.00000E+00
         0.00000E+00
         0.00000E+00
         0.00000E+00
         0.00000E+00
         0.00000E+00
         0.00000E+00
         0.00000E+00
         0.00000E+00
         0.00000E+00
         0.00000E+00
         0.00000E+00
         0.00000E+00
         0.00000E+00
         0.00000E+00
         0.00000E+00
         0.00000E+00
         0.00000E+00
         0.00000E+00
         0.00000E+00
         0.00000E+00
         0.00000E+00
         0.00000E+00
         0.00000E+00
         0.00000E+00
         0.00000E+00
         0.00000E+00
         0.00000E+00
         0.00000E+00
         0.00000E+00
         0.00000E+00
         0.00000E+00
         0.00000E+00
         0.00000E+00
         0.00000E+00
         0.00000E+00
         0.00000E+00
         0.00000E+00
         0.00000E+00
         0.00000E+00
         0.00000E+00
         0.00000E+00
         0.00000E+00
         0.00000E+00
         0.00000E+00
         0.00000E+00
         0.00000E+00
         0.00000E+00
         0.00000E+00
         0.00000E+00
         0.00000E+00
         0.00000E+00
         0.00000E+00
         0.00000E+00
         0.00000E+00
         0.00000E+00
         0.00000E+00
         0.00000E+00
         0.00000E+00
         0.00000E+00
         0.00000E+00
         0.00000E+00
         0.00000E+00
         0.00000E+00
         0.00000E+00
         0.00000E+00
         0.00000E+00
         0.00000E+00
         0.00000E+00
         0.00000E+00
         0.00000E+00
         0.00000E+00
         0.00000E+00
         0.00000E+00
         0.00000E+00
         0.00000E+00
         0.00000E+00
         0.00000E+00
         0.00000E+00
         0.00000E+00
         0.00000E+00
         0.00000E+00
         0.00000E+00
         0.00000E+00
         0.00000E+00
         0.00000E+00
         0.00000E+00
         0.00000E+00
         0.00000E+00
         0.00000E+00
         0.00000E+00
         0.00000E+00
         0.00000E+00
         0.00000E+00
         0.00000E+00
         0.00000E+00
         0.00000E+00
         0.00000E+00
         0.00000E+00
         0.00000E+00
         0.00000E+00
         0.00000E+00
         0.00000E+00
         0.00000E+00
         0.00000E+00
         0.00000E+00
         0.00000E+00
         0.00000E+00
         0.00000E+00
         0.00000E+00
         0.00000E+00
         0.00000E+00
         0.00000E+00
         0.00000E+00
         0.00000E+00
         0.00000E+00
         0.00000E+00
         0.00000E+00
         0.00000E+00
         0.00000E+00
         0.00000E+00
         0.00000E+00
         0.00000E+00
         0.00000E+00
         0.00000E+00
         0.00000E+00
         0.00000E+00
         0.00000E+00
         0.00000E+00
         0.00000E+00
         0.00000E+00
         0.00000E+00
         0.00000E+00
         0.00000E+00
         0.00000E+00
         0.00000E+00
         0.00000E+00
         0.00000E+00
         0.00000E+00
         0.00000E+00
         0.00000E+00
         0.00000E+00
         0.00000E+00
         0.00000E+00
         0.00000E+00
         0.00000E+00
         0.00000E+00
         0.00000E+00
         0.00000E+00
         0.00000E+00
         0.00000E+00
         0.00000E+00
         0.00000E+00
         0.00000E+00
         0.00000E+00
         0.00000E+00
         0.00000E+00
         0.00000E+00
         0.00000E+00
         0.00000E+00
         0.00000E+00
         0.00000E+00
         0.00000E+00
         0.00000E+00
         0.00000E+00
         0.00000E+00
         0.00000E+00
         0.00000E+00
         0.00000E+00
         0.00000E+00
         0.00000E+00
         0.00000E+00
         0.00000E+00
         0.00000E+00
         0.00000E+00
         0.00000E+00
         0.00000E+00
         0.00000E+00
         0.00000E+00
         0.00000E+00
         0.00000E+00
         0.00000E+00
         0.00000E+00
         0.00000E+00
         0.00000E+00
         0.00000E+00
         0.00000E+00
         0.00000E+00
         0.00000E+00
         0.00000E+00
         0.00000E+00
         0.00000E+00
         0.00000E+00
         0.00000E+00
         0.00000E+00
         0.00000E+00
         0.00000E+00
         0.00000E+00
         0.00000E+00
         0.00000E+00
         0.00000E+00
         0.00000E+00
         0.00000E+00
         0.00000E+00
         0.00000E+00
         0.00000E+00
         0.00000E+00
         0.00000E+00
         0.00000E+00
         0.00000E+00
         0.00000E+00
         0.00000E+00
         0.00000E+00
         0.00000E+00
         0.00000E+00
         0.00000E+00
         0.00000E+00
         0.00000E+00
         0.00000E+00
         0.00000E+00
         0.00000E+00
         0.00000E+00
         0.00000E+00
         0.00000E+00
         0.00000E+00
         0.00000E+00
         0.00000E+00
         0.00000E+00
         0.00000E+00
         0.00000E+00
         0.00000E+00
         0.00000E+00
         0.00000E+00
         0.00000E+00
         0.00000E+00
         0.00000E+00
         0.00000E+00
         0.00000E+00
         0.00000E+00
         0.00000E+00
         0.00000E+00
         0.00000E+00
         0.00000E+00
         0.00000E+00
         0.00000E+00
         0.00000E+00
         0.00000E+00
         0.00000E+00
         0.00000E+00
         0.00000E+00
         0.00000E+00
         0.00000E+00
         0.00000E+00
         0.00000E+00
         0.00000E+00
         0.00000E+00
         0.00000E+00
         0.00000E+00
         0.00000E+00
         0.00000E+00
         0.00000E+00
         0.00000E+00
         0.00000E+00
         0.00000E+00
         0.00000E+00
         0.00000E+00
         0.00000E+00
         0.00000E+00
         0.00000E+00
         0.00000E+00
         0.00000E+00
         0.00000E+00
         0.00000E+00
         0.00000E+00
         0.00000E+00
         0.00000E+00
         0.00000E+00
         0.00000E+00
         0.00000E+00
         0.00000E+00
         0.00000E+00
         0.00000E+00
         0.00000E+00
         0.00000E+00
         0.00000E+00
         0.00000E+00
         0.00000E+00
         0.00000E+00
         0.00000E+00
         0.00000E+00
         0.00000E+00
         0.00000E+00
         0.00000E+00
         0.00000E+00
         0.00000E+00
         0.00000E+00
         0.00000E+00
         0.00000E+00
         0.00000E+00
         0.00000E+00
         0.00000E+00
         0.00000E+00
         0.00000E+00
         0.00000E+00
         0.00000E+00
         0.00000E+00
         0.00000E+00
         0.00000E+00
         0.00000E+00
         0.00000E+00
         0.00000E+00
         0.00000E+00
         0.00000E+00
         0.00000E+00
         0.00000E+00
         0.00000E+00
         0.00000E+00
         0.00000E+00
         0.00000E+00
         0.00000E+00
         0.00000E+00
         0.00000E+00
         0.00000E+00
         0.00000E+00
         0.00000E+00
         0.00000E+00
         0.00000E+00
         0.00000E+00
         0.00000E+00
         0.00000E+00
         0.00000E+00
         0.00000E+00
         0.00000E+00
         0.00000E+00
         0.00000E+00
         0.00000E+00
         0.00000E+00
         0.00000E+00
         0.00000E+00
         0.00000E+00
         0.00000E+00
         0.00000E+00
         0.00000E+00
         0.00000E+00
         0.00000E+00
         0.00000E+00
         0.00000E+00
         0.00000E+00
         0.00000E+00
         0.00000E+00
         0.00000E+00
         0.00000E+00
         0.00000E+00
         0.00000E+00
         0.00000E+00
         0.00000E+00
         0.00000E+00
         0.00000E+00
         0.00000E+00
         0.00000E+00
         0.00000E+00
         0.00000E+00
         0.00000E+00
         0.00000E+00
         0.00000E+00
         0.00000E+00
         0.00000E+00
         0.00000E+00
         0.00000E+00
         0.00000E+00
         0.00000E+00
         0.00000E+00
         0.00000E+00
         0.00000E+00
         0.00000E+00
         0.00000E+00
         0.00000E+00
         0.00000E+00
         0.00000E+00
         0.00000E+00
         0.00000E+00
         0.00000E+00
         0.00000E+00
         0.00000E+00
         0.00000E+00
         0.00000E+00
         0.00000E+00
         0.00000E+00
         0.00000E+00
         0.00000E+00
         0.00000E+00
         0.00000E+00
         0.00000E+00
         0.00000E+00
         0.00000E+00
         0.00000E+00
         0.00000E+00
         0.00000E+00
         0.00000E+00
         0.00000E+00
         0.00000E+00
         0.00000E+00
         0.00000E+00
         0.00000E+00
         0.00000E+00
         0.00000E+00
         0.00000E+00
         0.00000E+00
         0.00000E+00
         0.00000E+00
         0.00000E+00
         0.00000E+00
         0.00000E+00
         0.00000E+00
         0.00000E+00
         0.00000E+00
         0.00000E+00
         0.00000E+00
         0.00000E+00
         0.00000E+00
         0.00000E+00
         0.00000E+00
         0.00000E+00
         0.00000E+00
         0.00000E+00
         0.00000E+00
         0.00000E+00
         0.00000E+00
         0.00000E+00
         0.00000E+00
         0.00000E+00
         0.00000E+00
         0.00000E+00
         0.00000E+00
         0.00000E+00
         0.00000E+00
         0.00000E+00
         0.00000E+00
         0.00000E+00
         0.00000E+00
         0.00000E+00
         0.00000E+00
         0.00000E+00
         0.00000E+00
         0.00000E+00
         0.00000E+00
         0.00000E+00
         0.00000E+00
         0.00000E+00
         0.00000E+00
         0.00000E+00
         0.00000E+00
         0.00000E+00
         0.00000E+00
         0.00000E+00
         0.00000E+00
         0.00000E+00
         0.00000E+00
         0.00000E+00
         0.00000E+00
         0.00000E+00
         0.00000E+00
         0.00000E+00
         0.00000E+00
         0.00000E+00
         0.00000E+00
         0.00000E+00
         0.00000E+00
         0.00000E+00
         0.00000E+00
         0.00000E+00
         0.00000E+00
         0.00000E+00
         0.00000E+00
         0.00000E+00
         0.00000E+00
         0.00000E+00
         0.00000E+00
         0.00000E+00
         0.00000E+00
         0.00000E+00
         0.00000E+00
         0.00000E+00
         0.00000E+00
         0.00000E+00
         0.00000E+00
         0.00000E+00
         0.00000E+00
         0.00000E+00
         0.00000E+00
         0.00000E+00
         0.00000E+00
         0.00000E+00
         0.00000E+00
         0.00000E+00
         0.00000E+00
         0.00000E+00
         0.00000E+00
         0.00000E+00
         0.00000E+00
         0.00000E+00
         0.00000E+00
         0.00000E+00
         0.00000E+00
         0.00000E+00
         0.00000E+00
         0.00000E+00
         0.00000E+00
         0.00000E+00
         0.00000E+00
         0.00000E+00
         0.00000E+00
         0.00000E+00
         0.00000E+00
         0.00000E+00
         0.00000E+00
         0.00000E+00
         0.00000E+00
         0.00000E+00
         0.00000E+00
         0.00000E+00
         0.00000E+00
         0.00000E+00
         0.00000E+00
         0.00000E+00
         0.00000E+00
         0.00000E+00
         0.00000E+00
         0.00000E+00
         0.00000E+00
         0.00000E+00
         0.00000E+00
         0.00000E+00
         0.00000E+00
         0.00000E+00
         0.00000E+00
         0.00000E+00
         0.00000E+00
         0.00000E+00
         0.00000E+00
         0.00000E+00
         0.00000E+00
         0.00000E+00
         0.00000E+00
         0.00000E+00
         0.00000E+00
         0.00000E+00
         0.00000E+00
         0.00000E+00
         0.00000E+00
         0.00000E+00
         0.00000E+00
         0.00000E+00
         0.00000E+00
         0.00000E+00
         0.00000E+00
         0.00000E+00
         0.00000E+00
         0.00000E+00
         0.00000E+00
         0.00000E+00
         0.00000E+00
         0.00000E+00
         0.00000E+00
         0.00000E+00
         0.00000E+00
         0.00000E+00
         0.00000E+00
         0.00000E+00
         0.00000E+00
         0.00000E+00
         0.00000E+00
         0.00000E+00
         0.00000E+00
         0.00000E+00
         0.00000E+00
         0.00000E+00
         0.00000E+00
         0.00000E+00
         0.00000E+00
         0.00000E+00
         0.00000E+00
         0.00000E+00
         0.00000E+00
         0.00000E+00
         0.00000E+00
         0.00000E+00
         0.00000E+00
         0.00000E+00
         0.00000E+00
         0.00000E+00
         0.00000E+00
         0.00000E+00
         0.00000E+00
         0.00000E+00
         0.00000E+00
         0.00000E+00
         0.00000E+00
         0.00000E+00
         0.00000E+00
         0.00000E+00
         0.00000E+00
         0.00000E+00
         0.00000E+00
         0.00000E+00
         0.00000E+00
         0.00000E+00
         0.00000E+00
         0.00000E+00
         0.00000E+00
         0.00000E+00
         0.00000E+00
         0.00000E+00
         0.00000E+00
         0.00000E+00
         0.00000E+00
         0.00000E+00
         0.00000E+00
         0.00000E+00
         0.00000E+00
         0.00000E+00
         0.00000E+00
         0.00000E+00
         0.00000E+00
         0.00000E+00
         0.00000E+00
         0.00000E+00
         0.00000E+00
         0.00000E+00
         0.00000E+00
         0.00000E+00
         0.00000E+00
         0.00000E+00
         0.00000E+00
         0.00000E+00
         0.00000E+00
         0.00000E+00
         0.00000E+00
         0.00000E+00
         0.00000E+00
         0.00000E+00
         0.00000E+00
         0.00000E+00
         0.00000E+00
         0.00000E+00
         0.00000E+00
         0.00000E+00
         0.00000E+00
         0.00000E+00
         0.00000E+00
         0.00000E+00
         0.00000E+00
         0.00000E+00
         0.00000E+00
         0.00000E+00
         0.00000E+00
         0.00000E+00
         0.00000E+00
         0.00000E+00
         0.00000E+00
         0.00000E+00
         0.00000E+00
         0.00000E+00
         0.00000E+00
         0.00000E+00
         0.00000E+00
         0.00000E+00
         0.00000E+00
         0.00000E+00
         0.00000E+00
         0.00000E+00
         0.00000E+00
         0.00000E+00
         0.00000E+00
         0.00000E+00
         0.00000E+00
         0.00000E+00
         0.00000E+00
         0.00000E+00
         0.00000E+00
         0.00000E+00
         0.00000E+00
         0.00000E+00
         0.00000E+00
         0.00000E+00
         0.00000E+00
         0.00000E+00
         0.00000E+00
         0.00000E+00
         0.00000E+00
         0.00000E+00
         0.00000E+00
         0.00000E+00
         0.00000E+00
         0.00000E+00
         0.00000E+00
         0.00000E+00
         0.00000E+00
         0.00000E+00
         0.00000E+00
         0.00000E+00
         0.00000E+00
  
SCALARS                         fint_y  double 1
LOOKUP_TABLE default
         0.00000E+00
         0.00000E+00
         0.00000E+00
         0.00000E+00
         0.00000E+00
         0.00000E+00
         0.00000E+00
         0.00000E+00
         0.00000E+00
         0.00000E+00
         0.00000E+00
         0.00000E+00
         0.00000E+00
         0.00000E+00
         0.00000E+00
         0.00000E+00
         0.00000E+00
         0.00000E+00
         0.00000E+00
         0.00000E+00
         0.00000E+00
         0.00000E+00
         0.00000E+00
         0.00000E+00
         0.00000E+00
         0.00000E+00
         0.00000E+00
         0.00000E+00
         0.00000E+00
         0.00000E+00
         0.00000E+00
         0.00000E+00
         0.00000E+00
         0.00000E+00
         0.00000E+00
         0.00000E+00
         0.00000E+00
         0.00000E+00
         0.00000E+00
         0.00000E+00
         0.00000E+00
         0.00000E+00
         0.00000E+00
         0.00000E+00
         0.00000E+00
         0.00000E+00
         0.00000E+00
         0.00000E+00
         0.00000E+00
         0.00000E+00
         0.00000E+00
         0.00000E+00
         0.00000E+00
         0.00000E+00
         0.00000E+00
         0.00000E+00
         0.00000E+00
         0.00000E+00
         0.00000E+00
         0.00000E+00
         0.00000E+00
         0.00000E+00
         0.00000E+00
         0.00000E+00
         0.00000E+00
         0.00000E+00
         0.00000E+00
         0.00000E+00
         0.00000E+00
         0.00000E+00
         0.00000E+00
         0.00000E+00
         0.00000E+00
         0.00000E+00
         0.00000E+00
         0.00000E+00
         0.00000E+00
         0.00000E+00
         0.00000E+00
         0.00000E+00
         0.00000E+00
         0.00000E+00
         0.00000E+00
         0.00000E+00
         0.00000E+00
         0.00000E+00
         0.00000E+00
         0.00000E+00
         0.00000E+00
         0.00000E+00
         0.00000E+00
         0.00000E+00
         0.00000E+00
         0.00000E+00
         0.00000E+00
         0.00000E+00
         0.00000E+00
         0.00000E+00
         0.00000E+00
         0.00000E+00
         0.00000E+00
         0.00000E+00
         0.00000E+00
         0.00000E+00
         0.00000E+00
         0.00000E+00
         0.00000E+00
         0.00000E+00
         0.00000E+00
         0.00000E+00
         0.00000E+00
         0.00000E+00
         0.00000E+00
         0.00000E+00
         0.00000E+00
         0.00000E+00
         0.00000E+00
         0.00000E+00
         0.00000E+00
         0.00000E+00
         0.00000E+00
         0.00000E+00
         0.00000E+00
         0.00000E+00
         0.00000E+00
         0.00000E+00
         0.00000E+00
         0.00000E+00
         0.00000E+00
         0.00000E+00
         0.00000E+00
         0.00000E+00
         0.00000E+00
         0.00000E+00
         0.00000E+00
         0.00000E+00
         0.00000E+00
         0.00000E+00
         0.00000E+00
         0.00000E+00
         0.00000E+00
         0.00000E+00
         0.00000E+00
         0.00000E+00
         0.00000E+00
         0.00000E+00
         0.00000E+00
         0.00000E+00
         0.00000E+00
         0.00000E+00
         0.00000E+00
         0.00000E+00
         0.00000E+00
         0.00000E+00
         0.00000E+00
         0.00000E+00
         0.00000E+00
         0.00000E+00
         0.00000E+00
         0.00000E+00
         0.00000E+00
         0.00000E+00
         0.00000E+00
         0.00000E+00
         0.00000E+00
         0.00000E+00
         0.00000E+00
         0.00000E+00
         0.00000E+00
         0.00000E+00
         0.00000E+00
         0.00000E+00
         0.00000E+00
         0.00000E+00
         0.00000E+00
         0.00000E+00
         0.00000E+00
         0.00000E+00
         0.00000E+00
         0.00000E+00
         0.00000E+00
         0.00000E+00
         0.00000E+00
         0.00000E+00
         0.00000E+00
         0.00000E+00
         0.00000E+00
         0.00000E+00
         0.00000E+00
         0.00000E+00
         0.00000E+00
         0.00000E+00
         0.00000E+00
         0.00000E+00
         0.00000E+00
         0.00000E+00
         0.00000E+00
         0.00000E+00
         0.00000E+00
         0.00000E+00
         0.00000E+00
         0.00000E+00
         0.00000E+00
         0.00000E+00
         0.00000E+00
         0.00000E+00
         0.00000E+00
         0.00000E+00
         0.00000E+00
         0.00000E+00
         0.00000E+00
         0.00000E+00
         0.00000E+00
         0.00000E+00
         0.00000E+00
         0.00000E+00
         0.00000E+00
         0.00000E+00
         0.00000E+00
         0.00000E+00
         0.00000E+00
         0.00000E+00
         0.00000E+00
         0.00000E+00
         0.00000E+00
         0.00000E+00
         0.00000E+00
         0.00000E+00
         0.00000E+00
         0.00000E+00
         0.00000E+00
         0.00000E+00
         0.00000E+00
         0.00000E+00
         0.00000E+00
         0.00000E+00
         0.00000E+00
         0.00000E+00
         0.00000E+00
         0.00000E+00
         0.00000E+00
         0.00000E+00
         0.00000E+00
         0.00000E+00
         0.00000E+00
         0.00000E+00
         0.00000E+00
         0.00000E+00
         0.00000E+00
         0.00000E+00
         0.00000E+00
         0.00000E+00
         0.00000E+00
         0.00000E+00
         0.00000E+00
         0.00000E+00
         0.00000E+00
         0.00000E+00
         0.00000E+00
         0.00000E+00
         0.00000E+00
         0.00000E+00
         0.00000E+00
         0.00000E+00
         0.00000E+00
         0.00000E+00
         0.00000E+00
         0.00000E+00
         0.00000E+00
         0.00000E+00
         0.00000E+00
         0.00000E+00
         0.00000E+00
         0.00000E+00
         0.00000E+00
         0.00000E+00
         0.00000E+00
         0.00000E+00
         0.00000E+00
         0.00000E+00
         0.00000E+00
         0.00000E+00
         0.00000E+00
         0.00000E+00
         0.00000E+00
         0.00000E+00
         0.00000E+00
         0.00000E+00
         0.00000E+00
         0.00000E+00
         0.00000E+00
         0.00000E+00
         0.00000E+00
         0.00000E+00
         0.00000E+00
         0.00000E+00
         0.00000E+00
         0.00000E+00
         0.00000E+00
         0.00000E+00
         0.00000E+00
         0.00000E+00
         0.00000E+00
         0.00000E+00
         0.00000E+00
         0.00000E+00
         0.00000E+00
         0.00000E+00
         0.00000E+00
         0.00000E+00
         0.00000E+00
         0.00000E+00
         0.00000E+00
         0.00000E+00
         0.00000E+00
         0.00000E+00
         0.00000E+00
         0.00000E+00
         0.00000E+00
         0.00000E+00
         0.00000E+00
         0.00000E+00
         0.00000E+00
         0.00000E+00
         0.00000E+00
         0.00000E+00
         0.00000E+00
         0.00000E+00
         0.00000E+00
         0.00000E+00
         0.00000E+00
         0.00000E+00
         0.00000E+00
         0.00000E+00
         0.00000E+00
         0.00000E+00
         0.00000E+00
         0.00000E+00
         0.00000E+00
         0.00000E+00
         0.00000E+00
         0.00000E+00
         0.00000E+00
         0.00000E+00
         0.00000E+00
         0.00000E+00
         0.00000E+00
         0.00000E+00
         0.00000E+00
         0.00000E+00
         0.00000E+00
         0.00000E+00
         0.00000E+00
         0.00000E+00
         0.00000E+00
         0.00000E+00
         0.00000E+00
         0.00000E+00
         0.00000E+00
         0.00000E+00
         0.00000E+00
         0.00000E+00
         0.00000E+00
         0.00000E+00
         0.00000E+00
         0.00000E+00
         0.00000E+00
         0.00000E+00
         0.00000E+00
         0.00000E+00
         0.00000E+00
         0.00000E+00
         0.00000E+00
         0.00000E+00
         0.00000E+00
         0.00000E+00
         0.00000E+00
         0.00000E+00
         0.00000E+00
         0.00000E+00
         0.00000E+00
         0.00000E+00
         0.00000E+00
         0.00000E+00
         0.00000E+00
         0.00000E+00
         0.00000E+00
         0.00000E+00
         0.00000E+00
         0.00000E+00
         0.00000E+00
         0.00000E+00
         0.00000E+00
         0.00000E+00
         0.00000E+00
         0.00000E+00
         0.00000E+00
         0.00000E+00
         0.00000E+00
         0.00000E+00
         0.00000E+00
         0.00000E+00
         0.00000E+00
         0.00000E+00
         0.00000E+00
         0.00000E+00
         0.00000E+00
         0.00000E+00
         0.00000E+00
         0.00000E+00
         0.00000E+00
         0.00000E+00
         0.00000E+00
         0.00000E+00
         0.00000E+00
         0.00000E+00
         0.00000E+00
         0.00000E+00
         0.00000E+00
         0.00000E+00
         0.00000E+00
         0.00000E+00
         0.00000E+00
         0.00000E+00
         0.00000E+00
         0.00000E+00
         0.00000E+00
         0.00000E+00
         0.00000E+00
         0.00000E+00
         0.00000E+00
         0.00000E+00
         0.00000E+00
         0.00000E+00
         0.00000E+00
         0.00000E+00
         0.00000E+00
         0.00000E+00
         0.00000E+00
         0.00000E+00
         0.00000E+00
         0.00000E+00
         0.00000E+00
         0.00000E+00
         0.00000E+00
         0.00000E+00
         0.00000E+00
         0.00000E+00
         0.00000E+00
         0.00000E+00
         0.00000E+00
         0.00000E+00
         0.00000E+00
         0.00000E+00
         0.00000E+00
         0.00000E+00
         0.00000E+00
         0.00000E+00
         0.00000E+00
         0.00000E+00
         0.00000E+00
         0.00000E+00
         0.00000E+00
         0.00000E+00
         0.00000E+00
         0.00000E+00
         0.00000E+00
         0.00000E+00
         0.00000E+00
         0.00000E+00
         0.00000E+00
         0.00000E+00
         0.00000E+00
         0.00000E+00
         0.00000E+00
         0.00000E+00
         0.00000E+00
         0.00000E+00
         0.00000E+00
         0.00000E+00
         0.00000E+00
         0.00000E+00
         0.00000E+00
         0.00000E+00
         0.00000E+00
         0.00000E+00
         0.00000E+00
         0.00000E+00
         0.00000E+00
         0.00000E+00
         0.00000E+00
         0.00000E+00
         0.00000E+00
         0.00000E+00
         0.00000E+00
         0.00000E+00
         0.00000E+00
         0.00000E+00
         0.00000E+00
         0.00000E+00
         0.00000E+00
         0.00000E+00
         0.00000E+00
         0.00000E+00
         0.00000E+00
         0.00000E+00
         0.00000E+00
         0.00000E+00
         0.00000E+00
         0.00000E+00
         0.00000E+00
         0.00000E+00
         0.00000E+00
         0.00000E+00
         0.00000E+00
         0.00000E+00
         0.00000E+00
         0.00000E+00
         0.00000E+00
         0.00000E+00
         0.00000E+00
         0.00000E+00
         0.00000E+00
         0.00000E+00
         0.00000E+00
         0.00000E+00
         0.00000E+00
         0.00000E+00
         0.00000E+00
         0.00000E+00
         0.00000E+00
         0.00000E+00
         0.00000E+00
         0.00000E+00
         0.00000E+00
         0.00000E+00
         0.00000E+00
         0.00000E+00
         0.00000E+00
         0.00000E+00
         0.00000E+00
         0.00000E+00
         0.00000E+00
         0.00000E+00
         0.00000E+00
         0.00000E+00
         0.00000E+00
         0.00000E+00
         0.00000E+00
         0.00000E+00
         0.00000E+00
         0.00000E+00
         0.00000E+00
         0.00000E+00
         0.00000E+00
         0.00000E+00
         0.00000E+00
         0.00000E+00
         0.00000E+00
         0.00000E+00
         0.00000E+00
         0.00000E+00
         0.00000E+00
         0.00000E+00
         0.00000E+00
         0.00000E+00
         0.00000E+00
         0.00000E+00
         0.00000E+00
         0.00000E+00
         0.00000E+00
         0.00000E+00
         0.00000E+00
         0.00000E+00
         0.00000E+00
         0.00000E+00
         0.00000E+00
         0.00000E+00
         0.00000E+00
         0.00000E+00
         0.00000E+00
         0.00000E+00
         0.00000E+00
         0.00000E+00
         0.00000E+00
         0.00000E+00
         0.00000E+00
         0.00000E+00
         0.00000E+00
         0.00000E+00
         0.00000E+00
         0.00000E+00
         0.00000E+00
         0.00000E+00
         0.00000E+00
         0.00000E+00
         0.00000E+00
         0.00000E+00
         0.00000E+00
         0.00000E+00
         0.00000E+00
         0.00000E+00
         0.00000E+00
         0.00000E+00
         0.00000E+00
         0.00000E+00
         0.00000E+00
         0.00000E+00
         0.00000E+00
         0.00000E+00
         0.00000E+00
         0.00000E+00
         0.00000E+00
         0.00000E+00
         0.00000E+00
         0.00000E+00
         0.00000E+00
         0.00000E+00
         0.00000E+00
         0.00000E+00
         0.00000E+00
         0.00000E+00
         0.00000E+00
         0.00000E+00
         0.00000E+00
         0.00000E+00
         0.00000E+00
         0.00000E+00
         0.00000E+00
         0.00000E+00
         0.00000E+00
         0.00000E+00
         0.00000E+00
         0.00000E+00
         0.00000E+00
         0.00000E+00
         0.00000E+00
         0.00000E+00
         0.00000E+00
         0.00000E+00
         0.00000E+00
         0.00000E+00
         0.00000E+00
         0.00000E+00
         0.00000E+00
         0.00000E+00
         0.00000E+00
         0.00000E+00
         0.00000E+00
         0.00000E+00
         0.00000E+00
         0.00000E+00
         0.00000E+00
         0.00000E+00
         0.00000E+00
         0.00000E+00
         0.00000E+00
         0.00000E+00
         0.00000E+00
         0.00000E+00
         0.00000E+00
         0.00000E+00
         0.00000E+00
         0.00000E+00
         0.00000E+00
         0.00000E+00
         0.00000E+00
         0.00000E+00
         0.00000E+00
         0.00000E+00
         0.00000E+00
         0.00000E+00
         0.00000E+00
         0.00000E+00
         0.00000E+00
         0.00000E+00
         0.00000E+00
         0.00000E+00
         0.00000E+00
         0.00000E+00
         0.00000E+00
         0.00000E+00
         0.00000E+00
         0.00000E+00
         0.00000E+00
         0.00000E+00
         0.00000E+00
         0.00000E+00
         0.00000E+00
         0.00000E+00
         0.00000E+00
         0.00000E+00
         0.00000E+00
         0.00000E+00
         0.00000E+00
         0.00000E+00
         0.00000E+00
         0.00000E+00
         0.00000E+00
         0.00000E+00
         0.00000E+00
         0.00000E+00
         0.00000E+00
         0.00000E+00
         0.00000E+00
         0.00000E+00
         0.00000E+00
         0.00000E+00
         0.00000E+00
         0.00000E+00
         0.00000E+00
         0.00000E+00
         0.00000E+00
         0.00000E+00
         0.00000E+00
         0.00000E+00
         0.00000E+00
         0.00000E+00
         0.00000E+00
         0.00000E+00
         0.00000E+00
         0.00000E+00
         0.00000E+00
         0.00000E+00
         0.00000E+00
         0.00000E+00
         0.00000E+00
         0.00000E+00
         0.00000E+00
         0.00000E+00
         0.00000E+00
         0.00000E+00
         0.00000E+00
         0.00000E+00
         0.00000E+00
         0.00000E+00
         0.00000E+00
         0.00000E+00
         0.00000E+00
         0.00000E+00
         0.00000E+00
         0.00000E+00
         0.00000E+00
         0.00000E+00
         0.00000E+00
         0.00000E+00
         0.00000E+00
         0.00000E+00
         0.00000E+00
         0.00000E+00
         0.00000E+00
         0.00000E+00
         0.00000E+00
         0.00000E+00
         0.00000E+00
         0.00000E+00
         0.00000E+00
         0.00000E+00
         0.00000E+00
         0.00000E+00
         0.00000E+00
         0.00000E+00
         0.00000E+00
         0.00000E+00
         0.00000E+00
         0.00000E+00
         0.00000E+00
         0.00000E+00
         0.00000E+00
         0.00000E+00
         0.00000E+00
         0.00000E+00
         0.00000E+00
         0.00000E+00
         0.00000E+00
         0.00000E+00
         0.00000E+00
         0.00000E+00
         0.00000E+00
         0.00000E+00
         0.00000E+00
         0.00000E+00
         0.00000E+00
         0.00000E+00
         0.00000E+00
         0.00000E+00
         0.00000E+00
         0.00000E+00
         0.00000E+00
         0.00000E+00
         0.00000E+00
         0.00000E+00
         0.00000E+00
         0.00000E+00
         0.00000E+00
         0.00000E+00
         0.00000E+00
         0.00000E+00
         0.00000E+00
         0.00000E+00
         0.00000E+00
         0.00000E+00
         0.00000E+00
         0.00000E+00
         0.00000E+00
         0.00000E+00
         0.00000E+00
         0.00000E+00
         0.00000E+00
         0.00000E+00
         0.00000E+00
         0.00000E+00
         0.00000E+00
         0.00000E+00
         0.00000E+00
         0.00000E+00
         0.00000E+00
         0.00000E+00
         0.00000E+00
         0.00000E+00
         0.00000E+00
         0.00000E+00
         0.00000E+00
         0.00000E+00
         0.00000E+00
         0.00000E+00
         0.00000E+00
         0.00000E+00
         0.00000E+00
         0.00000E+00
         0.00000E+00
         0.00000E+00
         0.00000E+00
         0.00000E+00
         0.00000E+00
         0.00000E+00
         0.00000E+00
         0.00000E+00
         0.00000E+00
         0.00000E+00
         0.00000E+00
         0.00000E+00
         0.00000E+00
         0.00000E+00
         0.00000E+00
         0.00000E+00
         0.00000E+00
         0.00000E+00
         0.00000E+00
         0.00000E+00
         0.00000E+00
         0.00000E+00
         0.00000E+00
         0.00000E+00
         0.00000E+00
         0.00000E+00
         0.00000E+00
         0.00000E+00
         0.00000E+00
         0.00000E+00
         0.00000E+00
         0.00000E+00
         0.00000E+00
         0.00000E+00
         0.00000E+00
         0.00000E+00
         0.00000E+00
         0.00000E+00
         0.00000E+00
         0.00000E+00
         0.00000E+00
         0.00000E+00
         0.00000E+00
         0.00000E+00
         0.00000E+00
         0.00000E+00
         0.00000E+00
         0.00000E+00
         0.00000E+00
         0.00000E+00
         0.00000E+00
         0.00000E+00
         0.00000E+00
         0.00000E+00
         0.00000E+00
         0.00000E+00
         0.00000E+00
         0.00000E+00
         0.00000E+00
         0.00000E+00
         0.00000E+00
         0.00000E+00
         0.00000E+00
         0.00000E+00
         0.00000E+00
         0.00000E+00
         0.00000E+00
         0.00000E+00
         0.00000E+00
         0.00000E+00
         0.00000E+00
         0.00000E+00
         0.00000E+00
         0.00000E+00
         0.00000E+00
         0.00000E+00
         0.00000E+00
         0.00000E+00
         0.00000E+00
         0.00000E+00
         0.00000E+00
         0.00000E+00
         0.00000E+00
         0.00000E+00
         0.00000E+00
         0.00000E+00
         0.00000E+00
         0.00000E+00
         0.00000E+00
         0.00000E+00
         0.00000E+00
         0.00000E+00
         0.00000E+00
         0.00000E+00
         0.00000E+00
         0.00000E+00
         0.00000E+00
         0.00000E+00
         0.00000E+00
         0.00000E+00
         0.00000E+00
         0.00000E+00
         0.00000E+00
         0.00000E+00
         0.00000E+00
         0.00000E+00
         0.00000E+00
         0.00000E+00
         0.00000E+00
         0.00000E+00
         0.00000E+00
         0.00000E+00
         0.00000E+00
         0.00000E+00
         0.00000E+00
         0.00000E+00
         0.00000E+00
         0.00000E+00
         0.00000E+00
         0.00000E+00
         0.00000E+00
         0.00000E+00
         0.00000E+00
         0.00000E+00
         0.00000E+00
         0.00000E+00
         0.00000E+00
         0.00000E+00
         0.00000E+00
         0.00000E+00
         0.00000E+00
         0.00000E+00
         0.00000E+00
         0.00000E+00
         0.00000E+00
         0.00000E+00
         0.00000E+00
         0.00000E+00
         0.00000E+00
         0.00000E+00
         0.00000E+00
         0.00000E+00
         0.00000E+00
         0.00000E+00
         0.00000E+00
         0.00000E+00
         0.00000E+00
         0.00000E+00
         0.00000E+00
         0.00000E+00
         0.00000E+00
         0.00000E+00
         0.00000E+00
         0.00000E+00
         0.00000E+00
         0.00000E+00
         0.00000E+00
         0.00000E+00
         0.00000E+00
         0.00000E+00
         0.00000E+00
         0.00000E+00
         0.00000E+00
         0.00000E+00
         0.00000E+00
         0.00000E+00
         0.00000E+00
         0.00000E+00
         0.00000E+00
         0.00000E+00
         0.00000E+00
         0.00000E+00
         0.00000E+00
         0.00000E+00
         0.00000E+00
         0.00000E+00
         0.00000E+00
         0.00000E+00
         0.00000E+00
         0.00000E+00
         0.00000E+00
         0.00000E+00
         0.00000E+00
         0.00000E+00
         0.00000E+00
         0.00000E+00
         0.00000E+00
         0.00000E+00
         0.00000E+00
         0.00000E+00
         0.00000E+00
         0.00000E+00
         0.00000E+00
         0.00000E+00
         0.00000E+00
         0.00000E+00
         0.00000E+00
         0.00000E+00
         0.00000E+00
         0.00000E+00
         0.00000E+00
         0.00000E+00
         0.00000E+00
         0.00000E+00
         0.00000E+00
         0.00000E+00
         0.00000E+00
         0.00000E+00
         0.00000E+00
         0.00000E+00
         0.00000E+00
         0.00000E+00
         0.00000E+00
         0.00000E+00
         0.00000E+00
         0.00000E+00
         0.00000E+00
         0.00000E+00
         0.00000E+00
         0.00000E+00
         0.00000E+00
         0.00000E+00
         0.00000E+00
         0.00000E+00
         0.00000E+00
         0.00000E+00
         0.00000E+00
         0.00000E+00
         0.00000E+00
         0.00000E+00
         0.00000E+00
         0.00000E+00
         0.00000E+00
         0.00000E+00
         0.00000E+00
         0.00000E+00
         0.00000E+00
         0.00000E+00
         0.00000E+00
         0.00000E+00
         0.00000E+00
         0.00000E+00
         0.00000E+00
         0.00000E+00
         0.00000E+00
         0.00000E+00
         0.00000E+00
         0.00000E+00
         0.00000E+00
         0.00000E+00
         0.00000E+00
         0.00000E+00
         0.00000E+00
         0.00000E+00
         0.00000E+00
         0.00000E+00
         0.00000E+00
         0.00000E+00
         0.00000E+00
         0.00000E+00
         0.00000E+00
         0.00000E+00
         0.00000E+00
         0.00000E+00
         0.00000E+00
         0.00000E+00
         0.00000E+00
         0.00000E+00
         0.00000E+00
         0.00000E+00
         0.00000E+00
         0.00000E+00
         0.00000E+00
         0.00000E+00
         0.00000E+00
         0.00000E+00
         0.00000E+00
         0.00000E+00
         0.00000E+00
         0.00000E+00
         0.00000E+00
         0.00000E+00
         0.00000E+00
         0.00000E+00
         0.00000E+00
         0.00000E+00
         0.00000E+00
         0.00000E+00
         0.00000E+00
         0.00000E+00
         0.00000E+00
         0.00000E+00
         0.00000E+00
         0.00000E+00
         0.00000E+00
         0.00000E+00
         0.00000E+00
         0.00000E+00
         0.00000E+00
         0.00000E+00
         0.00000E+00
         0.00000E+00
         0.00000E+00
         0.00000E+00
         0.00000E+00
         0.00000E+00
         0.00000E+00
         0.00000E+00
         0.00000E+00
         0.00000E+00
         0.00000E+00
         0.00000E+00
         0.00000E+00
         0.00000E+00
         0.00000E+00
         0.00000E+00
         0.00000E+00
         0.00000E+00
         0.00000E+00
         0.00000E+00
         0.00000E+00
         0.00000E+00
         0.00000E+00
         0.00000E+00
         0.00000E+00
         0.00000E+00
         0.00000E+00
         0.00000E+00
         0.00000E+00
         0.00000E+00
         0.00000E+00
         0.00000E+00
         0.00000E+00
         0.00000E+00
         0.00000E+00
         0.00000E+00
         0.00000E+00
         0.00000E+00
         0.00000E+00
         0.00000E+00
         0.00000E+00
         0.00000E+00
         0.00000E+00
         0.00000E+00
         0.00000E+00
         0.00000E+00
         0.00000E+00
         0.00000E+00
         0.00000E+00
         0.00000E+00
         0.00000E+00
         0.00000E+00
         0.00000E+00
         0.00000E+00
         0.00000E+00
         0.00000E+00
         0.00000E+00
         0.00000E+00
         0.00000E+00
         0.00000E+00
         0.00000E+00
         0.00000E+00
         0.00000E+00
         0.00000E+00
         0.00000E+00
         0.00000E+00
         0.00000E+00
         0.00000E+00
         0.00000E+00
         0.00000E+00
         0.00000E+00
         0.00000E+00
         0.00000E+00
         0.00000E+00
         0.00000E+00
         0.00000E+00
         0.00000E+00
         0.00000E+00
         0.00000E+00
         0.00000E+00
         0.00000E+00
         0.00000E+00
         0.00000E+00
         0.00000E+00
         0.00000E+00
         0.00000E+00
         0.00000E+00
         0.00000E+00
         0.00000E+00
         0.00000E+00
         0.00000E+00
         0.00000E+00
         0.00000E+00
         0.00000E+00
         0.00000E+00
         0.00000E+00
         0.00000E+00
         0.00000E+00
         0.00000E+00
         0.00000E+00
         0.00000E+00
         0.00000E+00
         0.00000E+00
         0.00000E+00
         0.00000E+00
         0.00000E+00
         0.00000E+00
         0.00000E+00
         0.00000E+00
         0.00000E+00
         0.00000E+00
         0.00000E+00
         0.00000E+00
         0.00000E+00
         0.00000E+00
         0.00000E+00
         0.00000E+00
         0.00000E+00
         0.00000E+00
         0.00000E+00
         0.00000E+00
         0.00000E+00
         0.00000E+00
         0.00000E+00
         0.00000E+00
         0.00000E+00
         0.00000E+00
         0.00000E+00
         0.00000E+00
         0.00000E+00
         0.00000E+00
         0.00000E+00
         0.00000E+00
         0.00000E+00
         0.00000E+00
         0.00000E+00
         0.00000E+00
         0.00000E+00
         0.00000E+00
         0.00000E+00
         0.00000E+00
         0.00000E+00
         0.00000E+00
         0.00000E+00
         0.00000E+00
         0.00000E+00
         0.00000E+00
         0.00000E+00
         0.00000E+00
         0.00000E+00
         0.00000E+00
         0.00000E+00
         0.00000E+00
         0.00000E+00
         0.00000E+00
         0.00000E+00
         0.00000E+00
         0.00000E+00
         0.00000E+00
         0.00000E+00
         0.00000E+00
         0.00000E+00
         0.00000E+00
         0.00000E+00
         0.00000E+00
         0.00000E+00
         0.00000E+00
         0.00000E+00
         0.00000E+00
         0.00000E+00
         0.00000E+00
         0.00000E+00
         0.00000E+00
         0.00000E+00
         0.00000E+00
         0.00000E+00
         0.00000E+00
         0.00000E+00
         0.00000E+00
         0.00000E+00
         0.00000E+00
         0.00000E+00
         0.00000E+00
         0.00000E+00
         0.00000E+00
         0.00000E+00
         0.00000E+00
         0.00000E+00
         0.00000E+00
         0.00000E+00
         0.00000E+00
         0.00000E+00
         0.00000E+00
         0.00000E+00
         0.00000E+00
         0.00000E+00
         0.00000E+00
         0.00000E+00
         0.00000E+00
         0.00000E+00
         0.00000E+00
         0.00000E+00
         0.00000E+00
         0.00000E+00
         0.00000E+00
         0.00000E+00
         0.00000E+00
         0.00000E+00
         0.00000E+00
         0.00000E+00
         0.00000E+00
         0.00000E+00
         0.00000E+00
         0.00000E+00
         0.00000E+00
         0.00000E+00
         0.00000E+00
         0.00000E+00
         0.00000E+00
         0.00000E+00
         0.00000E+00
         0.00000E+00
         0.00000E+00
         0.00000E+00
         0.00000E+00
         0.00000E+00
         0.00000E+00
         0.00000E+00
         0.00000E+00
         0.00000E+00
         0.00000E+00
         0.00000E+00
         0.00000E+00
         0.00000E+00
         0.00000E+00
         0.00000E+00
         0.00000E+00
         0.00000E+00
         0.00000E+00
         0.00000E+00
         0.00000E+00
         0.00000E+00
         0.00000E+00
         0.00000E+00
         0.00000E+00
         0.00000E+00
         0.00000E+00
         0.00000E+00
         0.00000E+00
         0.00000E+00
         0.00000E+00
         0.00000E+00
         0.00000E+00
         0.00000E+00
         0.00000E+00
         0.00000E+00
         0.00000E+00
         0.00000E+00
         0.00000E+00
         0.00000E+00
         0.00000E+00
         0.00000E+00
         0.00000E+00
         0.00000E+00
         0.00000E+00
         0.00000E+00
         0.00000E+00
         0.00000E+00
         0.00000E+00
         0.00000E+00
         0.00000E+00
         0.00000E+00
         0.00000E+00
         0.00000E+00
         0.00000E+00
         0.00000E+00
         0.00000E+00
         0.00000E+00
         0.00000E+00
         0.00000E+00
         0.00000E+00
         0.00000E+00
         0.00000E+00
         0.00000E+00
         0.00000E+00
         0.00000E+00
         0.00000E+00
         0.00000E+00
         0.00000E+00
         0.00000E+00
         0.00000E+00
         0.00000E+00
         0.00000E+00
         0.00000E+00
         0.00000E+00
         0.00000E+00
         0.00000E+00
         0.00000E+00
         0.00000E+00
         0.00000E+00
         0.00000E+00
         0.00000E+00
         0.00000E+00
         0.00000E+00
         0.00000E+00
         0.00000E+00
         0.00000E+00
         0.00000E+00
         0.00000E+00
         0.00000E+00
         0.00000E+00
         0.00000E+00
         0.00000E+00
         0.00000E+00
         0.00000E+00
         0.00000E+00
         0.00000E+00
         0.00000E+00
         0.00000E+00
         0.00000E+00
         0.00000E+00
         0.00000E+00
         0.00000E+00
         0.00000E+00
         0.00000E+00
         0.00000E+00
         0.00000E+00
         0.00000E+00
         0.00000E+00
         0.00000E+00
         0.00000E+00
         0.00000E+00
         0.00000E+00
         0.00000E+00
         0.00000E+00
         0.00000E+00
         0.00000E+00
         0.00000E+00
         0.00000E+00
         0.00000E+00
         0.00000E+00
         0.00000E+00
         0.00000E+00
         0.00000E+00
         0.00000E+00
         0.00000E+00
         0.00000E+00
         0.00000E+00
         0.00000E+00
         0.00000E+00
         0.00000E+00
         0.00000E+00
         0.00000E+00
         0.00000E+00
         0.00000E+00
         0.00000E+00
         0.00000E+00
         0.00000E+00
         0.00000E+00
         0.00000E+00
         0.00000E+00
         0.00000E+00
         0.00000E+00
         0.00000E+00
         0.00000E+00
         0.00000E+00
         0.00000E+00
         0.00000E+00
         0.00000E+00
         0.00000E+00
         0.00000E+00
         0.00000E+00
         0.00000E+00
         0.00000E+00
         0.00000E+00
         0.00000E+00
         0.00000E+00
         0.00000E+00
         0.00000E+00
         0.00000E+00
         0.00000E+00
         0.00000E+00
         0.00000E+00
         0.00000E+00
         0.00000E+00
         0.00000E+00
         0.00000E+00
         0.00000E+00
         0.00000E+00
         0.00000E+00
         0.00000E+00
         0.00000E+00
         0.00000E+00
         0.00000E+00
         0.00000E+00
         0.00000E+00
         0.00000E+00
         0.00000E+00
         0.00000E+00
         0.00000E+00
         0.00000E+00
         0.00000E+00
         0.00000E+00
         0.00000E+00
         0.00000E+00
         0.00000E+00
         0.00000E+00
         0.00000E+00
         0.00000E+00
         0.00000E+00
         0.00000E+00
         0.00000E+00
         0.00000E+00
         0.00000E+00
         0.00000E+00
         0.00000E+00
         0.00000E+00
         0.00000E+00
         0.00000E+00
         0.00000E+00
         0.00000E+00
         0.00000E+00
         0.00000E+00
         0.00000E+00
         0.00000E+00
         0.00000E+00
         0.00000E+00
         0.00000E+00
         0.00000E+00
         0.00000E+00
         0.00000E+00
         0.00000E+00
         0.00000E+00
         0.00000E+00
         0.00000E+00
         0.00000E+00
         0.00000E+00
         0.00000E+00
         0.00000E+00
         0.00000E+00
         0.00000E+00
         0.00000E+00
         0.00000E+00
         0.00000E+00
         0.00000E+00
         0.00000E+00
         0.00000E+00
         0.00000E+00
         0.00000E+00
         0.00000E+00
         0.00000E+00
         0.00000E+00
         0.00000E+00
         0.00000E+00
         0.00000E+00
         0.00000E+00
         0.00000E+00
         0.00000E+00
         0.00000E+00
         0.00000E+00
         0.00000E+00
         0.00000E+00
         0.00000E+00
         0.00000E+00
         0.00000E+00
         0.00000E+00
         0.00000E+00
         0.00000E+00
         0.00000E+00
         0.00000E+00
         0.00000E+00
         0.00000E+00
         0.00000E+00
         0.00000E+00
         0.00000E+00
         0.00000E+00
         0.00000E+00
         0.00000E+00
         0.00000E+00
         0.00000E+00
         0.00000E+00
         0.00000E+00
         0.00000E+00
         0.00000E+00
         0.00000E+00
         0.00000E+00
         0.00000E+00
         0.00000E+00
         0.00000E+00
         0.00000E+00
         0.00000E+00
         0.00000E+00
         0.00000E+00
         0.00000E+00
         0.00000E+00
         0.00000E+00
         0.00000E+00
         0.00000E+00
         0.00000E+00
         0.00000E+00
         0.00000E+00
         0.00000E+00
         0.00000E+00
         0.00000E+00
         0.00000E+00
         0.00000E+00
         0.00000E+00
         0.00000E+00
         0.00000E+00
         0.00000E+00
         0.00000E+00
         0.00000E+00
         0.00000E+00
         0.00000E+00
         0.00000E+00
         0.00000E+00
         0.00000E+00
         0.00000E+00
         0.00000E+00
         0.00000E+00
         0.00000E+00
         0.00000E+00
         0.00000E+00
         0.00000E+00
         0.00000E+00
         0.00000E+00
         0.00000E+00
         0.00000E+00
         0.00000E+00
         0.00000E+00
         0.00000E+00
         0.00000E+00
         0.00000E+00
         0.00000E+00
         0.00000E+00
         0.00000E+00
         0.00000E+00
         0.00000E+00
         0.00000E+00
         0.00000E+00
         0.00000E+00
         0.00000E+00
         0.00000E+00
         0.00000E+00
         0.00000E+00
         0.00000E+00
         0.00000E+00
         0.00000E+00
         0.00000E+00
         0.00000E+00
         0.00000E+00
         0.00000E+00
         0.00000E+00
         0.00000E+00
         0.00000E+00
         0.00000E+00
         0.00000E+00
         0.00000E+00
         0.00000E+00
         0.00000E+00
         0.00000E+00
         0.00000E+00
         0.00000E+00
         0.00000E+00
         0.00000E+00
         0.00000E+00
         0.00000E+00
         0.00000E+00
         0.00000E+00
         0.00000E+00
         0.00000E+00
         0.00000E+00
         0.00000E+00
         0.00000E+00
         0.00000E+00
         0.00000E+00
         0.00000E+00
         0.00000E+00
         0.00000E+00
         0.00000E+00
         0.00000E+00
         0.00000E+00
         0.00000E+00
         0.00000E+00
         0.00000E+00
         0.00000E+00
         0.00000E+00
         0.00000E+00
         0.00000E+00
         0.00000E+00
         0.00000E+00
         0.00000E+00
         0.00000E+00
         0.00000E+00
         0.00000E+00
         0.00000E+00
         0.00000E+00
         0.00000E+00
         0.00000E+00
         0.00000E+00
         0.00000E+00
         0.00000E+00
         0.00000E+00
         0.00000E+00
         0.00000E+00
         0.00000E+00
         0.00000E+00
         0.00000E+00
         0.00000E+00
         0.00000E+00
         0.00000E+00
         0.00000E+00
         0.00000E+00
         0.00000E+00
         0.00000E+00
         0.00000E+00
         0.00000E+00
         0.00000E+00
         0.00000E+00
         0.00000E+00
         0.00000E+00
         0.00000E+00
         0.00000E+00
         0.00000E+00
         0.00000E+00
         0.00000E+00
         0.00000E+00
         0.00000E+00
         0.00000E+00
         0.00000E+00
         0.00000E+00
         0.00000E+00
         0.00000E+00
         0.00000E+00
         0.00000E+00
         0.00000E+00
         0.00000E+00
         0.00000E+00
         0.00000E+00
         0.00000E+00
         0.00000E+00
         0.00000E+00
         0.00000E+00
         0.00000E+00
         0.00000E+00
         0.00000E+00
         0.00000E+00
         0.00000E+00
         0.00000E+00
         0.00000E+00
         0.00000E+00
         0.00000E+00
         0.00000E+00
         0.00000E+00
         0.00000E+00
         0.00000E+00
         0.00000E+00
         0.00000E+00
         0.00000E+00
         0.00000E+00
         0.00000E+00
         0.00000E+00
         0.00000E+00
         0.00000E+00
         0.00000E+00
         0.00000E+00
         0.00000E+00
         0.00000E+00
         0.00000E+00
         0.00000E+00
         0.00000E+00
         0.00000E+00
         0.00000E+00
         0.00000E+00
         0.00000E+00
         0.00000E+00
         0.00000E+00
         0.00000E+00
         0.00000E+00
         0.00000E+00
         0.00000E+00
         0.00000E+00
         0.00000E+00
         0.00000E+00
         0.00000E+00
         0.00000E+00
         0.00000E+00
         0.00000E+00
         0.00000E+00
         0.00000E+00
         0.00000E+00
         0.00000E+00
         0.00000E+00
         0.00000E+00
         0.00000E+00
         0.00000E+00
         0.00000E+00
         0.00000E+00
         0.00000E+00
         0.00000E+00
         0.00000E+00
         0.00000E+00
         0.00000E+00
         0.00000E+00
         0.00000E+00
         0.00000E+00
         0.00000E+00
         0.00000E+00
         0.00000E+00
         0.00000E+00
         0.00000E+00
         0.00000E+00
         0.00000E+00
         0.00000E+00
         0.00000E+00
         0.00000E+00
         0.00000E+00
         0.00000E+00
         0.00000E+00
         0.00000E+00
         0.00000E+00
         0.00000E+00
         0.00000E+00
         0.00000E+00
         0.00000E+00
         0.00000E+00
         0.00000E+00
         0.00000E+00
         0.00000E+00
         0.00000E+00
         0.00000E+00
         0.00000E+00
         0.00000E+00
         0.00000E+00
         0.00000E+00
         0.00000E+00
         0.00000E+00
         0.00000E+00
         0.00000E+00
         0.00000E+00
         0.00000E+00
         0.00000E+00
         0.00000E+00
         0.00000E+00
         0.00000E+00
         0.00000E+00
         0.00000E+00
         0.00000E+00
         0.00000E+00
         0.00000E+00
         0.00000E+00
         0.00000E+00
         0.00000E+00
         0.00000E+00
         0.00000E+00
         0.00000E+00
         0.00000E+00
         0.00000E+00
         0.00000E+00
         0.00000E+00
         0.00000E+00
         0.00000E+00
         0.00000E+00
         0.00000E+00
         0.00000E+00
         0.00000E+00
         0.00000E+00
         0.00000E+00
         0.00000E+00
         0.00000E+00
         0.00000E+00
         0.00000E+00
         0.00000E+00
         0.00000E+00
         0.00000E+00
         0.00000E+00
         0.00000E+00
         0.00000E+00
         0.00000E+00
         0.00000E+00
         0.00000E+00
         0.00000E+00
         0.00000E+00
         0.00000E+00
         0.00000E+00
         0.00000E+00
         0.00000E+00
         0.00000E+00
         0.00000E+00
         0.00000E+00
         0.00000E+00
         0.00000E+00
         0.00000E+00
         0.00000E+00
         0.00000E+00
         0.00000E+00
         0.00000E+00
         0.00000E+00
         0.00000E+00
         0.00000E+00
         0.00000E+00
         0.00000E+00
         0.00000E+00
         0.00000E+00
         0.00000E+00
         0.00000E+00
         0.00000E+00
         0.00000E+00
         0.00000E+00
         0.00000E+00
         0.00000E+00
         0.00000E+00
         0.00000E+00
         0.00000E+00
         0.00000E+00
         0.00000E+00
         0.00000E+00
         0.00000E+00
         0.00000E+00
         0.00000E+00
  
SCALARS                         fint_z  double 1
LOOKUP_TABLE default
         0.00000E+00
         0.00000E+00
         0.00000E+00
         0.00000E+00
         0.00000E+00
         0.00000E+00
         0.00000E+00
         0.00000E+00
         0.00000E+00
         0.00000E+00
         0.00000E+00
         0.00000E+00
         0.00000E+00
         0.00000E+00
         0.00000E+00
         0.00000E+00
         0.00000E+00
         0.00000E+00
         0.00000E+00
         0.00000E+00
         0.00000E+00
         0.00000E+00
         0.00000E+00
         0.00000E+00
         0.00000E+00
         0.00000E+00
         0.00000E+00
         0.00000E+00
         0.00000E+00
         0.00000E+00
         0.00000E+00
         0.00000E+00
         0.00000E+00
         0.00000E+00
         0.00000E+00
         0.00000E+00
         0.00000E+00
         0.00000E+00
         0.00000E+00
         0.00000E+00
         0.00000E+00
         0.00000E+00
         0.00000E+00
         0.00000E+00
         0.00000E+00
         0.00000E+00
         0.00000E+00
         0.00000E+00
         0.00000E+00
         0.00000E+00
         0.00000E+00
         0.00000E+00
         0.00000E+00
         0.00000E+00
         0.00000E+00
         0.00000E+00
         0.00000E+00
         0.00000E+00
         0.00000E+00
         0.00000E+00
         0.00000E+00
         0.00000E+00
         0.00000E+00
         0.00000E+00
         0.00000E+00
         0.00000E+00
         0.00000E+00
         0.00000E+00
         0.00000E+00
         0.00000E+00
         0.00000E+00
         0.00000E+00
         0.00000E+00
         0.00000E+00
         0.00000E+00
         0.00000E+00
         0.00000E+00
         0.00000E+00
         0.00000E+00
         0.00000E+00
         0.00000E+00
         0.00000E+00
         0.00000E+00
         0.00000E+00
         0.00000E+00
         0.00000E+00
         0.00000E+00
         0.00000E+00
         0.00000E+00
         0.00000E+00
         0.00000E+00
         0.00000E+00
         0.00000E+00
         0.00000E+00
         0.00000E+00
         0.00000E+00
         0.00000E+00
         0.00000E+00
         0.00000E+00
         0.00000E+00
         0.00000E+00
         0.00000E+00
         0.00000E+00
         0.00000E+00
         0.00000E+00
         0.00000E+00
         0.00000E+00
         0.00000E+00
         0.00000E+00
         0.00000E+00
         0.00000E+00
         0.00000E+00
         0.00000E+00
         0.00000E+00
         0.00000E+00
         0.00000E+00
         0.00000E+00
         0.00000E+00
         0.00000E+00
         0.00000E+00
         0.00000E+00
         0.00000E+00
         0.00000E+00
         0.00000E+00
         0.00000E+00
         0.00000E+00
         0.00000E+00
         0.00000E+00
         0.00000E+00
         0.00000E+00
         0.00000E+00
         0.00000E+00
         0.00000E+00
         0.00000E+00
         0.00000E+00
         0.00000E+00
         0.00000E+00
         0.00000E+00
         0.00000E+00
         0.00000E+00
         0.00000E+00
         0.00000E+00
         0.00000E+00
         0.00000E+00
         0.00000E+00
         0.00000E+00
         0.00000E+00
         0.00000E+00
         0.00000E+00
         0.00000E+00
         0.00000E+00
         0.00000E+00
         0.00000E+00
         0.00000E+00
         0.00000E+00
         0.00000E+00
         0.00000E+00
         0.00000E+00
         0.00000E+00
         0.00000E+00
         0.00000E+00
         0.00000E+00
         0.00000E+00
         0.00000E+00
         0.00000E+00
         0.00000E+00
         0.00000E+00
         0.00000E+00
         0.00000E+00
         0.00000E+00
         0.00000E+00
         0.00000E+00
         0.00000E+00
         0.00000E+00
         0.00000E+00
         0.00000E+00
         0.00000E+00
         0.00000E+00
         0.00000E+00
         0.00000E+00
         0.00000E+00
         0.00000E+00
         0.00000E+00
         0.00000E+00
         0.00000E+00
         0.00000E+00
         0.00000E+00
         0.00000E+00
         0.00000E+00
         0.00000E+00
         0.00000E+00
         0.00000E+00
         0.00000E+00
         0.00000E+00
         0.00000E+00
         0.00000E+00
         0.00000E+00
         0.00000E+00
         0.00000E+00
         0.00000E+00
         0.00000E+00
         0.00000E+00
         0.00000E+00
         0.00000E+00
         0.00000E+00
         0.00000E+00
         0.00000E+00
         0.00000E+00
         0.00000E+00
         0.00000E+00
         0.00000E+00
         0.00000E+00
         0.00000E+00
         0.00000E+00
         0.00000E+00
         0.00000E+00
         0.00000E+00
         0.00000E+00
         0.00000E+00
         0.00000E+00
         0.00000E+00
         0.00000E+00
         0.00000E+00
         0.00000E+00
         0.00000E+00
         0.00000E+00
         0.00000E+00
         0.00000E+00
         0.00000E+00
         0.00000E+00
         0.00000E+00
         0.00000E+00
         0.00000E+00
         0.00000E+00
         0.00000E+00
         0.00000E+00
         0.00000E+00
         0.00000E+00
         0.00000E+00
         0.00000E+00
         0.00000E+00
         0.00000E+00
         0.00000E+00
         0.00000E+00
         0.00000E+00
         0.00000E+00
         0.00000E+00
         0.00000E+00
         0.00000E+00
         0.00000E+00
         0.00000E+00
         0.00000E+00
         0.00000E+00
         0.00000E+00
         0.00000E+00
         0.00000E+00
         0.00000E+00
         0.00000E+00
         0.00000E+00
         0.00000E+00
         0.00000E+00
         0.00000E+00
         0.00000E+00
         0.00000E+00
         0.00000E+00
         0.00000E+00
         0.00000E+00
         0.00000E+00
         0.00000E+00
         0.00000E+00
         0.00000E+00
         0.00000E+00
         0.00000E+00
         0.00000E+00
         0.00000E+00
         0.00000E+00
         0.00000E+00
         0.00000E+00
         0.00000E+00
         0.00000E+00
         0.00000E+00
         0.00000E+00
         0.00000E+00
         0.00000E+00
         0.00000E+00
         0.00000E+00
         0.00000E+00
         0.00000E+00
         0.00000E+00
         0.00000E+00
         0.00000E+00
         0.00000E+00
         0.00000E+00
         0.00000E+00
         0.00000E+00
         0.00000E+00
         0.00000E+00
         0.00000E+00
         0.00000E+00
         0.00000E+00
         0.00000E+00
         0.00000E+00
         0.00000E+00
         0.00000E+00
         0.00000E+00
         0.00000E+00
         0.00000E+00
         0.00000E+00
         0.00000E+00
         0.00000E+00
         0.00000E+00
         0.00000E+00
         0.00000E+00
         0.00000E+00
         0.00000E+00
         0.00000E+00
         0.00000E+00
         0.00000E+00
         0.00000E+00
         0.00000E+00
         0.00000E+00
         0.00000E+00
         0.00000E+00
         0.00000E+00
         0.00000E+00
         0.00000E+00
         0.00000E+00
         0.00000E+00
         0.00000E+00
         0.00000E+00
         0.00000E+00
         0.00000E+00
         0.00000E+00
         0.00000E+00
         0.00000E+00
         0.00000E+00
         0.00000E+00
         0.00000E+00
         0.00000E+00
         0.00000E+00
         0.00000E+00
         0.00000E+00
         0.00000E+00
         0.00000E+00
         0.00000E+00
         0.00000E+00
         0.00000E+00
         0.00000E+00
         0.00000E+00
         0.00000E+00
         0.00000E+00
         0.00000E+00
         0.00000E+00
         0.00000E+00
         0.00000E+00
         0.00000E+00
         0.00000E+00
         0.00000E+00
         0.00000E+00
         0.00000E+00
         0.00000E+00
         0.00000E+00
         0.00000E+00
         0.00000E+00
         0.00000E+00
         0.00000E+00
         0.00000E+00
         0.00000E+00
         0.00000E+00
         0.00000E+00
         0.00000E+00
         0.00000E+00
         0.00000E+00
         0.00000E+00
         0.00000E+00
         0.00000E+00
         0.00000E+00
         0.00000E+00
         0.00000E+00
         0.00000E+00
         0.00000E+00
         0.00000E+00
         0.00000E+00
         0.00000E+00
         0.00000E+00
         0.00000E+00
         0.00000E+00
         0.00000E+00
         0.00000E+00
         0.00000E+00
         0.00000E+00
         0.00000E+00
         0.00000E+00
         0.00000E+00
         0.00000E+00
         0.00000E+00
         0.00000E+00
         0.00000E+00
         0.00000E+00
         0.00000E+00
         0.00000E+00
         0.00000E+00
         0.00000E+00
         0.00000E+00
         0.00000E+00
         0.00000E+00
         0.00000E+00
         0.00000E+00
         0.00000E+00
         0.00000E+00
         0.00000E+00
         0.00000E+00
         0.00000E+00
         0.00000E+00
         0.00000E+00
         0.00000E+00
         0.00000E+00
         0.00000E+00
         0.00000E+00
         0.00000E+00
         0.00000E+00
         0.00000E+00
         0.00000E+00
         0.00000E+00
         0.00000E+00
         0.00000E+00
         0.00000E+00
         0.00000E+00
         0.00000E+00
         0.00000E+00
         0.00000E+00
         0.00000E+00
         0.00000E+00
         0.00000E+00
         0.00000E+00
         0.00000E+00
         0.00000E+00
         0.00000E+00
         0.00000E+00
         0.00000E+00
         0.00000E+00
         0.00000E+00
         0.00000E+00
         0.00000E+00
         0.00000E+00
         0.00000E+00
         0.00000E+00
         0.00000E+00
         0.00000E+00
         0.00000E+00
         0.00000E+00
         0.00000E+00
         0.00000E+00
         0.00000E+00
         0.00000E+00
         0.00000E+00
         0.00000E+00
         0.00000E+00
         0.00000E+00
         0.00000E+00
         0.00000E+00
         0.00000E+00
         0.00000E+00
         0.00000E+00
         0.00000E+00
         0.00000E+00
         0.00000E+00
         0.00000E+00
         0.00000E+00
         0.00000E+00
         0.00000E+00
         0.00000E+00
         0.00000E+00
         0.00000E+00
         0.00000E+00
         0.00000E+00
         0.00000E+00
         0.00000E+00
         0.00000E+00
         0.00000E+00
         0.00000E+00
         0.00000E+00
         0.00000E+00
         0.00000E+00
         0.00000E+00
         0.00000E+00
         0.00000E+00
         0.00000E+00
         0.00000E+00
         0.00000E+00
         0.00000E+00
         0.00000E+00
         0.00000E+00
         0.00000E+00
         0.00000E+00
         0.00000E+00
         0.00000E+00
         0.00000E+00
         0.00000E+00
         0.00000E+00
         0.00000E+00
         0.00000E+00
         0.00000E+00
         0.00000E+00
         0.00000E+00
         0.00000E+00
         0.00000E+00
         0.00000E+00
         0.00000E+00
         0.00000E+00
         0.00000E+00
         0.00000E+00
         0.00000E+00
         0.00000E+00
         0.00000E+00
         0.00000E+00
         0.00000E+00
         0.00000E+00
         0.00000E+00
         0.00000E+00
         0.00000E+00
         0.00000E+00
         0.00000E+00
         0.00000E+00
         0.00000E+00
         0.00000E+00
         0.00000E+00
         0.00000E+00
         0.00000E+00
         0.00000E+00
         0.00000E+00
         0.00000E+00
         0.00000E+00
         0.00000E+00
         0.00000E+00
         0.00000E+00
         0.00000E+00
         0.00000E+00
         0.00000E+00
         0.00000E+00
         0.00000E+00
         0.00000E+00
         0.00000E+00
         0.00000E+00
         0.00000E+00
         0.00000E+00
         0.00000E+00
         0.00000E+00
         0.00000E+00
         0.00000E+00
         0.00000E+00
         0.00000E+00
         0.00000E+00
         0.00000E+00
         0.00000E+00
         0.00000E+00
         0.00000E+00
         0.00000E+00
         0.00000E+00
         0.00000E+00
         0.00000E+00
         0.00000E+00
         0.00000E+00
         0.00000E+00
         0.00000E+00
         0.00000E+00
         0.00000E+00
         0.00000E+00
         0.00000E+00
         0.00000E+00
         0.00000E+00
         0.00000E+00
         0.00000E+00
         0.00000E+00
         0.00000E+00
         0.00000E+00
         0.00000E+00
         0.00000E+00
         0.00000E+00
         0.00000E+00
         0.00000E+00
         0.00000E+00
         0.00000E+00
         0.00000E+00
         0.00000E+00
         0.00000E+00
         0.00000E+00
         0.00000E+00
         0.00000E+00
         0.00000E+00
         0.00000E+00
         0.00000E+00
         0.00000E+00
         0.00000E+00
         0.00000E+00
         0.00000E+00
         0.00000E+00
         0.00000E+00
         0.00000E+00
         0.00000E+00
         0.00000E+00
         0.00000E+00
         0.00000E+00
         0.00000E+00
         0.00000E+00
         0.00000E+00
         0.00000E+00
         0.00000E+00
         0.00000E+00
         0.00000E+00
         0.00000E+00
         0.00000E+00
         0.00000E+00
         0.00000E+00
         0.00000E+00
         0.00000E+00
         0.00000E+00
         0.00000E+00
         0.00000E+00
         0.00000E+00
         0.00000E+00
         0.00000E+00
         0.00000E+00
         0.00000E+00
         0.00000E+00
         0.00000E+00
         0.00000E+00
         0.00000E+00
         0.00000E+00
         0.00000E+00
         0.00000E+00
         0.00000E+00
         0.00000E+00
         0.00000E+00
         0.00000E+00
         0.00000E+00
         0.00000E+00
         0.00000E+00
         0.00000E+00
         0.00000E+00
         0.00000E+00
         0.00000E+00
         0.00000E+00
         0.00000E+00
         0.00000E+00
         0.00000E+00
         0.00000E+00
         0.00000E+00
         0.00000E+00
         0.00000E+00
         0.00000E+00
         0.00000E+00
         0.00000E+00
         0.00000E+00
         0.00000E+00
         0.00000E+00
         0.00000E+00
         0.00000E+00
         0.00000E+00
         0.00000E+00
         0.00000E+00
         0.00000E+00
         0.00000E+00
         0.00000E+00
         0.00000E+00
         0.00000E+00
         0.00000E+00
         0.00000E+00
         0.00000E+00
         0.00000E+00
         0.00000E+00
         0.00000E+00
         0.00000E+00
         0.00000E+00
         0.00000E+00
         0.00000E+00
         0.00000E+00
         0.00000E+00
         0.00000E+00
         0.00000E+00
         0.00000E+00
         0.00000E+00
         0.00000E+00
         0.00000E+00
         0.00000E+00
         0.00000E+00
         0.00000E+00
         0.00000E+00
         0.00000E+00
         0.00000E+00
         0.00000E+00
         0.00000E+00
         0.00000E+00
         0.00000E+00
         0.00000E+00
         0.00000E+00
         0.00000E+00
         0.00000E+00
         0.00000E+00
         0.00000E+00
         0.00000E+00
         0.00000E+00
         0.00000E+00
         0.00000E+00
         0.00000E+00
         0.00000E+00
         0.00000E+00
         0.00000E+00
         0.00000E+00
         0.00000E+00
         0.00000E+00
         0.00000E+00
         0.00000E+00
         0.00000E+00
         0.00000E+00
         0.00000E+00
         0.00000E+00
         0.00000E+00
         0.00000E+00
         0.00000E+00
         0.00000E+00
         0.00000E+00
         0.00000E+00
         0.00000E+00
         0.00000E+00
         0.00000E+00
         0.00000E+00
         0.00000E+00
         0.00000E+00
         0.00000E+00
         0.00000E+00
         0.00000E+00
         0.00000E+00
         0.00000E+00
         0.00000E+00
         0.00000E+00
         0.00000E+00
         0.00000E+00
         0.00000E+00
         0.00000E+00
         0.00000E+00
         0.00000E+00
         0.00000E+00
         0.00000E+00
         0.00000E+00
         0.00000E+00
         0.00000E+00
         0.00000E+00
         0.00000E+00
         0.00000E+00
         0.00000E+00
         0.00000E+00
         0.00000E+00
         0.00000E+00
         0.00000E+00
         0.00000E+00
         0.00000E+00
         0.00000E+00
         0.00000E+00
         0.00000E+00
         0.00000E+00
         0.00000E+00
         0.00000E+00
         0.00000E+00
         0.00000E+00
         0.00000E+00
         0.00000E+00
         0.00000E+00
         0.00000E+00
         0.00000E+00
         0.00000E+00
         0.00000E+00
         0.00000E+00
         0.00000E+00
         0.00000E+00
         0.00000E+00
         0.00000E+00
         0.00000E+00
         0.00000E+00
         0.00000E+00
         0.00000E+00
         0.00000E+00
         0.00000E+00
         0.00000E+00
         0.00000E+00
         0.00000E+00
         0.00000E+00
         0.00000E+00
         0.00000E+00
         0.00000E+00
         0.00000E+00
         0.00000E+00
         0.00000E+00
         0.00000E+00
         0.00000E+00
         0.00000E+00
         0.00000E+00
         0.00000E+00
         0.00000E+00
         0.00000E+00
         0.00000E+00
         0.00000E+00
         0.00000E+00
         0.00000E+00
         0.00000E+00
         0.00000E+00
         0.00000E+00
         0.00000E+00
         0.00000E+00
         0.00000E+00
         0.00000E+00
         0.00000E+00
         0.00000E+00
         0.00000E+00
         0.00000E+00
         0.00000E+00
         0.00000E+00
         0.00000E+00
         0.00000E+00
         0.00000E+00
         0.00000E+00
         0.00000E+00
         0.00000E+00
         0.00000E+00
         0.00000E+00
         0.00000E+00
         0.00000E+00
         0.00000E+00
         0.00000E+00
         0.00000E+00
         0.00000E+00
         0.00000E+00
         0.00000E+00
         0.00000E+00
         0.00000E+00
         0.00000E+00
         0.00000E+00
         0.00000E+00
         0.00000E+00
         0.00000E+00
         0.00000E+00
         0.00000E+00
         0.00000E+00
         0.00000E+00
         0.00000E+00
         0.00000E+00
         0.00000E+00
         0.00000E+00
         0.00000E+00
         0.00000E+00
         0.00000E+00
         0.00000E+00
         0.00000E+00
         0.00000E+00
         0.00000E+00
         0.00000E+00
         0.00000E+00
         0.00000E+00
         0.00000E+00
         0.00000E+00
         0.00000E+00
         0.00000E+00
         0.00000E+00
         0.00000E+00
         0.00000E+00
         0.00000E+00
         0.00000E+00
         0.00000E+00
         0.00000E+00
         0.00000E+00
         0.00000E+00
         0.00000E+00
         0.00000E+00
         0.00000E+00
         0.00000E+00
         0.00000E+00
         0.00000E+00
         0.00000E+00
         0.00000E+00
         0.00000E+00
         0.00000E+00
         0.00000E+00
         0.00000E+00
         0.00000E+00
         0.00000E+00
         0.00000E+00
         0.00000E+00
         0.00000E+00
         0.00000E+00
         0.00000E+00
         0.00000E+00
         0.00000E+00
         0.00000E+00
         0.00000E+00
         0.00000E+00
         0.00000E+00
         0.00000E+00
         0.00000E+00
         0.00000E+00
         0.00000E+00
         0.00000E+00
         0.00000E+00
         0.00000E+00
         0.00000E+00
         0.00000E+00
         0.00000E+00
         0.00000E+00
         0.00000E+00
         0.00000E+00
         0.00000E+00
         0.00000E+00
         0.00000E+00
         0.00000E+00
         0.00000E+00
         0.00000E+00
         0.00000E+00
         0.00000E+00
         0.00000E+00
         0.00000E+00
         0.00000E+00
         0.00000E+00
         0.00000E+00
         0.00000E+00
         0.00000E+00
         0.00000E+00
         0.00000E+00
         0.00000E+00
         0.00000E+00
         0.00000E+00
         0.00000E+00
         0.00000E+00
         0.00000E+00
         0.00000E+00
         0.00000E+00
         0.00000E+00
         0.00000E+00
         0.00000E+00
         0.00000E+00
         0.00000E+00
         0.00000E+00
         0.00000E+00
         0.00000E+00
         0.00000E+00
         0.00000E+00
         0.00000E+00
         0.00000E+00
         0.00000E+00
         0.00000E+00
         0.00000E+00
         0.00000E+00
         0.00000E+00
         0.00000E+00
         0.00000E+00
         0.00000E+00
         0.00000E+00
         0.00000E+00
         0.00000E+00
         0.00000E+00
         0.00000E+00
         0.00000E+00
         0.00000E+00
         0.00000E+00
         0.00000E+00
         0.00000E+00
         0.00000E+00
         0.00000E+00
         0.00000E+00
         0.00000E+00
         0.00000E+00
         0.00000E+00
         0.00000E+00
         0.00000E+00
         0.00000E+00
         0.00000E+00
         0.00000E+00
         0.00000E+00
         0.00000E+00
         0.00000E+00
         0.00000E+00
         0.00000E+00
         0.00000E+00
         0.00000E+00
         0.00000E+00
         0.00000E+00
         0.00000E+00
         0.00000E+00
         0.00000E+00
         0.00000E+00
         0.00000E+00
         0.00000E+00
         0.00000E+00
         0.00000E+00
         0.00000E+00
         0.00000E+00
         0.00000E+00
         0.00000E+00
         0.00000E+00
         0.00000E+00
         0.00000E+00
         0.00000E+00
         0.00000E+00
         0.00000E+00
         0.00000E+00
         0.00000E+00
         0.00000E+00
         0.00000E+00
         0.00000E+00
         0.00000E+00
         0.00000E+00
         0.00000E+00
         0.00000E+00
         0.00000E+00
         0.00000E+00
         0.00000E+00
         0.00000E+00
         0.00000E+00
         0.00000E+00
         0.00000E+00
         0.00000E+00
         0.00000E+00
         0.00000E+00
         0.00000E+00
         0.00000E+00
         0.00000E+00
         0.00000E+00
         0.00000E+00
         0.00000E+00
         0.00000E+00
         0.00000E+00
         0.00000E+00
         0.00000E+00
         0.00000E+00
         0.00000E+00
         0.00000E+00
         0.00000E+00
         0.00000E+00
         0.00000E+00
         0.00000E+00
         0.00000E+00
         0.00000E+00
         0.00000E+00
         0.00000E+00
         0.00000E+00
         0.00000E+00
         0.00000E+00
         0.00000E+00
         0.00000E+00
         0.00000E+00
         0.00000E+00
         0.00000E+00
         0.00000E+00
         0.00000E+00
         0.00000E+00
         0.00000E+00
         0.00000E+00
         0.00000E+00
         0.00000E+00
         0.00000E+00
         0.00000E+00
         0.00000E+00
         0.00000E+00
         0.00000E+00
         0.00000E+00
         0.00000E+00
         0.00000E+00
         0.00000E+00
         0.00000E+00
         0.00000E+00
         0.00000E+00
         0.00000E+00
         0.00000E+00
         0.00000E+00
         0.00000E+00
         0.00000E+00
         0.00000E+00
         0.00000E+00
         0.00000E+00
         0.00000E+00
         0.00000E+00
         0.00000E+00
         0.00000E+00
         0.00000E+00
         0.00000E+00
         0.00000E+00
         0.00000E+00
         0.00000E+00
         0.00000E+00
         0.00000E+00
         0.00000E+00
         0.00000E+00
         0.00000E+00
         0.00000E+00
         0.00000E+00
         0.00000E+00
         0.00000E+00
         0.00000E+00
         0.00000E+00
         0.00000E+00
         0.00000E+00
         0.00000E+00
         0.00000E+00
         0.00000E+00
         0.00000E+00
         0.00000E+00
         0.00000E+00
         0.00000E+00
         0.00000E+00
         0.00000E+00
         0.00000E+00
         0.00000E+00
         0.00000E+00
         0.00000E+00
         0.00000E+00
         0.00000E+00
         0.00000E+00
         0.00000E+00
         0.00000E+00
         0.00000E+00
         0.00000E+00
         0.00000E+00
         0.00000E+00
         0.00000E+00
         0.00000E+00
         0.00000E+00
         0.00000E+00
         0.00000E+00
         0.00000E+00
         0.00000E+00
         0.00000E+00
         0.00000E+00
         0.00000E+00
         0.00000E+00
         0.00000E+00
         0.00000E+00
         0.00000E+00
         0.00000E+00
         0.00000E+00
         0.00000E+00
         0.00000E+00
         0.00000E+00
         0.00000E+00
         0.00000E+00
         0.00000E+00
         0.00000E+00
         0.00000E+00
         0.00000E+00
         0.00000E+00
         0.00000E+00
         0.00000E+00
         0.00000E+00
         0.00000E+00
         0.00000E+00
         0.00000E+00
         0.00000E+00
         0.00000E+00
         0.00000E+00
         0.00000E+00
         0.00000E+00
         0.00000E+00
         0.00000E+00
         0.00000E+00
         0.00000E+00
         0.00000E+00
         0.00000E+00
         0.00000E+00
         0.00000E+00
         0.00000E+00
         0.00000E+00
         0.00000E+00
         0.00000E+00
         0.00000E+00
         0.00000E+00
         0.00000E+00
         0.00000E+00
         0.00000E+00
         0.00000E+00
         0.00000E+00
         0.00000E+00
         0.00000E+00
         0.00000E+00
         0.00000E+00
         0.00000E+00
         0.00000E+00
         0.00000E+00
         0.00000E+00
         0.00000E+00
         0.00000E+00
         0.00000E+00
         0.00000E+00
         0.00000E+00
         0.00000E+00
         0.00000E+00
         0.00000E+00
         0.00000E+00
         0.00000E+00
         0.00000E+00
         0.00000E+00
         0.00000E+00
         0.00000E+00
         0.00000E+00
         0.00000E+00
         0.00000E+00
         0.00000E+00
         0.00000E+00
         0.00000E+00
         0.00000E+00
         0.00000E+00
         0.00000E+00
         0.00000E+00
         0.00000E+00
         0.00000E+00
         0.00000E+00
         0.00000E+00
         0.00000E+00
         0.00000E+00
         0.00000E+00
         0.00000E+00
         0.00000E+00
         0.00000E+00
         0.00000E+00
         0.00000E+00
         0.00000E+00
         0.00000E+00
         0.00000E+00
         0.00000E+00
         0.00000E+00
         0.00000E+00
         0.00000E+00
         0.00000E+00
         0.00000E+00
         0.00000E+00
         0.00000E+00
         0.00000E+00
         0.00000E+00
         0.00000E+00
         0.00000E+00
         0.00000E+00
         0.00000E+00
         0.00000E+00
         0.00000E+00
         0.00000E+00
         0.00000E+00
         0.00000E+00
         0.00000E+00
         0.00000E+00
         0.00000E+00
         0.00000E+00
         0.00000E+00
         0.00000E+00
         0.00000E+00
         0.00000E+00
         0.00000E+00
         0.00000E+00
         0.00000E+00
         0.00000E+00
         0.00000E+00
         0.00000E+00
         0.00000E+00
         0.00000E+00
         0.00000E+00
         0.00000E+00
         0.00000E+00
         0.00000E+00
         0.00000E+00
         0.00000E+00
         0.00000E+00
         0.00000E+00
         0.00000E+00
         0.00000E+00
         0.00000E+00
         0.00000E+00
         0.00000E+00
         0.00000E+00
         0.00000E+00
         0.00000E+00
         0.00000E+00
         0.00000E+00
         0.00000E+00
         0.00000E+00
         0.00000E+00
         0.00000E+00
         0.00000E+00
         0.00000E+00
         0.00000E+00
         0.00000E+00
         0.00000E+00
         0.00000E+00
         0.00000E+00
         0.00000E+00
         0.00000E+00
         0.00000E+00
         0.00000E+00
         0.00000E+00
         0.00000E+00
         0.00000E+00
         0.00000E+00
         0.00000E+00
         0.00000E+00
         0.00000E+00
         0.00000E+00
         0.00000E+00
         0.00000E+00
         0.00000E+00
         0.00000E+00
         0.00000E+00
         0.00000E+00
         0.00000E+00
         0.00000E+00
         0.00000E+00
         0.00000E+00
         0.00000E+00
         0.00000E+00
         0.00000E+00
         0.00000E+00
         0.00000E+00
         0.00000E+00
         0.00000E+00
         0.00000E+00
         0.00000E+00
         0.00000E+00
         0.00000E+00
         0.00000E+00
         0.00000E+00
         0.00000E+00
         0.00000E+00
         0.00000E+00
         0.00000E+00
         0.00000E+00
         0.00000E+00
         0.00000E+00
         0.00000E+00
         0.00000E+00
         0.00000E+00
         0.00000E+00
         0.00000E+00
         0.00000E+00
         0.00000E+00
         0.00000E+00
         0.00000E+00
         0.00000E+00
         0.00000E+00
         0.00000E+00
         0.00000E+00
         0.00000E+00
         0.00000E+00
         0.00000E+00
         0.00000E+00
         0.00000E+00
         0.00000E+00
         0.00000E+00
         0.00000E+00
         0.00000E+00
         0.00000E+00
         0.00000E+00
         0.00000E+00
         0.00000E+00
         0.00000E+00
         0.00000E+00
         0.00000E+00
         0.00000E+00
         0.00000E+00
         0.00000E+00
         0.00000E+00
         0.00000E+00
         0.00000E+00
         0.00000E+00
         0.00000E+00
         0.00000E+00
         0.00000E+00
         0.00000E+00
         0.00000E+00
         0.00000E+00
         0.00000E+00
         0.00000E+00
         0.00000E+00
         0.00000E+00
         0.00000E+00
         0.00000E+00
         0.00000E+00
         0.00000E+00
         0.00000E+00
         0.00000E+00
         0.00000E+00
         0.00000E+00
         0.00000E+00
         0.00000E+00
         0.00000E+00
         0.00000E+00
         0.00000E+00
         0.00000E+00
         0.00000E+00
         0.00000E+00
         0.00000E+00
         0.00000E+00
         0.00000E+00
         0.00000E+00
         0.00000E+00
         0.00000E+00
         0.00000E+00
         0.00000E+00
         0.00000E+00
         0.00000E+00
         0.00000E+00
         0.00000E+00
         0.00000E+00
         0.00000E+00
         0.00000E+00
         0.00000E+00
         0.00000E+00
         0.00000E+00
         0.00000E+00
         0.00000E+00
         0.00000E+00
         0.00000E+00
         0.00000E+00
         0.00000E+00
         0.00000E+00
         0.00000E+00
         0.00000E+00
         0.00000E+00
         0.00000E+00
         0.00000E+00
         0.00000E+00
         0.00000E+00
         0.00000E+00
         0.00000E+00
         0.00000E+00
         0.00000E+00
         0.00000E+00
         0.00000E+00
         0.00000E+00
         0.00000E+00
         0.00000E+00
         0.00000E+00
         0.00000E+00
         0.00000E+00
         0.00000E+00
         0.00000E+00
         0.00000E+00
         0.00000E+00
         0.00000E+00
         0.00000E+00
         0.00000E+00
         0.00000E+00
         0.00000E+00
         0.00000E+00
         0.00000E+00
         0.00000E+00
         0.00000E+00
         0.00000E+00
         0.00000E+00
         0.00000E+00
         0.00000E+00
         0.00000E+00
         0.00000E+00
         0.00000E+00
         0.00000E+00
         0.00000E+00
         0.00000E+00
         0.00000E+00
         0.00000E+00
         0.00000E+00
         0.00000E+00
         0.00000E+00
         0.00000E+00
         0.00000E+00
         0.00000E+00
         0.00000E+00
         0.00000E+00
         0.00000E+00
         0.00000E+00
         0.00000E+00
         0.00000E+00
         0.00000E+00
         0.00000E+00
         0.00000E+00
         0.00000E+00
         0.00000E+00
         0.00000E+00
         0.00000E+00
         0.00000E+00
         0.00000E+00
         0.00000E+00
         0.00000E+00
         0.00000E+00
         0.00000E+00
         0.00000E+00
         0.00000E+00
         0.00000E+00
         0.00000E+00
         0.00000E+00
         0.00000E+00
         0.00000E+00
         0.00000E+00
         0.00000E+00
         0.00000E+00
         0.00000E+00
         0.00000E+00
         0.00000E+00
         0.00000E+00
         0.00000E+00
         0.00000E+00
         0.00000E+00
         0.00000E+00
         0.00000E+00
         0.00000E+00
         0.00000E+00
         0.00000E+00
         0.00000E+00
         0.00000E+00
         0.00000E+00
         0.00000E+00
         0.00000E+00
         0.00000E+00
         0.00000E+00
         0.00000E+00
         0.00000E+00
         0.00000E+00
         0.00000E+00
         0.00000E+00
         0.00000E+00
         0.00000E+00
         0.00000E+00
         0.00000E+00
         0.00000E+00
         0.00000E+00
         0.00000E+00
         0.00000E+00
         0.00000E+00
         0.00000E+00
         0.00000E+00
         0.00000E+00
         0.00000E+00
         0.00000E+00
         0.00000E+00
         0.00000E+00
         0.00000E+00
         0.00000E+00
         0.00000E+00
         0.00000E+00
         0.00000E+00
         0.00000E+00
         0.00000E+00
         0.00000E+00
         0.00000E+00
         0.00000E+00
         0.00000E+00
         0.00000E+00
         0.00000E+00
         0.00000E+00
         0.00000E+00
         0.00000E+00
         0.00000E+00
         0.00000E+00
         0.00000E+00
         0.00000E+00
         0.00000E+00
         0.00000E+00
         0.00000E+00
         0.00000E+00
         0.00000E+00
         0.00000E+00
         0.00000E+00
         0.00000E+00
         0.00000E+00
         0.00000E+00
         0.00000E+00
         0.00000E+00
         0.00000E+00
         0.00000E+00
         0.00000E+00
         0.00000E+00
         0.00000E+00
         0.00000E+00
         0.00000E+00
         0.00000E+00
         0.00000E+00
         0.00000E+00
         0.00000E+00
         0.00000E+00
         0.00000E+00
         0.00000E+00
         0.00000E+00
         0.00000E+00
         0.00000E+00
         0.00000E+00
         0.00000E+00
         0.00000E+00
         0.00000E+00
         0.00000E+00
         0.00000E+00
         0.00000E+00
         0.00000E+00
         0.00000E+00
         0.00000E+00
         0.00000E+00
         0.00000E+00
         0.00000E+00
         0.00000E+00
         0.00000E+00
         0.00000E+00
         0.00000E+00
         0.00000E+00
         0.00000E+00
         0.00000E+00
         0.00000E+00
         0.00000E+00
         0.00000E+00
         0.00000E+00
         0.00000E+00
         0.00000E+00
         0.00000E+00
         0.00000E+00
         0.00000E+00
         0.00000E+00
         0.00000E+00
         0.00000E+00
         0.00000E+00
         0.00000E+00
         0.00000E+00
         0.00000E+00
         0.00000E+00
         0.00000E+00
         0.00000E+00
         0.00000E+00
         0.00000E+00
         0.00000E+00
         0.00000E+00
         0.00000E+00
         0.00000E+00
         0.00000E+00
         0.00000E+00
         0.00000E+00
         0.00000E+00
         0.00000E+00
         0.00000E+00
         0.00000E+00
         0.00000E+00
         0.00000E+00
         0.00000E+00
         0.00000E+00
         0.00000E+00
         0.00000E+00
         0.00000E+00
         0.00000E+00
         0.00000E+00
         0.00000E+00
         0.00000E+00
         0.00000E+00
         0.00000E+00
         0.00000E+00
         0.00000E+00
         0.00000E+00
         0.00000E+00
         0.00000E+00
         0.00000E+00
         0.00000E+00
         0.00000E+00
         0.00000E+00
         0.00000E+00
         0.00000E+00
         0.00000E+00
         0.00000E+00
         0.00000E+00
         0.00000E+00
         0.00000E+00
         0.00000E+00
         0.00000E+00
         0.00000E+00
         0.00000E+00
         0.00000E+00
         0.00000E+00
         0.00000E+00
         0.00000E+00
         0.00000E+00
         0.00000E+00
         0.00000E+00
         0.00000E+00
         0.00000E+00
         0.00000E+00
         0.00000E+00
         0.00000E+00
         0.00000E+00
         0.00000E+00
         0.00000E+00
         0.00000E+00
         0.00000E+00
         0.00000E+00
         0.00000E+00
         0.00000E+00
         0.00000E+00
         0.00000E+00
         0.00000E+00
         0.00000E+00
         0.00000E+00
         0.00000E+00
         0.00000E+00
         0.00000E+00
         0.00000E+00
         0.00000E+00
         0.00000E+00
         0.00000E+00
         0.00000E+00
         0.00000E+00
         0.00000E+00
         0.00000E+00
         0.00000E+00
         0.00000E+00
         0.00000E+00
         0.00000E+00
         0.00000E+00
         0.00000E+00
         0.00000E+00
         0.00000E+00
         0.00000E+00
         0.00000E+00
         0.00000E+00
         0.00000E+00
         0.00000E+00
         0.00000E+00
         0.00000E+00
         0.00000E+00
         0.00000E+00
         0.00000E+00
         0.00000E+00
         0.00000E+00
         0.00000E+00
         0.00000E+00
         0.00000E+00
         0.00000E+00
         0.00000E+00
         0.00000E+00
         0.00000E+00
         0.00000E+00
         0.00000E+00
         0.00000E+00
         0.00000E+00
         0.00000E+00
         0.00000E+00
         0.00000E+00
         0.00000E+00
         0.00000E+00
         0.00000E+00
         0.00000E+00
         0.00000E+00
         0.00000E+00
         0.00000E+00
         0.00000E+00
         0.00000E+00
         0.00000E+00
         0.00000E+00
         0.00000E+00
         0.00000E+00
         0.00000E+00
         0.00000E+00
         0.00000E+00
         0.00000E+00
         0.00000E+00
         0.00000E+00
         0.00000E+00
         0.00000E+00
         0.00000E+00
         0.00000E+00
         0.00000E+00
         0.00000E+00
         0.00000E+00
         0.00000E+00
         0.00000E+00
         0.00000E+00
         0.00000E+00
         0.00000E+00
         0.00000E+00
         0.00000E+00
         0.00000E+00
         0.00000E+00
         0.00000E+00
         0.00000E+00
         0.00000E+00
         0.00000E+00
         0.00000E+00
         0.00000E+00
         0.00000E+00
         0.00000E+00
         0.00000E+00
         0.00000E+00
         0.00000E+00
         0.00000E+00
         0.00000E+00
         0.00000E+00
         0.00000E+00
         0.00000E+00
         0.00000E+00
         0.00000E+00
         0.00000E+00
         0.00000E+00
         0.00000E+00
         0.00000E+00
         0.00000E+00
         0.00000E+00
         0.00000E+00
         0.00000E+00
         0.00000E+00
         0.00000E+00
         0.00000E+00
         0.00000E+00
         0.00000E+00
         0.00000E+00
         0.00000E+00
         0.00000E+00
         0.00000E+00
         0.00000E+00
         0.00000E+00
         0.00000E+00
         0.00000E+00
         0.00000E+00
         0.00000E+00
         0.00000E+00
         0.00000E+00
         0.00000E+00
         0.00000E+00
         0.00000E+00
         0.00000E+00
         0.00000E+00
         0.00000E+00
         0.00000E+00
         0.00000E+00
         0.00000E+00
         0.00000E+00
         0.00000E+00
         0.00000E+00
         0.00000E+00
         0.00000E+00
         0.00000E+00
         0.00000E+00
         0.00000E+00
         0.00000E+00
         0.00000E+00
         0.00000E+00
         0.00000E+00
         0.00000E+00
         0.00000E+00
         0.00000E+00
         0.00000E+00
         0.00000E+00
         0.00000E+00
         0.00000E+00
         0.00000E+00
         0.00000E+00
         0.00000E+00
         0.00000E+00
         0.00000E+00
         0.00000E+00
         0.00000E+00
         0.00000E+00
         0.00000E+00
         0.00000E+00
         0.00000E+00
         0.00000E+00
         0.00000E+00
         0.00000E+00
         0.00000E+00
         0.00000E+00
         0.00000E+00
         0.00000E+00
         0.00000E+00
         0.00000E+00
         0.00000E+00
         0.00000E+00
         0.00000E+00
         0.00000E+00
         0.00000E+00
         0.00000E+00
         0.00000E+00
         0.00000E+00
         0.00000E+00
         0.00000E+00
         0.00000E+00
         0.00000E+00
         0.00000E+00
         0.00000E+00
         0.00000E+00
         0.00000E+00
         0.00000E+00
         0.00000E+00
         0.00000E+00
         0.00000E+00
         0.00000E+00
         0.00000E+00
         0.00000E+00
         0.00000E+00
         0.00000E+00
         0.00000E+00
         0.00000E+00
         0.00000E+00
         0.00000E+00
         0.00000E+00
         0.00000E+00
         0.00000E+00
         0.00000E+00
         0.00000E+00
         0.00000E+00
         0.00000E+00
         0.00000E+00
         0.00000E+00
         0.00000E+00
         0.00000E+00
         0.00000E+00
         0.00000E+00
         0.00000E+00
         0.00000E+00
         0.00000E+00
         0.00000E+00
         0.00000E+00
         0.00000E+00
         0.00000E+00
         0.00000E+00
         0.00000E+00
         0.00000E+00
         0.00000E+00
         0.00000E+00
         0.00000E+00
         0.00000E+00
         0.00000E+00
         0.00000E+00
         0.00000E+00
         0.00000E+00
         0.00000E+00
         0.00000E+00
         0.00000E+00
         0.00000E+00
         0.00000E+00
         0.00000E+00
         0.00000E+00
         0.00000E+00
         0.00000E+00
         0.00000E+00
         0.00000E+00
         0.00000E+00
         0.00000E+00
         0.00000E+00
         0.00000E+00
         0.00000E+00
         0.00000E+00
         0.00000E+00
         0.00000E+00
         0.00000E+00
         0.00000E+00
         0.00000E+00
         0.00000E+00
         0.00000E+00
  
SCALARS        characteristic_distance  double 1
LOOKUP_TABLE default
         0.00000E+00
         0.00000E+00
         0.00000E+00
         0.00000E+00
         0.00000E+00
         0.00000E+00
         0.00000E+00
         0.00000E+00
         0.00000E+00
         0.00000E+00
         0.00000E+00
         0.00000E+00
         0.00000E+00
         0.00000E+00
         0.00000E+00
         0.00000E+00
         0.00000E+00
         0.00000E+00
         0.00000E+00
         0.00000E+00
         0.00000E+00
         0.00000E+00
         0.00000E+00
         0.00000E+00
         0.00000E+00
         0.00000E+00
         0.00000E+00
         0.00000E+00
         0.00000E+00
         0.00000E+00
         0.00000E+00
         0.00000E+00
         0.00000E+00
         0.00000E+00
         0.00000E+00
         0.00000E+00
         0.00000E+00
         0.00000E+00
         0.00000E+00
         0.00000E+00
         0.00000E+00
         0.00000E+00
         0.00000E+00
         0.00000E+00
         0.00000E+00
         0.00000E+00
         0.00000E+00
         0.00000E+00
         0.00000E+00
         0.00000E+00
         0.00000E+00
         0.00000E+00
         0.00000E+00
         0.00000E+00
         0.00000E+00
         0.00000E+00
         0.00000E+00
         0.00000E+00
         0.00000E+00
         0.00000E+00
         0.00000E+00
         0.00000E+00
         0.00000E+00
         0.00000E+00
         0.00000E+00
         0.00000E+00
         0.00000E+00
         0.00000E+00
         0.00000E+00
         0.00000E+00
         0.00000E+00
         0.00000E+00
         0.00000E+00
         0.00000E+00
         0.00000E+00
         0.00000E+00
         0.00000E+00
         0.00000E+00
         0.00000E+00
         0.00000E+00
         0.00000E+00
         0.00000E+00
         0.00000E+00
         0.00000E+00
         0.00000E+00
         0.00000E+00
         0.00000E+00
         0.00000E+00
         0.00000E+00
         0.00000E+00
         0.00000E+00
         0.00000E+00
         0.00000E+00
         0.00000E+00
         0.00000E+00
         0.00000E+00
         0.00000E+00
         0.00000E+00
         0.00000E+00
         0.00000E+00
         0.00000E+00
         0.00000E+00
         0.00000E+00
         0.00000E+00
         0.00000E+00
         0.00000E+00
         0.00000E+00
         0.00000E+00
         0.00000E+00
         0.00000E+00
         0.00000E+00
         0.00000E+00
         0.00000E+00
         0.00000E+00
         0.00000E+00
         0.00000E+00
         0.00000E+00
         0.00000E+00
         0.00000E+00
         0.00000E+00
         0.00000E+00
         0.00000E+00
         0.00000E+00
         0.00000E+00
         0.00000E+00
         0.00000E+00
         0.00000E+00
         0.00000E+00
         0.00000E+00
         0.00000E+00
         0.00000E+00
         0.00000E+00
         0.00000E+00
         0.00000E+00
         0.00000E+00
         0.00000E+00
         0.00000E+00
         0.00000E+00
         0.00000E+00
         0.00000E+00
         0.00000E+00
         0.00000E+00
         0.00000E+00
         0.00000E+00
         0.00000E+00
         0.00000E+00
         0.00000E+00
         0.00000E+00
         0.00000E+00
         0.00000E+00
         0.00000E+00
         0.00000E+00
         0.00000E+00
         0.00000E+00
         0.00000E+00
         0.00000E+00
         0.00000E+00
         0.00000E+00
         0.00000E+00
         0.00000E+00
         0.00000E+00
         0.00000E+00
         0.00000E+00
         0.00000E+00
         0.00000E+00
         0.00000E+00
         0.00000E+00
         0.00000E+00
         0.00000E+00
         0.00000E+00
         0.00000E+00
         0.00000E+00
         0.00000E+00
         0.00000E+00
         0.00000E+00
         0.00000E+00
         0.00000E+00
         0.00000E+00
         0.00000E+00
         0.00000E+00
         0.00000E+00
         0.00000E+00
         0.00000E+00
         0.00000E+00
         0.00000E+00
         0.00000E+00
         0.00000E+00
         0.00000E+00
         0.00000E+00
         0.00000E+00
         0.00000E+00
         0.00000E+00
         0.00000E+00
         0.00000E+00
         0.00000E+00
         0.00000E+00
         0.00000E+00
         0.00000E+00
         0.00000E+00
         0.00000E+00
         0.00000E+00
         0.00000E+00
         0.00000E+00
         0.00000E+00
         0.00000E+00
         0.00000E+00
         0.00000E+00
         0.00000E+00
         0.00000E+00
         0.00000E+00
         0.00000E+00
         0.00000E+00
         0.00000E+00
         0.00000E+00
         0.00000E+00
         0.00000E+00
         0.00000E+00
         0.00000E+00
         0.00000E+00
         0.00000E+00
         0.00000E+00
         0.00000E+00
         0.00000E+00
         0.00000E+00
         0.00000E+00
         0.00000E+00
         0.00000E+00
         0.00000E+00
         0.00000E+00
         0.00000E+00
         0.00000E+00
         0.00000E+00
         0.00000E+00
         0.00000E+00
         0.00000E+00
         0.00000E+00
         0.00000E+00
         0.00000E+00
         0.00000E+00
         0.00000E+00
         0.00000E+00
         0.00000E+00
         0.00000E+00
         0.00000E+00
         0.00000E+00
         0.00000E+00
         0.00000E+00
         0.00000E+00
         0.00000E+00
         0.00000E+00
         0.00000E+00
         0.00000E+00
         0.00000E+00
         0.00000E+00
         0.00000E+00
         0.00000E+00
         0.00000E+00
         0.00000E+00
         0.00000E+00
         0.00000E+00
         0.00000E+00
         0.00000E+00
         0.00000E+00
         0.00000E+00
         0.00000E+00
         0.00000E+00
         0.00000E+00
         0.00000E+00
         0.00000E+00
         0.00000E+00
         0.00000E+00
         0.00000E+00
         0.00000E+00
         0.00000E+00
         0.00000E+00
         0.00000E+00
         0.00000E+00
         0.00000E+00
         0.00000E+00
         0.00000E+00
         0.00000E+00
         0.00000E+00
         0.00000E+00
         0.00000E+00
         0.00000E+00
         0.00000E+00
         0.00000E+00
         0.00000E+00
         0.00000E+00
         0.00000E+00
         0.00000E+00
         0.00000E+00
         0.00000E+00
         0.00000E+00
         0.00000E+00
         0.00000E+00
         0.00000E+00
         0.00000E+00
         0.00000E+00
         0.00000E+00
         0.00000E+00
         0.00000E+00
         0.00000E+00
         0.00000E+00
         0.00000E+00
         0.00000E+00
         0.00000E+00
         0.00000E+00
         0.00000E+00
         0.00000E+00
         0.00000E+00
         0.00000E+00
         0.00000E+00
         0.00000E+00
         0.00000E+00
         0.00000E+00
         0.00000E+00
         0.00000E+00
         0.00000E+00
         0.00000E+00
         0.00000E+00
         0.00000E+00
         0.00000E+00
         0.00000E+00
         0.00000E+00
         0.00000E+00
         0.00000E+00
         0.00000E+00
         0.00000E+00
         0.00000E+00
         0.00000E+00
         0.00000E+00
         0.00000E+00
         0.00000E+00
         0.00000E+00
         0.00000E+00
         0.00000E+00
         0.00000E+00
         0.00000E+00
         0.00000E+00
         0.00000E+00
         0.00000E+00
         0.00000E+00
         0.00000E+00
         0.00000E+00
         0.00000E+00
         0.00000E+00
         0.00000E+00
         0.00000E+00
         0.00000E+00
         0.00000E+00
         0.00000E+00
         0.00000E+00
         0.00000E+00
         0.00000E+00
         0.00000E+00
         0.00000E+00
         0.00000E+00
         0.00000E+00
         0.00000E+00
         0.00000E+00
         0.00000E+00
         0.00000E+00
         0.00000E+00
         0.00000E+00
         0.00000E+00
         0.00000E+00
         0.00000E+00
         0.00000E+00
         0.00000E+00
         0.00000E+00
         0.00000E+00
         0.00000E+00
         0.00000E+00
         0.00000E+00
         0.00000E+00
         0.00000E+00
         0.00000E+00
         0.00000E+00
         0.00000E+00
         0.00000E+00
         0.00000E+00
         0.00000E+00
         0.00000E+00
         0.00000E+00
         0.00000E+00
         0.00000E+00
         0.00000E+00
         0.00000E+00
         0.00000E+00
         0.00000E+00
         0.00000E+00
         0.00000E+00
         0.00000E+00
         0.00000E+00
         0.00000E+00
         0.00000E+00
         0.00000E+00
         0.00000E+00
         0.00000E+00
         0.00000E+00
         0.00000E+00
         0.00000E+00
         0.00000E+00
         0.00000E+00
         0.00000E+00
         0.00000E+00
         0.00000E+00
         0.00000E+00
         0.00000E+00
         0.00000E+00
         0.00000E+00
         0.00000E+00
         0.00000E+00
         0.00000E+00
         0.00000E+00
         0.00000E+00
         0.00000E+00
         0.00000E+00
         0.00000E+00
         0.00000E+00
         0.00000E+00
         0.00000E+00
         0.00000E+00
         0.00000E+00
         0.00000E+00
         0.00000E+00
         0.00000E+00
         0.00000E+00
         0.00000E+00
         0.00000E+00
         0.00000E+00
         0.00000E+00
         0.00000E+00
         0.00000E+00
         0.00000E+00
         0.00000E+00
         0.00000E+00
         0.00000E+00
         0.00000E+00
         0.00000E+00
         0.00000E+00
         0.00000E+00
         0.00000E+00
         0.00000E+00
         0.00000E+00
         0.00000E+00
         0.00000E+00
         0.00000E+00
         0.00000E+00
         0.00000E+00
         0.00000E+00
         0.00000E+00
         0.00000E+00
         0.00000E+00
         0.00000E+00
         0.00000E+00
         0.00000E+00
         0.00000E+00
         0.00000E+00
         0.00000E+00
         0.00000E+00
         0.00000E+00
         0.00000E+00
         0.00000E+00
         0.00000E+00
         0.00000E+00
         0.00000E+00
         0.00000E+00
         0.00000E+00
         0.00000E+00
         0.00000E+00
         0.00000E+00
         0.00000E+00
         0.00000E+00
         0.00000E+00
         0.00000E+00
         0.00000E+00
         0.00000E+00
         0.00000E+00
         0.00000E+00
         0.00000E+00
         0.00000E+00
         0.00000E+00
         0.00000E+00
         0.00000E+00
         0.00000E+00
         0.00000E+00
         0.00000E+00
         0.00000E+00
         0.00000E+00
         0.00000E+00
         0.00000E+00
         0.00000E+00
         0.00000E+00
         0.00000E+00
         0.00000E+00
         0.00000E+00
         0.00000E+00
         0.00000E+00
         0.00000E+00
         0.00000E+00
         0.00000E+00
         0.00000E+00
         0.00000E+00
         0.00000E+00
         0.00000E+00
         0.00000E+00
         0.00000E+00
         0.00000E+00
         0.00000E+00
         0.00000E+00
         0.00000E+00
         0.00000E+00
         0.00000E+00
         0.00000E+00
         0.00000E+00
         0.00000E+00
         0.00000E+00
         0.00000E+00
         0.00000E+00
         0.00000E+00
         0.00000E+00
         0.00000E+00
         0.00000E+00
         0.00000E+00
         0.00000E+00
         0.00000E+00
         0.00000E+00
         0.00000E+00
         0.00000E+00
         0.00000E+00
         0.00000E+00
         0.00000E+00
         0.00000E+00
         0.00000E+00
         0.00000E+00
         0.00000E+00
         0.00000E+00
         0.00000E+00
         0.00000E+00
         0.00000E+00
         0.00000E+00
         0.00000E+00
         0.00000E+00
         0.00000E+00
         0.00000E+00
         0.00000E+00
         0.00000E+00
         0.00000E+00
         0.00000E+00
         0.00000E+00
         0.00000E+00
         0.00000E+00
         0.00000E+00
         0.00000E+00
         0.00000E+00
         0.00000E+00
         0.00000E+00
         0.00000E+00
         0.00000E+00
         0.00000E+00
         0.00000E+00
         0.00000E+00
         0.00000E+00
         0.00000E+00
         0.00000E+00
         0.00000E+00
         0.00000E+00
         0.00000E+00
         0.00000E+00
         0.00000E+00
         0.00000E+00
         0.00000E+00
         0.00000E+00
         0.00000E+00
         0.00000E+00
         0.00000E+00
         0.00000E+00
         0.00000E+00
         0.00000E+00
         0.00000E+00
         0.00000E+00
         0.00000E+00
         0.00000E+00
         0.00000E+00
         0.00000E+00
         0.00000E+00
         0.00000E+00
         0.00000E+00
         0.00000E+00
         0.00000E+00
         0.00000E+00
         0.00000E+00
         0.00000E+00
         0.00000E+00
         0.00000E+00
         0.00000E+00
         0.00000E+00
         0.00000E+00
         0.00000E+00
         0.00000E+00
         0.00000E+00
         0.00000E+00
         0.00000E+00
         0.00000E+00
         0.00000E+00
         0.00000E+00
         0.00000E+00
         0.00000E+00
         0.00000E+00
         0.00000E+00
         0.00000E+00
         0.00000E+00
         0.00000E+00
         0.00000E+00
         0.00000E+00
         0.00000E+00
         0.00000E+00
         0.00000E+00
         0.00000E+00
         0.00000E+00
         0.00000E+00
         0.00000E+00
         0.00000E+00
         0.00000E+00
         0.00000E+00
         0.00000E+00
         0.00000E+00
         0.00000E+00
         0.00000E+00
         0.00000E+00
         0.00000E+00
         0.00000E+00
         0.00000E+00
         0.00000E+00
         0.00000E+00
         0.00000E+00
         0.00000E+00
         0.00000E+00
         0.00000E+00
         0.00000E+00
         0.00000E+00
         0.00000E+00
         0.00000E+00
         0.00000E+00
         0.00000E+00
         0.00000E+00
         0.00000E+00
         0.00000E+00
         0.00000E+00
         0.00000E+00
         0.00000E+00
         0.00000E+00
         0.00000E+00
         0.00000E+00
         0.00000E+00
         0.00000E+00
         0.00000E+00
         0.00000E+00
         0.00000E+00
         0.00000E+00
         0.00000E+00
         0.00000E+00
         0.00000E+00
         0.00000E+00
         0.00000E+00
         0.00000E+00
         0.00000E+00
         0.00000E+00
         0.00000E+00
         0.00000E+00
         0.00000E+00
         0.00000E+00
         0.00000E+00
         0.00000E+00
         0.00000E+00
         0.00000E+00
         0.00000E+00
         0.00000E+00
         0.00000E+00
         0.00000E+00
         0.00000E+00
         0.00000E+00
         0.00000E+00
         0.00000E+00
         0.00000E+00
         0.00000E+00
         0.00000E+00
         0.00000E+00
         0.00000E+00
         0.00000E+00
         0.00000E+00
         0.00000E+00
         0.00000E+00
         0.00000E+00
         0.00000E+00
         0.00000E+00
         0.00000E+00
         0.00000E+00
         0.00000E+00
         0.00000E+00
         0.00000E+00
         0.00000E+00
         0.00000E+00
         0.00000E+00
         0.00000E+00
         0.00000E+00
         0.00000E+00
         0.00000E+00
         0.00000E+00
         0.00000E+00
         0.00000E+00
         0.00000E+00
         0.00000E+00
         0.00000E+00
         0.00000E+00
         0.00000E+00
         0.00000E+00
         0.00000E+00
         0.00000E+00
         0.00000E+00
         0.00000E+00
         0.00000E+00
         0.00000E+00
         0.00000E+00
         0.00000E+00
         0.00000E+00
         0.00000E+00
         0.00000E+00
         0.00000E+00
         0.00000E+00
         0.00000E+00
         0.00000E+00
         0.00000E+00
         0.00000E+00
         0.00000E+00
         0.00000E+00
         0.00000E+00
         0.00000E+00
         0.00000E+00
         0.00000E+00
         0.00000E+00
         0.00000E+00
         0.00000E+00
         0.00000E+00
         0.00000E+00
         0.00000E+00
         0.00000E+00
         0.00000E+00
         0.00000E+00
         0.00000E+00
         0.00000E+00
         0.00000E+00
         0.00000E+00
         0.00000E+00
         0.00000E+00
         0.00000E+00
         0.00000E+00
         0.00000E+00
         0.00000E+00
         0.00000E+00
         0.00000E+00
         0.00000E+00
         0.00000E+00
         0.00000E+00
         0.00000E+00
         0.00000E+00
         0.00000E+00
         0.00000E+00
         0.00000E+00
         0.00000E+00
         0.00000E+00
         0.00000E+00
         0.00000E+00
         0.00000E+00
         0.00000E+00
         0.00000E+00
         0.00000E+00
         0.00000E+00
         0.00000E+00
         0.00000E+00
         0.00000E+00
         0.00000E+00
         0.00000E+00
         0.00000E+00
         0.00000E+00
         0.00000E+00
         0.00000E+00
         0.00000E+00
         0.00000E+00
         0.00000E+00
         0.00000E+00
         0.00000E+00
         0.00000E+00
         0.00000E+00
         0.00000E+00
         0.00000E+00
         0.00000E+00
         0.00000E+00
         0.00000E+00
         0.00000E+00
         0.00000E+00
         0.00000E+00
         0.00000E+00
         0.00000E+00
         0.00000E+00
         0.00000E+00
         0.00000E+00
         0.00000E+00
         0.00000E+00
         0.00000E+00
         0.00000E+00
         0.00000E+00
         0.00000E+00
         0.00000E+00
         0.00000E+00
         0.00000E+00
         0.00000E+00
         0.00000E+00
         0.00000E+00
         0.00000E+00
         0.00000E+00
         0.00000E+00
         0.00000E+00
         0.00000E+00
         0.00000E+00
         0.00000E+00
         0.00000E+00
         0.00000E+00
         0.00000E+00
         0.00000E+00
         0.00000E+00
         0.00000E+00
         0.00000E+00
         0.00000E+00
         0.00000E+00
         0.00000E+00
         0.00000E+00
         0.00000E+00
         0.00000E+00
         0.00000E+00
         0.00000E+00
         0.00000E+00
         0.00000E+00
         0.00000E+00
         0.00000E+00
         0.00000E+00
         0.00000E+00
         0.00000E+00
         0.00000E+00
         0.00000E+00
         0.00000E+00
         0.00000E+00
         0.00000E+00
         0.00000E+00
         0.00000E+00
         0.00000E+00
         0.00000E+00
         0.00000E+00
         0.00000E+00
         0.00000E+00
         0.00000E+00
         0.00000E+00
         0.00000E+00
         0.00000E+00
         0.00000E+00
         0.00000E+00
         0.00000E+00
         0.00000E+00
         0.00000E+00
         0.00000E+00
         0.00000E+00
         0.00000E+00
         0.00000E+00
         0.00000E+00
         0.00000E+00
         0.00000E+00
         0.00000E+00
         0.00000E+00
         0.00000E+00
         0.00000E+00
         0.00000E+00
         0.00000E+00
         0.00000E+00
         0.00000E+00
         0.00000E+00
         0.00000E+00
         0.00000E+00
         0.00000E+00
         0.00000E+00
         0.00000E+00
         0.00000E+00
         0.00000E+00
         0.00000E+00
         0.00000E+00
         0.00000E+00
         0.00000E+00
         0.00000E+00
         0.00000E+00
         0.00000E+00
         0.00000E+00
         0.00000E+00
         0.00000E+00
         0.00000E+00
         0.00000E+00
         0.00000E+00
         0.00000E+00
         0.00000E+00
         0.00000E+00
         0.00000E+00
         0.00000E+00
         0.00000E+00
         0.00000E+00
         0.00000E+00
         0.00000E+00
         0.00000E+00
         0.00000E+00
         0.00000E+00
         0.00000E+00
         0.00000E+00
         0.00000E+00
         0.00000E+00
         0.00000E+00
         0.00000E+00
         0.00000E+00
         0.00000E+00
         0.00000E+00
         0.00000E+00
         0.00000E+00
         0.00000E+00
         0.00000E+00
         0.00000E+00
         0.00000E+00
         0.00000E+00
         0.00000E+00
         0.00000E+00
         0.00000E+00
         0.00000E+00
         0.00000E+00
         0.00000E+00
         0.00000E+00
         0.00000E+00
         0.00000E+00
         0.00000E+00
         0.00000E+00
         0.00000E+00
         0.00000E+00
         0.00000E+00
         0.00000E+00
         0.00000E+00
         0.00000E+00
         0.00000E+00
         0.00000E+00
         0.00000E+00
         0.00000E+00
         0.00000E+00
         0.00000E+00
         0.00000E+00
         0.00000E+00
         0.00000E+00
         0.00000E+00
         0.00000E+00
         0.00000E+00
         0.00000E+00
         0.00000E+00
         0.00000E+00
         0.00000E+00
         0.00000E+00
         0.00000E+00
         0.00000E+00
         0.00000E+00
         0.00000E+00
         0.00000E+00
         0.00000E+00
         0.00000E+00
         0.00000E+00
         0.00000E+00
         0.00000E+00
         0.00000E+00
         0.00000E+00
         0.00000E+00
         0.00000E+00
         0.00000E+00
         0.00000E+00
         0.00000E+00
         0.00000E+00
         0.00000E+00
         0.00000E+00
         0.00000E+00
         0.00000E+00
         0.00000E+00
         0.00000E+00
         0.00000E+00
         0.00000E+00
         0.00000E+00
         0.00000E+00
         0.00000E+00
         0.00000E+00
         0.00000E+00
         0.00000E+00
         0.00000E+00
         0.00000E+00
         0.00000E+00
         0.00000E+00
         0.00000E+00
         0.00000E+00
         0.00000E+00
         0.00000E+00
         0.00000E+00
         0.00000E+00
         0.00000E+00
         0.00000E+00
         0.00000E+00
         0.00000E+00
         0.00000E+00
         0.00000E+00
         0.00000E+00
         0.00000E+00
         0.00000E+00
         0.00000E+00
         0.00000E+00
         0.00000E+00
         0.00000E+00
         0.00000E+00
         0.00000E+00
         0.00000E+00
         0.00000E+00
         0.00000E+00
         0.00000E+00
         0.00000E+00
         0.00000E+00
         0.00000E+00
         0.00000E+00
         0.00000E+00
         0.00000E+00
         0.00000E+00
         0.00000E+00
         0.00000E+00
         0.00000E+00
         0.00000E+00
         0.00000E+00
         0.00000E+00
         0.00000E+00
         0.00000E+00
         0.00000E+00
         0.00000E+00
         0.00000E+00
         0.00000E+00
         0.00000E+00
         0.00000E+00
         0.00000E+00
         0.00000E+00
         0.00000E+00
         0.00000E+00
         0.00000E+00
         0.00000E+00
         0.00000E+00
         0.00000E+00
         0.00000E+00
         0.00000E+00
         0.00000E+00
         0.00000E+00
         0.00000E+00
         0.00000E+00
         0.00000E+00
         0.00000E+00
         0.00000E+00
         0.00000E+00
         0.00000E+00
         0.00000E+00
         0.00000E+00
         0.00000E+00
         0.00000E+00
         0.00000E+00
         0.00000E+00
         0.00000E+00
         0.00000E+00
         0.00000E+00
         0.00000E+00
         0.00000E+00
         0.00000E+00
         0.00000E+00
         0.00000E+00
         0.00000E+00
         0.00000E+00
         0.00000E+00
         0.00000E+00
         0.00000E+00
         0.00000E+00
         0.00000E+00
         0.00000E+00
         0.00000E+00
         0.00000E+00
         0.00000E+00
         0.00000E+00
         0.00000E+00
         0.00000E+00
         0.00000E+00
         0.00000E+00
         0.00000E+00
         0.00000E+00
         0.00000E+00
         0.00000E+00
         0.00000E+00
         0.00000E+00
         0.00000E+00
         0.00000E+00
         0.00000E+00
         0.00000E+00
         0.00000E+00
         0.00000E+00
         0.00000E+00
         0.00000E+00
         0.00000E+00
         0.00000E+00
         0.00000E+00
         0.00000E+00
         0.00000E+00
         0.00000E+00
         0.00000E+00
         0.00000E+00
         0.00000E+00
         0.00000E+00
         0.00000E+00
         0.00000E+00
         0.00000E+00
         0.00000E+00
         0.00000E+00
         0.00000E+00
         0.00000E+00
         0.00000E+00
         0.00000E+00
         0.00000E+00
         0.00000E+00
         0.00000E+00
         0.00000E+00
         0.00000E+00
         0.00000E+00
         0.00000E+00
         0.00000E+00
         0.00000E+00
         0.00000E+00
         0.00000E+00
         0.00000E+00
         0.00000E+00
         0.00000E+00
         0.00000E+00
         0.00000E+00
         0.00000E+00
         0.00000E+00
         0.00000E+00
         0.00000E+00
         0.00000E+00
         0.00000E+00
         0.00000E+00
         0.00000E+00
         0.00000E+00
         0.00000E+00
         0.00000E+00
         0.00000E+00
         0.00000E+00
         0.00000E+00
         0.00000E+00
         0.00000E+00
         0.00000E+00
         0.00000E+00
         0.00000E+00
         0.00000E+00
         0.00000E+00
         0.00000E+00
         0.00000E+00
         0.00000E+00
         0.00000E+00
         0.00000E+00
         0.00000E+00
         0.00000E+00
         0.00000E+00
         0.00000E+00
         0.00000E+00
         0.00000E+00
         0.00000E+00
         0.00000E+00
         0.00000E+00
         0.00000E+00
         0.00000E+00
         0.00000E+00
         0.00000E+00
         0.00000E+00
         0.00000E+00
         0.00000E+00
         0.00000E+00
         0.00000E+00
         0.00000E+00
         0.00000E+00
         0.00000E+00
         0.00000E+00
         0.00000E+00
         0.00000E+00
         0.00000E+00
         0.00000E+00
         0.00000E+00
         0.00000E+00
         0.00000E+00
         0.00000E+00
         0.00000E+00
         0.00000E+00
         0.00000E+00
         0.00000E+00
         0.00000E+00
         0.00000E+00
         0.00000E+00
         0.00000E+00
         0.00000E+00
         0.00000E+00
         0.00000E+00
         0.00000E+00
         0.00000E+00
         0.00000E+00
         0.00000E+00
         0.00000E+00
         0.00000E+00
         0.00000E+00
         0.00000E+00
         0.00000E+00
         0.00000E+00
         0.00000E+00
         0.00000E+00
         0.00000E+00
         0.00000E+00
         0.00000E+00
         0.00000E+00
         0.00000E+00
         0.00000E+00
         0.00000E+00
         0.00000E+00
         0.00000E+00
         0.00000E+00
         0.00000E+00
         0.00000E+00
         0.00000E+00
         0.00000E+00
         0.00000E+00
         0.00000E+00
         0.00000E+00
         0.00000E+00
         0.00000E+00
         0.00000E+00
         0.00000E+00
         0.00000E+00
         0.00000E+00
         0.00000E+00
         0.00000E+00
         0.00000E+00
         0.00000E+00
         0.00000E+00
         0.00000E+00
         0.00000E+00
         0.00000E+00
         0.00000E+00
         0.00000E+00
         0.00000E+00
         0.00000E+00
         0.00000E+00
         0.00000E+00
         0.00000E+00
         0.00000E+00
         0.00000E+00
         0.00000E+00
         0.00000E+00
         0.00000E+00
         0.00000E+00
         0.00000E+00
         0.00000E+00
         0.00000E+00
         0.00000E+00
         0.00000E+00
         0.00000E+00
         0.00000E+00
         0.00000E+00
         0.00000E+00
         0.00000E+00
         0.00000E+00
         0.00000E+00
         0.00000E+00
         0.00000E+00
         0.00000E+00
         0.00000E+00
         0.00000E+00
         0.00000E+00
         0.00000E+00
         0.00000E+00
         0.00000E+00
         0.00000E+00
         0.00000E+00
         0.00000E+00
         0.00000E+00
         0.00000E+00
         0.00000E+00
         0.00000E+00
         0.00000E+00
         0.00000E+00
         0.00000E+00
         0.00000E+00
         0.00000E+00
         0.00000E+00
         0.00000E+00
         0.00000E+00
         0.00000E+00
         0.00000E+00
         0.00000E+00
         0.00000E+00
         0.00000E+00
         0.00000E+00
         0.00000E+00
         0.00000E+00
         0.00000E+00
         0.00000E+00
         0.00000E+00
         0.00000E+00
         0.00000E+00
         0.00000E+00
         0.00000E+00
         0.00000E+00
         0.00000E+00
         0.00000E+00
         0.00000E+00
         0.00000E+00
         0.00000E+00
         0.00000E+00
         0.00000E+00
         0.00000E+00
         0.00000E+00
         0.00000E+00
         0.00000E+00
         0.00000E+00
         0.00000E+00
         0.00000E+00
         0.00000E+00
         0.00000E+00
         0.00000E+00
         0.00000E+00
         0.00000E+00
         0.00000E+00
         0.00000E+00
         0.00000E+00
         0.00000E+00
         0.00000E+00
         0.00000E+00
         0.00000E+00
         0.00000E+00
         0.00000E+00
         0.00000E+00
         0.00000E+00
         0.00000E+00
         0.00000E+00
         0.00000E+00
         0.00000E+00
         0.00000E+00
         0.00000E+00
         0.00000E+00
         0.00000E+00
         0.00000E+00
         0.00000E+00
         0.00000E+00
         0.00000E+00
         0.00000E+00
         0.00000E+00
         0.00000E+00
         0.00000E+00
         0.00000E+00
         0.00000E+00
         0.00000E+00
         0.00000E+00
         0.00000E+00
         0.00000E+00
         0.00000E+00
         0.00000E+00
         0.00000E+00
         0.00000E+00
         0.00000E+00
         0.00000E+00
         0.00000E+00
         0.00000E+00
         0.00000E+00
         0.00000E+00
         0.00000E+00
         0.00000E+00
         0.00000E+00
         0.00000E+00
         0.00000E+00
         0.00000E+00
         0.00000E+00
         0.00000E+00
         0.00000E+00
         0.00000E+00
         0.00000E+00
         0.00000E+00
         0.00000E+00
         0.00000E+00
         0.00000E+00
         0.00000E+00
         0.00000E+00
         0.00000E+00
         0.00000E+00
         0.00000E+00
         0.00000E+00
         0.00000E+00
         0.00000E+00
         0.00000E+00
         0.00000E+00
         0.00000E+00
         0.00000E+00
         0.00000E+00
         0.00000E+00
         0.00000E+00
         0.00000E+00
         0.00000E+00
         0.00000E+00
         0.00000E+00
         0.00000E+00
         0.00000E+00
         0.00000E+00
         0.00000E+00
         0.00000E+00
         0.00000E+00
         0.00000E+00
         0.00000E+00
         0.00000E+00
         0.00000E+00
         0.00000E+00
         0.00000E+00
         0.00000E+00
         0.00000E+00
         0.00000E+00
         0.00000E+00
         0.00000E+00
         0.00000E+00
         0.00000E+00
         0.00000E+00
         0.00000E+00
         0.00000E+00
         0.00000E+00
         0.00000E+00
         0.00000E+00
         0.00000E+00
         0.00000E+00
         0.00000E+00
         0.00000E+00
         0.00000E+00
         0.00000E+00
         0.00000E+00
         0.00000E+00
         0.00000E+00
         0.00000E+00
         0.00000E+00
         0.00000E+00
         0.00000E+00
         0.00000E+00
         0.00000E+00
         0.00000E+00
         0.00000E+00
         0.00000E+00
         0.00000E+00
         0.00000E+00
         0.00000E+00
         0.00000E+00
         0.00000E+00
         0.00000E+00
         0.00000E+00
         0.00000E+00
         0.00000E+00
         0.00000E+00
         0.00000E+00
         0.00000E+00
         0.00000E+00
         0.00000E+00
         0.00000E+00
         0.00000E+00
         0.00000E+00
         0.00000E+00
         0.00000E+00
         0.00000E+00
         0.00000E+00
         0.00000E+00
         0.00000E+00
         0.00000E+00
         0.00000E+00
         0.00000E+00
         0.00000E+00
         0.00000E+00
         0.00000E+00
         0.00000E+00
         0.00000E+00
         0.00000E+00
         0.00000E+00
         0.00000E+00
         0.00000E+00
         0.00000E+00
         0.00000E+00
         0.00000E+00
         0.00000E+00
         0.00000E+00
         0.00000E+00
         0.00000E+00
         0.00000E+00
         0.00000E+00
         0.00000E+00
         0.00000E+00
         0.00000E+00
         0.00000E+00
         0.00000E+00
         0.00000E+00
         0.00000E+00
         0.00000E+00
         0.00000E+00
         0.00000E+00
         0.00000E+00
         0.00000E+00
         0.00000E+00
         0.00000E+00
         0.00000E+00
         0.00000E+00
         0.00000E+00
         0.00000E+00
         0.00000E+00
         0.00000E+00
         0.00000E+00
         0.00000E+00
         0.00000E+00
         0.00000E+00
         0.00000E+00
         0.00000E+00
         0.00000E+00
         0.00000E+00
         0.00000E+00
         0.00000E+00
         0.00000E+00
         0.00000E+00
         0.00000E+00
         0.00000E+00
         0.00000E+00
         0.00000E+00
         0.00000E+00
         0.00000E+00
         0.00000E+00
         0.00000E+00
         0.00000E+00
         0.00000E+00
         0.00000E+00
         0.00000E+00
         0.00000E+00
         0.00000E+00
         0.00000E+00
         0.00000E+00
         0.00000E+00
         0.00000E+00
         0.00000E+00
         0.00000E+00
         0.00000E+00
         0.00000E+00
         0.00000E+00
         0.00000E+00
         0.00000E+00
         0.00000E+00
         0.00000E+00
         0.00000E+00
         0.00000E+00
         0.00000E+00
         0.00000E+00
         0.00000E+00
         0.00000E+00
         0.00000E+00
         0.00000E+00
         0.00000E+00
         0.00000E+00
         0.00000E+00
         0.00000E+00
         0.00000E+00
         0.00000E+00
         0.00000E+00
         0.00000E+00
         0.00000E+00
         0.00000E+00
         0.00000E+00
         0.00000E+00
         0.00000E+00
         0.00000E+00
         0.00000E+00
         0.00000E+00
         0.00000E+00
         0.00000E+00
         0.00000E+00
         0.00000E+00
         0.00000E+00
         0.00000E+00
         0.00000E+00
         0.00000E+00
         0.00000E+00
         0.00000E+00
         0.00000E+00
         0.00000E+00
         0.00000E+00
         0.00000E+00
         0.00000E+00
         0.00000E+00
         0.00000E+00
         0.00000E+00
         0.00000E+00
         0.00000E+00
         0.00000E+00
         0.00000E+00
         0.00000E+00
         0.00000E+00
         0.00000E+00
         0.00000E+00
         0.00000E+00
         0.00000E+00
         0.00000E+00
         0.00000E+00
         0.00000E+00
         0.00000E+00
         0.00000E+00
         0.00000E+00
         0.00000E+00
         0.00000E+00
         0.00000E+00
         0.00000E+00
         0.00000E+00
         0.00000E+00
         0.00000E+00
         0.00000E+00
         0.00000E+00
         0.00000E+00
         0.00000E+00
         0.00000E+00
         0.00000E+00
         0.00000E+00
         0.00000E+00
         0.00000E+00
         0.00000E+00
         0.00000E+00
         0.00000E+00
         0.00000E+00
         0.00000E+00
         0.00000E+00
         0.00000E+00
         0.00000E+00
         0.00000E+00
         0.00000E+00
         0.00000E+00
         0.00000E+00
         0.00000E+00
         0.00000E+00
         0.00000E+00
         0.00000E+00
         0.00000E+00
         0.00000E+00
         0.00000E+00
         0.00000E+00
         0.00000E+00
         0.00000E+00
         0.00000E+00
         0.00000E+00
         0.00000E+00
         0.00000E+00
         0.00000E+00
         0.00000E+00
         0.00000E+00
         0.00000E+00
         0.00000E+00
         0.00000E+00
         0.00000E+00
         0.00000E+00
         0.00000E+00
         0.00000E+00
         0.00000E+00
         0.00000E+00
         0.00000E+00
         0.00000E+00
         0.00000E+00
         0.00000E+00
         0.00000E+00
         0.00000E+00
         0.00000E+00
         0.00000E+00
         0.00000E+00
         0.00000E+00
         0.00000E+00
         0.00000E+00
         0.00000E+00
         0.00000E+00
         0.00000E+00
         0.00000E+00
         0.00000E+00
         0.00000E+00
         0.00000E+00
         0.00000E+00
         0.00000E+00
         0.00000E+00
         0.00000E+00
         0.00000E+00
         0.00000E+00
         0.00000E+00
         0.00000E+00
         0.00000E+00
         0.00000E+00
         0.00000E+00
         0.00000E+00
         0.00000E+00
         0.00000E+00
         0.00000E+00
         0.00000E+00
         0.00000E+00
         0.00000E+00
         0.00000E+00
         0.00000E+00
         0.00000E+00
         0.00000E+00
         0.00000E+00
         0.00000E+00
         0.00000E+00
         0.00000E+00
         0.00000E+00
         0.00000E+00
         0.00000E+00
         0.00000E+00
         0.00000E+00
         0.00000E+00
         0.00000E+00
         0.00000E+00
         0.00000E+00
         0.00000E+00
         0.00000E+00
         0.00000E+00
         0.00000E+00
         0.00000E+00
         0.00000E+00
         0.00000E+00
         0.00000E+00
         0.00000E+00
         0.00000E+00
         0.00000E+00
         0.00000E+00
         0.00000E+00
         0.00000E+00
         0.00000E+00
         0.00000E+00
         0.00000E+00
         0.00000E+00
         0.00000E+00
         0.00000E+00
         0.00000E+00
         0.00000E+00
         0.00000E+00
         0.00000E+00
         0.00000E+00
         0.00000E+00
         0.00000E+00
         0.00000E+00
         0.00000E+00
         0.00000E+00
         0.00000E+00
         0.00000E+00
         0.00000E+00
         0.00000E+00
         0.00000E+00
         0.00000E+00
         0.00000E+00
         0.00000E+00
         0.00000E+00
         0.00000E+00
         0.00000E+00
         0.00000E+00
         0.00000E+00
         0.00000E+00
         0.00000E+00
         0.00000E+00
         0.00000E+00
         0.00000E+00
         0.00000E+00
         0.00000E+00
         0.00000E+00
         0.00000E+00
         0.00000E+00
         0.00000E+00
         0.00000E+00
         0.00000E+00
         0.00000E+00
         0.00000E+00
         0.00000E+00
         0.00000E+00
         0.00000E+00
         0.00000E+00
         0.00000E+00
         0.00000E+00
         0.00000E+00
         0.00000E+00
         0.00000E+00
         0.00000E+00
         0.00000E+00
         0.00000E+00
         0.00000E+00
         0.00000E+00
         0.00000E+00
         0.00000E+00
         0.00000E+00
         0.00000E+00
         0.00000E+00
         0.00000E+00
         0.00000E+00
         0.00000E+00
         0.00000E+00
         0.00000E+00
         0.00000E+00
         0.00000E+00
         0.00000E+00
         0.00000E+00
         0.00000E+00
         0.00000E+00
         0.00000E+00
         0.00000E+00
         0.00000E+00
         0.00000E+00
         0.00000E+00
         0.00000E+00
         0.00000E+00
         0.00000E+00
         0.00000E+00
         0.00000E+00
         0.00000E+00
         0.00000E+00
         0.00000E+00
         0.00000E+00
         0.00000E+00
         0.00000E+00
         0.00000E+00
         0.00000E+00
         0.00000E+00
         0.00000E+00
         0.00000E+00
         0.00000E+00
         0.00000E+00
         0.00000E+00
         0.00000E+00
         0.00000E+00
         0.00000E+00
         0.00000E+00
         0.00000E+00
         0.00000E+00
         0.00000E+00
         0.00000E+00
         0.00000E+00
         0.00000E+00
         0.00000E+00
         0.00000E+00
         0.00000E+00
         0.00000E+00
         0.00000E+00
         0.00000E+00
         0.00000E+00
         0.00000E+00
         0.00000E+00
         0.00000E+00
         0.00000E+00
         0.00000E+00
         0.00000E+00
         0.00000E+00
         0.00000E+00
         0.00000E+00
         0.00000E+00
         0.00000E+00
         0.00000E+00
         0.00000E+00
         0.00000E+00
         0.00000E+00
         0.00000E+00
         0.00000E+00
         0.00000E+00
         0.00000E+00
         0.00000E+00
         0.00000E+00
         0.00000E+00
         0.00000E+00
         0.00000E+00
         0.00000E+00
         0.00000E+00
         0.00000E+00
         0.00000E+00
         0.00000E+00
         0.00000E+00
         0.00000E+00
         0.00000E+00
         0.00000E+00
         0.00000E+00
         0.00000E+00
         0.00000E+00
         0.00000E+00
         0.00000E+00
         0.00000E+00
         0.00000E+00
         0.00000E+00
         0.00000E+00
         0.00000E+00
         0.00000E+00
         0.00000E+00
         0.00000E+00
         0.00000E+00
         0.00000E+00
         0.00000E+00
         0.00000E+00
         0.00000E+00
         0.00000E+00
         0.00000E+00
         0.00000E+00
         0.00000E+00
         0.00000E+00
         0.00000E+00
         0.00000E+00
         0.00000E+00
         0.00000E+00
         0.00000E+00
         0.00000E+00
         0.00000E+00
         0.00000E+00
         0.00000E+00
         0.00000E+00
         0.00000E+00
         0.00000E+00
         0.00000E+00
         0.00000E+00
         0.00000E+00
         0.00000E+00
         0.00000E+00
         0.00000E+00
         0.00000E+00
         0.00000E+00
         0.00000E+00
         0.00000E+00
         0.00000E+00
         0.00000E+00
         0.00000E+00
         0.00000E+00
         0.00000E+00
         0.00000E+00
         0.00000E+00
         0.00000E+00
         0.00000E+00
         0.00000E+00
         0.00000E+00
  
SCALARS                   max_wave_vel  double 1
LOOKUP_TABLE default
         0.00000E+00
         0.00000E+00
         0.00000E+00
         0.00000E+00
         0.00000E+00
         0.00000E+00
         0.00000E+00
         0.00000E+00
         0.00000E+00
         0.00000E+00
         0.00000E+00
         0.00000E+00
         0.00000E+00
         0.00000E+00
         0.00000E+00
         0.00000E+00
         0.00000E+00
         0.00000E+00
         0.00000E+00
         0.00000E+00
         0.00000E+00
         0.00000E+00
         0.00000E+00
         0.00000E+00
         0.00000E+00
         0.00000E+00
         0.00000E+00
         0.00000E+00
         0.00000E+00
         0.00000E+00
         0.00000E+00
         0.00000E+00
         0.00000E+00
         0.00000E+00
         0.00000E+00
         0.00000E+00
         0.00000E+00
         0.00000E+00
         0.00000E+00
         0.00000E+00
         0.00000E+00
         0.00000E+00
         0.00000E+00
         0.00000E+00
         0.00000E+00
         0.00000E+00
         0.00000E+00
         0.00000E+00
         0.00000E+00
         0.00000E+00
         0.00000E+00
         0.00000E+00
         0.00000E+00
         0.00000E+00
         0.00000E+00
         0.00000E+00
         0.00000E+00
         0.00000E+00
         0.00000E+00
         0.00000E+00
         0.00000E+00
         0.00000E+00
         0.00000E+00
         0.00000E+00
         0.00000E+00
         0.00000E+00
         0.00000E+00
         0.00000E+00
         0.00000E+00
         0.00000E+00
         0.00000E+00
         0.00000E+00
         0.00000E+00
         0.00000E+00
         0.00000E+00
         0.00000E+00
         0.00000E+00
         0.00000E+00
         0.00000E+00
         0.00000E+00
         0.00000E+00
         0.00000E+00
         0.00000E+00
         0.00000E+00
         0.00000E+00
         0.00000E+00
         0.00000E+00
         0.00000E+00
         0.00000E+00
         0.00000E+00
         0.00000E+00
         0.00000E+00
         0.00000E+00
         0.00000E+00
         0.00000E+00
         0.00000E+00
         0.00000E+00
         0.00000E+00
         0.00000E+00
         0.00000E+00
         0.00000E+00
         0.00000E+00
         0.00000E+00
         0.00000E+00
         0.00000E+00
         0.00000E+00
         0.00000E+00
         0.00000E+00
         0.00000E+00
         0.00000E+00
         0.00000E+00
         0.00000E+00
         0.00000E+00
         0.00000E+00
         0.00000E+00
         0.00000E+00
         0.00000E+00
         0.00000E+00
         0.00000E+00
         0.00000E+00
         0.00000E+00
         0.00000E+00
         0.00000E+00
         0.00000E+00
         0.00000E+00
         0.00000E+00
         0.00000E+00
         0.00000E+00
         0.00000E+00
         0.00000E+00
         0.00000E+00
         0.00000E+00
         0.00000E+00
         0.00000E+00
         0.00000E+00
         0.00000E+00
         0.00000E+00
         0.00000E+00
         0.00000E+00
         0.00000E+00
         0.00000E+00
         0.00000E+00
         0.00000E+00
         0.00000E+00
         0.00000E+00
         0.00000E+00
         0.00000E+00
         0.00000E+00
         0.00000E+00
         0.00000E+00
         0.00000E+00
         0.00000E+00
         0.00000E+00
         0.00000E+00
         0.00000E+00
         0.00000E+00
         0.00000E+00
         0.00000E+00
         0.00000E+00
         0.00000E+00
         0.00000E+00
         0.00000E+00
         0.00000E+00
         0.00000E+00
         0.00000E+00
         0.00000E+00
         0.00000E+00
         0.00000E+00
         0.00000E+00
         0.00000E+00
         0.00000E+00
         0.00000E+00
         0.00000E+00
         0.00000E+00
         0.00000E+00
         0.00000E+00
         0.00000E+00
         0.00000E+00
         0.00000E+00
         0.00000E+00
         0.00000E+00
         0.00000E+00
         0.00000E+00
         0.00000E+00
         0.00000E+00
         0.00000E+00
         0.00000E+00
         0.00000E+00
         0.00000E+00
         0.00000E+00
         0.00000E+00
         0.00000E+00
         0.00000E+00
         0.00000E+00
         0.00000E+00
         0.00000E+00
         0.00000E+00
         0.00000E+00
         0.00000E+00
         0.00000E+00
         0.00000E+00
         0.00000E+00
         0.00000E+00
         0.00000E+00
         0.00000E+00
         0.00000E+00
         0.00000E+00
         0.00000E+00
         0.00000E+00
         0.00000E+00
         0.00000E+00
         0.00000E+00
         0.00000E+00
         0.00000E+00
         0.00000E+00
         0.00000E+00
         0.00000E+00
         0.00000E+00
         0.00000E+00
         0.00000E+00
         0.00000E+00
         0.00000E+00
         0.00000E+00
         0.00000E+00
         0.00000E+00
         0.00000E+00
         0.00000E+00
         0.00000E+00
         0.00000E+00
         0.00000E+00
         0.00000E+00
         0.00000E+00
         0.00000E+00
         0.00000E+00
         0.00000E+00
         0.00000E+00
         0.00000E+00
         0.00000E+00
         0.00000E+00
         0.00000E+00
         0.00000E+00
         0.00000E+00
         0.00000E+00
         0.00000E+00
         0.00000E+00
         0.00000E+00
         0.00000E+00
         0.00000E+00
         0.00000E+00
         0.00000E+00
         0.00000E+00
         0.00000E+00
         0.00000E+00
         0.00000E+00
         0.00000E+00
         0.00000E+00
         0.00000E+00
         0.00000E+00
         0.00000E+00
         0.00000E+00
         0.00000E+00
         0.00000E+00
         0.00000E+00
         0.00000E+00
         0.00000E+00
         0.00000E+00
         0.00000E+00
         0.00000E+00
         0.00000E+00
         0.00000E+00
         0.00000E+00
         0.00000E+00
         0.00000E+00
         0.00000E+00
         0.00000E+00
         0.00000E+00
         0.00000E+00
         0.00000E+00
         0.00000E+00
         0.00000E+00
         0.00000E+00
         0.00000E+00
         0.00000E+00
         0.00000E+00
         0.00000E+00
         0.00000E+00
         0.00000E+00
         0.00000E+00
         0.00000E+00
         0.00000E+00
         0.00000E+00
         0.00000E+00
         0.00000E+00
         0.00000E+00
         0.00000E+00
         0.00000E+00
         0.00000E+00
         0.00000E+00
         0.00000E+00
         0.00000E+00
         0.00000E+00
         0.00000E+00
         0.00000E+00
         0.00000E+00
         0.00000E+00
         0.00000E+00
         0.00000E+00
         0.00000E+00
         0.00000E+00
         0.00000E+00
         0.00000E+00
         0.00000E+00
         0.00000E+00
         0.00000E+00
         0.00000E+00
         0.00000E+00
         0.00000E+00
         0.00000E+00
         0.00000E+00
         0.00000E+00
         0.00000E+00
         0.00000E+00
         0.00000E+00
         0.00000E+00
         0.00000E+00
         0.00000E+00
         0.00000E+00
         0.00000E+00
         0.00000E+00
         0.00000E+00
         0.00000E+00
         0.00000E+00
         0.00000E+00
         0.00000E+00
         0.00000E+00
         0.00000E+00
         0.00000E+00
         0.00000E+00
         0.00000E+00
         0.00000E+00
         0.00000E+00
         0.00000E+00
         0.00000E+00
         0.00000E+00
         0.00000E+00
         0.00000E+00
         0.00000E+00
         0.00000E+00
         0.00000E+00
         0.00000E+00
         0.00000E+00
         0.00000E+00
         0.00000E+00
         0.00000E+00
         0.00000E+00
         0.00000E+00
         0.00000E+00
         0.00000E+00
         0.00000E+00
         0.00000E+00
         0.00000E+00
         0.00000E+00
         0.00000E+00
         0.00000E+00
         0.00000E+00
         0.00000E+00
         0.00000E+00
         0.00000E+00
         0.00000E+00
         0.00000E+00
         0.00000E+00
         0.00000E+00
         0.00000E+00
         0.00000E+00
         0.00000E+00
         0.00000E+00
         0.00000E+00
         0.00000E+00
         0.00000E+00
         0.00000E+00
         0.00000E+00
         0.00000E+00
         0.00000E+00
         0.00000E+00
         0.00000E+00
         0.00000E+00
         0.00000E+00
         0.00000E+00
         0.00000E+00
         0.00000E+00
         0.00000E+00
         0.00000E+00
         0.00000E+00
         0.00000E+00
         0.00000E+00
         0.00000E+00
         0.00000E+00
         0.00000E+00
         0.00000E+00
         0.00000E+00
         0.00000E+00
         0.00000E+00
         0.00000E+00
         0.00000E+00
         0.00000E+00
         0.00000E+00
         0.00000E+00
         0.00000E+00
         0.00000E+00
         0.00000E+00
         0.00000E+00
         0.00000E+00
         0.00000E+00
         0.00000E+00
         0.00000E+00
         0.00000E+00
         0.00000E+00
         0.00000E+00
         0.00000E+00
         0.00000E+00
         0.00000E+00
         0.00000E+00
         0.00000E+00
         0.00000E+00
         0.00000E+00
         0.00000E+00
         0.00000E+00
         0.00000E+00
         0.00000E+00
         0.00000E+00
         0.00000E+00
         0.00000E+00
         0.00000E+00
         0.00000E+00
         0.00000E+00
         0.00000E+00
         0.00000E+00
         0.00000E+00
         0.00000E+00
         0.00000E+00
         0.00000E+00
         0.00000E+00
         0.00000E+00
         0.00000E+00
         0.00000E+00
         0.00000E+00
         0.00000E+00
         0.00000E+00
         0.00000E+00
         0.00000E+00
         0.00000E+00
         0.00000E+00
         0.00000E+00
         0.00000E+00
         0.00000E+00
         0.00000E+00
         0.00000E+00
         0.00000E+00
         0.00000E+00
         0.00000E+00
         0.00000E+00
         0.00000E+00
         0.00000E+00
         0.00000E+00
         0.00000E+00
         0.00000E+00
         0.00000E+00
         0.00000E+00
         0.00000E+00
         0.00000E+00
         0.00000E+00
         0.00000E+00
         0.00000E+00
         0.00000E+00
         0.00000E+00
         0.00000E+00
         0.00000E+00
         0.00000E+00
         0.00000E+00
         0.00000E+00
         0.00000E+00
         0.00000E+00
         0.00000E+00
         0.00000E+00
         0.00000E+00
         0.00000E+00
         0.00000E+00
         0.00000E+00
         0.00000E+00
         0.00000E+00
         0.00000E+00
         0.00000E+00
         0.00000E+00
         0.00000E+00
         0.00000E+00
         0.00000E+00
         0.00000E+00
         0.00000E+00
         0.00000E+00
         0.00000E+00
         0.00000E+00
         0.00000E+00
         0.00000E+00
         0.00000E+00
         0.00000E+00
         0.00000E+00
         0.00000E+00
         0.00000E+00
         0.00000E+00
         0.00000E+00
         0.00000E+00
         0.00000E+00
         0.00000E+00
         0.00000E+00
         0.00000E+00
         0.00000E+00
         0.00000E+00
         0.00000E+00
         0.00000E+00
         0.00000E+00
         0.00000E+00
         0.00000E+00
         0.00000E+00
         0.00000E+00
         0.00000E+00
         0.00000E+00
         0.00000E+00
         0.00000E+00
         0.00000E+00
         0.00000E+00
         0.00000E+00
         0.00000E+00
         0.00000E+00
         0.00000E+00
         0.00000E+00
         0.00000E+00
         0.00000E+00
         0.00000E+00
         0.00000E+00
         0.00000E+00
         0.00000E+00
         0.00000E+00
         0.00000E+00
         0.00000E+00
         0.00000E+00
         0.00000E+00
         0.00000E+00
         0.00000E+00
         0.00000E+00
         0.00000E+00
         0.00000E+00
         0.00000E+00
         0.00000E+00
         0.00000E+00
         0.00000E+00
         0.00000E+00
         0.00000E+00
         0.00000E+00
         0.00000E+00
         0.00000E+00
         0.00000E+00
         0.00000E+00
         0.00000E+00
         0.00000E+00
         0.00000E+00
         0.00000E+00
         0.00000E+00
         0.00000E+00
         0.00000E+00
         0.00000E+00
         0.00000E+00
         0.00000E+00
         0.00000E+00
         0.00000E+00
         0.00000E+00
         0.00000E+00
         0.00000E+00
         0.00000E+00
         0.00000E+00
         0.00000E+00
         0.00000E+00
         0.00000E+00
         0.00000E+00
         0.00000E+00
         0.00000E+00
         0.00000E+00
         0.00000E+00
         0.00000E+00
         0.00000E+00
         0.00000E+00
         0.00000E+00
         0.00000E+00
         0.00000E+00
         0.00000E+00
         0.00000E+00
         0.00000E+00
         0.00000E+00
         0.00000E+00
         0.00000E+00
         0.00000E+00
         0.00000E+00
         0.00000E+00
         0.00000E+00
         0.00000E+00
         0.00000E+00
         0.00000E+00
         0.00000E+00
         0.00000E+00
         0.00000E+00
         0.00000E+00
         0.00000E+00
         0.00000E+00
         0.00000E+00
         0.00000E+00
         0.00000E+00
         0.00000E+00
         0.00000E+00
         0.00000E+00
         0.00000E+00
         0.00000E+00
         0.00000E+00
         0.00000E+00
         0.00000E+00
         0.00000E+00
         0.00000E+00
         0.00000E+00
         0.00000E+00
         0.00000E+00
         0.00000E+00
         0.00000E+00
         0.00000E+00
         0.00000E+00
         0.00000E+00
         0.00000E+00
         0.00000E+00
         0.00000E+00
         0.00000E+00
         0.00000E+00
         0.00000E+00
         0.00000E+00
         0.00000E+00
         0.00000E+00
         0.00000E+00
         0.00000E+00
         0.00000E+00
         0.00000E+00
         0.00000E+00
         0.00000E+00
         0.00000E+00
         0.00000E+00
         0.00000E+00
         0.00000E+00
         0.00000E+00
         0.00000E+00
         0.00000E+00
         0.00000E+00
         0.00000E+00
         0.00000E+00
         0.00000E+00
         0.00000E+00
         0.00000E+00
         0.00000E+00
         0.00000E+00
         0.00000E+00
         0.00000E+00
         0.00000E+00
         0.00000E+00
         0.00000E+00
         0.00000E+00
         0.00000E+00
         0.00000E+00
         0.00000E+00
         0.00000E+00
         0.00000E+00
         0.00000E+00
         0.00000E+00
         0.00000E+00
         0.00000E+00
         0.00000E+00
         0.00000E+00
         0.00000E+00
         0.00000E+00
         0.00000E+00
         0.00000E+00
         0.00000E+00
         0.00000E+00
         0.00000E+00
         0.00000E+00
         0.00000E+00
         0.00000E+00
         0.00000E+00
         0.00000E+00
         0.00000E+00
         0.00000E+00
         0.00000E+00
         0.00000E+00
         0.00000E+00
         0.00000E+00
         0.00000E+00
         0.00000E+00
         0.00000E+00
         0.00000E+00
         0.00000E+00
         0.00000E+00
         0.00000E+00
         0.00000E+00
         0.00000E+00
         0.00000E+00
         0.00000E+00
         0.00000E+00
         0.00000E+00
         0.00000E+00
         0.00000E+00
         0.00000E+00
         0.00000E+00
         0.00000E+00
         0.00000E+00
         0.00000E+00
         0.00000E+00
         0.00000E+00
         0.00000E+00
         0.00000E+00
         0.00000E+00
         0.00000E+00
         0.00000E+00
         0.00000E+00
         0.00000E+00
         0.00000E+00
         0.00000E+00
         0.00000E+00
         0.00000E+00
         0.00000E+00
         0.00000E+00
         0.00000E+00
         0.00000E+00
         0.00000E+00
         0.00000E+00
         0.00000E+00
         0.00000E+00
         0.00000E+00
         0.00000E+00
         0.00000E+00
         0.00000E+00
         0.00000E+00
         0.00000E+00
         0.00000E+00
         0.00000E+00
         0.00000E+00
         0.00000E+00
         0.00000E+00
         0.00000E+00
         0.00000E+00
         0.00000E+00
         0.00000E+00
         0.00000E+00
         0.00000E+00
         0.00000E+00
         0.00000E+00
         0.00000E+00
         0.00000E+00
         0.00000E+00
         0.00000E+00
         0.00000E+00
         0.00000E+00
         0.00000E+00
         0.00000E+00
         0.00000E+00
         0.00000E+00
         0.00000E+00
         0.00000E+00
         0.00000E+00
         0.00000E+00
         0.00000E+00
         0.00000E+00
         0.00000E+00
         0.00000E+00
         0.00000E+00
         0.00000E+00
         0.00000E+00
         0.00000E+00
         0.00000E+00
         0.00000E+00
         0.00000E+00
         0.00000E+00
         0.00000E+00
         0.00000E+00
         0.00000E+00
         0.00000E+00
         0.00000E+00
         0.00000E+00
         0.00000E+00
         0.00000E+00
         0.00000E+00
         0.00000E+00
         0.00000E+00
         0.00000E+00
         0.00000E+00
         0.00000E+00
         0.00000E+00
         0.00000E+00
         0.00000E+00
         0.00000E+00
         0.00000E+00
         0.00000E+00
         0.00000E+00
         0.00000E+00
         0.00000E+00
         0.00000E+00
         0.00000E+00
         0.00000E+00
         0.00000E+00
         0.00000E+00
         0.00000E+00
         0.00000E+00
         0.00000E+00
         0.00000E+00
         0.00000E+00
         0.00000E+00
         0.00000E+00
         0.00000E+00
         0.00000E+00
         0.00000E+00
         0.00000E+00
         0.00000E+00
         0.00000E+00
         0.00000E+00
         0.00000E+00
         0.00000E+00
         0.00000E+00
         0.00000E+00
         0.00000E+00
         0.00000E+00
         0.00000E+00
         0.00000E+00
         0.00000E+00
         0.00000E+00
         0.00000E+00
         0.00000E+00
         0.00000E+00
         0.00000E+00
         0.00000E+00
         0.00000E+00
         0.00000E+00
         0.00000E+00
         0.00000E+00
         0.00000E+00
         0.00000E+00
         0.00000E+00
         0.00000E+00
         0.00000E+00
         0.00000E+00
         0.00000E+00
         0.00000E+00
         0.00000E+00
         0.00000E+00
         0.00000E+00
         0.00000E+00
         0.00000E+00
         0.00000E+00
         0.00000E+00
         0.00000E+00
         0.00000E+00
         0.00000E+00
         0.00000E+00
         0.00000E+00
         0.00000E+00
         0.00000E+00
         0.00000E+00
         0.00000E+00
         0.00000E+00
         0.00000E+00
         0.00000E+00
         0.00000E+00
         0.00000E+00
         0.00000E+00
         0.00000E+00
         0.00000E+00
         0.00000E+00
         0.00000E+00
         0.00000E+00
         0.00000E+00
         0.00000E+00
         0.00000E+00
         0.00000E+00
         0.00000E+00
         0.00000E+00
         0.00000E+00
         0.00000E+00
         0.00000E+00
         0.00000E+00
         0.00000E+00
         0.00000E+00
         0.00000E+00
         0.00000E+00
         0.00000E+00
         0.00000E+00
         0.00000E+00
         0.00000E+00
         0.00000E+00
         0.00000E+00
         0.00000E+00
         0.00000E+00
         0.00000E+00
         0.00000E+00
         0.00000E+00
         0.00000E+00
         0.00000E+00
         0.00000E+00
         0.00000E+00
         0.00000E+00
         0.00000E+00
         0.00000E+00
         0.00000E+00
         0.00000E+00
         0.00000E+00
         0.00000E+00
         0.00000E+00
         0.00000E+00
         0.00000E+00
         0.00000E+00
         0.00000E+00
         0.00000E+00
         0.00000E+00
         0.00000E+00
         0.00000E+00
         0.00000E+00
         0.00000E+00
         0.00000E+00
         0.00000E+00
         0.00000E+00
         0.00000E+00
         0.00000E+00
         0.00000E+00
         0.00000E+00
         0.00000E+00
         0.00000E+00
         0.00000E+00
         0.00000E+00
         0.00000E+00
         0.00000E+00
         0.00000E+00
         0.00000E+00
         0.00000E+00
         0.00000E+00
         0.00000E+00
         0.00000E+00
         0.00000E+00
         0.00000E+00
         0.00000E+00
         0.00000E+00
         0.00000E+00
         0.00000E+00
         0.00000E+00
         0.00000E+00
         0.00000E+00
         0.00000E+00
         0.00000E+00
         0.00000E+00
         0.00000E+00
         0.00000E+00
         0.00000E+00
         0.00000E+00
         0.00000E+00
         0.00000E+00
         0.00000E+00
         0.00000E+00
         0.00000E+00
         0.00000E+00
         0.00000E+00
         0.00000E+00
         0.00000E+00
         0.00000E+00
         0.00000E+00
         0.00000E+00
         0.00000E+00
         0.00000E+00
         0.00000E+00
         0.00000E+00
         0.00000E+00
         0.00000E+00
         0.00000E+00
         0.00000E+00
         0.00000E+00
         0.00000E+00
         0.00000E+00
         0.00000E+00
         0.00000E+00
         0.00000E+00
         0.00000E+00
         0.00000E+00
         0.00000E+00
         0.00000E+00
         0.00000E+00
         0.00000E+00
         0.00000E+00
         0.00000E+00
         0.00000E+00
         0.00000E+00
         0.00000E+00
         0.00000E+00
         0.00000E+00
         0.00000E+00
         0.00000E+00
         0.00000E+00
         0.00000E+00
         0.00000E+00
         0.00000E+00
         0.00000E+00
         0.00000E+00
         0.00000E+00
         0.00000E+00
         0.00000E+00
         0.00000E+00
         0.00000E+00
         0.00000E+00
         0.00000E+00
         0.00000E+00
         0.00000E+00
         0.00000E+00
         0.00000E+00
         0.00000E+00
         0.00000E+00
         0.00000E+00
         0.00000E+00
         0.00000E+00
         0.00000E+00
         0.00000E+00
         0.00000E+00
         0.00000E+00
         0.00000E+00
         0.00000E+00
         0.00000E+00
         0.00000E+00
         0.00000E+00
         0.00000E+00
         0.00000E+00
         0.00000E+00
         0.00000E+00
         0.00000E+00
         0.00000E+00
         0.00000E+00
         0.00000E+00
         0.00000E+00
         0.00000E+00
         0.00000E+00
         0.00000E+00
         0.00000E+00
         0.00000E+00
         0.00000E+00
         0.00000E+00
         0.00000E+00
         0.00000E+00
         0.00000E+00
         0.00000E+00
         0.00000E+00
         0.00000E+00
         0.00000E+00
         0.00000E+00
         0.00000E+00
         0.00000E+00
         0.00000E+00
         0.00000E+00
         0.00000E+00
         0.00000E+00
         0.00000E+00
         0.00000E+00
         0.00000E+00
         0.00000E+00
         0.00000E+00
         0.00000E+00
         0.00000E+00
         0.00000E+00
         0.00000E+00
         0.00000E+00
         0.00000E+00
         0.00000E+00
         0.00000E+00
         0.00000E+00
         0.00000E+00
         0.00000E+00
         0.00000E+00
         0.00000E+00
         0.00000E+00
         0.00000E+00
         0.00000E+00
         0.00000E+00
         0.00000E+00
         0.00000E+00
         0.00000E+00
         0.00000E+00
         0.00000E+00
         0.00000E+00
         0.00000E+00
         0.00000E+00
         0.00000E+00
         0.00000E+00
         0.00000E+00
         0.00000E+00
         0.00000E+00
         0.00000E+00
         0.00000E+00
         0.00000E+00
         0.00000E+00
         0.00000E+00
         0.00000E+00
         0.00000E+00
         0.00000E+00
         0.00000E+00
         0.00000E+00
         0.00000E+00
         0.00000E+00
         0.00000E+00
         0.00000E+00
         0.00000E+00
         0.00000E+00
         0.00000E+00
         0.00000E+00
         0.00000E+00
         0.00000E+00
         0.00000E+00
         0.00000E+00
         0.00000E+00
         0.00000E+00
         0.00000E+00
         0.00000E+00
         0.00000E+00
         0.00000E+00
         0.00000E+00
         0.00000E+00
         0.00000E+00
         0.00000E+00
         0.00000E+00
         0.00000E+00
         0.00000E+00
         0.00000E+00
         0.00000E+00
         0.00000E+00
         0.00000E+00
         0.00000E+00
         0.00000E+00
         0.00000E+00
         0.00000E+00
         0.00000E+00
         0.00000E+00
         0.00000E+00
         0.00000E+00
         0.00000E+00
         0.00000E+00
         0.00000E+00
         0.00000E+00
         0.00000E+00
         0.00000E+00
         0.00000E+00
         0.00000E+00
         0.00000E+00
         0.00000E+00
         0.00000E+00
         0.00000E+00
         0.00000E+00
         0.00000E+00
         0.00000E+00
         0.00000E+00
         0.00000E+00
         0.00000E+00
         0.00000E+00
         0.00000E+00
         0.00000E+00
         0.00000E+00
         0.00000E+00
         0.00000E+00
         0.00000E+00
         0.00000E+00
         0.00000E+00
         0.00000E+00
         0.00000E+00
         0.00000E+00
         0.00000E+00
         0.00000E+00
         0.00000E+00
         0.00000E+00
         0.00000E+00
         0.00000E+00
         0.00000E+00
         0.00000E+00
         0.00000E+00
         0.00000E+00
         0.00000E+00
         0.00000E+00
         0.00000E+00
         0.00000E+00
         0.00000E+00
         0.00000E+00
         0.00000E+00
         0.00000E+00
         0.00000E+00
         0.00000E+00
         0.00000E+00
         0.00000E+00
         0.00000E+00
         0.00000E+00
         0.00000E+00
         0.00000E+00
         0.00000E+00
         0.00000E+00
         0.00000E+00
         0.00000E+00
         0.00000E+00
         0.00000E+00
         0.00000E+00
         0.00000E+00
         0.00000E+00
         0.00000E+00
         0.00000E+00
         0.00000E+00
         0.00000E+00
         0.00000E+00
         0.00000E+00
         0.00000E+00
         0.00000E+00
         0.00000E+00
         0.00000E+00
         0.00000E+00
         0.00000E+00
         0.00000E+00
         0.00000E+00
         0.00000E+00
         0.00000E+00
         0.00000E+00
         0.00000E+00
         0.00000E+00
         0.00000E+00
         0.00000E+00
         0.00000E+00
         0.00000E+00
         0.00000E+00
         0.00000E+00
         0.00000E+00
         0.00000E+00
         0.00000E+00
         0.00000E+00
         0.00000E+00
         0.00000E+00
         0.00000E+00
         0.00000E+00
         0.00000E+00
         0.00000E+00
         0.00000E+00
         0.00000E+00
         0.00000E+00
         0.00000E+00
         0.00000E+00
         0.00000E+00
         0.00000E+00
         0.00000E+00
         0.00000E+00
         0.00000E+00
         0.00000E+00
         0.00000E+00
         0.00000E+00
         0.00000E+00
         0.00000E+00
         0.00000E+00
         0.00000E+00
         0.00000E+00
         0.00000E+00
         0.00000E+00
         0.00000E+00
         0.00000E+00
         0.00000E+00
         0.00000E+00
         0.00000E+00
         0.00000E+00
         0.00000E+00
         0.00000E+00
         0.00000E+00
         0.00000E+00
         0.00000E+00
         0.00000E+00
         0.00000E+00
         0.00000E+00
         0.00000E+00
         0.00000E+00
         0.00000E+00
         0.00000E+00
         0.00000E+00
         0.00000E+00
         0.00000E+00
         0.00000E+00
         0.00000E+00
         0.00000E+00
         0.00000E+00
         0.00000E+00
         0.00000E+00
         0.00000E+00
         0.00000E+00
         0.00000E+00
         0.00000E+00
         0.00000E+00
         0.00000E+00
         0.00000E+00
         0.00000E+00
         0.00000E+00
         0.00000E+00
         0.00000E+00
         0.00000E+00
         0.00000E+00
         0.00000E+00
         0.00000E+00
         0.00000E+00
         0.00000E+00
         0.00000E+00
         0.00000E+00
         0.00000E+00
         0.00000E+00
         0.00000E+00
         0.00000E+00
         0.00000E+00
         0.00000E+00
         0.00000E+00
         0.00000E+00
         0.00000E+00
         0.00000E+00
         0.00000E+00
         0.00000E+00
         0.00000E+00
         0.00000E+00
         0.00000E+00
         0.00000E+00
         0.00000E+00
         0.00000E+00
         0.00000E+00
         0.00000E+00
         0.00000E+00
         0.00000E+00
         0.00000E+00
         0.00000E+00
         0.00000E+00
         0.00000E+00
         0.00000E+00
         0.00000E+00
         0.00000E+00
         0.00000E+00
         0.00000E+00
         0.00000E+00
         0.00000E+00
         0.00000E+00
         0.00000E+00
         0.00000E+00
         0.00000E+00
         0.00000E+00
         0.00000E+00
         0.00000E+00
         0.00000E+00
         0.00000E+00
         0.00000E+00
         0.00000E+00
         0.00000E+00
         0.00000E+00
         0.00000E+00
         0.00000E+00
         0.00000E+00
         0.00000E+00
         0.00000E+00
         0.00000E+00
         0.00000E+00
         0.00000E+00
         0.00000E+00
         0.00000E+00
         0.00000E+00
         0.00000E+00
         0.00000E+00
         0.00000E+00
         0.00000E+00
         0.00000E+00
         0.00000E+00
         0.00000E+00
         0.00000E+00
         0.00000E+00
         0.00000E+00
         0.00000E+00
         0.00000E+00
         0.00000E+00
         0.00000E+00
         0.00000E+00
         0.00000E+00
         0.00000E+00
         0.00000E+00
         0.00000E+00
         0.00000E+00
         0.00000E+00
         0.00000E+00
         0.00000E+00
         0.00000E+00
         0.00000E+00
         0.00000E+00
         0.00000E+00
         0.00000E+00
         0.00000E+00
         0.00000E+00
         0.00000E+00
         0.00000E+00
         0.00000E+00
         0.00000E+00
         0.00000E+00
         0.00000E+00
         0.00000E+00
         0.00000E+00
         0.00000E+00
         0.00000E+00
         0.00000E+00
         0.00000E+00
         0.00000E+00
         0.00000E+00
         0.00000E+00
         0.00000E+00
         0.00000E+00
         0.00000E+00
         0.00000E+00
         0.00000E+00
         0.00000E+00
         0.00000E+00
         0.00000E+00
         0.00000E+00
         0.00000E+00
         0.00000E+00
         0.00000E+00
         0.00000E+00
         0.00000E+00
         0.00000E+00
         0.00000E+00
         0.00000E+00
         0.00000E+00
         0.00000E+00
         0.00000E+00
         0.00000E+00
         0.00000E+00
         0.00000E+00
         0.00000E+00
         0.00000E+00
         0.00000E+00
         0.00000E+00
         0.00000E+00
         0.00000E+00
         0.00000E+00
         0.00000E+00
         0.00000E+00
         0.00000E+00
         0.00000E+00
         0.00000E+00
         0.00000E+00
         0.00000E+00
         0.00000E+00
         0.00000E+00
         0.00000E+00
         0.00000E+00
         0.00000E+00
         0.00000E+00
         0.00000E+00
         0.00000E+00
         0.00000E+00
         0.00000E+00
         0.00000E+00
         0.00000E+00
         0.00000E+00
         0.00000E+00
         0.00000E+00
         0.00000E+00
         0.00000E+00
         0.00000E+00
         0.00000E+00
         0.00000E+00
         0.00000E+00
         0.00000E+00
         0.00000E+00
         0.00000E+00
         0.00000E+00
         0.00000E+00
         0.00000E+00
         0.00000E+00
         0.00000E+00
         0.00000E+00
         0.00000E+00
         0.00000E+00
         0.00000E+00
         0.00000E+00
         0.00000E+00
         0.00000E+00
         0.00000E+00
         0.00000E+00
         0.00000E+00
         0.00000E+00
         0.00000E+00
         0.00000E+00
         0.00000E+00
         0.00000E+00
         0.00000E+00
         0.00000E+00
         0.00000E+00
         0.00000E+00
         0.00000E+00
         0.00000E+00
         0.00000E+00
         0.00000E+00
         0.00000E+00
         0.00000E+00
         0.00000E+00
         0.00000E+00
         0.00000E+00
         0.00000E+00
         0.00000E+00
         0.00000E+00
         0.00000E+00
         0.00000E+00
         0.00000E+00
         0.00000E+00
         0.00000E+00
         0.00000E+00
         0.00000E+00
         0.00000E+00
         0.00000E+00
         0.00000E+00
         0.00000E+00
         0.00000E+00
         0.00000E+00
         0.00000E+00
         0.00000E+00
         0.00000E+00
         0.00000E+00
         0.00000E+00
         0.00000E+00
         0.00000E+00
         0.00000E+00
         0.00000E+00
         0.00000E+00
         0.00000E+00
         0.00000E+00
         0.00000E+00
         0.00000E+00
         0.00000E+00
         0.00000E+00
         0.00000E+00
         0.00000E+00
         0.00000E+00
         0.00000E+00
         0.00000E+00
         0.00000E+00
         0.00000E+00
         0.00000E+00
         0.00000E+00
         0.00000E+00
         0.00000E+00
         0.00000E+00
         0.00000E+00
         0.00000E+00
         0.00000E+00
         0.00000E+00
         0.00000E+00
         0.00000E+00
         0.00000E+00
         0.00000E+00
         0.00000E+00
         0.00000E+00
         0.00000E+00
         0.00000E+00
         0.00000E+00
         0.00000E+00
         0.00000E+00
         0.00000E+00
         0.00000E+00
         0.00000E+00
         0.00000E+00
         0.00000E+00
         0.00000E+00
         0.00000E+00
         0.00000E+00
         0.00000E+00
         0.00000E+00
         0.00000E+00
         0.00000E+00
         0.00000E+00
         0.00000E+00
         0.00000E+00
         0.00000E+00
         0.00000E+00
         0.00000E+00
         0.00000E+00
         0.00000E+00
         0.00000E+00
         0.00000E+00
         0.00000E+00
         0.00000E+00
         0.00000E+00
         0.00000E+00
         0.00000E+00
         0.00000E+00
         0.00000E+00
         0.00000E+00
         0.00000E+00
         0.00000E+00
         0.00000E+00
         0.00000E+00
         0.00000E+00
         0.00000E+00
         0.00000E+00
         0.00000E+00
         0.00000E+00
         0.00000E+00
         0.00000E+00
         0.00000E+00
         0.00000E+00
         0.00000E+00
         0.00000E+00
         0.00000E+00
         0.00000E+00
         0.00000E+00
         0.00000E+00
         0.00000E+00
         0.00000E+00
         0.00000E+00
         0.00000E+00
         0.00000E+00
         0.00000E+00
         0.00000E+00
         0.00000E+00
         0.00000E+00
         0.00000E+00
         0.00000E+00
         0.00000E+00
         0.00000E+00
         0.00000E+00
         0.00000E+00
         0.00000E+00
         0.00000E+00
         0.00000E+00
         0.00000E+00
         0.00000E+00
         0.00000E+00
         0.00000E+00
         0.00000E+00
         0.00000E+00
         0.00000E+00
         0.00000E+00
         0.00000E+00
         0.00000E+00
         0.00000E+00
         0.00000E+00
         0.00000E+00
         0.00000E+00
         0.00000E+00
         0.00000E+00
         0.00000E+00
         0.00000E+00
         0.00000E+00
         0.00000E+00
         0.00000E+00
         0.00000E+00
         0.00000E+00
         0.00000E+00
         0.00000E+00
         0.00000E+00
         0.00000E+00
         0.00000E+00
         0.00000E+00
         0.00000E+00
         0.00000E+00
         0.00000E+00
         0.00000E+00
         0.00000E+00
         0.00000E+00
         0.00000E+00
         0.00000E+00
         0.00000E+00
         0.00000E+00
         0.00000E+00
         0.00000E+00
         0.00000E+00
         0.00000E+00
         0.00000E+00
         0.00000E+00
         0.00000E+00
         0.00000E+00
         0.00000E+00
         0.00000E+00
         0.00000E+00
         0.00000E+00
         0.00000E+00
         0.00000E+00
         0.00000E+00
         0.00000E+00
         0.00000E+00
         0.00000E+00
         0.00000E+00
         0.00000E+00
         0.00000E+00
         0.00000E+00
         0.00000E+00
         0.00000E+00
         0.00000E+00
         0.00000E+00
         0.00000E+00
         0.00000E+00
         0.00000E+00
         0.00000E+00
         0.00000E+00
         0.00000E+00
         0.00000E+00
         0.00000E+00
         0.00000E+00
         0.00000E+00
         0.00000E+00
         0.00000E+00
         0.00000E+00
         0.00000E+00
         0.00000E+00
         0.00000E+00
         0.00000E+00
         0.00000E+00
         0.00000E+00
         0.00000E+00
         0.00000E+00
         0.00000E+00
         0.00000E+00
         0.00000E+00
         0.00000E+00
         0.00000E+00
         0.00000E+00
         0.00000E+00
         0.00000E+00
         0.00000E+00
         0.00000E+00
         0.00000E+00
         0.00000E+00
         0.00000E+00
         0.00000E+00
         0.00000E+00
         0.00000E+00
         0.00000E+00
         0.00000E+00
         0.00000E+00
         0.00000E+00
         0.00000E+00
         0.00000E+00
         0.00000E+00
         0.00000E+00
         0.00000E+00
         0.00000E+00
         0.00000E+00
         0.00000E+00
         0.00000E+00
         0.00000E+00
         0.00000E+00
         0.00000E+00
         0.00000E+00
         0.00000E+00
         0.00000E+00
         0.00000E+00
         0.00000E+00
         0.00000E+00
         0.00000E+00
         0.00000E+00
         0.00000E+00
         0.00000E+00
         0.00000E+00
         0.00000E+00
         0.00000E+00
         0.00000E+00
         0.00000E+00
         0.00000E+00
         0.00000E+00
         0.00000E+00
         0.00000E+00
         0.00000E+00
         0.00000E+00
         0.00000E+00
         0.00000E+00
         0.00000E+00
         0.00000E+00
         0.00000E+00
         0.00000E+00
         0.00000E+00
         0.00000E+00
         0.00000E+00
         0.00000E+00
         0.00000E+00
         0.00000E+00
         0.00000E+00
         0.00000E+00
         0.00000E+00
         0.00000E+00
         0.00000E+00
         0.00000E+00
         0.00000E+00
         0.00000E+00
         0.00000E+00
         0.00000E+00
         0.00000E+00
         0.00000E+00
         0.00000E+00
         0.00000E+00
         0.00000E+00
         0.00000E+00
         0.00000E+00
         0.00000E+00
         0.00000E+00
         0.00000E+00
         0.00000E+00
         0.00000E+00
         0.00000E+00
         0.00000E+00
         0.00000E+00
         0.00000E+00
         0.00000E+00
         0.00000E+00
         0.00000E+00
         0.00000E+00
         0.00000E+00
         0.00000E+00
         0.00000E+00
         0.00000E+00
         0.00000E+00
         0.00000E+00
         0.00000E+00
         0.00000E+00
         0.00000E+00
         0.00000E+00
         0.00000E+00
         0.00000E+00
         0.00000E+00
         0.00000E+00
         0.00000E+00
         0.00000E+00
         0.00000E+00
         0.00000E+00
         0.00000E+00
         0.00000E+00
         0.00000E+00
         0.00000E+00
         0.00000E+00
         0.00000E+00
         0.00000E+00
         0.00000E+00
         0.00000E+00
         0.00000E+00
         0.00000E+00
         0.00000E+00
         0.00000E+00
         0.00000E+00
         0.00000E+00
         0.00000E+00
         0.00000E+00
         0.00000E+00
         0.00000E+00
         0.00000E+00
         0.00000E+00
         0.00000E+00
         0.00000E+00
         0.00000E+00
         0.00000E+00
         0.00000E+00
         0.00000E+00
         0.00000E+00
         0.00000E+00
         0.00000E+00
         0.00000E+00
         0.00000E+00
         0.00000E+00
         0.00000E+00
         0.00000E+00
         0.00000E+00
         0.00000E+00
         0.00000E+00
         0.00000E+00
         0.00000E+00
         0.00000E+00
         0.00000E+00
         0.00000E+00
         0.00000E+00
         0.00000E+00
         0.00000E+00
         0.00000E+00
         0.00000E+00
         0.00000E+00
         0.00000E+00
         0.00000E+00
         0.00000E+00
         0.00000E+00
         0.00000E+00
         0.00000E+00
         0.00000E+00
         0.00000E+00
         0.00000E+00
         0.00000E+00
         0.00000E+00
         0.00000E+00
         0.00000E+00
         0.00000E+00
         0.00000E+00
         0.00000E+00
         0.00000E+00
         0.00000E+00
         0.00000E+00
         0.00000E+00
         0.00000E+00
         0.00000E+00
         0.00000E+00
         0.00000E+00
         0.00000E+00
         0.00000E+00
         0.00000E+00
         0.00000E+00
         0.00000E+00
         0.00000E+00
         0.00000E+00
         0.00000E+00
         0.00000E+00
         0.00000E+00
         0.00000E+00
         0.00000E+00
         0.00000E+00
         0.00000E+00
         0.00000E+00
         0.00000E+00
         0.00000E+00
         0.00000E+00
         0.00000E+00
         0.00000E+00
         0.00000E+00
         0.00000E+00
         0.00000E+00
         0.00000E+00
         0.00000E+00
         0.00000E+00
         0.00000E+00
         0.00000E+00
         0.00000E+00
         0.00000E+00
         0.00000E+00
         0.00000E+00
         0.00000E+00
         0.00000E+00
         0.00000E+00
         0.00000E+00
         0.00000E+00
         0.00000E+00
         0.00000E+00
         0.00000E+00
         0.00000E+00
         0.00000E+00
         0.00000E+00
         0.00000E+00
  
SCALARS                      eps_shear  double 1
LOOKUP_TABLE default
         0.00000E+00
         0.00000E+00
         0.00000E+00
         0.00000E+00
         0.00000E+00
         0.00000E+00
         0.00000E+00
         0.00000E+00
         0.00000E+00
         0.00000E+00
         0.00000E+00
         0.00000E+00
         0.00000E+00
         0.00000E+00
         0.00000E+00
         0.00000E+00
         0.00000E+00
         0.00000E+00
         0.00000E+00
         0.00000E+00
         0.00000E+00
         0.00000E+00
         0.00000E+00
         0.00000E+00
         0.00000E+00
         0.00000E+00
         0.00000E+00
         0.00000E+00
         0.00000E+00
         0.00000E+00
         0.00000E+00
         0.00000E+00
         0.00000E+00
         0.00000E+00
         0.00000E+00
         0.00000E+00
         0.00000E+00
         0.00000E+00
         0.00000E+00
         0.00000E+00
         0.00000E+00
         0.00000E+00
         0.00000E+00
         0.00000E+00
         0.00000E+00
         0.00000E+00
         0.00000E+00
         0.00000E+00
         0.00000E+00
         0.00000E+00
         0.00000E+00
         0.00000E+00
         0.00000E+00
         0.00000E+00
         0.00000E+00
         0.00000E+00
         0.00000E+00
         0.00000E+00
         0.00000E+00
         0.00000E+00
         0.00000E+00
         0.00000E+00
         0.00000E+00
         0.00000E+00
         0.00000E+00
         0.00000E+00
         0.00000E+00
         0.00000E+00
         0.00000E+00
         0.00000E+00
         0.00000E+00
         0.00000E+00
         0.00000E+00
         0.00000E+00
         0.00000E+00
         0.00000E+00
         0.00000E+00
         0.00000E+00
         0.00000E+00
         0.00000E+00
         0.00000E+00
         0.00000E+00
         0.00000E+00
         0.00000E+00
         0.00000E+00
         0.00000E+00
         0.00000E+00
         0.00000E+00
         0.00000E+00
         0.00000E+00
         0.00000E+00
         0.00000E+00
         0.00000E+00
         0.00000E+00
         0.00000E+00
         0.00000E+00
         0.00000E+00
         0.00000E+00
         0.00000E+00
         0.00000E+00
         0.00000E+00
         0.00000E+00
         0.00000E+00
         0.00000E+00
         0.00000E+00
         0.00000E+00
         0.00000E+00
         0.00000E+00
         0.00000E+00
         0.00000E+00
         0.00000E+00
         0.00000E+00
         0.00000E+00
         0.00000E+00
         0.00000E+00
         0.00000E+00
         0.00000E+00
         0.00000E+00
         0.00000E+00
         0.00000E+00
         0.00000E+00
         0.00000E+00
         0.00000E+00
         0.00000E+00
         0.00000E+00
         0.00000E+00
         0.00000E+00
         0.00000E+00
         0.00000E+00
         0.00000E+00
         0.00000E+00
         0.00000E+00
         0.00000E+00
         0.00000E+00
         0.00000E+00
         0.00000E+00
         0.00000E+00
         0.00000E+00
         0.00000E+00
         0.00000E+00
         0.00000E+00
         0.00000E+00
         0.00000E+00
         0.00000E+00
         0.00000E+00
         0.00000E+00
         0.00000E+00
         0.00000E+00
         0.00000E+00
         0.00000E+00
         0.00000E+00
         0.00000E+00
         0.00000E+00
         0.00000E+00
         0.00000E+00
         0.00000E+00
         0.00000E+00
         0.00000E+00
         0.00000E+00
         0.00000E+00
         0.00000E+00
         0.00000E+00
         0.00000E+00
         0.00000E+00
         0.00000E+00
         0.00000E+00
         0.00000E+00
         0.00000E+00
         0.00000E+00
         0.00000E+00
         0.00000E+00
         0.00000E+00
         0.00000E+00
         0.00000E+00
         0.00000E+00
         0.00000E+00
         0.00000E+00
         0.00000E+00
         0.00000E+00
         0.00000E+00
         0.00000E+00
         0.00000E+00
         0.00000E+00
         0.00000E+00
         0.00000E+00
         0.00000E+00
         0.00000E+00
         0.00000E+00
         0.00000E+00
         0.00000E+00
         0.00000E+00
         0.00000E+00
         0.00000E+00
         0.00000E+00
         0.00000E+00
         0.00000E+00
         0.00000E+00
         0.00000E+00
         0.00000E+00
         0.00000E+00
         0.00000E+00
         0.00000E+00
         0.00000E+00
         0.00000E+00
         0.00000E+00
         0.00000E+00
         0.00000E+00
         0.00000E+00
         0.00000E+00
         0.00000E+00
         0.00000E+00
         0.00000E+00
         0.00000E+00
         0.00000E+00
         0.00000E+00
         0.00000E+00
         0.00000E+00
         0.00000E+00
         0.00000E+00
         0.00000E+00
         0.00000E+00
         0.00000E+00
         0.00000E+00
         0.00000E+00
         0.00000E+00
         0.00000E+00
         0.00000E+00
         0.00000E+00
         0.00000E+00
         0.00000E+00
         0.00000E+00
         0.00000E+00
         0.00000E+00
         0.00000E+00
         0.00000E+00
         0.00000E+00
         0.00000E+00
         0.00000E+00
         0.00000E+00
         0.00000E+00
         0.00000E+00
         0.00000E+00
         0.00000E+00
         0.00000E+00
         0.00000E+00
         0.00000E+00
         0.00000E+00
         0.00000E+00
         0.00000E+00
         0.00000E+00
         0.00000E+00
         0.00000E+00
         0.00000E+00
         0.00000E+00
         0.00000E+00
         0.00000E+00
         0.00000E+00
         0.00000E+00
         0.00000E+00
         0.00000E+00
         0.00000E+00
         0.00000E+00
         0.00000E+00
         0.00000E+00
         0.00000E+00
         0.00000E+00
         0.00000E+00
         0.00000E+00
         0.00000E+00
         0.00000E+00
         0.00000E+00
         0.00000E+00
         0.00000E+00
         0.00000E+00
         0.00000E+00
         0.00000E+00
         0.00000E+00
         0.00000E+00
         0.00000E+00
         0.00000E+00
         0.00000E+00
         0.00000E+00
         0.00000E+00
         0.00000E+00
         0.00000E+00
         0.00000E+00
         0.00000E+00
         0.00000E+00
         0.00000E+00
         0.00000E+00
         0.00000E+00
         0.00000E+00
         0.00000E+00
         0.00000E+00
         0.00000E+00
         0.00000E+00
         0.00000E+00
         0.00000E+00
         0.00000E+00
         0.00000E+00
         0.00000E+00
         0.00000E+00
         0.00000E+00
         0.00000E+00
         0.00000E+00
         0.00000E+00
         0.00000E+00
         0.00000E+00
         0.00000E+00
         0.00000E+00
         0.00000E+00
         0.00000E+00
         0.00000E+00
         0.00000E+00
         0.00000E+00
         0.00000E+00
         0.00000E+00
         0.00000E+00
         0.00000E+00
         0.00000E+00
         0.00000E+00
         0.00000E+00
         0.00000E+00
         0.00000E+00
         0.00000E+00
         0.00000E+00
         0.00000E+00
         0.00000E+00
         0.00000E+00
         0.00000E+00
         0.00000E+00
         0.00000E+00
         0.00000E+00
         0.00000E+00
         0.00000E+00
         0.00000E+00
         0.00000E+00
         0.00000E+00
         0.00000E+00
         0.00000E+00
         0.00000E+00
         0.00000E+00
         0.00000E+00
         0.00000E+00
         0.00000E+00
         0.00000E+00
         0.00000E+00
         0.00000E+00
         0.00000E+00
         0.00000E+00
         0.00000E+00
         0.00000E+00
         0.00000E+00
         0.00000E+00
         0.00000E+00
         0.00000E+00
         0.00000E+00
         0.00000E+00
         0.00000E+00
         0.00000E+00
         0.00000E+00
         0.00000E+00
         0.00000E+00
         0.00000E+00
         0.00000E+00
         0.00000E+00
         0.00000E+00
         0.00000E+00
         0.00000E+00
         0.00000E+00
         0.00000E+00
         0.00000E+00
         0.00000E+00
         0.00000E+00
         0.00000E+00
         0.00000E+00
         0.00000E+00
         0.00000E+00
         0.00000E+00
         0.00000E+00
         0.00000E+00
         0.00000E+00
         0.00000E+00
         0.00000E+00
         0.00000E+00
         0.00000E+00
         0.00000E+00
         0.00000E+00
         0.00000E+00
         0.00000E+00
         0.00000E+00
         0.00000E+00
         0.00000E+00
         0.00000E+00
         0.00000E+00
         0.00000E+00
         0.00000E+00
         0.00000E+00
         0.00000E+00
         0.00000E+00
         0.00000E+00
         0.00000E+00
         0.00000E+00
         0.00000E+00
         0.00000E+00
         0.00000E+00
         0.00000E+00
         0.00000E+00
         0.00000E+00
         0.00000E+00
         0.00000E+00
         0.00000E+00
         0.00000E+00
         0.00000E+00
         0.00000E+00
         0.00000E+00
         0.00000E+00
         0.00000E+00
         0.00000E+00
         0.00000E+00
         0.00000E+00
         0.00000E+00
         0.00000E+00
         0.00000E+00
         0.00000E+00
         0.00000E+00
         0.00000E+00
         0.00000E+00
         0.00000E+00
         0.00000E+00
         0.00000E+00
         0.00000E+00
         0.00000E+00
         0.00000E+00
         0.00000E+00
         0.00000E+00
         0.00000E+00
         0.00000E+00
         0.00000E+00
         0.00000E+00
         0.00000E+00
         0.00000E+00
         0.00000E+00
         0.00000E+00
         0.00000E+00
         0.00000E+00
         0.00000E+00
         0.00000E+00
         0.00000E+00
         0.00000E+00
         0.00000E+00
         0.00000E+00
         0.00000E+00
         0.00000E+00
         0.00000E+00
         0.00000E+00
         0.00000E+00
         0.00000E+00
         0.00000E+00
         0.00000E+00
         0.00000E+00
         0.00000E+00
         0.00000E+00
         0.00000E+00
         0.00000E+00
         0.00000E+00
         0.00000E+00
         0.00000E+00
         0.00000E+00
         0.00000E+00
         0.00000E+00
         0.00000E+00
         0.00000E+00
         0.00000E+00
         0.00000E+00
         0.00000E+00
         0.00000E+00
         0.00000E+00
         0.00000E+00
         0.00000E+00
         0.00000E+00
         0.00000E+00
         0.00000E+00
         0.00000E+00
         0.00000E+00
         0.00000E+00
         0.00000E+00
         0.00000E+00
         0.00000E+00
         0.00000E+00
         0.00000E+00
         0.00000E+00
         0.00000E+00
         0.00000E+00
         0.00000E+00
         0.00000E+00
         0.00000E+00
         0.00000E+00
         0.00000E+00
         0.00000E+00
         0.00000E+00
         0.00000E+00
         0.00000E+00
         0.00000E+00
         0.00000E+00
         0.00000E+00
         0.00000E+00
         0.00000E+00
         0.00000E+00
         0.00000E+00
         0.00000E+00
         0.00000E+00
         0.00000E+00
         0.00000E+00
         0.00000E+00
         0.00000E+00
         0.00000E+00
         0.00000E+00
         0.00000E+00
         0.00000E+00
         0.00000E+00
         0.00000E+00
         0.00000E+00
         0.00000E+00
         0.00000E+00
         0.00000E+00
         0.00000E+00
         0.00000E+00
         0.00000E+00
         0.00000E+00
         0.00000E+00
         0.00000E+00
         0.00000E+00
         0.00000E+00
         0.00000E+00
         0.00000E+00
         0.00000E+00
         0.00000E+00
         0.00000E+00
         0.00000E+00
         0.00000E+00
         0.00000E+00
         0.00000E+00
         0.00000E+00
         0.00000E+00
         0.00000E+00
         0.00000E+00
         0.00000E+00
         0.00000E+00
         0.00000E+00
         0.00000E+00
         0.00000E+00
         0.00000E+00
         0.00000E+00
         0.00000E+00
         0.00000E+00
         0.00000E+00
         0.00000E+00
         0.00000E+00
         0.00000E+00
         0.00000E+00
         0.00000E+00
         0.00000E+00
         0.00000E+00
         0.00000E+00
         0.00000E+00
         0.00000E+00
         0.00000E+00
         0.00000E+00
         0.00000E+00
         0.00000E+00
         0.00000E+00
         0.00000E+00
         0.00000E+00
         0.00000E+00
         0.00000E+00
         0.00000E+00
         0.00000E+00
         0.00000E+00
         0.00000E+00
         0.00000E+00
         0.00000E+00
         0.00000E+00
         0.00000E+00
         0.00000E+00
         0.00000E+00
         0.00000E+00
         0.00000E+00
         0.00000E+00
         0.00000E+00
         0.00000E+00
         0.00000E+00
         0.00000E+00
         0.00000E+00
         0.00000E+00
         0.00000E+00
         0.00000E+00
         0.00000E+00
         0.00000E+00
         0.00000E+00
         0.00000E+00
         0.00000E+00
         0.00000E+00
         0.00000E+00
         0.00000E+00
         0.00000E+00
         0.00000E+00
         0.00000E+00
         0.00000E+00
         0.00000E+00
         0.00000E+00
         0.00000E+00
         0.00000E+00
         0.00000E+00
         0.00000E+00
         0.00000E+00
         0.00000E+00
         0.00000E+00
         0.00000E+00
         0.00000E+00
         0.00000E+00
         0.00000E+00
         0.00000E+00
         0.00000E+00
         0.00000E+00
         0.00000E+00
         0.00000E+00
         0.00000E+00
         0.00000E+00
         0.00000E+00
         0.00000E+00
         0.00000E+00
         0.00000E+00
         0.00000E+00
         0.00000E+00
         0.00000E+00
         0.00000E+00
         0.00000E+00
         0.00000E+00
         0.00000E+00
         0.00000E+00
         0.00000E+00
         0.00000E+00
         0.00000E+00
         0.00000E+00
         0.00000E+00
         0.00000E+00
         0.00000E+00
         0.00000E+00
         0.00000E+00
         0.00000E+00
         0.00000E+00
         0.00000E+00
         0.00000E+00
         0.00000E+00
         0.00000E+00
         0.00000E+00
         0.00000E+00
         0.00000E+00
         0.00000E+00
         0.00000E+00
         0.00000E+00
         0.00000E+00
         0.00000E+00
         0.00000E+00
         0.00000E+00
         0.00000E+00
         0.00000E+00
         0.00000E+00
         0.00000E+00
         0.00000E+00
         0.00000E+00
         0.00000E+00
         0.00000E+00
         0.00000E+00
         0.00000E+00
         0.00000E+00
         0.00000E+00
         0.00000E+00
         0.00000E+00
         0.00000E+00
         0.00000E+00
         0.00000E+00
         0.00000E+00
         0.00000E+00
         0.00000E+00
         0.00000E+00
         0.00000E+00
         0.00000E+00
         0.00000E+00
         0.00000E+00
         0.00000E+00
         0.00000E+00
         0.00000E+00
         0.00000E+00
         0.00000E+00
         0.00000E+00
         0.00000E+00
         0.00000E+00
         0.00000E+00
         0.00000E+00
         0.00000E+00
         0.00000E+00
         0.00000E+00
         0.00000E+00
         0.00000E+00
         0.00000E+00
         0.00000E+00
         0.00000E+00
         0.00000E+00
         0.00000E+00
         0.00000E+00
         0.00000E+00
         0.00000E+00
         0.00000E+00
         0.00000E+00
         0.00000E+00
         0.00000E+00
         0.00000E+00
         0.00000E+00
         0.00000E+00
         0.00000E+00
         0.00000E+00
         0.00000E+00
         0.00000E+00
         0.00000E+00
         0.00000E+00
         0.00000E+00
         0.00000E+00
         0.00000E+00
         0.00000E+00
         0.00000E+00
         0.00000E+00
         0.00000E+00
         0.00000E+00
         0.00000E+00
         0.00000E+00
         0.00000E+00
         0.00000E+00
         0.00000E+00
         0.00000E+00
         0.00000E+00
         0.00000E+00
         0.00000E+00
         0.00000E+00
         0.00000E+00
         0.00000E+00
         0.00000E+00
         0.00000E+00
         0.00000E+00
         0.00000E+00
         0.00000E+00
         0.00000E+00
         0.00000E+00
         0.00000E+00
         0.00000E+00
         0.00000E+00
         0.00000E+00
         0.00000E+00
         0.00000E+00
         0.00000E+00
         0.00000E+00
         0.00000E+00
         0.00000E+00
         0.00000E+00
         0.00000E+00
         0.00000E+00
         0.00000E+00
         0.00000E+00
         0.00000E+00
         0.00000E+00
         0.00000E+00
         0.00000E+00
         0.00000E+00
         0.00000E+00
         0.00000E+00
         0.00000E+00
         0.00000E+00
         0.00000E+00
         0.00000E+00
         0.00000E+00
         0.00000E+00
         0.00000E+00
         0.00000E+00
         0.00000E+00
         0.00000E+00
         0.00000E+00
         0.00000E+00
         0.00000E+00
         0.00000E+00
         0.00000E+00
         0.00000E+00
         0.00000E+00
         0.00000E+00
         0.00000E+00
         0.00000E+00
         0.00000E+00
         0.00000E+00
         0.00000E+00
         0.00000E+00
         0.00000E+00
         0.00000E+00
         0.00000E+00
         0.00000E+00
         0.00000E+00
         0.00000E+00
         0.00000E+00
         0.00000E+00
         0.00000E+00
         0.00000E+00
         0.00000E+00
         0.00000E+00
         0.00000E+00
         0.00000E+00
         0.00000E+00
         0.00000E+00
         0.00000E+00
         0.00000E+00
         0.00000E+00
         0.00000E+00
         0.00000E+00
         0.00000E+00
         0.00000E+00
         0.00000E+00
         0.00000E+00
         0.00000E+00
         0.00000E+00
         0.00000E+00
         0.00000E+00
         0.00000E+00
         0.00000E+00
         0.00000E+00
         0.00000E+00
         0.00000E+00
         0.00000E+00
         0.00000E+00
         0.00000E+00
         0.00000E+00
         0.00000E+00
         0.00000E+00
         0.00000E+00
         0.00000E+00
         0.00000E+00
         0.00000E+00
         0.00000E+00
         0.00000E+00
         0.00000E+00
         0.00000E+00
         0.00000E+00
         0.00000E+00
         0.00000E+00
         0.00000E+00
         0.00000E+00
         0.00000E+00
         0.00000E+00
         0.00000E+00
         0.00000E+00
         0.00000E+00
         0.00000E+00
         0.00000E+00
         0.00000E+00
         0.00000E+00
         0.00000E+00
         0.00000E+00
         0.00000E+00
         0.00000E+00
         0.00000E+00
         0.00000E+00
         0.00000E+00
         0.00000E+00
         0.00000E+00
         0.00000E+00
         0.00000E+00
         0.00000E+00
         0.00000E+00
         0.00000E+00
         0.00000E+00
         0.00000E+00
         0.00000E+00
         0.00000E+00
         0.00000E+00
         0.00000E+00
         0.00000E+00
         0.00000E+00
         0.00000E+00
         0.00000E+00
         0.00000E+00
         0.00000E+00
         0.00000E+00
         0.00000E+00
         0.00000E+00
         0.00000E+00
         0.00000E+00
         0.00000E+00
         0.00000E+00
         0.00000E+00
         0.00000E+00
         0.00000E+00
         0.00000E+00
         0.00000E+00
         0.00000E+00
         0.00000E+00
         0.00000E+00
         0.00000E+00
         0.00000E+00
         0.00000E+00
         0.00000E+00
         0.00000E+00
         0.00000E+00
         0.00000E+00
         0.00000E+00
         0.00000E+00
         0.00000E+00
         0.00000E+00
         0.00000E+00
         0.00000E+00
         0.00000E+00
         0.00000E+00
         0.00000E+00
         0.00000E+00
         0.00000E+00
         0.00000E+00
         0.00000E+00
         0.00000E+00
         0.00000E+00
         0.00000E+00
         0.00000E+00
         0.00000E+00
         0.00000E+00
         0.00000E+00
         0.00000E+00
         0.00000E+00
         0.00000E+00
         0.00000E+00
         0.00000E+00
         0.00000E+00
         0.00000E+00
         0.00000E+00
         0.00000E+00
         0.00000E+00
         0.00000E+00
         0.00000E+00
         0.00000E+00
         0.00000E+00
         0.00000E+00
         0.00000E+00
         0.00000E+00
         0.00000E+00
         0.00000E+00
         0.00000E+00
         0.00000E+00
         0.00000E+00
         0.00000E+00
         0.00000E+00
         0.00000E+00
         0.00000E+00
         0.00000E+00
         0.00000E+00
         0.00000E+00
         0.00000E+00
         0.00000E+00
         0.00000E+00
         0.00000E+00
         0.00000E+00
         0.00000E+00
         0.00000E+00
         0.00000E+00
         0.00000E+00
         0.00000E+00
         0.00000E+00
         0.00000E+00
         0.00000E+00
         0.00000E+00
         0.00000E+00
         0.00000E+00
         0.00000E+00
         0.00000E+00
         0.00000E+00
         0.00000E+00
         0.00000E+00
         0.00000E+00
         0.00000E+00
         0.00000E+00
         0.00000E+00
         0.00000E+00
         0.00000E+00
         0.00000E+00
         0.00000E+00
         0.00000E+00
         0.00000E+00
         0.00000E+00
         0.00000E+00
         0.00000E+00
         0.00000E+00
         0.00000E+00
         0.00000E+00
         0.00000E+00
         0.00000E+00
         0.00000E+00
         0.00000E+00
         0.00000E+00
         0.00000E+00
         0.00000E+00
         0.00000E+00
         0.00000E+00
         0.00000E+00
         0.00000E+00
         0.00000E+00
         0.00000E+00
         0.00000E+00
         0.00000E+00
         0.00000E+00
         0.00000E+00
         0.00000E+00
         0.00000E+00
         0.00000E+00
         0.00000E+00
         0.00000E+00
         0.00000E+00
         0.00000E+00
         0.00000E+00
         0.00000E+00
         0.00000E+00
         0.00000E+00
         0.00000E+00
         0.00000E+00
         0.00000E+00
         0.00000E+00
         0.00000E+00
         0.00000E+00
         0.00000E+00
         0.00000E+00
         0.00000E+00
         0.00000E+00
         0.00000E+00
         0.00000E+00
         0.00000E+00
         0.00000E+00
         0.00000E+00
         0.00000E+00
         0.00000E+00
         0.00000E+00
         0.00000E+00
         0.00000E+00
         0.00000E+00
         0.00000E+00
         0.00000E+00
         0.00000E+00
         0.00000E+00
         0.00000E+00
         0.00000E+00
         0.00000E+00
         0.00000E+00
         0.00000E+00
         0.00000E+00
         0.00000E+00
         0.00000E+00
         0.00000E+00
         0.00000E+00
         0.00000E+00
         0.00000E+00
         0.00000E+00
         0.00000E+00
         0.00000E+00
         0.00000E+00
         0.00000E+00
         0.00000E+00
         0.00000E+00
         0.00000E+00
         0.00000E+00
         0.00000E+00
         0.00000E+00
         0.00000E+00
         0.00000E+00
         0.00000E+00
         0.00000E+00
         0.00000E+00
         0.00000E+00
         0.00000E+00
         0.00000E+00
         0.00000E+00
         0.00000E+00
         0.00000E+00
         0.00000E+00
         0.00000E+00
         0.00000E+00
         0.00000E+00
         0.00000E+00
         0.00000E+00
         0.00000E+00
         0.00000E+00
         0.00000E+00
         0.00000E+00
         0.00000E+00
         0.00000E+00
         0.00000E+00
         0.00000E+00
         0.00000E+00
         0.00000E+00
         0.00000E+00
         0.00000E+00
         0.00000E+00
         0.00000E+00
         0.00000E+00
         0.00000E+00
         0.00000E+00
         0.00000E+00
         0.00000E+00
         0.00000E+00
         0.00000E+00
         0.00000E+00
         0.00000E+00
         0.00000E+00
         0.00000E+00
         0.00000E+00
         0.00000E+00
         0.00000E+00
         0.00000E+00
         0.00000E+00
         0.00000E+00
         0.00000E+00
         0.00000E+00
         0.00000E+00
         0.00000E+00
         0.00000E+00
         0.00000E+00
         0.00000E+00
         0.00000E+00
         0.00000E+00
         0.00000E+00
         0.00000E+00
         0.00000E+00
         0.00000E+00
         0.00000E+00
         0.00000E+00
         0.00000E+00
         0.00000E+00
         0.00000E+00
         0.00000E+00
         0.00000E+00
         0.00000E+00
         0.00000E+00
         0.00000E+00
         0.00000E+00
         0.00000E+00
         0.00000E+00
         0.00000E+00
         0.00000E+00
         0.00000E+00
         0.00000E+00
         0.00000E+00
         0.00000E+00
         0.00000E+00
         0.00000E+00
         0.00000E+00
         0.00000E+00
         0.00000E+00
         0.00000E+00
         0.00000E+00
         0.00000E+00
         0.00000E+00
         0.00000E+00
         0.00000E+00
         0.00000E+00
         0.00000E+00
         0.00000E+00
         0.00000E+00
         0.00000E+00
         0.00000E+00
         0.00000E+00
         0.00000E+00
         0.00000E+00
         0.00000E+00
         0.00000E+00
         0.00000E+00
         0.00000E+00
         0.00000E+00
         0.00000E+00
         0.00000E+00
         0.00000E+00
         0.00000E+00
         0.00000E+00
         0.00000E+00
         0.00000E+00
         0.00000E+00
         0.00000E+00
         0.00000E+00
         0.00000E+00
         0.00000E+00
         0.00000E+00
         0.00000E+00
         0.00000E+00
         0.00000E+00
         0.00000E+00
         0.00000E+00
         0.00000E+00
         0.00000E+00
         0.00000E+00
         0.00000E+00
         0.00000E+00
         0.00000E+00
         0.00000E+00
         0.00000E+00
         0.00000E+00
         0.00000E+00
         0.00000E+00
         0.00000E+00
         0.00000E+00
         0.00000E+00
         0.00000E+00
         0.00000E+00
         0.00000E+00
         0.00000E+00
         0.00000E+00
         0.00000E+00
         0.00000E+00
         0.00000E+00
         0.00000E+00
         0.00000E+00
         0.00000E+00
         0.00000E+00
         0.00000E+00
         0.00000E+00
         0.00000E+00
         0.00000E+00
         0.00000E+00
         0.00000E+00
         0.00000E+00
         0.00000E+00
         0.00000E+00
         0.00000E+00
         0.00000E+00
         0.00000E+00
         0.00000E+00
         0.00000E+00
         0.00000E+00
         0.00000E+00
         0.00000E+00
         0.00000E+00
         0.00000E+00
         0.00000E+00
         0.00000E+00
         0.00000E+00
         0.00000E+00
         0.00000E+00
         0.00000E+00
         0.00000E+00
         0.00000E+00
         0.00000E+00
         0.00000E+00
         0.00000E+00
         0.00000E+00
         0.00000E+00
         0.00000E+00
         0.00000E+00
         0.00000E+00
         0.00000E+00
         0.00000E+00
         0.00000E+00
         0.00000E+00
         0.00000E+00
         0.00000E+00
         0.00000E+00
         0.00000E+00
         0.00000E+00
         0.00000E+00
         0.00000E+00
         0.00000E+00
         0.00000E+00
         0.00000E+00
         0.00000E+00
         0.00000E+00
         0.00000E+00
         0.00000E+00
         0.00000E+00
         0.00000E+00
         0.00000E+00
         0.00000E+00
         0.00000E+00
         0.00000E+00
         0.00000E+00
         0.00000E+00
         0.00000E+00
         0.00000E+00
         0.00000E+00
         0.00000E+00
         0.00000E+00
         0.00000E+00
         0.00000E+00
         0.00000E+00
         0.00000E+00
         0.00000E+00
         0.00000E+00
         0.00000E+00
         0.00000E+00
         0.00000E+00
         0.00000E+00
         0.00000E+00
         0.00000E+00
         0.00000E+00
         0.00000E+00
         0.00000E+00
         0.00000E+00
         0.00000E+00
         0.00000E+00
         0.00000E+00
         0.00000E+00
         0.00000E+00
         0.00000E+00
         0.00000E+00
         0.00000E+00
         0.00000E+00
         0.00000E+00
         0.00000E+00
         0.00000E+00
         0.00000E+00
         0.00000E+00
         0.00000E+00
         0.00000E+00
         0.00000E+00
         0.00000E+00
         0.00000E+00
         0.00000E+00
         0.00000E+00
         0.00000E+00
         0.00000E+00
         0.00000E+00
         0.00000E+00
         0.00000E+00
         0.00000E+00
         0.00000E+00
         0.00000E+00
         0.00000E+00
         0.00000E+00
         0.00000E+00
         0.00000E+00
         0.00000E+00
         0.00000E+00
         0.00000E+00
         0.00000E+00
         0.00000E+00
         0.00000E+00
         0.00000E+00
         0.00000E+00
         0.00000E+00
         0.00000E+00
         0.00000E+00
         0.00000E+00
         0.00000E+00
         0.00000E+00
         0.00000E+00
         0.00000E+00
         0.00000E+00
         0.00000E+00
         0.00000E+00
         0.00000E+00
         0.00000E+00
         0.00000E+00
         0.00000E+00
         0.00000E+00
         0.00000E+00
         0.00000E+00
         0.00000E+00
         0.00000E+00
         0.00000E+00
         0.00000E+00
         0.00000E+00
         0.00000E+00
         0.00000E+00
         0.00000E+00
         0.00000E+00
         0.00000E+00
         0.00000E+00
         0.00000E+00
         0.00000E+00
         0.00000E+00
         0.00000E+00
         0.00000E+00
         0.00000E+00
         0.00000E+00
         0.00000E+00
         0.00000E+00
         0.00000E+00
         0.00000E+00
         0.00000E+00
         0.00000E+00
         0.00000E+00
         0.00000E+00
         0.00000E+00
         0.00000E+00
         0.00000E+00
         0.00000E+00
         0.00000E+00
         0.00000E+00
         0.00000E+00
         0.00000E+00
         0.00000E+00
         0.00000E+00
         0.00000E+00
         0.00000E+00
         0.00000E+00
         0.00000E+00
         0.00000E+00
         0.00000E+00
         0.00000E+00
         0.00000E+00
         0.00000E+00
         0.00000E+00
         0.00000E+00
         0.00000E+00
         0.00000E+00
         0.00000E+00
         0.00000E+00
         0.00000E+00
         0.00000E+00
         0.00000E+00
         0.00000E+00
         0.00000E+00
         0.00000E+00
         0.00000E+00
         0.00000E+00
         0.00000E+00
         0.00000E+00
         0.00000E+00
         0.00000E+00
         0.00000E+00
         0.00000E+00
         0.00000E+00
         0.00000E+00
         0.00000E+00
         0.00000E+00
         0.00000E+00
         0.00000E+00
         0.00000E+00
         0.00000E+00
         0.00000E+00
         0.00000E+00
         0.00000E+00
         0.00000E+00
         0.00000E+00
         0.00000E+00
         0.00000E+00
         0.00000E+00
         0.00000E+00
         0.00000E+00
         0.00000E+00
         0.00000E+00
         0.00000E+00
         0.00000E+00
         0.00000E+00
         0.00000E+00
         0.00000E+00
         0.00000E+00
         0.00000E+00
         0.00000E+00
         0.00000E+00
         0.00000E+00
         0.00000E+00
         0.00000E+00
         0.00000E+00
         0.00000E+00
         0.00000E+00
         0.00000E+00
         0.00000E+00
         0.00000E+00
         0.00000E+00
         0.00000E+00
         0.00000E+00
         0.00000E+00
         0.00000E+00
         0.00000E+00
         0.00000E+00
         0.00000E+00
         0.00000E+00
         0.00000E+00
         0.00000E+00
         0.00000E+00
         0.00000E+00
         0.00000E+00
         0.00000E+00
         0.00000E+00
         0.00000E+00
         0.00000E+00
         0.00000E+00
         0.00000E+00
         0.00000E+00
         0.00000E+00
         0.00000E+00
         0.00000E+00
         0.00000E+00
         0.00000E+00
         0.00000E+00
         0.00000E+00
         0.00000E+00
         0.00000E+00
         0.00000E+00
         0.00000E+00
         0.00000E+00
         0.00000E+00
         0.00000E+00
         0.00000E+00
         0.00000E+00
         0.00000E+00
         0.00000E+00
         0.00000E+00
         0.00000E+00
         0.00000E+00
         0.00000E+00
         0.00000E+00
         0.00000E+00
         0.00000E+00
         0.00000E+00
         0.00000E+00
         0.00000E+00
         0.00000E+00
         0.00000E+00
         0.00000E+00
         0.00000E+00
         0.00000E+00
         0.00000E+00
         0.00000E+00
         0.00000E+00
         0.00000E+00
         0.00000E+00
         0.00000E+00
         0.00000E+00
         0.00000E+00
         0.00000E+00
         0.00000E+00
         0.00000E+00
         0.00000E+00
         0.00000E+00
         0.00000E+00
         0.00000E+00
         0.00000E+00
         0.00000E+00
         0.00000E+00
         0.00000E+00
         0.00000E+00
         0.00000E+00
         0.00000E+00
         0.00000E+00
         0.00000E+00
         0.00000E+00
         0.00000E+00
         0.00000E+00
         0.00000E+00
         0.00000E+00
         0.00000E+00
         0.00000E+00
         0.00000E+00
         0.00000E+00
         0.00000E+00
         0.00000E+00
         0.00000E+00
         0.00000E+00
         0.00000E+00
         0.00000E+00
         0.00000E+00
         0.00000E+00
         0.00000E+00
         0.00000E+00
         0.00000E+00
         0.00000E+00
         0.00000E+00
         0.00000E+00
         0.00000E+00
         0.00000E+00
         0.00000E+00
         0.00000E+00
         0.00000E+00
         0.00000E+00
         0.00000E+00
         0.00000E+00
         0.00000E+00
         0.00000E+00
         0.00000E+00
         0.00000E+00
         0.00000E+00
         0.00000E+00
         0.00000E+00
         0.00000E+00
         0.00000E+00
         0.00000E+00
         0.00000E+00
         0.00000E+00
         0.00000E+00
         0.00000E+00
         0.00000E+00
         0.00000E+00
         0.00000E+00
         0.00000E+00
         0.00000E+00
         0.00000E+00
         0.00000E+00
         0.00000E+00
         0.00000E+00
         0.00000E+00
         0.00000E+00
         0.00000E+00
         0.00000E+00
         0.00000E+00
         0.00000E+00
         0.00000E+00
         0.00000E+00
         0.00000E+00
         0.00000E+00
         0.00000E+00
         0.00000E+00
         0.00000E+00
         0.00000E+00
         0.00000E+00
         0.00000E+00
         0.00000E+00
         0.00000E+00
         0.00000E+00
         0.00000E+00
         0.00000E+00
         0.00000E+00
         0.00000E+00
         0.00000E+00
         0.00000E+00
         0.00000E+00
         0.00000E+00
         0.00000E+00
         0.00000E+00
         0.00000E+00
         0.00000E+00
         0.00000E+00
         0.00000E+00
         0.00000E+00
         0.00000E+00
         0.00000E+00
         0.00000E+00
         0.00000E+00
         0.00000E+00
         0.00000E+00
         0.00000E+00
         0.00000E+00
         0.00000E+00
         0.00000E+00
         0.00000E+00
         0.00000E+00
         0.00000E+00
         0.00000E+00
         0.00000E+00
         0.00000E+00
         0.00000E+00
         0.00000E+00
         0.00000E+00
         0.00000E+00
         0.00000E+00
         0.00000E+00
         0.00000E+00
         0.00000E+00
         0.00000E+00
         0.00000E+00
         0.00000E+00
         0.00000E+00
         0.00000E+00
         0.00000E+00
         0.00000E+00
         0.00000E+00
         0.00000E+00
         0.00000E+00
         0.00000E+00
         0.00000E+00
         0.00000E+00
         0.00000E+00
         0.00000E+00
         0.00000E+00
         0.00000E+00
         0.00000E+00
         0.00000E+00
         0.00000E+00
         0.00000E+00
         0.00000E+00
         0.00000E+00
         0.00000E+00
         0.00000E+00
         0.00000E+00
         0.00000E+00
         0.00000E+00
         0.00000E+00
         0.00000E+00
         0.00000E+00
         0.00000E+00
         0.00000E+00
         0.00000E+00
         0.00000E+00
         0.00000E+00
         0.00000E+00
         0.00000E+00
         0.00000E+00
         0.00000E+00
         0.00000E+00
         0.00000E+00
         0.00000E+00
         0.00000E+00
         0.00000E+00
         0.00000E+00
         0.00000E+00
         0.00000E+00
         0.00000E+00
         0.00000E+00
         0.00000E+00
         0.00000E+00
         0.00000E+00
         0.00000E+00
         0.00000E+00
         0.00000E+00
         0.00000E+00
         0.00000E+00
         0.00000E+00
         0.00000E+00
         0.00000E+00
         0.00000E+00
         0.00000E+00
         0.00000E+00
         0.00000E+00
         0.00000E+00
         0.00000E+00
         0.00000E+00
         0.00000E+00
         0.00000E+00
         0.00000E+00
         0.00000E+00
         0.00000E+00
         0.00000E+00
         0.00000E+00
         0.00000E+00
         0.00000E+00
         0.00000E+00
         0.00000E+00
         0.00000E+00
         0.00000E+00
         0.00000E+00
         0.00000E+00
         0.00000E+00
         0.00000E+00
         0.00000E+00
         0.00000E+00
         0.00000E+00
         0.00000E+00
         0.00000E+00
         0.00000E+00
         0.00000E+00
         0.00000E+00
         0.00000E+00
         0.00000E+00
         0.00000E+00
         0.00000E+00
         0.00000E+00
         0.00000E+00
         0.00000E+00
         0.00000E+00
         0.00000E+00
         0.00000E+00
         0.00000E+00
         0.00000E+00
         0.00000E+00
         0.00000E+00
         0.00000E+00
         0.00000E+00
         0.00000E+00
         0.00000E+00
         0.00000E+00
         0.00000E+00
         0.00000E+00
         0.00000E+00
         0.00000E+00
         0.00000E+00
         0.00000E+00
         0.00000E+00
         0.00000E+00
         0.00000E+00
         0.00000E+00
         0.00000E+00
         0.00000E+00
         0.00000E+00
         0.00000E+00
         0.00000E+00
         0.00000E+00
         0.00000E+00
         0.00000E+00
         0.00000E+00
         0.00000E+00
         0.00000E+00
         0.00000E+00
         0.00000E+00
         0.00000E+00
         0.00000E+00
         0.00000E+00
         0.00000E+00
         0.00000E+00
         0.00000E+00
         0.00000E+00
         0.00000E+00
         0.00000E+00
         0.00000E+00
         0.00000E+00
         0.00000E+00
         0.00000E+00
         0.00000E+00
         0.00000E+00
         0.00000E+00
         0.00000E+00
         0.00000E+00
         0.00000E+00
         0.00000E+00
         0.00000E+00
         0.00000E+00
         0.00000E+00
         0.00000E+00
         0.00000E+00
         0.00000E+00
         0.00000E+00
         0.00000E+00
         0.00000E+00
         0.00000E+00
         0.00000E+00
         0.00000E+00
         0.00000E+00
         0.00000E+00
         0.00000E+00
         0.00000E+00
         0.00000E+00
         0.00000E+00
         0.00000E+00
         0.00000E+00
         0.00000E+00
         0.00000E+00
         0.00000E+00
         0.00000E+00
         0.00000E+00
         0.00000E+00
         0.00000E+00
         0.00000E+00
         0.00000E+00
         0.00000E+00
         0.00000E+00
         0.00000E+00
         0.00000E+00
         0.00000E+00
         0.00000E+00
         0.00000E+00
         0.00000E+00
         0.00000E+00
         0.00000E+00
         0.00000E+00
         0.00000E+00
         0.00000E+00
         0.00000E+00
         0.00000E+00
         0.00000E+00
         0.00000E+00
         0.00000E+00
         0.00000E+00
         0.00000E+00
         0.00000E+00
         0.00000E+00
         0.00000E+00
         0.00000E+00
         0.00000E+00
         0.00000E+00
         0.00000E+00
         0.00000E+00
         0.00000E+00
         0.00000E+00
         0.00000E+00
         0.00000E+00
         0.00000E+00
         0.00000E+00
         0.00000E+00
         0.00000E+00
         0.00000E+00
         0.00000E+00
         0.00000E+00
         0.00000E+00
         0.00000E+00
         0.00000E+00
         0.00000E+00
         0.00000E+00
         0.00000E+00
         0.00000E+00
         0.00000E+00
         0.00000E+00
         0.00000E+00
         0.00000E+00
         0.00000E+00
         0.00000E+00
         0.00000E+00
         0.00000E+00
         0.00000E+00
         0.00000E+00
         0.00000E+00
         0.00000E+00
         0.00000E+00
         0.00000E+00
         0.00000E+00
         0.00000E+00
         0.00000E+00
         0.00000E+00
         0.00000E+00
         0.00000E+00
         0.00000E+00
         0.00000E+00
         0.00000E+00
         0.00000E+00
         0.00000E+00
         0.00000E+00
         0.00000E+00
         0.00000E+00
         0.00000E+00
         0.00000E+00
         0.00000E+00
         0.00000E+00
         0.00000E+00
         0.00000E+00
         0.00000E+00
         0.00000E+00
         0.00000E+00
         0.00000E+00
         0.00000E+00
         0.00000E+00
         0.00000E+00
         0.00000E+00
         0.00000E+00
         0.00000E+00
         0.00000E+00
         0.00000E+00
         0.00000E+00
         0.00000E+00
         0.00000E+00
         0.00000E+00
         0.00000E+00
         0.00000E+00
         0.00000E+00
         0.00000E+00
         0.00000E+00
         0.00000E+00
         0.00000E+00
         0.00000E+00
         0.00000E+00
         0.00000E+00
         0.00000E+00
         0.00000E+00
         0.00000E+00
         0.00000E+00
         0.00000E+00
  
SCALARS                        eps_vol  double 1
LOOKUP_TABLE default
         0.00000E+00
         0.00000E+00
         0.00000E+00
         0.00000E+00
         0.00000E+00
         0.00000E+00
         0.00000E+00
         0.00000E+00
         0.00000E+00
         0.00000E+00
         0.00000E+00
         0.00000E+00
         0.00000E+00
         0.00000E+00
         0.00000E+00
         0.00000E+00
         0.00000E+00
         0.00000E+00
         0.00000E+00
         0.00000E+00
         0.00000E+00
         0.00000E+00
         0.00000E+00
         0.00000E+00
         0.00000E+00
         0.00000E+00
         0.00000E+00
         0.00000E+00
         0.00000E+00
         0.00000E+00
         0.00000E+00
         0.00000E+00
         0.00000E+00
         0.00000E+00
         0.00000E+00
         0.00000E+00
         0.00000E+00
         0.00000E+00
         0.00000E+00
         0.00000E+00
         0.00000E+00
         0.00000E+00
         0.00000E+00
         0.00000E+00
         0.00000E+00
         0.00000E+00
         0.00000E+00
         0.00000E+00
         0.00000E+00
         0.00000E+00
         0.00000E+00
         0.00000E+00
         0.00000E+00
         0.00000E+00
         0.00000E+00
         0.00000E+00
         0.00000E+00
         0.00000E+00
         0.00000E+00
         0.00000E+00
         0.00000E+00
         0.00000E+00
         0.00000E+00
         0.00000E+00
         0.00000E+00
         0.00000E+00
         0.00000E+00
         0.00000E+00
         0.00000E+00
         0.00000E+00
         0.00000E+00
         0.00000E+00
         0.00000E+00
         0.00000E+00
         0.00000E+00
         0.00000E+00
         0.00000E+00
         0.00000E+00
         0.00000E+00
         0.00000E+00
         0.00000E+00
         0.00000E+00
         0.00000E+00
         0.00000E+00
         0.00000E+00
         0.00000E+00
         0.00000E+00
         0.00000E+00
         0.00000E+00
         0.00000E+00
         0.00000E+00
         0.00000E+00
         0.00000E+00
         0.00000E+00
         0.00000E+00
         0.00000E+00
         0.00000E+00
         0.00000E+00
         0.00000E+00
         0.00000E+00
         0.00000E+00
         0.00000E+00
         0.00000E+00
         0.00000E+00
         0.00000E+00
         0.00000E+00
         0.00000E+00
         0.00000E+00
         0.00000E+00
         0.00000E+00
         0.00000E+00
         0.00000E+00
         0.00000E+00
         0.00000E+00
         0.00000E+00
         0.00000E+00
         0.00000E+00
         0.00000E+00
         0.00000E+00
         0.00000E+00
         0.00000E+00
         0.00000E+00
         0.00000E+00
         0.00000E+00
         0.00000E+00
         0.00000E+00
         0.00000E+00
         0.00000E+00
         0.00000E+00
         0.00000E+00
         0.00000E+00
         0.00000E+00
         0.00000E+00
         0.00000E+00
         0.00000E+00
         0.00000E+00
         0.00000E+00
         0.00000E+00
         0.00000E+00
         0.00000E+00
         0.00000E+00
         0.00000E+00
         0.00000E+00
         0.00000E+00
         0.00000E+00
         0.00000E+00
         0.00000E+00
         0.00000E+00
         0.00000E+00
         0.00000E+00
         0.00000E+00
         0.00000E+00
         0.00000E+00
         0.00000E+00
         0.00000E+00
         0.00000E+00
         0.00000E+00
         0.00000E+00
         0.00000E+00
         0.00000E+00
         0.00000E+00
         0.00000E+00
         0.00000E+00
         0.00000E+00
         0.00000E+00
         0.00000E+00
         0.00000E+00
         0.00000E+00
         0.00000E+00
         0.00000E+00
         0.00000E+00
         0.00000E+00
         0.00000E+00
         0.00000E+00
         0.00000E+00
         0.00000E+00
         0.00000E+00
         0.00000E+00
         0.00000E+00
         0.00000E+00
         0.00000E+00
         0.00000E+00
         0.00000E+00
         0.00000E+00
         0.00000E+00
         0.00000E+00
         0.00000E+00
         0.00000E+00
         0.00000E+00
         0.00000E+00
         0.00000E+00
         0.00000E+00
         0.00000E+00
         0.00000E+00
         0.00000E+00
         0.00000E+00
         0.00000E+00
         0.00000E+00
         0.00000E+00
         0.00000E+00
         0.00000E+00
         0.00000E+00
         0.00000E+00
         0.00000E+00
         0.00000E+00
         0.00000E+00
         0.00000E+00
         0.00000E+00
         0.00000E+00
         0.00000E+00
         0.00000E+00
         0.00000E+00
         0.00000E+00
         0.00000E+00
         0.00000E+00
         0.00000E+00
         0.00000E+00
         0.00000E+00
         0.00000E+00
         0.00000E+00
         0.00000E+00
         0.00000E+00
         0.00000E+00
         0.00000E+00
         0.00000E+00
         0.00000E+00
         0.00000E+00
         0.00000E+00
         0.00000E+00
         0.00000E+00
         0.00000E+00
         0.00000E+00
         0.00000E+00
         0.00000E+00
         0.00000E+00
         0.00000E+00
         0.00000E+00
         0.00000E+00
         0.00000E+00
         0.00000E+00
         0.00000E+00
         0.00000E+00
         0.00000E+00
         0.00000E+00
         0.00000E+00
         0.00000E+00
         0.00000E+00
         0.00000E+00
         0.00000E+00
         0.00000E+00
         0.00000E+00
         0.00000E+00
         0.00000E+00
         0.00000E+00
         0.00000E+00
         0.00000E+00
         0.00000E+00
         0.00000E+00
         0.00000E+00
         0.00000E+00
         0.00000E+00
         0.00000E+00
         0.00000E+00
         0.00000E+00
         0.00000E+00
         0.00000E+00
         0.00000E+00
         0.00000E+00
         0.00000E+00
         0.00000E+00
         0.00000E+00
         0.00000E+00
         0.00000E+00
         0.00000E+00
         0.00000E+00
         0.00000E+00
         0.00000E+00
         0.00000E+00
         0.00000E+00
         0.00000E+00
         0.00000E+00
         0.00000E+00
         0.00000E+00
         0.00000E+00
         0.00000E+00
         0.00000E+00
         0.00000E+00
         0.00000E+00
         0.00000E+00
         0.00000E+00
         0.00000E+00
         0.00000E+00
         0.00000E+00
         0.00000E+00
         0.00000E+00
         0.00000E+00
         0.00000E+00
         0.00000E+00
         0.00000E+00
         0.00000E+00
         0.00000E+00
         0.00000E+00
         0.00000E+00
         0.00000E+00
         0.00000E+00
         0.00000E+00
         0.00000E+00
         0.00000E+00
         0.00000E+00
         0.00000E+00
         0.00000E+00
         0.00000E+00
         0.00000E+00
         0.00000E+00
         0.00000E+00
         0.00000E+00
         0.00000E+00
         0.00000E+00
         0.00000E+00
         0.00000E+00
         0.00000E+00
         0.00000E+00
         0.00000E+00
         0.00000E+00
         0.00000E+00
         0.00000E+00
         0.00000E+00
         0.00000E+00
         0.00000E+00
         0.00000E+00
         0.00000E+00
         0.00000E+00
         0.00000E+00
         0.00000E+00
         0.00000E+00
         0.00000E+00
         0.00000E+00
         0.00000E+00
         0.00000E+00
         0.00000E+00
         0.00000E+00
         0.00000E+00
         0.00000E+00
         0.00000E+00
         0.00000E+00
         0.00000E+00
         0.00000E+00
         0.00000E+00
         0.00000E+00
         0.00000E+00
         0.00000E+00
         0.00000E+00
         0.00000E+00
         0.00000E+00
         0.00000E+00
         0.00000E+00
         0.00000E+00
         0.00000E+00
         0.00000E+00
         0.00000E+00
         0.00000E+00
         0.00000E+00
         0.00000E+00
         0.00000E+00
         0.00000E+00
         0.00000E+00
         0.00000E+00
         0.00000E+00
         0.00000E+00
         0.00000E+00
         0.00000E+00
         0.00000E+00
         0.00000E+00
         0.00000E+00
         0.00000E+00
         0.00000E+00
         0.00000E+00
         0.00000E+00
         0.00000E+00
         0.00000E+00
         0.00000E+00
         0.00000E+00
         0.00000E+00
         0.00000E+00
         0.00000E+00
         0.00000E+00
         0.00000E+00
         0.00000E+00
         0.00000E+00
         0.00000E+00
         0.00000E+00
         0.00000E+00
         0.00000E+00
         0.00000E+00
         0.00000E+00
         0.00000E+00
         0.00000E+00
         0.00000E+00
         0.00000E+00
         0.00000E+00
         0.00000E+00
         0.00000E+00
         0.00000E+00
         0.00000E+00
         0.00000E+00
         0.00000E+00
         0.00000E+00
         0.00000E+00
         0.00000E+00
         0.00000E+00
         0.00000E+00
         0.00000E+00
         0.00000E+00
         0.00000E+00
         0.00000E+00
         0.00000E+00
         0.00000E+00
         0.00000E+00
         0.00000E+00
         0.00000E+00
         0.00000E+00
         0.00000E+00
         0.00000E+00
         0.00000E+00
         0.00000E+00
         0.00000E+00
         0.00000E+00
         0.00000E+00
         0.00000E+00
         0.00000E+00
         0.00000E+00
         0.00000E+00
         0.00000E+00
         0.00000E+00
         0.00000E+00
         0.00000E+00
         0.00000E+00
         0.00000E+00
         0.00000E+00
         0.00000E+00
         0.00000E+00
         0.00000E+00
         0.00000E+00
         0.00000E+00
         0.00000E+00
         0.00000E+00
         0.00000E+00
         0.00000E+00
         0.00000E+00
         0.00000E+00
         0.00000E+00
         0.00000E+00
         0.00000E+00
         0.00000E+00
         0.00000E+00
         0.00000E+00
         0.00000E+00
         0.00000E+00
         0.00000E+00
         0.00000E+00
         0.00000E+00
         0.00000E+00
         0.00000E+00
         0.00000E+00
         0.00000E+00
         0.00000E+00
         0.00000E+00
         0.00000E+00
         0.00000E+00
         0.00000E+00
         0.00000E+00
         0.00000E+00
         0.00000E+00
         0.00000E+00
         0.00000E+00
         0.00000E+00
         0.00000E+00
         0.00000E+00
         0.00000E+00
         0.00000E+00
         0.00000E+00
         0.00000E+00
         0.00000E+00
         0.00000E+00
         0.00000E+00
         0.00000E+00
         0.00000E+00
         0.00000E+00
         0.00000E+00
         0.00000E+00
         0.00000E+00
         0.00000E+00
         0.00000E+00
         0.00000E+00
         0.00000E+00
         0.00000E+00
         0.00000E+00
         0.00000E+00
         0.00000E+00
         0.00000E+00
         0.00000E+00
         0.00000E+00
         0.00000E+00
         0.00000E+00
         0.00000E+00
         0.00000E+00
         0.00000E+00
         0.00000E+00
         0.00000E+00
         0.00000E+00
         0.00000E+00
         0.00000E+00
         0.00000E+00
         0.00000E+00
         0.00000E+00
         0.00000E+00
         0.00000E+00
         0.00000E+00
         0.00000E+00
         0.00000E+00
         0.00000E+00
         0.00000E+00
         0.00000E+00
         0.00000E+00
         0.00000E+00
         0.00000E+00
         0.00000E+00
         0.00000E+00
         0.00000E+00
         0.00000E+00
         0.00000E+00
         0.00000E+00
         0.00000E+00
         0.00000E+00
         0.00000E+00
         0.00000E+00
         0.00000E+00
         0.00000E+00
         0.00000E+00
         0.00000E+00
         0.00000E+00
         0.00000E+00
         0.00000E+00
         0.00000E+00
         0.00000E+00
         0.00000E+00
         0.00000E+00
         0.00000E+00
         0.00000E+00
         0.00000E+00
         0.00000E+00
         0.00000E+00
         0.00000E+00
         0.00000E+00
         0.00000E+00
         0.00000E+00
         0.00000E+00
         0.00000E+00
         0.00000E+00
         0.00000E+00
         0.00000E+00
         0.00000E+00
         0.00000E+00
         0.00000E+00
         0.00000E+00
         0.00000E+00
         0.00000E+00
         0.00000E+00
         0.00000E+00
         0.00000E+00
         0.00000E+00
         0.00000E+00
         0.00000E+00
         0.00000E+00
         0.00000E+00
         0.00000E+00
         0.00000E+00
         0.00000E+00
         0.00000E+00
         0.00000E+00
         0.00000E+00
         0.00000E+00
         0.00000E+00
         0.00000E+00
         0.00000E+00
         0.00000E+00
         0.00000E+00
         0.00000E+00
         0.00000E+00
         0.00000E+00
         0.00000E+00
         0.00000E+00
         0.00000E+00
         0.00000E+00
         0.00000E+00
         0.00000E+00
         0.00000E+00
         0.00000E+00
         0.00000E+00
         0.00000E+00
         0.00000E+00
         0.00000E+00
         0.00000E+00
         0.00000E+00
         0.00000E+00
         0.00000E+00
         0.00000E+00
         0.00000E+00
         0.00000E+00
         0.00000E+00
         0.00000E+00
         0.00000E+00
         0.00000E+00
         0.00000E+00
         0.00000E+00
         0.00000E+00
         0.00000E+00
         0.00000E+00
         0.00000E+00
         0.00000E+00
         0.00000E+00
         0.00000E+00
         0.00000E+00
         0.00000E+00
         0.00000E+00
         0.00000E+00
         0.00000E+00
         0.00000E+00
         0.00000E+00
         0.00000E+00
         0.00000E+00
         0.00000E+00
         0.00000E+00
         0.00000E+00
         0.00000E+00
         0.00000E+00
         0.00000E+00
         0.00000E+00
         0.00000E+00
         0.00000E+00
         0.00000E+00
         0.00000E+00
         0.00000E+00
         0.00000E+00
         0.00000E+00
         0.00000E+00
         0.00000E+00
         0.00000E+00
         0.00000E+00
         0.00000E+00
         0.00000E+00
         0.00000E+00
         0.00000E+00
         0.00000E+00
         0.00000E+00
         0.00000E+00
         0.00000E+00
         0.00000E+00
         0.00000E+00
         0.00000E+00
         0.00000E+00
         0.00000E+00
         0.00000E+00
         0.00000E+00
         0.00000E+00
         0.00000E+00
         0.00000E+00
         0.00000E+00
         0.00000E+00
         0.00000E+00
         0.00000E+00
         0.00000E+00
         0.00000E+00
         0.00000E+00
         0.00000E+00
         0.00000E+00
         0.00000E+00
         0.00000E+00
         0.00000E+00
         0.00000E+00
         0.00000E+00
         0.00000E+00
         0.00000E+00
         0.00000E+00
         0.00000E+00
         0.00000E+00
         0.00000E+00
         0.00000E+00
         0.00000E+00
         0.00000E+00
         0.00000E+00
         0.00000E+00
         0.00000E+00
         0.00000E+00
         0.00000E+00
         0.00000E+00
         0.00000E+00
         0.00000E+00
         0.00000E+00
         0.00000E+00
         0.00000E+00
         0.00000E+00
         0.00000E+00
         0.00000E+00
         0.00000E+00
         0.00000E+00
         0.00000E+00
         0.00000E+00
         0.00000E+00
         0.00000E+00
         0.00000E+00
         0.00000E+00
         0.00000E+00
         0.00000E+00
         0.00000E+00
         0.00000E+00
         0.00000E+00
         0.00000E+00
         0.00000E+00
         0.00000E+00
         0.00000E+00
         0.00000E+00
         0.00000E+00
         0.00000E+00
         0.00000E+00
         0.00000E+00
         0.00000E+00
         0.00000E+00
         0.00000E+00
         0.00000E+00
         0.00000E+00
         0.00000E+00
         0.00000E+00
         0.00000E+00
         0.00000E+00
         0.00000E+00
         0.00000E+00
         0.00000E+00
         0.00000E+00
         0.00000E+00
         0.00000E+00
         0.00000E+00
         0.00000E+00
         0.00000E+00
         0.00000E+00
         0.00000E+00
         0.00000E+00
         0.00000E+00
         0.00000E+00
         0.00000E+00
         0.00000E+00
         0.00000E+00
         0.00000E+00
         0.00000E+00
         0.00000E+00
         0.00000E+00
         0.00000E+00
         0.00000E+00
         0.00000E+00
         0.00000E+00
         0.00000E+00
         0.00000E+00
         0.00000E+00
         0.00000E+00
         0.00000E+00
         0.00000E+00
         0.00000E+00
         0.00000E+00
         0.00000E+00
         0.00000E+00
         0.00000E+00
         0.00000E+00
         0.00000E+00
         0.00000E+00
         0.00000E+00
         0.00000E+00
         0.00000E+00
         0.00000E+00
         0.00000E+00
         0.00000E+00
         0.00000E+00
         0.00000E+00
         0.00000E+00
         0.00000E+00
         0.00000E+00
         0.00000E+00
         0.00000E+00
         0.00000E+00
         0.00000E+00
         0.00000E+00
         0.00000E+00
         0.00000E+00
         0.00000E+00
         0.00000E+00
         0.00000E+00
         0.00000E+00
         0.00000E+00
         0.00000E+00
         0.00000E+00
         0.00000E+00
         0.00000E+00
         0.00000E+00
         0.00000E+00
         0.00000E+00
         0.00000E+00
         0.00000E+00
         0.00000E+00
         0.00000E+00
         0.00000E+00
         0.00000E+00
         0.00000E+00
         0.00000E+00
         0.00000E+00
         0.00000E+00
         0.00000E+00
         0.00000E+00
         0.00000E+00
         0.00000E+00
         0.00000E+00
         0.00000E+00
         0.00000E+00
         0.00000E+00
         0.00000E+00
         0.00000E+00
         0.00000E+00
         0.00000E+00
         0.00000E+00
         0.00000E+00
         0.00000E+00
         0.00000E+00
         0.00000E+00
         0.00000E+00
         0.00000E+00
         0.00000E+00
         0.00000E+00
         0.00000E+00
         0.00000E+00
         0.00000E+00
         0.00000E+00
         0.00000E+00
         0.00000E+00
         0.00000E+00
         0.00000E+00
         0.00000E+00
         0.00000E+00
         0.00000E+00
         0.00000E+00
         0.00000E+00
         0.00000E+00
         0.00000E+00
         0.00000E+00
         0.00000E+00
         0.00000E+00
         0.00000E+00
         0.00000E+00
         0.00000E+00
         0.00000E+00
         0.00000E+00
         0.00000E+00
         0.00000E+00
         0.00000E+00
         0.00000E+00
         0.00000E+00
         0.00000E+00
         0.00000E+00
         0.00000E+00
         0.00000E+00
         0.00000E+00
         0.00000E+00
         0.00000E+00
         0.00000E+00
         0.00000E+00
         0.00000E+00
         0.00000E+00
         0.00000E+00
         0.00000E+00
         0.00000E+00
         0.00000E+00
         0.00000E+00
         0.00000E+00
         0.00000E+00
         0.00000E+00
         0.00000E+00
         0.00000E+00
         0.00000E+00
         0.00000E+00
         0.00000E+00
         0.00000E+00
         0.00000E+00
         0.00000E+00
         0.00000E+00
         0.00000E+00
         0.00000E+00
         0.00000E+00
         0.00000E+00
         0.00000E+00
         0.00000E+00
         0.00000E+00
         0.00000E+00
         0.00000E+00
         0.00000E+00
         0.00000E+00
         0.00000E+00
         0.00000E+00
         0.00000E+00
         0.00000E+00
         0.00000E+00
         0.00000E+00
         0.00000E+00
         0.00000E+00
         0.00000E+00
         0.00000E+00
         0.00000E+00
         0.00000E+00
         0.00000E+00
         0.00000E+00
         0.00000E+00
         0.00000E+00
         0.00000E+00
         0.00000E+00
         0.00000E+00
         0.00000E+00
         0.00000E+00
         0.00000E+00
         0.00000E+00
         0.00000E+00
         0.00000E+00
         0.00000E+00
         0.00000E+00
         0.00000E+00
         0.00000E+00
         0.00000E+00
         0.00000E+00
         0.00000E+00
         0.00000E+00
         0.00000E+00
         0.00000E+00
         0.00000E+00
         0.00000E+00
         0.00000E+00
         0.00000E+00
         0.00000E+00
         0.00000E+00
         0.00000E+00
         0.00000E+00
         0.00000E+00
         0.00000E+00
         0.00000E+00
         0.00000E+00
         0.00000E+00
         0.00000E+00
         0.00000E+00
         0.00000E+00
         0.00000E+00
         0.00000E+00
         0.00000E+00
         0.00000E+00
         0.00000E+00
         0.00000E+00
         0.00000E+00
         0.00000E+00
         0.00000E+00
         0.00000E+00
         0.00000E+00
         0.00000E+00
         0.00000E+00
         0.00000E+00
         0.00000E+00
         0.00000E+00
         0.00000E+00
         0.00000E+00
         0.00000E+00
         0.00000E+00
         0.00000E+00
         0.00000E+00
         0.00000E+00
         0.00000E+00
         0.00000E+00
         0.00000E+00
         0.00000E+00
         0.00000E+00
         0.00000E+00
         0.00000E+00
         0.00000E+00
         0.00000E+00
         0.00000E+00
         0.00000E+00
         0.00000E+00
         0.00000E+00
         0.00000E+00
         0.00000E+00
         0.00000E+00
         0.00000E+00
         0.00000E+00
         0.00000E+00
         0.00000E+00
         0.00000E+00
         0.00000E+00
         0.00000E+00
         0.00000E+00
         0.00000E+00
         0.00000E+00
         0.00000E+00
         0.00000E+00
         0.00000E+00
         0.00000E+00
         0.00000E+00
         0.00000E+00
         0.00000E+00
         0.00000E+00
         0.00000E+00
         0.00000E+00
         0.00000E+00
         0.00000E+00
         0.00000E+00
         0.00000E+00
         0.00000E+00
         0.00000E+00
         0.00000E+00
         0.00000E+00
         0.00000E+00
         0.00000E+00
         0.00000E+00
         0.00000E+00
         0.00000E+00
         0.00000E+00
         0.00000E+00
         0.00000E+00
         0.00000E+00
         0.00000E+00
         0.00000E+00
         0.00000E+00
         0.00000E+00
         0.00000E+00
         0.00000E+00
         0.00000E+00
         0.00000E+00
         0.00000E+00
         0.00000E+00
         0.00000E+00
         0.00000E+00
         0.00000E+00
         0.00000E+00
         0.00000E+00
         0.00000E+00
         0.00000E+00
         0.00000E+00
         0.00000E+00
         0.00000E+00
         0.00000E+00
         0.00000E+00
         0.00000E+00
         0.00000E+00
         0.00000E+00
         0.00000E+00
         0.00000E+00
         0.00000E+00
         0.00000E+00
         0.00000E+00
         0.00000E+00
         0.00000E+00
         0.00000E+00
         0.00000E+00
         0.00000E+00
         0.00000E+00
         0.00000E+00
         0.00000E+00
         0.00000E+00
         0.00000E+00
         0.00000E+00
         0.00000E+00
         0.00000E+00
         0.00000E+00
         0.00000E+00
         0.00000E+00
         0.00000E+00
         0.00000E+00
         0.00000E+00
         0.00000E+00
         0.00000E+00
         0.00000E+00
         0.00000E+00
         0.00000E+00
         0.00000E+00
         0.00000E+00
         0.00000E+00
         0.00000E+00
         0.00000E+00
         0.00000E+00
         0.00000E+00
         0.00000E+00
         0.00000E+00
         0.00000E+00
         0.00000E+00
         0.00000E+00
         0.00000E+00
         0.00000E+00
         0.00000E+00
         0.00000E+00
         0.00000E+00
         0.00000E+00
         0.00000E+00
         0.00000E+00
         0.00000E+00
         0.00000E+00
         0.00000E+00
         0.00000E+00
         0.00000E+00
         0.00000E+00
         0.00000E+00
         0.00000E+00
         0.00000E+00
         0.00000E+00
         0.00000E+00
         0.00000E+00
         0.00000E+00
         0.00000E+00
         0.00000E+00
         0.00000E+00
         0.00000E+00
         0.00000E+00
         0.00000E+00
         0.00000E+00
         0.00000E+00
         0.00000E+00
         0.00000E+00
         0.00000E+00
         0.00000E+00
         0.00000E+00
         0.00000E+00
         0.00000E+00
         0.00000E+00
         0.00000E+00
         0.00000E+00
         0.00000E+00
         0.00000E+00
         0.00000E+00
         0.00000E+00
         0.00000E+00
         0.00000E+00
         0.00000E+00
         0.00000E+00
         0.00000E+00
         0.00000E+00
         0.00000E+00
         0.00000E+00
         0.00000E+00
         0.00000E+00
         0.00000E+00
         0.00000E+00
         0.00000E+00
         0.00000E+00
         0.00000E+00
         0.00000E+00
         0.00000E+00
         0.00000E+00
         0.00000E+00
         0.00000E+00
         0.00000E+00
         0.00000E+00
         0.00000E+00
         0.00000E+00
         0.00000E+00
         0.00000E+00
         0.00000E+00
         0.00000E+00
         0.00000E+00
         0.00000E+00
         0.00000E+00
         0.00000E+00
         0.00000E+00
         0.00000E+00
         0.00000E+00
         0.00000E+00
         0.00000E+00
         0.00000E+00
         0.00000E+00
         0.00000E+00
         0.00000E+00
         0.00000E+00
         0.00000E+00
         0.00000E+00
         0.00000E+00
         0.00000E+00
         0.00000E+00
         0.00000E+00
         0.00000E+00
         0.00000E+00
         0.00000E+00
         0.00000E+00
         0.00000E+00
         0.00000E+00
         0.00000E+00
         0.00000E+00
         0.00000E+00
         0.00000E+00
         0.00000E+00
         0.00000E+00
         0.00000E+00
         0.00000E+00
         0.00000E+00
         0.00000E+00
         0.00000E+00
         0.00000E+00
         0.00000E+00
         0.00000E+00
         0.00000E+00
         0.00000E+00
         0.00000E+00
         0.00000E+00
         0.00000E+00
         0.00000E+00
         0.00000E+00
         0.00000E+00
         0.00000E+00
         0.00000E+00
         0.00000E+00
         0.00000E+00
         0.00000E+00
         0.00000E+00
         0.00000E+00
         0.00000E+00
         0.00000E+00
         0.00000E+00
         0.00000E+00
         0.00000E+00
         0.00000E+00
         0.00000E+00
         0.00000E+00
         0.00000E+00
         0.00000E+00
         0.00000E+00
         0.00000E+00
         0.00000E+00
         0.00000E+00
         0.00000E+00
         0.00000E+00
         0.00000E+00
         0.00000E+00
         0.00000E+00
         0.00000E+00
         0.00000E+00
         0.00000E+00
         0.00000E+00
         0.00000E+00
         0.00000E+00
         0.00000E+00
         0.00000E+00
         0.00000E+00
         0.00000E+00
         0.00000E+00
         0.00000E+00
         0.00000E+00
         0.00000E+00
         0.00000E+00
         0.00000E+00
         0.00000E+00
         0.00000E+00
         0.00000E+00
         0.00000E+00
         0.00000E+00
         0.00000E+00
         0.00000E+00
         0.00000E+00
         0.00000E+00
         0.00000E+00
         0.00000E+00
         0.00000E+00
         0.00000E+00
         0.00000E+00
         0.00000E+00
         0.00000E+00
         0.00000E+00
         0.00000E+00
         0.00000E+00
         0.00000E+00
         0.00000E+00
         0.00000E+00
         0.00000E+00
         0.00000E+00
         0.00000E+00
         0.00000E+00
         0.00000E+00
         0.00000E+00
         0.00000E+00
         0.00000E+00
         0.00000E+00
         0.00000E+00
         0.00000E+00
         0.00000E+00
         0.00000E+00
         0.00000E+00
         0.00000E+00
         0.00000E+00
         0.00000E+00
         0.00000E+00
         0.00000E+00
         0.00000E+00
         0.00000E+00
         0.00000E+00
         0.00000E+00
         0.00000E+00
         0.00000E+00
         0.00000E+00
         0.00000E+00
         0.00000E+00
         0.00000E+00
         0.00000E+00
         0.00000E+00
         0.00000E+00
         0.00000E+00
         0.00000E+00
         0.00000E+00
         0.00000E+00
         0.00000E+00
         0.00000E+00
         0.00000E+00
         0.00000E+00
         0.00000E+00
         0.00000E+00
         0.00000E+00
         0.00000E+00
         0.00000E+00
         0.00000E+00
         0.00000E+00
         0.00000E+00
         0.00000E+00
         0.00000E+00
         0.00000E+00
         0.00000E+00
         0.00000E+00
         0.00000E+00
         0.00000E+00
         0.00000E+00
         0.00000E+00
         0.00000E+00
         0.00000E+00
         0.00000E+00
         0.00000E+00
         0.00000E+00
         0.00000E+00
         0.00000E+00
         0.00000E+00
         0.00000E+00
         0.00000E+00
         0.00000E+00
         0.00000E+00
         0.00000E+00
         0.00000E+00
         0.00000E+00
         0.00000E+00
         0.00000E+00
         0.00000E+00
         0.00000E+00
         0.00000E+00
         0.00000E+00
         0.00000E+00
         0.00000E+00
         0.00000E+00
         0.00000E+00
         0.00000E+00
         0.00000E+00
         0.00000E+00
         0.00000E+00
         0.00000E+00
         0.00000E+00
         0.00000E+00
         0.00000E+00
         0.00000E+00
         0.00000E+00
         0.00000E+00
         0.00000E+00
         0.00000E+00
         0.00000E+00
         0.00000E+00
         0.00000E+00
         0.00000E+00
         0.00000E+00
         0.00000E+00
         0.00000E+00
         0.00000E+00
         0.00000E+00
         0.00000E+00
         0.00000E+00
         0.00000E+00
         0.00000E+00
         0.00000E+00
         0.00000E+00
         0.00000E+00
         0.00000E+00
         0.00000E+00
         0.00000E+00
         0.00000E+00
         0.00000E+00
         0.00000E+00
         0.00000E+00
         0.00000E+00
         0.00000E+00
         0.00000E+00
         0.00000E+00
         0.00000E+00
         0.00000E+00
         0.00000E+00
         0.00000E+00
         0.00000E+00
         0.00000E+00
         0.00000E+00
         0.00000E+00
         0.00000E+00
         0.00000E+00
         0.00000E+00
         0.00000E+00
         0.00000E+00
         0.00000E+00
         0.00000E+00
         0.00000E+00
         0.00000E+00
         0.00000E+00
         0.00000E+00
         0.00000E+00
         0.00000E+00
         0.00000E+00
         0.00000E+00
         0.00000E+00
         0.00000E+00
         0.00000E+00
         0.00000E+00
         0.00000E+00
         0.00000E+00
         0.00000E+00
         0.00000E+00
         0.00000E+00
         0.00000E+00
         0.00000E+00
         0.00000E+00
         0.00000E+00
         0.00000E+00
         0.00000E+00
         0.00000E+00
         0.00000E+00
         0.00000E+00
         0.00000E+00
         0.00000E+00
         0.00000E+00
         0.00000E+00
         0.00000E+00
         0.00000E+00
         0.00000E+00
         0.00000E+00
         0.00000E+00
         0.00000E+00
         0.00000E+00
         0.00000E+00
         0.00000E+00
         0.00000E+00
         0.00000E+00
         0.00000E+00
         0.00000E+00
         0.00000E+00
         0.00000E+00
         0.00000E+00
         0.00000E+00
         0.00000E+00
         0.00000E+00
         0.00000E+00
         0.00000E+00
         0.00000E+00
         0.00000E+00
         0.00000E+00
         0.00000E+00
         0.00000E+00
         0.00000E+00
         0.00000E+00
         0.00000E+00
         0.00000E+00
         0.00000E+00
         0.00000E+00
         0.00000E+00
         0.00000E+00
         0.00000E+00
         0.00000E+00
         0.00000E+00
         0.00000E+00
         0.00000E+00
         0.00000E+00
         0.00000E+00
         0.00000E+00
         0.00000E+00
         0.00000E+00
         0.00000E+00
         0.00000E+00
         0.00000E+00
         0.00000E+00
         0.00000E+00
         0.00000E+00
         0.00000E+00
         0.00000E+00
         0.00000E+00
         0.00000E+00
         0.00000E+00
         0.00000E+00
         0.00000E+00
         0.00000E+00
         0.00000E+00
         0.00000E+00
         0.00000E+00
         0.00000E+00
         0.00000E+00
         0.00000E+00
         0.00000E+00
         0.00000E+00
         0.00000E+00
         0.00000E+00
         0.00000E+00
         0.00000E+00
         0.00000E+00
         0.00000E+00
         0.00000E+00
         0.00000E+00
         0.00000E+00
         0.00000E+00
         0.00000E+00
         0.00000E+00
         0.00000E+00
         0.00000E+00
         0.00000E+00
         0.00000E+00
         0.00000E+00
         0.00000E+00
         0.00000E+00
         0.00000E+00
         0.00000E+00
         0.00000E+00
         0.00000E+00
         0.00000E+00
         0.00000E+00
         0.00000E+00
         0.00000E+00
         0.00000E+00
         0.00000E+00
         0.00000E+00
         0.00000E+00
         0.00000E+00
         0.00000E+00
         0.00000E+00
         0.00000E+00
         0.00000E+00
         0.00000E+00
         0.00000E+00
         0.00000E+00
         0.00000E+00
         0.00000E+00
         0.00000E+00
         0.00000E+00
         0.00000E+00
         0.00000E+00
         0.00000E+00
         0.00000E+00
         0.00000E+00
         0.00000E+00
         0.00000E+00
         0.00000E+00
         0.00000E+00
         0.00000E+00
         0.00000E+00
         0.00000E+00
         0.00000E+00
         0.00000E+00
         0.00000E+00
         0.00000E+00
         0.00000E+00
         0.00000E+00
         0.00000E+00
         0.00000E+00
         0.00000E+00
         0.00000E+00
         0.00000E+00
         0.00000E+00
         0.00000E+00
         0.00000E+00
         0.00000E+00
         0.00000E+00
         0.00000E+00
         0.00000E+00
         0.00000E+00
         0.00000E+00
         0.00000E+00
         0.00000E+00
         0.00000E+00
         0.00000E+00
         0.00000E+00
         0.00000E+00
         0.00000E+00
         0.00000E+00
         0.00000E+00
         0.00000E+00
         0.00000E+00
         0.00000E+00
         0.00000E+00
         0.00000E+00
         0.00000E+00
         0.00000E+00
         0.00000E+00
         0.00000E+00
         0.00000E+00
         0.00000E+00
         0.00000E+00
         0.00000E+00
         0.00000E+00
         0.00000E+00
         0.00000E+00
         0.00000E+00
         0.00000E+00
         0.00000E+00
         0.00000E+00
         0.00000E+00
         0.00000E+00
         0.00000E+00
         0.00000E+00
         0.00000E+00
         0.00000E+00
         0.00000E+00
         0.00000E+00
         0.00000E+00
         0.00000E+00
         0.00000E+00
         0.00000E+00
         0.00000E+00
         0.00000E+00
         0.00000E+00
         0.00000E+00
         0.00000E+00
         0.00000E+00
         0.00000E+00
         0.00000E+00
         0.00000E+00
         0.00000E+00
         0.00000E+00
         0.00000E+00
         0.00000E+00
         0.00000E+00
         0.00000E+00
         0.00000E+00
         0.00000E+00
         0.00000E+00
         0.00000E+00
         0.00000E+00
         0.00000E+00
         0.00000E+00
         0.00000E+00
         0.00000E+00
         0.00000E+00
         0.00000E+00
         0.00000E+00
         0.00000E+00
         0.00000E+00
         0.00000E+00
         0.00000E+00
         0.00000E+00
         0.00000E+00
         0.00000E+00
         0.00000E+00
         0.00000E+00
         0.00000E+00
         0.00000E+00
         0.00000E+00
         0.00000E+00
         0.00000E+00
         0.00000E+00
         0.00000E+00
         0.00000E+00
         0.00000E+00
         0.00000E+00
         0.00000E+00
         0.00000E+00
         0.00000E+00
         0.00000E+00
         0.00000E+00
         0.00000E+00
         0.00000E+00
         0.00000E+00
         0.00000E+00
         0.00000E+00
         0.00000E+00
         0.00000E+00
         0.00000E+00
         0.00000E+00
         0.00000E+00
         0.00000E+00
         0.00000E+00
         0.00000E+00
         0.00000E+00
         0.00000E+00
         0.00000E+00
         0.00000E+00
         0.00000E+00
         0.00000E+00
         0.00000E+00
         0.00000E+00
         0.00000E+00
         0.00000E+00
         0.00000E+00
         0.00000E+00
         0.00000E+00
         0.00000E+00
         0.00000E+00
         0.00000E+00
         0.00000E+00
         0.00000E+00
         0.00000E+00
         0.00000E+00
         0.00000E+00
         0.00000E+00
         0.00000E+00
         0.00000E+00
         0.00000E+00
         0.00000E+00
         0.00000E+00
         0.00000E+00
         0.00000E+00
         0.00000E+00
         0.00000E+00
         0.00000E+00
         0.00000E+00
         0.00000E+00
         0.00000E+00
         0.00000E+00
         0.00000E+00
         0.00000E+00
         0.00000E+00
         0.00000E+00
         0.00000E+00
         0.00000E+00
         0.00000E+00
         0.00000E+00
         0.00000E+00
         0.00000E+00
         0.00000E+00
         0.00000E+00
         0.00000E+00
         0.00000E+00
         0.00000E+00
         0.00000E+00
         0.00000E+00
         0.00000E+00
         0.00000E+00
         0.00000E+00
         0.00000E+00
         0.00000E+00
         0.00000E+00
         0.00000E+00
         0.00000E+00
         0.00000E+00
         0.00000E+00
         0.00000E+00
         0.00000E+00
         0.00000E+00
         0.00000E+00
         0.00000E+00
         0.00000E+00
         0.00000E+00
         0.00000E+00
         0.00000E+00
         0.00000E+00
         0.00000E+00
         0.00000E+00
         0.00000E+00
         0.00000E+00
         0.00000E+00
         0.00000E+00
         0.00000E+00
         0.00000E+00
         0.00000E+00
         0.00000E+00
         0.00000E+00
         0.00000E+00
         0.00000E+00
         0.00000E+00
         0.00000E+00
         0.00000E+00
         0.00000E+00
         0.00000E+00
         0.00000E+00
         0.00000E+00
         0.00000E+00
         0.00000E+00
         0.00000E+00
         0.00000E+00
         0.00000E+00
         0.00000E+00
         0.00000E+00
         0.00000E+00
         0.00000E+00
         0.00000E+00
         0.00000E+00
         0.00000E+00
         0.00000E+00
         0.00000E+00
         0.00000E+00
         0.00000E+00
         0.00000E+00
         0.00000E+00
         0.00000E+00
         0.00000E+00
         0.00000E+00
         0.00000E+00
         0.00000E+00
         0.00000E+00
         0.00000E+00
         0.00000E+00
         0.00000E+00
         0.00000E+00
         0.00000E+00
         0.00000E+00
         0.00000E+00
         0.00000E+00
         0.00000E+00
         0.00000E+00
         0.00000E+00
         0.00000E+00
         0.00000E+00
         0.00000E+00
         0.00000E+00
         0.00000E+00
         0.00000E+00
         0.00000E+00
         0.00000E+00
         0.00000E+00
         0.00000E+00
         0.00000E+00
         0.00000E+00
         0.00000E+00
         0.00000E+00
         0.00000E+00
         0.00000E+00
         0.00000E+00
         0.00000E+00
         0.00000E+00
         0.00000E+00
         0.00000E+00
         0.00000E+00
         0.00000E+00
         0.00000E+00
         0.00000E+00
         0.00000E+00
         0.00000E+00
         0.00000E+00
         0.00000E+00
         0.00000E+00
         0.00000E+00
         0.00000E+00
         0.00000E+00
         0.00000E+00
         0.00000E+00
         0.00000E+00
         0.00000E+00
         0.00000E+00
         0.00000E+00
         0.00000E+00
         0.00000E+00
         0.00000E+00
         0.00000E+00
         0.00000E+00
         0.00000E+00
         0.00000E+00
         0.00000E+00
         0.00000E+00
         0.00000E+00
         0.00000E+00
         0.00000E+00
         0.00000E+00
         0.00000E+00
         0.00000E+00
         0.00000E+00
         0.00000E+00
         0.00000E+00
         0.00000E+00
         0.00000E+00
         0.00000E+00
         0.00000E+00
         0.00000E+00
         0.00000E+00
         0.00000E+00
         0.00000E+00
         0.00000E+00
         0.00000E+00
         0.00000E+00
         0.00000E+00
         0.00000E+00
         0.00000E+00
         0.00000E+00
         0.00000E+00
         0.00000E+00
         0.00000E+00
         0.00000E+00
         0.00000E+00
         0.00000E+00
         0.00000E+00
         0.00000E+00
         0.00000E+00
         0.00000E+00
         0.00000E+00
         0.00000E+00
         0.00000E+00
         0.00000E+00
         0.00000E+00
         0.00000E+00
         0.00000E+00
         0.00000E+00
         0.00000E+00
         0.00000E+00
         0.00000E+00
         0.00000E+00
         0.00000E+00
         0.00000E+00
         0.00000E+00
         0.00000E+00
         0.00000E+00
         0.00000E+00
         0.00000E+00
         0.00000E+00
         0.00000E+00
         0.00000E+00
         0.00000E+00
         0.00000E+00
         0.00000E+00
         0.00000E+00
         0.00000E+00
         0.00000E+00
         0.00000E+00
         0.00000E+00
         0.00000E+00
         0.00000E+00
         0.00000E+00
         0.00000E+00
         0.00000E+00
         0.00000E+00
         0.00000E+00
         0.00000E+00
         0.00000E+00
         0.00000E+00
         0.00000E+00
         0.00000E+00
         0.00000E+00
         0.00000E+00
         0.00000E+00
         0.00000E+00
         0.00000E+00
         0.00000E+00
         0.00000E+00
  
SCALARS                            eps  double 1
LOOKUP_TABLE default
         0.50386E+01
         0.49752E+01
         0.50155E+01
         0.50876E+01
         0.00000E+00
         0.00000E+00
         0.00000E+00
         0.00000E+00
         0.49733E+01
         0.49946E+01
         0.00000E+00
         0.00000E+00
         0.48832E+01
         0.48798E+01
         0.00000E+00
         0.00000E+00
         0.50770E+01
         0.48848E+01
         0.00000E+00
         0.00000E+00
         0.48140E+01
         0.47593E+01
         0.48467E+01
         0.00000E+00
         0.00000E+00
         0.00000E+00
         0.47613E+01
         0.46811E+01
         0.00000E+00
         0.00000E+00
         0.50736E+01
         0.49899E+01
         0.51546E+01
         0.00000E+00
         0.00000E+00
         0.00000E+00
         0.50252E+01
         0.49186E+01
         0.00000E+00
         0.00000E+00
         0.49831E+01
         0.49009E+01
         0.00000E+00
         0.00000E+00
         0.50527E+01
         0.50835E+01
         0.00000E+00
         0.00000E+00
         0.48347E+01
         0.00000E+00
         0.50775E+01
         0.00000E+00
         0.47381E+01
         0.00000E+00
         0.47128E+01
         0.00000E+00
         0.47134E+01
         0.48029E+01
         0.00000E+00
         0.00000E+00
         0.50719E+01
         0.50398E+01
         0.00000E+00
         0.00000E+00
         0.50919E+01
         0.00000E+00
         0.50538E+01
         0.00000E+00
         0.49539E+01
         0.49434E+01
         0.00000E+00
         0.00000E+00
         0.49206E+01
         0.00000E+00
         0.46527E+01
         0.00000E+00
         0.46387E+01
         0.00000E+00
         0.46458E+01
         0.00000E+00
         0.46851E+01
         0.47250E+01
         0.00000E+00
         0.00000E+00
         0.48060E+01
         0.00000E+00
         0.50511E+01
         0.00000E+00
         0.50131E+01
         0.00000E+00
         0.49822E+01
         0.49645E+01
         0.00000E+00
         0.00000E+00
         0.49855E+01
         0.00000E+00
         0.50006E+01
         0.00000E+00
         0.49871E+01
         0.00000E+00
         0.49827E+01
         0.49962E+01
         0.00000E+00
         0.00000E+00
         0.49086E+01
         0.49453E+01
         0.00000E+00
         0.00000E+00
         0.49023E+01
         0.00000E+00
         0.49447E+01
         0.00000E+00
         0.49032E+01
         0.00000E+00
         0.48119E+01
         0.00000E+00
         0.47238E+01
         0.00000E+00
         0.46707E+01
         0.00000E+00
         0.46653E+01
         0.00000E+00
         0.46669E+01
         0.00000E+00
         0.47243E+01
         0.00000E+00
         0.48325E+01
         0.00000E+00
         0.49509E+01
         0.00000E+00
         0.50196E+01
         0.00000E+00
         0.50877E+01
         0.00000E+00
         0.51327E+01
         0.00000E+00
         0.51312E+01
         0.00000E+00
         0.50210E+01
         0.00000E+00
         0.49439E+01
         0.00000E+00
         0.49185E+01
         0.00000E+00
         0.49599E+01
         0.00000E+00
         0.49810E+01
         0.00000E+00
         0.49445E+01
         0.00000E+00
         0.49445E+01
         0.00000E+00
         0.49720E+01
         0.00000E+00
         0.50078E+01
         0.00000E+00
         0.32356E+00
         0.32468E+00
         0.32454E+00
         0.32298E+00
         0.32563E+00
         0.32445E+00
         0.32581E+00
         0.32516E+00
         0.32326E+00
         0.32452E+00
         0.32639E+00
         0.32665E+00
         0.32619E+00
         0.32608E+00
         0.32648E+00
         0.32307E+00
         0.32338E+00
         0.32247E+00
         0.32479E+00
         0.32443E+00
         0.32501E+00
         0.32469E+00
         0.32527E+00
         0.32506E+00
         0.32447E+00
         0.32450E+00
         0.32548E+00
         0.32539E+00
         0.32599E+00
         0.32505E+00
         0.32323E+00
         0.32469E+00
         0.32323E+00
         0.32423E+00
         0.32673E+00
         0.32610E+00
         0.32577E+00
         0.32621E+00
         0.32623E+00
         0.32674E+00
         0.32709E+00
         0.32623E+00
         0.32501E+00
         0.32517E+00
         0.32582E+00
         0.32673E+00
         0.32595E+00
         0.32489E+00
         0.32497E+00
         0.32579E+00
         0.32651E+00
         0.32554E+00
         0.32822E+00
         0.32812E+00
         0.32825E+00
         0.32825E+00
         0.32840E+00
         0.32872E+00
         0.32872E+00
         0.32851E+00
         0.32845E+00
         0.32854E+00
         0.32846E+00
         0.32830E+00
         0.32784E+00
         0.32765E+00
         0.32756E+00
         0.32748E+00
         0.32757E+00
         0.32792E+00
         0.32828E+00
         0.32833E+00
         0.32808E+00
         0.32799E+00
         0.32804E+00
         0.32810E+00
         0.32796E+00
         0.32790E+00
         0.46025E-02
         0.15161E-02
         0.12536E-02
         0.00000E+00
         0.49012E-02
         0.24196E-02
         0.00000E+00
         0.44746E-02
         0.16334E-02
         0.40345E-02
         0.37088E-03
         0.11988E-01
         0.83264E-02
         0.25854E-02
         0.12710E-01
         0.24860E-02
         0.00000E+00
         0.00000E+00
         0.65796E-03
         0.00000E+00
         0.87371E-02
         0.79987E-02
         0.77058E-02
         0.00000E+00
         0.14947E-02
         0.00000E+00
         0.22627E-02
         0.00000E+00
         0.00000E+00
         0.18848E-02
         0.16692E-02
         0.00000E+00
         0.00000E+00
         0.00000E+00
         0.72652E-02
         0.30789E-02
         0.49118E-02
         0.97671E-02
         0.67733E-02
         0.60839E-02
         0.99861E-02
         0.87514E-02
         0.88310E-02
         0.61149E-02
         0.51216E-02
         0.81775E-02
         0.42671E-02
         0.31579E-02
         0.20558E-02
         0.29930E-02
         0.68984E-02
         0.37446E-02
         0.41459E-01
         0.42535E-01
         0.44623E-01
         0.44273E-01
         0.47431E-01
         0.51190E-01
         0.48976E-01
         0.43154E-01
         0.41964E-01
         0.45160E-01
         0.44188E-01
         0.43538E-01
         0.35382E-01
         0.33463E-01
         0.37105E-01
         0.39994E-01
         0.41636E-01
         0.45796E-01
         0.43916E-01
         0.45201E-01
         0.40348E-01
         0.38133E-01
         0.40900E-01
         0.39905E-01
         0.41166E-01
         0.40789E-01
         0.46084E-02
         0.15172E-02
         0.12561E-02
         0.00000E+00
         0.48976E-02
         0.24164E-02
         0.00000E+00
         0.44820E-02
         0.16416E-02
         0.40556E-02
         0.37080E-03
         0.11988E-01
         0.83309E-02
         0.25721E-02
         0.12727E-01
         0.24905E-02
         0.00000E+00
         0.00000E+00
         0.66013E-03
         0.00000E+00
         0.87381E-02
         0.79979E-02
         0.77051E-02
         0.00000E+00
         0.15145E-02
         0.00000E+00
         0.22645E-02
         0.00000E+00
         0.00000E+00
         0.18936E-02
         0.16738E-02
         0.00000E+00
         0.00000E+00
         0.00000E+00
         0.72699E-02
         0.30771E-02
         0.49100E-02
         0.97873E-02
         0.67956E-02
         0.60967E-02
         0.99948E-02
         0.87576E-02
         0.88325E-02
         0.61147E-02
         0.51199E-02
         0.81769E-02
         0.42672E-02
         0.31575E-02
         0.20484E-02
         0.29846E-02
         0.68928E-02
         0.37340E-02
         0.41443E-01
         0.42524E-01
         0.44623E-01
         0.44274E-01
         0.47422E-01
         0.51172E-01
         0.48954E-01
         0.43142E-01
         0.41952E-01
         0.45145E-01
         0.44180E-01
         0.43540E-01
         0.35378E-01
         0.33462E-01
         0.37110E-01
         0.40004E-01
         0.41648E-01
         0.45807E-01
         0.43913E-01
         0.45198E-01
         0.40343E-01
         0.38130E-01
         0.40885E-01
         0.39876E-01
         0.41141E-01
         0.40766E-01
         0.46143E-02
         0.15182E-02
         0.12586E-02
         0.00000E+00
         0.48939E-02
         0.24133E-02
         0.00000E+00
         0.44894E-02
         0.16499E-02
         0.40766E-02
         0.37077E-03
         0.11987E-01
         0.83355E-02
         0.25587E-02
         0.12743E-01
         0.24951E-02
         0.00000E+00
         0.00000E+00
         0.66236E-03
         0.00000E+00
         0.87393E-02
         0.79971E-02
         0.77045E-02
         0.00000E+00
         0.15341E-02
         0.00000E+00
         0.22662E-02
         0.00000E+00
         0.00000E+00
         0.19022E-02
         0.16784E-02
         0.00000E+00
         0.00000E+00
         0.00000E+00
         0.72746E-02
         0.30755E-02
         0.49080E-02
         0.98075E-02
         0.68181E-02
         0.61097E-02
         0.10004E-01
         0.87640E-02
         0.88341E-02
         0.61149E-02
         0.51186E-02
         0.81766E-02
         0.42673E-02
         0.31571E-02
         0.20411E-02
         0.29762E-02
         0.68873E-02
         0.37234E-02
         0.41426E-01
         0.42513E-01
         0.44622E-01
         0.44274E-01
         0.47414E-01
         0.51154E-01
         0.48932E-01
         0.43129E-01
         0.41941E-01
         0.45130E-01
         0.44172E-01
         0.43542E-01
         0.35375E-01
         0.33460E-01
         0.37115E-01
         0.40015E-01
         0.41660E-01
         0.45817E-01
         0.43910E-01
         0.45196E-01
         0.40339E-01
         0.38127E-01
         0.40870E-01
         0.39848E-01
         0.41116E-01
         0.40742E-01
         0.46202E-02
         0.15193E-02
         0.12611E-02
         0.00000E+00
         0.48902E-02
         0.24102E-02
         0.00000E+00
         0.44966E-02
         0.16581E-02
         0.40972E-02
         0.37078E-03
         0.11987E-01
         0.83402E-02
         0.25453E-02
         0.12760E-01
         0.25001E-02
         0.00000E+00
         0.00000E+00
         0.66477E-03
         0.00000E+00
         0.87408E-02
         0.79967E-02
         0.77047E-02
         0.00000E+00
         0.15534E-02
         0.00000E+00
         0.22677E-02
         0.00000E+00
         0.00000E+00
         0.19099E-02
         0.16833E-02
         0.00000E+00
         0.00000E+00
         0.00000E+00
         0.72791E-02
         0.30738E-02
         0.49061E-02
         0.98279E-02
         0.68409E-02
         0.61233E-02
         0.10013E-01
         0.87706E-02
         0.88363E-02
         0.61160E-02
         0.51177E-02
         0.81764E-02
         0.42679E-02
         0.31567E-02
         0.20338E-02
         0.29677E-02
         0.68815E-02
         0.37128E-02
         0.41410E-01
         0.42502E-01
         0.44622E-01
         0.44274E-01
         0.47406E-01
         0.51135E-01
         0.48910E-01
         0.43117E-01
         0.41929E-01
         0.45116E-01
         0.44164E-01
         0.43544E-01
         0.35372E-01
         0.33459E-01
         0.37120E-01
         0.40027E-01
         0.41673E-01
         0.45829E-01
         0.43908E-01
         0.45193E-01
         0.40334E-01
         0.38124E-01
         0.40855E-01
         0.39819E-01
         0.41091E-01
         0.40719E-01
         0.46260E-02
         0.15203E-02
         0.12636E-02
         0.00000E+00
         0.48866E-02
         0.24070E-02
         0.00000E+00
         0.45039E-02
         0.16662E-02
         0.41173E-02
         0.37087E-03
         0.11987E-01
         0.83448E-02
         0.25320E-02
         0.12776E-01
         0.25055E-02
         0.00000E+00
         0.00000E+00
         0.66723E-03
         0.00000E+00
         0.87426E-02
         0.79964E-02
         0.77053E-02
         0.00000E+00
         0.15722E-02
         0.00000E+00
         0.22690E-02
         0.00000E+00
         0.00000E+00
         0.19168E-02
         0.16883E-02
         0.00000E+00
         0.00000E+00
         0.00000E+00
         0.72838E-02
         0.30721E-02
         0.49043E-02
         0.98483E-02
         0.68641E-02
         0.61375E-02
         0.10023E-01
         0.87775E-02
         0.88391E-02
         0.61179E-02
         0.51173E-02
         0.81769E-02
         0.42688E-02
         0.31566E-02
         0.20265E-02
         0.29592E-02
         0.68761E-02
         0.37022E-02
         0.41394E-01
         0.42491E-01
         0.44622E-01
         0.44275E-01
         0.47397E-01
         0.51117E-01
         0.48888E-01
         0.43105E-01
         0.41917E-01
         0.45101E-01
         0.44156E-01
         0.43547E-01
         0.35370E-01
         0.33458E-01
         0.37126E-01
         0.40041E-01
         0.41688E-01
         0.45841E-01
         0.43906E-01
         0.45190E-01
         0.40329E-01
         0.38122E-01
         0.40839E-01
         0.39791E-01
         0.41065E-01
         0.40695E-01
         0.46315E-02
         0.15211E-02
         0.12660E-02
         0.00000E+00
         0.48830E-02
         0.24038E-02
         0.00000E+00
         0.45106E-02
         0.16744E-02
         0.41368E-02
         0.37124E-03
         0.11986E-01
         0.83494E-02
         0.25186E-02
         0.12793E-01
         0.25111E-02
         0.00000E+00
         0.00000E+00
         0.66970E-03
         0.00000E+00
         0.87447E-02
         0.79964E-02
         0.77064E-02
         0.00000E+00
         0.15906E-02
         0.00000E+00
         0.22702E-02
         0.00000E+00
         0.00000E+00
         0.19236E-02
         0.16933E-02
         0.00000E+00
         0.00000E+00
         0.00000E+00
         0.72886E-02
         0.30707E-02
         0.49027E-02
         0.98688E-02
         0.68876E-02
         0.61522E-02
         0.10034E-01
         0.87846E-02
         0.88421E-02
         0.61202E-02
         0.51175E-02
         0.81780E-02
         0.42698E-02
         0.31568E-02
         0.20197E-02
         0.29510E-02
         0.68707E-02
         0.36918E-02
         0.41378E-01
         0.42480E-01
         0.44622E-01
         0.44275E-01
         0.47389E-01
         0.51098E-01
         0.48866E-01
         0.43092E-01
         0.41906E-01
         0.45086E-01
         0.44149E-01
         0.43550E-01
         0.35369E-01
         0.33457E-01
         0.37132E-01
         0.40056E-01
         0.41704E-01
         0.45853E-01
         0.43903E-01
         0.45187E-01
         0.40325E-01
         0.38119E-01
         0.40824E-01
         0.39763E-01
         0.41040E-01
         0.40672E-01
         0.46366E-02
         0.15213E-02
         0.12683E-02
         0.00000E+00
         0.48795E-02
         0.24008E-02
         0.00000E+00
         0.45163E-02
         0.16828E-02
         0.41555E-02
         0.37214E-03
         0.11986E-01
         0.83546E-02
         0.25054E-02
         0.12810E-01
         0.25167E-02
         0.00000E+00
         0.00000E+00
         0.67224E-03
         0.00000E+00
         0.87468E-02
         0.79964E-02
         0.77077E-02
         0.00000E+00
         0.16084E-02
         0.00000E+00
         0.22717E-02
         0.00000E+00
         0.00000E+00
         0.19303E-02
         0.16978E-02
         0.00000E+00
         0.00000E+00
         0.00000E+00
         0.72935E-02
         0.30695E-02
         0.49013E-02
         0.98895E-02
         0.69114E-02
         0.61669E-02
         0.10044E-01
         0.87918E-02
         0.88451E-02
         0.61226E-02
         0.51181E-02
         0.81794E-02
         0.42714E-02
         0.31575E-02
         0.20138E-02
         0.29431E-02
         0.68657E-02
         0.36815E-02
         0.41361E-01
         0.42470E-01
         0.44621E-01
         0.44275E-01
         0.47380E-01
         0.51079E-01
         0.48844E-01
         0.43079E-01
         0.41895E-01
         0.45071E-01
         0.44141E-01
         0.43553E-01
         0.35368E-01
         0.33457E-01
         0.37138E-01
         0.40070E-01
         0.41719E-01
         0.45864E-01
         0.43900E-01
         0.45184E-01
         0.40321E-01
         0.38117E-01
         0.40809E-01
         0.39734E-01
         0.41016E-01
         0.40648E-01
         0.46415E-02
         0.15213E-02
         0.12705E-02
         0.00000E+00
         0.48762E-02
         0.23976E-02
         0.00000E+00
         0.45215E-02
         0.16912E-02
         0.41738E-02
         0.37333E-03
         0.11986E-01
         0.83598E-02
         0.24923E-02
         0.12826E-01
         0.25223E-02
         0.00000E+00
         0.00000E+00
         0.67475E-03
         0.00000E+00
         0.87488E-02
         0.79964E-02
         0.77088E-02
         0.00000E+00
         0.16259E-02
         0.00000E+00
         0.22731E-02
         0.00000E+00
         0.00000E+00
         0.19370E-02
         0.17023E-02
         0.00000E+00
         0.00000E+00
         0.00000E+00
         0.72986E-02
         0.30686E-02
         0.49003E-02
         0.99103E-02
         0.69351E-02
         0.61817E-02
         0.10055E-01
         0.87992E-02
         0.88483E-02
         0.61252E-02
         0.51189E-02
         0.81813E-02
         0.42733E-02
         0.31585E-02
         0.20083E-02
         0.29354E-02
         0.68609E-02
         0.36714E-02
         0.41345E-01
         0.42459E-01
         0.44621E-01
         0.44275E-01
         0.47372E-01
         0.51061E-01
         0.48822E-01
         0.43067E-01
         0.41883E-01
         0.45056E-01
         0.44133E-01
         0.43556E-01
         0.35366E-01
         0.33456E-01
         0.37144E-01
         0.40085E-01
         0.41735E-01
         0.45876E-01
         0.43897E-01
         0.45181E-01
         0.40317E-01
         0.38115E-01
         0.40794E-01
         0.39706E-01
         0.40991E-01
         0.40625E-01
         0.46463E-02
         0.15213E-02
         0.12727E-02
         0.00000E+00
         0.48727E-02
         0.23944E-02
         0.00000E+00
         0.45268E-02
         0.16997E-02
         0.41921E-02
         0.37443E-03
         0.11986E-01
         0.83650E-02
         0.24792E-02
         0.12843E-01
         0.25279E-02
         0.00000E+00
         0.00000E+00
         0.67724E-03
         0.00000E+00
         0.87508E-02
         0.79965E-02
         0.77100E-02
         0.00000E+00
         0.16435E-02
         0.00000E+00
         0.22747E-02
         0.00000E+00
         0.00000E+00
         0.19437E-02
         0.17067E-02
         0.00000E+00
         0.00000E+00
         0.00000E+00
         0.73038E-02
         0.30674E-02
         0.48992E-02
         0.99312E-02
         0.69590E-02
         0.61963E-02
         0.10065E-01
         0.88064E-02
         0.88515E-02
         0.61279E-02
         0.51198E-02
         0.81832E-02
         0.42750E-02
         0.31595E-02
         0.20029E-02
         0.29278E-02
         0.68563E-02
         0.36611E-02
         0.41329E-01
         0.42448E-01
         0.44620E-01
         0.44276E-01
         0.47363E-01
         0.51042E-01
         0.48800E-01
         0.43054E-01
         0.41872E-01
         0.45041E-01
         0.44125E-01
         0.43559E-01
         0.35365E-01
         0.33455E-01
         0.37151E-01
         0.40099E-01
         0.41751E-01
         0.45887E-01
         0.43893E-01
         0.45178E-01
         0.40313E-01
         0.38114E-01
         0.40778E-01
         0.39678E-01
         0.40966E-01
         0.40601E-01
         0.46511E-02
         0.15212E-02
         0.12749E-02
         0.00000E+00
         0.48693E-02
         0.23913E-02
         0.00000E+00
         0.45321E-02
         0.17081E-02
         0.42104E-02
         0.37574E-03
         0.11986E-01
         0.83704E-02
         0.24662E-02
         0.12860E-01
         0.25335E-02
         0.00000E+00
         0.00000E+00
         0.67970E-03
         0.00000E+00
         0.87529E-02
         0.79964E-02
         0.77111E-02
         0.00000E+00
         0.16610E-02
         0.00000E+00
         0.22762E-02
         0.00000E+00
         0.00000E+00
         0.19504E-02
         0.17111E-02
         0.00000E+00
         0.00000E+00
         0.00000E+00
         0.73088E-02
         0.30666E-02
         0.48981E-02
         0.99521E-02
         0.69829E-02
         0.62111E-02
         0.10076E-01
         0.88137E-02
         0.88545E-02
         0.61305E-02
         0.51206E-02
         0.81849E-02
         0.42768E-02
         0.31606E-02
         0.19974E-02
         0.29200E-02
         0.68513E-02
         0.36509E-02
         0.41312E-01
         0.42437E-01
         0.44619E-01
         0.44276E-01
         0.47355E-01
         0.51024E-01
         0.48777E-01
         0.43042E-01
         0.41860E-01
         0.45026E-01
         0.44118E-01
         0.43563E-01
         0.35363E-01
         0.33455E-01
         0.37157E-01
         0.40114E-01
         0.41766E-01
         0.45899E-01
         0.43890E-01
         0.45175E-01
         0.40309E-01
         0.38112E-01
         0.40763E-01
         0.39650E-01
         0.40941E-01
         0.40578E-01
         0.46559E-02
         0.15211E-02
         0.12771E-02
         0.00000E+00
         0.48660E-02
         0.23882E-02
         0.00000E+00
         0.45372E-02
         0.17166E-02
         0.42287E-02
         0.37707E-03
         0.11987E-01
         0.83756E-02
         0.24532E-02
         0.12877E-01
         0.25391E-02
         0.00000E+00
         0.00000E+00
         0.68221E-03
         0.00000E+00
         0.87549E-02
         0.79964E-02
         0.77123E-02
         0.00000E+00
         0.16784E-02
         0.00000E+00
         0.22778E-02
         0.00000E+00
         0.00000E+00
         0.19570E-02
         0.17155E-02
         0.00000E+00
         0.00000E+00
         0.00000E+00
         0.73140E-02
         0.30655E-02
         0.48971E-02
         0.99731E-02
         0.70068E-02
         0.62257E-02
         0.10086E-01
         0.88210E-02
         0.88577E-02
         0.61330E-02
         0.51214E-02
         0.81868E-02
         0.42787E-02
         0.31615E-02
         0.19920E-02
         0.29123E-02
         0.68468E-02
         0.36408E-02
         0.41296E-01
         0.42426E-01
         0.44619E-01
         0.44276E-01
         0.47347E-01
         0.51005E-01
         0.48755E-01
         0.43029E-01
         0.41849E-01
         0.45011E-01
         0.44110E-01
         0.43566E-01
         0.35362E-01
         0.33454E-01
         0.37163E-01
         0.40128E-01
         0.41782E-01
         0.45910E-01
         0.43887E-01
         0.45172E-01
         0.40305E-01
         0.38110E-01
         0.40747E-01
         0.39621E-01
         0.40916E-01
         0.40554E-01
         0.46607E-02
         0.15211E-02
         0.12794E-02
         0.00000E+00
         0.48625E-02
         0.23851E-02
         0.00000E+00
         0.45425E-02
         0.17252E-02
         0.42469E-02
         0.37845E-03
         0.11987E-01
         0.83807E-02
         0.24402E-02
         0.12894E-01
         0.25447E-02
         0.00000E+00
         0.00000E+00
         0.68470E-03
         0.00000E+00
         0.87569E-02
         0.79964E-02
         0.77135E-02
         0.00000E+00
         0.16958E-02
         0.00000E+00
         0.22794E-02
         0.00000E+00
         0.00000E+00
         0.19637E-02
         0.17199E-02
         0.00000E+00
         0.00000E+00
         0.00000E+00
         0.73193E-02
         0.30646E-02
         0.48959E-02
         0.99940E-02
         0.70307E-02
         0.62405E-02
         0.10097E-01
         0.88282E-02
         0.88608E-02
         0.61357E-02
         0.51223E-02
         0.81887E-02
         0.42804E-02
         0.31627E-02
         0.19866E-02
         0.29047E-02
         0.68420E-02
         0.36306E-02
         0.41279E-01
         0.42415E-01
         0.44618E-01
         0.44276E-01
         0.47338E-01
         0.50986E-01
         0.48733E-01
         0.43017E-01
         0.41838E-01
         0.44996E-01
         0.44102E-01
         0.43569E-01
         0.35360E-01
         0.33453E-01
         0.37169E-01
         0.40143E-01
         0.41797E-01
         0.45922E-01
         0.43884E-01
         0.45169E-01
         0.40301E-01
         0.38108E-01
         0.40732E-01
         0.39593E-01
         0.40891E-01
         0.40531E-01
         0.46655E-02
         0.15211E-02
         0.12816E-02
         0.00000E+00
         0.48591E-02
         0.23820E-02
         0.00000E+00
         0.45477E-02
         0.17336E-02
         0.42651E-02
         0.37989E-03
         0.11987E-01
         0.83861E-02
         0.24272E-02
         0.12910E-01
         0.25502E-02
         0.00000E+00
         0.00000E+00
         0.68718E-03
         0.00000E+00
         0.87590E-02
         0.79964E-02
         0.77146E-02
         0.00000E+00
         0.17132E-02
         0.00000E+00
         0.22809E-02
         0.00000E+00
         0.00000E+00
         0.19704E-02
         0.17243E-02
         0.00000E+00
         0.00000E+00
         0.00000E+00
         0.73243E-02
         0.30637E-02
         0.48949E-02
         0.10015E-01
         0.70547E-02
         0.62551E-02
         0.10108E-01
         0.88354E-02
         0.88639E-02
         0.61384E-02
         0.51232E-02
         0.81902E-02
         0.42823E-02
         0.31637E-02
         0.19812E-02
         0.28970E-02
         0.68370E-02
         0.36203E-02
         0.41263E-01
         0.42405E-01
         0.44617E-01
         0.44276E-01
         0.47330E-01
         0.50968E-01
         0.48710E-01
         0.43004E-01
         0.41826E-01
         0.44981E-01
         0.44094E-01
         0.43572E-01
         0.35359E-01
         0.33453E-01
         0.37175E-01
         0.40157E-01
         0.41813E-01
         0.45933E-01
         0.43881E-01
         0.45166E-01
         0.40297E-01
         0.38106E-01
         0.40717E-01
         0.39565E-01
         0.40867E-01
         0.40507E-01
         0.46703E-02
         0.15211E-02
         0.12838E-02
         0.00000E+00
         0.48558E-02
         0.23788E-02
         0.00000E+00
         0.45529E-02
         0.17421E-02
         0.42833E-02
         0.38138E-03
         0.11987E-01
         0.83913E-02
         0.24142E-02
         0.12927E-01
         0.25558E-02
         0.00000E+00
         0.00000E+00
         0.68968E-03
         0.00000E+00
         0.87610E-02
         0.79964E-02
         0.77158E-02
         0.00000E+00
         0.17306E-02
         0.00000E+00
         0.22824E-02
         0.00000E+00
         0.00000E+00
         0.19770E-02
         0.17287E-02
         0.00000E+00
         0.00000E+00
         0.00000E+00
         0.73296E-02
         0.30627E-02
         0.48937E-02
         0.10036E-01
         0.70787E-02
         0.62697E-02
         0.10118E-01
         0.88427E-02
         0.88671E-02
         0.61410E-02
         0.51241E-02
         0.81922E-02
         0.42842E-02
         0.31646E-02
         0.19757E-02
         0.28894E-02
         0.68324E-02
         0.36102E-02
         0.41247E-01
         0.42394E-01
         0.44616E-01
         0.44277E-01
         0.47322E-01
         0.50949E-01
         0.48688E-01
         0.42991E-01
         0.41815E-01
         0.44965E-01
         0.44086E-01
         0.43575E-01
         0.35357E-01
         0.33452E-01
         0.37182E-01
         0.40172E-01
         0.41829E-01
         0.45945E-01
         0.43878E-01
         0.45163E-01
         0.40293E-01
         0.38104E-01
         0.40701E-01
         0.39537E-01
         0.40842E-01
         0.40484E-01
         0.46750E-02
         0.15210E-02
         0.12860E-02
         0.00000E+00
         0.48524E-02
         0.23756E-02
         0.00000E+00
         0.45581E-02
         0.17507E-02
         0.43015E-02
         0.38291E-03
         0.11987E-01
         0.83965E-02
         0.24012E-02
         0.12944E-01
         0.25614E-02
         0.00000E+00
         0.00000E+00
         0.69217E-03
         0.00000E+00
         0.87631E-02
         0.79964E-02
         0.77169E-02
         0.00000E+00
         0.17480E-02
         0.00000E+00
         0.22839E-02
         0.00000E+00
         0.00000E+00
         0.19836E-02
         0.17331E-02
         0.00000E+00
         0.00000E+00
         0.00000E+00
         0.73346E-02
         0.30619E-02
         0.48927E-02
         0.10057E-01
         0.71028E-02
         0.62843E-02
         0.10129E-01
         0.88499E-02
         0.88702E-02
         0.61436E-02
         0.51249E-02
         0.81941E-02
         0.42859E-02
         0.31658E-02
         0.19703E-02
         0.28816E-02
         0.68276E-02
         0.36000E-02
         0.41230E-01
         0.42383E-01
         0.44616E-01
         0.44277E-01
         0.47313E-01
         0.50930E-01
         0.48665E-01
         0.42978E-01
         0.41804E-01
         0.44950E-01
         0.44079E-01
         0.43578E-01
         0.35356E-01
         0.33451E-01
         0.37188E-01
         0.40186E-01
         0.41844E-01
         0.45956E-01
         0.43875E-01
         0.45160E-01
         0.40289E-01
         0.38102E-01
         0.40686E-01
         0.39508E-01
         0.40817E-01
         0.40461E-01
         0.46798E-02
         0.15209E-02
         0.12882E-02
         0.00000E+00
         0.48490E-02
         0.23726E-02
         0.00000E+00
         0.45633E-02
         0.17592E-02
         0.43196E-02
         0.38449E-03
         0.11987E-01
         0.84019E-02
         0.23883E-02
         0.12961E-01
         0.25670E-02
         0.00000E+00
         0.00000E+00
         0.69466E-03
         0.00000E+00
         0.87652E-02
         0.79963E-02
         0.77181E-02
         0.00000E+00
         0.17654E-02
         0.00000E+00
         0.22854E-02
         0.00000E+00
         0.00000E+00
         0.19903E-02
         0.17375E-02
         0.00000E+00
         0.00000E+00
         0.00000E+00
         0.73399E-02
         0.30609E-02
         0.48916E-02
         0.10078E-01
         0.71267E-02
         0.62987E-02
         0.10139E-01
         0.88571E-02
         0.88732E-02
         0.61460E-02
         0.51259E-02
         0.81958E-02
         0.42878E-02
         0.31668E-02
         0.19649E-02
         0.28739E-02
         0.68228E-02
         0.35898E-02
         0.41214E-01
         0.42372E-01
         0.44615E-01
         0.44277E-01
         0.47305E-01
         0.50911E-01
         0.48642E-01
         0.42966E-01
         0.41792E-01
         0.44934E-01
         0.44071E-01
         0.43581E-01
         0.35354E-01
         0.33451E-01
         0.37194E-01
         0.40201E-01
         0.41860E-01
         0.45967E-01
         0.43871E-01
         0.45157E-01
         0.40285E-01
         0.38100E-01
         0.40670E-01
         0.39480E-01
         0.40793E-01
         0.40437E-01
         0.46845E-02
         0.15209E-02
         0.12904E-02
         0.00000E+00
         0.48458E-02
         0.23695E-02
         0.00000E+00
         0.45685E-02
         0.17678E-02
         0.43378E-02
         0.38612E-03
         0.11987E-01
         0.84071E-02
         0.23753E-02
         0.12978E-01
         0.25726E-02
         0.00000E+00
         0.00000E+00
         0.69715E-03
         0.00000E+00
         0.87672E-02
         0.79962E-02
         0.77193E-02
         0.00000E+00
         0.17827E-02
         0.00000E+00
         0.22868E-02
         0.00000E+00
         0.00000E+00
         0.19967E-02
         0.17419E-02
         0.00000E+00
         0.00000E+00
         0.00000E+00
         0.73452E-02
         0.30600E-02
         0.48904E-02
         0.10099E-01
         0.71507E-02
         0.63132E-02
         0.10150E-01
         0.88643E-02
         0.88762E-02
         0.61488E-02
         0.51267E-02
         0.81978E-02
         0.42897E-02
         0.31679E-02
         0.19596E-02
         0.28663E-02
         0.68180E-02
         0.35797E-02
         0.41197E-01
         0.42361E-01
         0.44614E-01
         0.44277E-01
         0.47296E-01
         0.50893E-01
         0.48620E-01
         0.42953E-01
         0.41781E-01
         0.44919E-01
         0.44063E-01
         0.43585E-01
         0.35353E-01
         0.33450E-01
         0.37200E-01
         0.40215E-01
         0.41875E-01
         0.45979E-01
         0.43868E-01
         0.45154E-01
         0.40281E-01
         0.38098E-01
         0.40655E-01
         0.39452E-01
         0.40768E-01
         0.40414E-01
         0.46892E-02
         0.15208E-02
         0.12926E-02
         0.00000E+00
         0.48424E-02
         0.23663E-02
         0.00000E+00
         0.45736E-02
         0.17764E-02
         0.43557E-02
         0.38778E-03
         0.11987E-01
         0.84123E-02
         0.23622E-02
         0.12994E-01
         0.25781E-02
         0.00000E+00
         0.00000E+00
         0.69968E-03
         0.00000E+00
         0.87693E-02
         0.79961E-02
         0.77205E-02
         0.00000E+00
         0.17999E-02
         0.00000E+00
         0.22878E-02
         0.00000E+00
         0.00000E+00
         0.20029E-02
         0.17463E-02
         0.00000E+00
         0.00000E+00
         0.00000E+00
         0.73503E-02
         0.30592E-02
         0.48894E-02
         0.10120E-01
         0.71747E-02
         0.63270E-02
         0.10159E-01
         0.88707E-02
         0.88790E-02
         0.61514E-02
         0.51276E-02
         0.81996E-02
         0.42914E-02
         0.31689E-02
         0.19541E-02
         0.28586E-02
         0.68135E-02
         0.35695E-02
         0.41181E-01
         0.42351E-01
         0.44613E-01
         0.44277E-01
         0.47288E-01
         0.50874E-01
         0.48597E-01
         0.42940E-01
         0.41770E-01
         0.44902E-01
         0.44056E-01
         0.43590E-01
         0.35353E-01
         0.33449E-01
         0.37206E-01
         0.40229E-01
         0.41891E-01
         0.45990E-01
         0.43865E-01
         0.45151E-01
         0.40278E-01
         0.38096E-01
         0.40639E-01
         0.39424E-01
         0.40743E-01
         0.40390E-01
         0.46939E-02
         0.15208E-02
         0.12948E-02
         0.00000E+00
         0.48390E-02
         0.23632E-02
         0.00000E+00
         0.45788E-02
         0.17851E-02
         0.43736E-02
         0.38948E-03
         0.11987E-01
         0.84176E-02
         0.23491E-02
         0.13011E-01
         0.25837E-02
         0.00000E+00
         0.00000E+00
         0.70219E-03
         0.00000E+00
         0.87714E-02
         0.79958E-02
         0.77218E-02
         0.00000E+00
         0.18171E-02
         0.00000E+00
         0.22884E-02
         0.00000E+00
         0.00000E+00
         0.20088E-02
         0.17506E-02
         0.00000E+00
         0.00000E+00
         0.00000E+00
         0.73557E-02
         0.30582E-02
         0.48884E-02
         0.10141E-01
         0.71985E-02
         0.63406E-02
         0.10168E-01
         0.88765E-02
         0.88814E-02
         0.61540E-02
         0.51286E-02
         0.82015E-02
         0.42933E-02
         0.31700E-02
         0.19488E-02
         0.28508E-02
         0.68085E-02
         0.35592E-02
         0.41165E-01
         0.42340E-01
         0.44613E-01
         0.44277E-01
         0.47279E-01
         0.50855E-01
         0.48574E-01
         0.42928E-01
         0.41758E-01
         0.44885E-01
         0.44048E-01
         0.43595E-01
         0.35353E-01
         0.33449E-01
         0.37212E-01
         0.40244E-01
         0.41907E-01
         0.46001E-01
         0.43862E-01
         0.45148E-01
         0.40274E-01
         0.38094E-01
         0.40623E-01
         0.39396E-01
         0.40719E-01
         0.40367E-01
         0.46987E-02
         0.15208E-02
         0.12971E-02
         0.00000E+00
         0.48358E-02
         0.23602E-02
         0.00000E+00
         0.45839E-02
         0.17938E-02
         0.43914E-02
         0.39126E-03
         0.11988E-01
         0.84228E-02
         0.23360E-02
         0.13028E-01
         0.25892E-02
         0.00000E+00
         0.00000E+00
         0.70473E-03
         0.00000E+00
         0.87734E-02
         0.79956E-02
         0.77228E-02
         0.00000E+00
         0.18343E-02
         0.00000E+00
         0.22888E-02
         0.00000E+00
         0.00000E+00
         0.20146E-02
         0.17551E-02
         0.00000E+00
         0.00000E+00
         0.00000E+00
         0.73611E-02
         0.30574E-02
         0.48872E-02
         0.10162E-01
         0.72224E-02
         0.63537E-02
         0.10177E-01
         0.88821E-02
         0.88838E-02
         0.61566E-02
         0.51294E-02
         0.82034E-02
         0.42952E-02
         0.31711E-02
         0.19435E-02
         0.28432E-02
         0.68040E-02
         0.35492E-02
         0.41148E-01
         0.42329E-01
         0.44612E-01
         0.44278E-01
         0.47271E-01
         0.50836E-01
         0.48551E-01
         0.42915E-01
         0.41747E-01
         0.44868E-01
         0.44041E-01
         0.43602E-01
         0.35353E-01
         0.33448E-01
         0.37218E-01
         0.40258E-01
         0.41922E-01
         0.46013E-01
         0.43859E-01
         0.45145E-01
         0.40270E-01
         0.38092E-01
         0.40608E-01
         0.39368E-01
         0.40694E-01
         0.40344E-01
         0.50600E-02
         0.21008E-02
         0.18953E-02
         0.64740E-03
         0.53171E-02
         0.29350E-02
         0.51300E-03
         0.50413E-02
         0.23009E-02
         0.48706E-02
         0.13921E-02
         0.12415E-01
         0.88521E-02
         0.30705E-02
         0.13475E-01
         0.30151E-02
         0.70126E-03
         0.00000E+00
         0.14220E-02
         0.93077E-04
         0.91331E-02
         0.83774E-02
         0.80769E-02
         0.52878E-03
         0.24982E-02
         0.00000E+00
         0.30223E-02
         0.00000E+00
         0.41342E-03
         0.26924E-02
         0.22464E-02
         0.30293E-03
         0.58219E-03
         0.43017E-03
         0.78381E-02
         0.36423E-02
         0.53639E-02
         0.10628E-01
         0.77424E-02
         0.68848E-02
         0.10615E-01
         0.93039E-02
         0.92655E-02
         0.65332E-02
         0.55724E-02
         0.86531E-02
         0.48161E-02
         0.36935E-02
         0.25353E-02
         0.33986E-02
         0.72536E-02
         0.40634E-02
         0.41693E-01
         0.42860E-01
         0.45164E-01
         0.44808E-01
         0.47815E-01
         0.51407E-01
         0.49125E-01
         0.43496E-01
         0.42337E-01
         0.45470E-01
         0.44628E-01
         0.44154E-01
         0.35829E-01
         0.33891E-01
         0.37666E-01
         0.40720E-01
         0.42391E-01
         0.46532E-01
         0.44418E-01
         0.45706E-01
         0.40773E-01
         0.38575E-01
         0.41099E-01
         0.39844E-01
         0.41166E-01
         0.40817E-01
         0.24173E-01
         0.23571E-01
         0.23124E-01
         0.20562E-01
         0.27589E-01
         0.24813E-01
         0.24956E-01
         0.27205E-01
         0.22071E-01
         0.27081E-01
         0.27791E-01
         0.37254E-01
         0.32086E-01
         0.29238E-01
         0.39139E-01
         0.22012E-01
         0.22608E-01
         0.19212E-01
         0.23628E-01
         0.24497E-01
         0.30106E-01
         0.30167E-01
         0.28386E-01
         0.22388E-01
         0.26187E-01
         0.21277E-01
         0.29135E-01
         0.27603E-01
         0.27891E-01
         0.27197E-01
         0.21845E-01
         0.22218E-01
         0.20712E-01
         0.21667E-01
         0.31393E-01
         0.26854E-01
         0.27862E-01
         0.36260E-01
         0.33600E-01
         0.32724E-01
         0.35708E-01
         0.33375E-01
         0.31893E-01
         0.26789E-01
         0.27105E-01
         0.31865E-01
         0.27617E-01
         0.25518E-01
         0.24483E-01
         0.25772E-01
         0.29956E-01
         0.26159E-01
         0.71576E-01
         0.71834E-01
         0.74762E-01
         0.73604E-01
         0.77464E-01
         0.82766E-01
         0.81530E-01
         0.76201E-01
         0.75213E-01
         0.78791E-01
         0.77028E-01
         0.74512E-01
         0.63465E-01
         0.60113E-01
         0.63466E-01
         0.66399E-01
         0.68209E-01
         0.74288E-01
         0.74140E-01
         0.75591E-01
         0.68875E-01
         0.65995E-01
         0.69265E-01
         0.67958E-01
         0.68820E-01
         0.68230E-01
  
SCALARS                            dam  double 1
LOOKUP_TABLE default
         0.00000E+00
         0.00000E+00
         0.00000E+00
         0.00000E+00
         0.00000E+00
         0.00000E+00
         0.00000E+00
         0.00000E+00
         0.00000E+00
         0.00000E+00
         0.00000E+00
         0.00000E+00
         0.00000E+00
         0.00000E+00
         0.00000E+00
         0.00000E+00
         0.00000E+00
         0.00000E+00
         0.00000E+00
         0.00000E+00
         0.00000E+00
         0.00000E+00
         0.00000E+00
         0.00000E+00
         0.00000E+00
         0.00000E+00
         0.00000E+00
         0.00000E+00
         0.00000E+00
         0.00000E+00
         0.00000E+00
         0.00000E+00
         0.00000E+00
         0.00000E+00
         0.00000E+00
         0.00000E+00
         0.00000E+00
         0.00000E+00
         0.00000E+00
         0.00000E+00
         0.00000E+00
         0.00000E+00
         0.00000E+00
         0.00000E+00
         0.00000E+00
         0.00000E+00
         0.00000E+00
         0.00000E+00
         0.00000E+00
         0.00000E+00
         0.00000E+00
         0.00000E+00
         0.00000E+00
         0.00000E+00
         0.00000E+00
         0.00000E+00
         0.00000E+00
         0.00000E+00
         0.00000E+00
         0.00000E+00
         0.00000E+00
         0.00000E+00
         0.00000E+00
         0.00000E+00
         0.00000E+00
         0.00000E+00
         0.00000E+00
         0.00000E+00
         0.00000E+00
         0.00000E+00
         0.00000E+00
         0.00000E+00
         0.00000E+00
         0.00000E+00
         0.00000E+00
         0.00000E+00
         0.00000E+00
         0.00000E+00
         0.00000E+00
         0.00000E+00
         0.00000E+00
         0.00000E+00
         0.00000E+00
         0.00000E+00
         0.00000E+00
         0.00000E+00
         0.00000E+00
         0.00000E+00
         0.00000E+00
         0.00000E+00
         0.00000E+00
         0.00000E+00
         0.00000E+00
         0.00000E+00
         0.00000E+00
         0.00000E+00
         0.00000E+00
         0.00000E+00
         0.00000E+00
         0.00000E+00
         0.00000E+00
         0.00000E+00
         0.00000E+00
         0.00000E+00
         0.00000E+00
         0.00000E+00
         0.00000E+00
         0.00000E+00
         0.00000E+00
         0.00000E+00
         0.00000E+00
         0.00000E+00
         0.00000E+00
         0.00000E+00
         0.00000E+00
         0.00000E+00
         0.00000E+00
         0.00000E+00
         0.00000E+00
         0.00000E+00
         0.00000E+00
         0.00000E+00
         0.00000E+00
         0.00000E+00
         0.00000E+00
         0.00000E+00
         0.00000E+00
         0.00000E+00
         0.00000E+00
         0.00000E+00
         0.00000E+00
         0.00000E+00
         0.00000E+00
         0.00000E+00
         0.00000E+00
         0.00000E+00
         0.00000E+00
         0.00000E+00
         0.00000E+00
         0.00000E+00
         0.00000E+00
         0.00000E+00
         0.00000E+00
         0.00000E+00
         0.00000E+00
         0.00000E+00
         0.00000E+00
         0.00000E+00
         0.00000E+00
         0.00000E+00
         0.00000E+00
         0.00000E+00
         0.00000E+00
         0.00000E+00
         0.00000E+00
         0.00000E+00
         0.00000E+00
         0.00000E+00
         0.00000E+00
         0.00000E+00
         0.00000E+00
         0.00000E+00
         0.00000E+00
         0.00000E+00
         0.00000E+00
         0.00000E+00
         0.00000E+00
         0.00000E+00
         0.00000E+00
         0.00000E+00
         0.00000E+00
         0.00000E+00
         0.00000E+00
         0.00000E+00
         0.00000E+00
         0.00000E+00
         0.00000E+00
         0.00000E+00
         0.00000E+00
         0.00000E+00
         0.00000E+00
         0.00000E+00
         0.00000E+00
         0.00000E+00
         0.00000E+00
         0.00000E+00
         0.00000E+00
         0.00000E+00
         0.00000E+00
         0.00000E+00
         0.00000E+00
         0.00000E+00
         0.00000E+00
         0.00000E+00
         0.00000E+00
         0.00000E+00
         0.00000E+00
         0.00000E+00
         0.00000E+00
         0.00000E+00
         0.00000E+00
         0.00000E+00
         0.00000E+00
         0.00000E+00
         0.00000E+00
         0.00000E+00
         0.00000E+00
         0.00000E+00
         0.00000E+00
         0.00000E+00
         0.00000E+00
         0.00000E+00
         0.00000E+00
         0.00000E+00
         0.00000E+00
         0.00000E+00
         0.00000E+00
         0.00000E+00
         0.00000E+00
         0.00000E+00
         0.00000E+00
         0.00000E+00
         0.00000E+00
         0.00000E+00
         0.00000E+00
         0.00000E+00
         0.00000E+00
         0.00000E+00
         0.00000E+00
         0.00000E+00
         0.00000E+00
         0.00000E+00
         0.00000E+00
         0.00000E+00
         0.00000E+00
         0.00000E+00
         0.00000E+00
         0.00000E+00
         0.00000E+00
         0.00000E+00
         0.00000E+00
         0.00000E+00
         0.00000E+00
         0.00000E+00
         0.00000E+00
         0.00000E+00
         0.00000E+00
         0.00000E+00
         0.00000E+00
         0.00000E+00
         0.00000E+00
         0.00000E+00
         0.00000E+00
         0.00000E+00
         0.00000E+00
         0.00000E+00
         0.00000E+00
         0.00000E+00
         0.00000E+00
         0.00000E+00
         0.00000E+00
         0.00000E+00
         0.00000E+00
         0.00000E+00
         0.00000E+00
         0.00000E+00
         0.00000E+00
         0.00000E+00
         0.00000E+00
         0.00000E+00
         0.00000E+00
         0.00000E+00
         0.00000E+00
         0.00000E+00
         0.00000E+00
         0.00000E+00
         0.00000E+00
         0.00000E+00
         0.00000E+00
         0.00000E+00
         0.00000E+00
         0.00000E+00
         0.00000E+00
         0.00000E+00
         0.00000E+00
         0.00000E+00
         0.00000E+00
         0.00000E+00
         0.00000E+00
         0.00000E+00
         0.00000E+00
         0.00000E+00
         0.00000E+00
         0.00000E+00
         0.00000E+00
         0.00000E+00
         0.00000E+00
         0.00000E+00
         0.00000E+00
         0.00000E+00
         0.00000E+00
         0.00000E+00
         0.00000E+00
         0.00000E+00
         0.00000E+00
         0.00000E+00
         0.00000E+00
         0.00000E+00
         0.00000E+00
         0.00000E+00
         0.00000E+00
         0.00000E+00
         0.00000E+00
         0.00000E+00
         0.00000E+00
         0.00000E+00
         0.00000E+00
         0.00000E+00
         0.00000E+00
         0.00000E+00
         0.00000E+00
         0.00000E+00
         0.00000E+00
         0.00000E+00
         0.00000E+00
         0.00000E+00
         0.00000E+00
         0.00000E+00
         0.00000E+00
         0.00000E+00
         0.00000E+00
         0.00000E+00
         0.00000E+00
         0.00000E+00
         0.00000E+00
         0.00000E+00
         0.00000E+00
         0.00000E+00
         0.00000E+00
         0.00000E+00
         0.00000E+00
         0.00000E+00
         0.00000E+00
         0.00000E+00
         0.00000E+00
         0.00000E+00
         0.00000E+00
         0.00000E+00
         0.00000E+00
         0.00000E+00
         0.00000E+00
         0.00000E+00
         0.00000E+00
         0.00000E+00
         0.00000E+00
         0.00000E+00
         0.00000E+00
         0.00000E+00
         0.00000E+00
         0.00000E+00
         0.00000E+00
         0.00000E+00
         0.00000E+00
         0.00000E+00
         0.00000E+00
         0.00000E+00
         0.00000E+00
         0.00000E+00
         0.00000E+00
         0.00000E+00
         0.00000E+00
         0.00000E+00
         0.00000E+00
         0.00000E+00
         0.00000E+00
         0.00000E+00
         0.00000E+00
         0.00000E+00
         0.00000E+00
         0.00000E+00
         0.00000E+00
         0.00000E+00
         0.00000E+00
         0.00000E+00
         0.00000E+00
         0.00000E+00
         0.00000E+00
         0.00000E+00
         0.00000E+00
         0.00000E+00
         0.00000E+00
         0.00000E+00
         0.00000E+00
         0.00000E+00
         0.00000E+00
         0.00000E+00
         0.00000E+00
         0.00000E+00
         0.00000E+00
         0.00000E+00
         0.00000E+00
         0.00000E+00
         0.00000E+00
         0.00000E+00
         0.00000E+00
         0.00000E+00
         0.00000E+00
         0.00000E+00
         0.00000E+00
         0.00000E+00
         0.00000E+00
         0.00000E+00
         0.00000E+00
         0.00000E+00
         0.00000E+00
         0.00000E+00
         0.00000E+00
         0.00000E+00
         0.00000E+00
         0.00000E+00
         0.00000E+00
         0.00000E+00
         0.00000E+00
         0.00000E+00
         0.00000E+00
         0.00000E+00
         0.00000E+00
         0.00000E+00
         0.00000E+00
         0.00000E+00
         0.00000E+00
         0.00000E+00
         0.00000E+00
         0.00000E+00
         0.00000E+00
         0.00000E+00
         0.00000E+00
         0.00000E+00
         0.00000E+00
         0.00000E+00
         0.00000E+00
         0.00000E+00
         0.00000E+00
         0.00000E+00
         0.00000E+00
         0.00000E+00
         0.00000E+00
         0.00000E+00
         0.00000E+00
         0.00000E+00
         0.00000E+00
         0.00000E+00
         0.00000E+00
         0.00000E+00
         0.00000E+00
         0.00000E+00
         0.00000E+00
         0.00000E+00
         0.00000E+00
         0.00000E+00
         0.00000E+00
         0.00000E+00
         0.00000E+00
         0.00000E+00
         0.00000E+00
         0.00000E+00
         0.00000E+00
         0.00000E+00
         0.00000E+00
         0.00000E+00
         0.00000E+00
         0.00000E+00
         0.00000E+00
         0.00000E+00
         0.00000E+00
         0.00000E+00
         0.00000E+00
         0.00000E+00
         0.00000E+00
         0.00000E+00
         0.00000E+00
         0.00000E+00
         0.00000E+00
         0.00000E+00
         0.00000E+00
         0.00000E+00
         0.00000E+00
         0.00000E+00
         0.00000E+00
         0.00000E+00
         0.00000E+00
         0.00000E+00
         0.00000E+00
         0.00000E+00
         0.00000E+00
         0.00000E+00
         0.00000E+00
         0.00000E+00
         0.00000E+00
         0.00000E+00
         0.00000E+00
         0.00000E+00
         0.00000E+00
         0.00000E+00
         0.00000E+00
         0.00000E+00
         0.00000E+00
         0.00000E+00
         0.00000E+00
         0.00000E+00
         0.00000E+00
         0.00000E+00
         0.00000E+00
         0.00000E+00
         0.00000E+00
         0.00000E+00
         0.00000E+00
         0.00000E+00
         0.00000E+00
         0.00000E+00
         0.00000E+00
         0.00000E+00
         0.00000E+00
         0.00000E+00
         0.00000E+00
         0.00000E+00
         0.00000E+00
         0.00000E+00
         0.00000E+00
         0.00000E+00
         0.00000E+00
         0.00000E+00
         0.00000E+00
         0.00000E+00
         0.00000E+00
         0.00000E+00
         0.00000E+00
         0.00000E+00
         0.00000E+00
         0.00000E+00
         0.00000E+00
         0.00000E+00
         0.00000E+00
         0.00000E+00
         0.00000E+00
         0.00000E+00
         0.00000E+00
         0.00000E+00
         0.00000E+00
         0.00000E+00
         0.00000E+00
         0.00000E+00
         0.00000E+00
         0.00000E+00
         0.00000E+00
         0.00000E+00
         0.00000E+00
         0.00000E+00
         0.00000E+00
         0.00000E+00
         0.00000E+00
         0.00000E+00
         0.00000E+00
         0.00000E+00
         0.00000E+00
         0.00000E+00
         0.00000E+00
         0.00000E+00
         0.00000E+00
         0.00000E+00
         0.00000E+00
         0.00000E+00
         0.00000E+00
         0.00000E+00
         0.00000E+00
         0.00000E+00
         0.00000E+00
         0.00000E+00
         0.00000E+00
         0.00000E+00
         0.00000E+00
         0.00000E+00
         0.00000E+00
         0.00000E+00
         0.00000E+00
         0.00000E+00
         0.00000E+00
         0.00000E+00
         0.00000E+00
         0.00000E+00
         0.00000E+00
         0.00000E+00
         0.00000E+00
         0.00000E+00
         0.00000E+00
         0.00000E+00
         0.00000E+00
         0.00000E+00
         0.00000E+00
         0.00000E+00
         0.00000E+00
         0.00000E+00
         0.00000E+00
         0.00000E+00
         0.00000E+00
         0.00000E+00
         0.00000E+00
         0.00000E+00
         0.00000E+00
         0.00000E+00
         0.00000E+00
         0.00000E+00
         0.00000E+00
         0.00000E+00
         0.00000E+00
         0.00000E+00
         0.00000E+00
         0.00000E+00
         0.00000E+00
         0.00000E+00
         0.00000E+00
         0.00000E+00
         0.00000E+00
         0.00000E+00
         0.00000E+00
         0.00000E+00
         0.00000E+00
         0.00000E+00
         0.00000E+00
         0.00000E+00
         0.00000E+00
         0.00000E+00
         0.00000E+00
         0.00000E+00
         0.00000E+00
         0.00000E+00
         0.00000E+00
         0.00000E+00
         0.00000E+00
         0.00000E+00
         0.00000E+00
         0.00000E+00
         0.00000E+00
         0.00000E+00
         0.00000E+00
         0.00000E+00
         0.00000E+00
         0.00000E+00
         0.00000E+00
         0.00000E+00
         0.00000E+00
         0.00000E+00
         0.00000E+00
         0.00000E+00
         0.00000E+00
         0.00000E+00
         0.00000E+00
         0.00000E+00
         0.00000E+00
         0.00000E+00
         0.00000E+00
         0.00000E+00
         0.00000E+00
         0.00000E+00
         0.00000E+00
         0.00000E+00
         0.00000E+00
         0.00000E+00
         0.00000E+00
         0.00000E+00
         0.00000E+00
         0.00000E+00
         0.00000E+00
         0.00000E+00
         0.00000E+00
         0.00000E+00
         0.00000E+00
         0.00000E+00
         0.00000E+00
         0.00000E+00
         0.00000E+00
         0.00000E+00
         0.00000E+00
         0.00000E+00
         0.00000E+00
         0.00000E+00
         0.00000E+00
         0.00000E+00
         0.00000E+00
         0.00000E+00
         0.00000E+00
         0.00000E+00
         0.00000E+00
         0.00000E+00
         0.00000E+00
         0.00000E+00
         0.00000E+00
         0.00000E+00
         0.00000E+00
         0.00000E+00
         0.00000E+00
         0.00000E+00
         0.00000E+00
         0.00000E+00
         0.00000E+00
         0.00000E+00
         0.00000E+00
         0.00000E+00
         0.00000E+00
         0.00000E+00
         0.00000E+00
         0.00000E+00
         0.00000E+00
         0.00000E+00
         0.00000E+00
         0.00000E+00
         0.00000E+00
         0.00000E+00
         0.00000E+00
         0.00000E+00
         0.00000E+00
         0.00000E+00
         0.00000E+00
         0.00000E+00
         0.00000E+00
         0.00000E+00
         0.00000E+00
         0.00000E+00
         0.00000E+00
         0.00000E+00
         0.00000E+00
         0.00000E+00
         0.00000E+00
         0.00000E+00
         0.00000E+00
         0.00000E+00
         0.00000E+00
         0.00000E+00
         0.00000E+00
         0.00000E+00
         0.00000E+00
         0.00000E+00
         0.00000E+00
         0.00000E+00
         0.00000E+00
         0.00000E+00
         0.00000E+00
         0.00000E+00
         0.00000E+00
         0.00000E+00
         0.00000E+00
         0.00000E+00
         0.00000E+00
         0.00000E+00
         0.00000E+00
         0.00000E+00
         0.00000E+00
         0.00000E+00
         0.00000E+00
         0.00000E+00
         0.00000E+00
         0.00000E+00
         0.00000E+00
         0.00000E+00
         0.00000E+00
         0.00000E+00
         0.00000E+00
         0.00000E+00
         0.00000E+00
         0.00000E+00
         0.00000E+00
         0.00000E+00
         0.00000E+00
         0.00000E+00
         0.00000E+00
         0.00000E+00
         0.00000E+00
         0.00000E+00
         0.00000E+00
         0.00000E+00
         0.00000E+00
         0.00000E+00
         0.00000E+00
         0.00000E+00
         0.00000E+00
         0.00000E+00
         0.00000E+00
         0.00000E+00
         0.00000E+00
         0.00000E+00
         0.00000E+00
         0.00000E+00
         0.00000E+00
         0.00000E+00
         0.00000E+00
         0.00000E+00
         0.00000E+00
         0.00000E+00
         0.00000E+00
         0.00000E+00
         0.00000E+00
         0.00000E+00
         0.00000E+00
         0.00000E+00
         0.00000E+00
         0.00000E+00
         0.00000E+00
         0.00000E+00
         0.00000E+00
         0.00000E+00
         0.00000E+00
         0.00000E+00
         0.00000E+00
         0.00000E+00
         0.00000E+00
         0.00000E+00
         0.00000E+00
         0.00000E+00
         0.00000E+00
         0.00000E+00
         0.00000E+00
         0.00000E+00
         0.00000E+00
         0.00000E+00
         0.00000E+00
         0.00000E+00
         0.00000E+00
         0.00000E+00
         0.00000E+00
         0.00000E+00
         0.00000E+00
         0.00000E+00
         0.00000E+00
         0.00000E+00
         0.00000E+00
         0.00000E+00
         0.00000E+00
         0.00000E+00
         0.00000E+00
         0.00000E+00
         0.00000E+00
         0.00000E+00
         0.00000E+00
         0.00000E+00
         0.00000E+00
         0.00000E+00
         0.00000E+00
         0.00000E+00
         0.00000E+00
         0.00000E+00
         0.00000E+00
         0.00000E+00
         0.00000E+00
         0.00000E+00
         0.00000E+00
         0.00000E+00
         0.00000E+00
         0.00000E+00
         0.00000E+00
         0.00000E+00
         0.00000E+00
         0.00000E+00
         0.00000E+00
         0.00000E+00
         0.00000E+00
         0.00000E+00
         0.00000E+00
         0.00000E+00
         0.00000E+00
         0.00000E+00
         0.00000E+00
         0.00000E+00
         0.00000E+00
         0.00000E+00
         0.00000E+00
         0.00000E+00
         0.00000E+00
         0.00000E+00
         0.00000E+00
         0.00000E+00
         0.00000E+00
         0.00000E+00
         0.00000E+00
         0.00000E+00
         0.00000E+00
         0.00000E+00
         0.00000E+00
         0.00000E+00
         0.00000E+00
         0.00000E+00
         0.00000E+00
         0.00000E+00
         0.00000E+00
         0.00000E+00
         0.00000E+00
         0.00000E+00
         0.00000E+00
         0.00000E+00
         0.00000E+00
         0.00000E+00
         0.00000E+00
         0.00000E+00
         0.00000E+00
         0.00000E+00
         0.00000E+00
         0.00000E+00
         0.00000E+00
         0.00000E+00
         0.00000E+00
         0.00000E+00
         0.00000E+00
         0.00000E+00
         0.00000E+00
         0.00000E+00
         0.00000E+00
         0.00000E+00
         0.00000E+00
         0.00000E+00
         0.00000E+00
         0.00000E+00
         0.00000E+00
         0.00000E+00
         0.00000E+00
         0.00000E+00
         0.00000E+00
         0.00000E+00
         0.00000E+00
         0.00000E+00
         0.00000E+00
         0.00000E+00
         0.00000E+00
         0.00000E+00
         0.00000E+00
         0.00000E+00
         0.00000E+00
         0.00000E+00
         0.00000E+00
         0.00000E+00
         0.00000E+00
         0.00000E+00
         0.00000E+00
         0.00000E+00
         0.00000E+00
         0.00000E+00
         0.00000E+00
         0.00000E+00
         0.00000E+00
         0.00000E+00
         0.00000E+00
         0.00000E+00
         0.00000E+00
         0.00000E+00
         0.00000E+00
         0.00000E+00
         0.00000E+00
         0.00000E+00
         0.00000E+00
         0.00000E+00
         0.00000E+00
         0.00000E+00
         0.00000E+00
         0.00000E+00
         0.00000E+00
         0.00000E+00
         0.00000E+00
         0.00000E+00
         0.00000E+00
         0.00000E+00
         0.00000E+00
         0.00000E+00
         0.00000E+00
         0.00000E+00
         0.00000E+00
         0.00000E+00
         0.00000E+00
         0.00000E+00
         0.00000E+00
         0.00000E+00
         0.00000E+00
         0.00000E+00
         0.00000E+00
         0.00000E+00
         0.00000E+00
         0.00000E+00
         0.00000E+00
         0.00000E+00
         0.00000E+00
         0.00000E+00
         0.00000E+00
         0.00000E+00
         0.00000E+00
         0.00000E+00
         0.00000E+00
         0.00000E+00
         0.00000E+00
         0.00000E+00
         0.00000E+00
         0.00000E+00
         0.00000E+00
         0.00000E+00
         0.00000E+00
         0.00000E+00
         0.00000E+00
         0.00000E+00
         0.00000E+00
         0.00000E+00
         0.00000E+00
         0.00000E+00
         0.00000E+00
         0.00000E+00
         0.00000E+00
         0.00000E+00
         0.00000E+00
         0.00000E+00
         0.00000E+00
         0.00000E+00
         0.00000E+00
         0.00000E+00
         0.00000E+00
         0.00000E+00
         0.00000E+00
         0.00000E+00
         0.00000E+00
         0.00000E+00
         0.00000E+00
         0.00000E+00
         0.00000E+00
         0.00000E+00
         0.00000E+00
         0.00000E+00
         0.00000E+00
         0.00000E+00
         0.00000E+00
         0.00000E+00
         0.00000E+00
         0.00000E+00
         0.00000E+00
         0.00000E+00
         0.00000E+00
         0.00000E+00
         0.00000E+00
         0.00000E+00
         0.00000E+00
         0.00000E+00
         0.00000E+00
         0.00000E+00
         0.00000E+00
         0.00000E+00
         0.00000E+00
         0.00000E+00
         0.00000E+00
         0.00000E+00
         0.00000E+00
         0.00000E+00
         0.00000E+00
         0.00000E+00
         0.00000E+00
         0.00000E+00
         0.00000E+00
         0.00000E+00
         0.00000E+00
         0.00000E+00
         0.00000E+00
         0.00000E+00
         0.00000E+00
         0.00000E+00
         0.00000E+00
         0.00000E+00
         0.00000E+00
         0.00000E+00
         0.00000E+00
         0.00000E+00
         0.00000E+00
         0.00000E+00
         0.00000E+00
         0.00000E+00
         0.00000E+00
         0.00000E+00
         0.00000E+00
         0.00000E+00
         0.00000E+00
         0.00000E+00
         0.00000E+00
         0.00000E+00
         0.00000E+00
         0.00000E+00
         0.00000E+00
         0.00000E+00
         0.00000E+00
         0.00000E+00
         0.00000E+00
         0.00000E+00
         0.00000E+00
         0.00000E+00
         0.00000E+00
         0.00000E+00
         0.00000E+00
         0.00000E+00
         0.00000E+00
         0.00000E+00
         0.00000E+00
         0.00000E+00
         0.00000E+00
         0.00000E+00
         0.00000E+00
         0.00000E+00
         0.00000E+00
         0.00000E+00
         0.00000E+00
         0.00000E+00
         0.00000E+00
         0.00000E+00
         0.00000E+00
         0.00000E+00
         0.00000E+00
         0.00000E+00
         0.00000E+00
         0.00000E+00
         0.00000E+00
         0.00000E+00
         0.00000E+00
         0.00000E+00
         0.00000E+00
         0.00000E+00
         0.00000E+00
         0.00000E+00
         0.00000E+00
         0.00000E+00
         0.00000E+00
         0.00000E+00
         0.00000E+00
         0.00000E+00
         0.00000E+00
         0.00000E+00
         0.00000E+00
         0.00000E+00
         0.00000E+00
         0.00000E+00
         0.00000E+00
         0.00000E+00
         0.00000E+00
         0.00000E+00
         0.00000E+00
         0.00000E+00
         0.00000E+00
         0.00000E+00
         0.00000E+00
         0.00000E+00
         0.00000E+00
         0.00000E+00
         0.00000E+00
         0.00000E+00
         0.00000E+00
         0.00000E+00
         0.00000E+00
         0.00000E+00
         0.00000E+00
         0.00000E+00
         0.00000E+00
         0.00000E+00
         0.00000E+00
         0.00000E+00
         0.00000E+00
         0.00000E+00
         0.00000E+00
         0.00000E+00
         0.00000E+00
         0.00000E+00
         0.00000E+00
         0.00000E+00
         0.00000E+00
         0.00000E+00
         0.00000E+00
         0.00000E+00
         0.00000E+00
         0.00000E+00
         0.00000E+00
         0.00000E+00
         0.00000E+00
         0.00000E+00
         0.00000E+00
         0.00000E+00
         0.00000E+00
         0.00000E+00
         0.00000E+00
         0.00000E+00
         0.00000E+00
         0.00000E+00
         0.00000E+00
         0.00000E+00
         0.00000E+00
         0.00000E+00
         0.00000E+00
         0.00000E+00
         0.00000E+00
         0.00000E+00
         0.00000E+00
         0.00000E+00
         0.00000E+00
         0.00000E+00
         0.00000E+00
         0.00000E+00
         0.00000E+00
         0.00000E+00
         0.00000E+00
         0.00000E+00
         0.00000E+00
         0.00000E+00
         0.00000E+00
         0.00000E+00
         0.00000E+00
         0.00000E+00
         0.00000E+00
         0.00000E+00
         0.00000E+00
         0.00000E+00
         0.00000E+00
         0.00000E+00
         0.00000E+00
         0.00000E+00
         0.00000E+00
         0.00000E+00
         0.00000E+00
         0.00000E+00
         0.00000E+00
         0.00000E+00
         0.00000E+00
         0.00000E+00
         0.00000E+00
         0.00000E+00
         0.00000E+00
         0.00000E+00
         0.00000E+00
         0.00000E+00
         0.00000E+00
         0.00000E+00
         0.00000E+00
         0.00000E+00
         0.00000E+00
         0.00000E+00
         0.00000E+00
         0.00000E+00
         0.00000E+00
         0.00000E+00
         0.00000E+00
         0.00000E+00
         0.00000E+00
         0.00000E+00
         0.00000E+00
         0.00000E+00
         0.00000E+00
         0.00000E+00
         0.00000E+00
         0.00000E+00
         0.00000E+00
         0.00000E+00
         0.00000E+00
         0.00000E+00
         0.00000E+00
         0.00000E+00
         0.00000E+00
         0.00000E+00
         0.00000E+00
         0.00000E+00
         0.00000E+00
         0.00000E+00
         0.00000E+00
         0.00000E+00
         0.00000E+00
         0.00000E+00
         0.00000E+00
         0.00000E+00
         0.00000E+00
         0.00000E+00
         0.00000E+00
         0.00000E+00
         0.00000E+00
         0.00000E+00
         0.00000E+00
         0.00000E+00
         0.00000E+00
         0.00000E+00
         0.00000E+00
         0.00000E+00
         0.00000E+00
         0.00000E+00
         0.00000E+00
         0.00000E+00
         0.00000E+00
         0.00000E+00
         0.00000E+00
         0.00000E+00
         0.00000E+00
         0.00000E+00
         0.00000E+00
         0.00000E+00
         0.00000E+00
         0.00000E+00
         0.00000E+00
         0.00000E+00
         0.00000E+00
         0.00000E+00
         0.00000E+00
         0.00000E+00
         0.00000E+00
         0.00000E+00
         0.00000E+00
         0.00000E+00
         0.00000E+00
         0.00000E+00
         0.00000E+00
         0.00000E+00
         0.00000E+00
         0.00000E+00
         0.00000E+00
         0.00000E+00
         0.00000E+00
         0.00000E+00
         0.00000E+00
         0.00000E+00
         0.00000E+00
         0.00000E+00
         0.00000E+00
         0.00000E+00
         0.00000E+00
         0.00000E+00
         0.00000E+00
         0.00000E+00
         0.00000E+00
         0.00000E+00
         0.00000E+00
         0.00000E+00
         0.00000E+00
         0.00000E+00
         0.00000E+00
         0.00000E+00
         0.00000E+00
         0.00000E+00
         0.00000E+00
         0.00000E+00
         0.00000E+00
         0.00000E+00
         0.00000E+00
         0.00000E+00
         0.00000E+00
         0.00000E+00
         0.00000E+00
         0.00000E+00
         0.00000E+00
         0.00000E+00
         0.00000E+00
         0.00000E+00
         0.00000E+00
         0.00000E+00
         0.00000E+00
         0.00000E+00
         0.00000E+00
         0.00000E+00
         0.00000E+00
         0.00000E+00
         0.00000E+00
         0.00000E+00
         0.00000E+00
         0.00000E+00
         0.00000E+00
         0.00000E+00
         0.00000E+00
         0.00000E+00
         0.00000E+00
         0.00000E+00
         0.00000E+00
         0.00000E+00
         0.00000E+00
         0.00000E+00
         0.00000E+00
         0.00000E+00
         0.00000E+00
         0.00000E+00
         0.00000E+00
         0.00000E+00
         0.00000E+00
         0.00000E+00
         0.00000E+00
         0.00000E+00
         0.00000E+00
         0.00000E+00
         0.00000E+00
         0.00000E+00
         0.00000E+00
         0.00000E+00
         0.00000E+00
         0.00000E+00
         0.00000E+00
         0.00000E+00
         0.00000E+00
         0.00000E+00
         0.00000E+00
         0.00000E+00
         0.00000E+00
         0.00000E+00
         0.00000E+00
         0.00000E+00
         0.00000E+00
         0.00000E+00
         0.00000E+00
         0.00000E+00
         0.00000E+00
         0.00000E+00
         0.00000E+00
         0.00000E+00
         0.00000E+00
         0.00000E+00
         0.00000E+00
         0.00000E+00
         0.00000E+00
         0.00000E+00
         0.00000E+00
         0.00000E+00
         0.00000E+00
         0.00000E+00
         0.00000E+00
         0.00000E+00
         0.00000E+00
         0.00000E+00
         0.00000E+00
         0.00000E+00
         0.00000E+00
         0.00000E+00
         0.00000E+00
         0.00000E+00
         0.00000E+00
         0.00000E+00
         0.00000E+00
         0.00000E+00
         0.00000E+00
         0.00000E+00
         0.00000E+00
         0.00000E+00
         0.00000E+00
         0.00000E+00
         0.00000E+00
         0.00000E+00
         0.00000E+00
         0.00000E+00
         0.00000E+00
         0.00000E+00
         0.00000E+00
         0.00000E+00
         0.00000E+00
         0.00000E+00
         0.00000E+00
         0.00000E+00
         0.00000E+00
         0.00000E+00
         0.00000E+00
         0.00000E+00
         0.00000E+00
         0.00000E+00
         0.00000E+00
         0.00000E+00
         0.00000E+00
         0.00000E+00
         0.00000E+00
         0.00000E+00
         0.00000E+00
         0.00000E+00
         0.00000E+00
         0.00000E+00
         0.00000E+00
         0.00000E+00
         0.00000E+00
         0.00000E+00
         0.00000E+00
         0.00000E+00
         0.00000E+00
         0.00000E+00
         0.00000E+00
         0.00000E+00
         0.00000E+00
         0.00000E+00
         0.00000E+00
         0.00000E+00
         0.00000E+00
         0.00000E+00
         0.00000E+00
         0.00000E+00
         0.00000E+00
         0.00000E+00
         0.00000E+00
         0.00000E+00
         0.00000E+00
         0.00000E+00
         0.00000E+00
         0.00000E+00
         0.00000E+00
         0.00000E+00
         0.00000E+00
         0.00000E+00
         0.00000E+00
         0.00000E+00
         0.00000E+00
         0.00000E+00
         0.00000E+00
         0.00000E+00
         0.00000E+00
         0.00000E+00
         0.00000E+00
         0.00000E+00
         0.00000E+00
         0.00000E+00
         0.00000E+00
         0.00000E+00
         0.00000E+00
         0.00000E+00
         0.00000E+00
         0.00000E+00
         0.00000E+00
         0.00000E+00
         0.00000E+00
         0.00000E+00
         0.00000E+00
         0.00000E+00
         0.00000E+00
         0.00000E+00
         0.00000E+00
         0.00000E+00
         0.00000E+00
         0.00000E+00
         0.00000E+00
         0.00000E+00
         0.00000E+00
         0.00000E+00
         0.00000E+00
         0.00000E+00
         0.00000E+00
         0.00000E+00
         0.00000E+00
         0.00000E+00
         0.00000E+00
         0.00000E+00
         0.00000E+00
         0.00000E+00
         0.00000E+00
         0.00000E+00
         0.00000E+00
         0.00000E+00
         0.00000E+00
         0.00000E+00
         0.00000E+00
         0.00000E+00
         0.00000E+00
         0.00000E+00
         0.00000E+00
         0.00000E+00
         0.00000E+00
         0.00000E+00
         0.00000E+00
         0.00000E+00
         0.00000E+00
         0.00000E+00
         0.00000E+00
         0.00000E+00
         0.00000E+00
         0.00000E+00
         0.00000E+00
         0.00000E+00
         0.00000E+00
         0.00000E+00
         0.00000E+00
         0.00000E+00
         0.00000E+00
         0.00000E+00
         0.00000E+00
         0.00000E+00
         0.00000E+00
         0.00000E+00
         0.00000E+00
         0.00000E+00
         0.00000E+00
         0.00000E+00
         0.00000E+00
         0.00000E+00
         0.00000E+00
         0.00000E+00
         0.00000E+00
         0.00000E+00
         0.00000E+00
         0.00000E+00
         0.00000E+00
         0.00000E+00
         0.00000E+00
         0.00000E+00
         0.00000E+00
         0.00000E+00
         0.00000E+00
         0.00000E+00
         0.00000E+00
         0.00000E+00
         0.00000E+00
         0.00000E+00
         0.00000E+00
         0.00000E+00
         0.00000E+00
         0.00000E+00
         0.00000E+00
         0.00000E+00
         0.00000E+00
         0.00000E+00
         0.00000E+00
         0.00000E+00
         0.00000E+00
         0.00000E+00
         0.00000E+00
         0.00000E+00
         0.00000E+00
         0.00000E+00
         0.00000E+00
         0.00000E+00
         0.00000E+00
         0.00000E+00
         0.00000E+00
         0.00000E+00
         0.00000E+00
         0.00000E+00
         0.00000E+00
         0.00000E+00
         0.00000E+00
         0.00000E+00
         0.00000E+00
         0.00000E+00
         0.00000E+00
         0.00000E+00
         0.00000E+00
         0.00000E+00
         0.00000E+00
         0.00000E+00
         0.00000E+00
         0.00000E+00
         0.00000E+00
         0.00000E+00
         0.00000E+00
         0.00000E+00
         0.00000E+00
         0.00000E+00
         0.00000E+00
         0.00000E+00
         0.00000E+00
         0.00000E+00
         0.00000E+00
         0.00000E+00
         0.00000E+00
         0.00000E+00
         0.00000E+00
         0.00000E+00
         0.00000E+00
         0.00000E+00
         0.00000E+00
         0.00000E+00
         0.00000E+00
         0.00000E+00
         0.00000E+00
         0.00000E+00
         0.00000E+00
         0.00000E+00
         0.00000E+00
         0.00000E+00
         0.00000E+00
         0.00000E+00
         0.00000E+00
         0.00000E+00
         0.00000E+00
         0.00000E+00
         0.00000E+00
         0.00000E+00
         0.00000E+00
         0.00000E+00
         0.00000E+00
         0.00000E+00
         0.00000E+00
         0.00000E+00
         0.00000E+00
         0.00000E+00
         0.00000E+00
         0.00000E+00
         0.00000E+00
         0.00000E+00
         0.00000E+00
         0.00000E+00
         0.00000E+00
         0.00000E+00
         0.00000E+00
         0.00000E+00
         0.00000E+00
         0.00000E+00
         0.00000E+00
         0.00000E+00
         0.00000E+00
         0.00000E+00
         0.00000E+00
         0.00000E+00
         0.00000E+00
         0.00000E+00
         0.00000E+00
         0.00000E+00
         0.00000E+00
         0.00000E+00
         0.00000E+00
         0.00000E+00
         0.00000E+00
         0.00000E+00
         0.00000E+00
         0.00000E+00
         0.00000E+00
         0.00000E+00
         0.00000E+00
         0.00000E+00
         0.00000E+00
         0.00000E+00
         0.00000E+00
         0.00000E+00
         0.00000E+00
         0.00000E+00
         0.00000E+00
         0.00000E+00
         0.00000E+00
         0.00000E+00
         0.00000E+00
         0.00000E+00
         0.00000E+00
         0.00000E+00
         0.00000E+00
         0.00000E+00
         0.00000E+00
         0.00000E+00
         0.00000E+00
         0.00000E+00
         0.00000E+00
         0.00000E+00
         0.00000E+00
         0.00000E+00
         0.00000E+00
         0.00000E+00
         0.00000E+00
         0.00000E+00
         0.00000E+00
         0.00000E+00
         0.00000E+00
         0.00000E+00
         0.00000E+00
         0.00000E+00
         0.00000E+00
         0.00000E+00
         0.00000E+00
         0.00000E+00
         0.00000E+00
         0.00000E+00
         0.00000E+00
         0.00000E+00
         0.00000E+00
         0.00000E+00
         0.00000E+00
         0.00000E+00
         0.00000E+00
         0.00000E+00
         0.00000E+00
         0.00000E+00
         0.00000E+00
         0.00000E+00
         0.00000E+00
         0.00000E+00
         0.00000E+00
         0.00000E+00
         0.00000E+00
         0.00000E+00
         0.00000E+00
         0.00000E+00
         0.00000E+00
         0.00000E+00
         0.00000E+00
         0.00000E+00
         0.00000E+00
         0.00000E+00
         0.00000E+00
         0.00000E+00
         0.00000E+00
         0.00000E+00
         0.00000E+00
         0.00000E+00
         0.00000E+00
         0.00000E+00
         0.00000E+00
         0.00000E+00
         0.00000E+00
         0.00000E+00
         0.00000E+00
         0.00000E+00
         0.00000E+00
         0.00000E+00
         0.00000E+00
         0.00000E+00
         0.00000E+00
         0.00000E+00
         0.00000E+00
         0.00000E+00
         0.00000E+00
         0.00000E+00
         0.00000E+00
         0.00000E+00
         0.00000E+00
         0.00000E+00
         0.00000E+00
         0.00000E+00
         0.00000E+00
         0.00000E+00
         0.00000E+00
         0.00000E+00
         0.00000E+00
         0.00000E+00
         0.00000E+00
         0.00000E+00
         0.00000E+00
         0.00000E+00
         0.00000E+00
         0.00000E+00
         0.00000E+00
         0.00000E+00
         0.00000E+00
         0.00000E+00
         0.00000E+00
         0.00000E+00
         0.00000E+00
         0.00000E+00
         0.00000E+00
         0.00000E+00
         0.00000E+00
         0.00000E+00
         0.00000E+00
         0.00000E+00
         0.00000E+00
         0.00000E+00
         0.00000E+00
         0.00000E+00
         0.00000E+00
         0.00000E+00
         0.00000E+00
         0.00000E+00
         0.00000E+00
         0.00000E+00
         0.00000E+00
         0.00000E+00
         0.00000E+00
         0.00000E+00
         0.00000E+00
         0.00000E+00
         0.00000E+00
         0.00000E+00
         0.00000E+00
         0.00000E+00
         0.00000E+00
         0.00000E+00
         0.00000E+00
         0.00000E+00
         0.00000E+00
         0.00000E+00
         0.00000E+00
         0.00000E+00
         0.00000E+00
         0.00000E+00
         0.00000E+00
         0.00000E+00
         0.00000E+00
         0.00000E+00
         0.00000E+00
         0.00000E+00
         0.00000E+00
         0.00000E+00
         0.00000E+00
         0.00000E+00
         0.00000E+00
         0.00000E+00
         0.00000E+00
         0.00000E+00
         0.00000E+00
         0.00000E+00
         0.00000E+00
         0.00000E+00
         0.00000E+00
         0.00000E+00
         0.00000E+00
         0.00000E+00
         0.00000E+00
         0.00000E+00
         0.00000E+00
         0.00000E+00
         0.00000E+00
         0.00000E+00
         0.00000E+00
         0.00000E+00
         0.00000E+00
         0.00000E+00
         0.00000E+00
         0.00000E+00
         0.00000E+00
         0.00000E+00
         0.00000E+00
         0.00000E+00
         0.00000E+00
         0.00000E+00
         0.00000E+00
         0.00000E+00
         0.00000E+00
         0.00000E+00
         0.00000E+00
         0.00000E+00
         0.00000E+00
         0.00000E+00
         0.00000E+00
         0.00000E+00
         0.00000E+00
         0.00000E+00
         0.00000E+00
         0.00000E+00
         0.00000E+00
         0.00000E+00
         0.00000E+00
         0.00000E+00
         0.00000E+00
         0.00000E+00
         0.00000E+00
         0.00000E+00
         0.00000E+00
         0.00000E+00
         0.00000E+00
         0.00000E+00
         0.00000E+00
         0.00000E+00
         0.00000E+00
         0.00000E+00
         0.00000E+00
         0.00000E+00
         0.00000E+00
         0.00000E+00
         0.00000E+00
         0.00000E+00
         0.00000E+00
         0.00000E+00
         0.00000E+00
         0.00000E+00
         0.00000E+00
         0.00000E+00
  
SCALARS           initial_coordinate_x  double 1
LOOKUP_TABLE default
         0.10378E-02
         0.17452E-02
         0.23177E-02
         0.16698E-02
         0.10379E-02
         0.17453E-02
         0.23178E-02
         0.16700E-02
         0.30377E-02
         0.27791E-02
         0.30377E-02
         0.27788E-02
         0.12850E-02
         0.65139E-03
         0.12851E-02
         0.65164E-03
         0.12757E-03
        -0.12822E-03
         0.12783E-03
        -0.12804E-03
         0.94500E-03
         0.11327E-02
         0.17490E-02
         0.94533E-03
         0.11330E-02
         0.17494E-02
         0.40588E-03
         0.39779E-03
         0.40594E-03
         0.39781E-03
        -0.76303E-03
        -0.86604E-03
         0.46119E-03
        -0.76268E-03
        -0.86593E-03
         0.46164E-03
        -0.18300E-02
        -0.18440E-02
        -0.18297E-02
        -0.18441E-02
        -0.27238E-02
        -0.28028E-02
        -0.27238E-02
        -0.28031E-02
        -0.25365E-02
        -0.19287E-02
        -0.25363E-02
        -0.19283E-02
        -0.99363E-03
        -0.99377E-03
        -0.14380E-02
        -0.14377E-02
        -0.31574E-03
        -0.31594E-03
        -0.11068E-02
        -0.11071E-02
        -0.18845E-02
        -0.18713E-02
        -0.18846E-02
        -0.18714E-02
        -0.15871E-03
        -0.94089E-03
        -0.15844E-03
        -0.94029E-03
         0.78856E-03
         0.78922E-03
         0.17211E-02
         0.17211E-02
         0.32050E-02
         0.28046E-02
         0.32047E-02
         0.28047E-02
         0.23059E-02
         0.23060E-02
        -0.40614E-03
        -0.40627E-03
        -0.12092E-02
        -0.12092E-02
        -0.19448E-02
        -0.19448E-02
        -0.25029E-02
        -0.26371E-02
        -0.25029E-02
        -0.26372E-02
        -0.27671E-02
        -0.27674E-02
        -0.21123E-02
        -0.21122E-02
        -0.16087E-02
        -0.16087E-02
        -0.11939E-02
        -0.58641E-03
        -0.11937E-02
        -0.58606E-03
         0.20912E-03
         0.20952E-03
         0.10586E-02
         0.10589E-02
         0.18413E-02
         0.18413E-02
         0.24544E-02
         0.26022E-02
         0.24543E-02
         0.26021E-02
         0.37964E-02
         0.39100E-02
         0.37964E-02
         0.39100E-02
         0.34621E-02
         0.34621E-02
         0.29267E-02
         0.29267E-02
         0.22211E-02
         0.22211E-02
         0.13865E-02
         0.13865E-02
         0.47130E-03
         0.47130E-03
        -0.47130E-03
        -0.47130E-03
        -0.13865E-02
        -0.13865E-02
        -0.22211E-02
        -0.22211E-02
        -0.29267E-02
        -0.29267E-02
        -0.34621E-02
        -0.34621E-02
        -0.37964E-02
        -0.37964E-02
        -0.39100E-02
        -0.39100E-02
        -0.37964E-02
        -0.37964E-02
        -0.34621E-02
        -0.34621E-02
        -0.29267E-02
        -0.29267E-02
        -0.22211E-02
        -0.22211E-02
        -0.13865E-02
        -0.13865E-02
        -0.47130E-03
        -0.47130E-03
         0.47130E-03
         0.47130E-03
         0.13865E-02
         0.13865E-02
         0.22211E-02
         0.22211E-02
         0.29267E-02
         0.29267E-02
         0.34621E-02
         0.34621E-02
         0.37964E-02
         0.37964E-02
         0.10376E-02
         0.17450E-02
         0.23175E-02
         0.16696E-02
         0.30377E-02
         0.27795E-02
         0.12849E-02
         0.65115E-03
         0.12731E-03
        -0.12841E-03
         0.94467E-03
         0.11323E-02
         0.17487E-02
         0.40583E-03
         0.39777E-03
        -0.76338E-03
        -0.86615E-03
         0.46074E-03
        -0.18303E-02
        -0.18439E-02
        -0.27238E-02
        -0.28025E-02
        -0.25366E-02
        -0.19292E-02
        -0.99349E-03
        -0.14384E-02
        -0.31554E-03
        -0.11064E-02
        -0.18845E-02
        -0.18712E-02
        -0.15899E-03
        -0.94149E-03
         0.78790E-03
         0.17210E-02
         0.32053E-02
         0.28046E-02
         0.23058E-02
        -0.40600E-03
        -0.12092E-02
        -0.19447E-02
        -0.25028E-02
        -0.26370E-02
        -0.27668E-02
        -0.21125E-02
        -0.16088E-02
        -0.11940E-02
        -0.58676E-03
         0.20871E-03
         0.10583E-02
         0.18413E-02
         0.24545E-02
         0.26022E-02
         0.37964E-02
         0.39100E-02
         0.34621E-02
         0.29267E-02
         0.22211E-02
         0.13865E-02
         0.47130E-03
        -0.47130E-03
        -0.13865E-02
        -0.22211E-02
        -0.29267E-02
        -0.34621E-02
        -0.37964E-02
        -0.39100E-02
        -0.37964E-02
        -0.34621E-02
        -0.29267E-02
        -0.22211E-02
        -0.13865E-02
        -0.47130E-03
         0.47130E-03
         0.13865E-02
         0.22211E-02
         0.29267E-02
         0.34621E-02
         0.37964E-02
         0.10375E-02
         0.17448E-02
         0.23174E-02
         0.16694E-02
         0.30377E-02
         0.27798E-02
         0.12848E-02
         0.65090E-03
         0.12705E-03
        -0.12859E-03
         0.94434E-03
         0.11320E-02
         0.17483E-02
         0.40577E-03
         0.39776E-03
        -0.76374E-03
        -0.86626E-03
         0.46029E-03
        -0.18306E-02
        -0.18438E-02
        -0.27238E-02
        -0.28022E-02
        -0.25368E-02
        -0.19296E-02
        -0.99334E-03
        -0.14387E-02
        -0.31534E-03
        -0.11061E-02
        -0.18844E-02
        -0.18710E-02
        -0.15926E-03
        -0.94209E-03
         0.78724E-03
         0.17210E-02
         0.32056E-02
         0.28046E-02
         0.23057E-02
        -0.40586E-03
        -0.12092E-02
        -0.19447E-02
        -0.25028E-02
        -0.26369E-02
        -0.27665E-02
        -0.21126E-02
        -0.16088E-02
        -0.11941E-02
        -0.58711E-03
         0.20830E-03
         0.10580E-02
         0.18414E-02
         0.24546E-02
         0.26023E-02
         0.37964E-02
         0.39100E-02
         0.34621E-02
         0.29267E-02
         0.22211E-02
         0.13865E-02
         0.47130E-03
        -0.47130E-03
        -0.13865E-02
        -0.22211E-02
        -0.29267E-02
        -0.34621E-02
        -0.37964E-02
        -0.39100E-02
        -0.37964E-02
        -0.34621E-02
        -0.29267E-02
        -0.22211E-02
        -0.13865E-02
        -0.47130E-03
         0.47130E-03
         0.13865E-02
         0.22211E-02
         0.29267E-02
         0.34621E-02
         0.37964E-02
         0.10374E-02
         0.17446E-02
         0.23173E-02
         0.16692E-02
         0.30376E-02
         0.27801E-02
         0.12847E-02
         0.65065E-03
         0.12678E-03
        -0.12878E-03
         0.94401E-03
         0.11316E-02
         0.17479E-02
         0.40572E-03
         0.39774E-03
        -0.76409E-03
        -0.86637E-03
         0.45985E-03
        -0.18309E-02
        -0.18437E-02
        -0.27237E-02
        -0.28020E-02
        -0.25369E-02
        -0.19300E-02
        -0.99320E-03
        -0.14391E-02
        -0.31514E-03
        -0.11057E-02
        -0.18844E-02
        -0.18709E-02
        -0.15954E-03
        -0.94269E-03
         0.78658E-03
         0.17209E-02
         0.32060E-02
         0.28046E-02
         0.23056E-02
        -0.40572E-03
        -0.12092E-02
        -0.19446E-02
        -0.25028E-02
        -0.26368E-02
        -0.27662E-02
        -0.21128E-02
        -0.16088E-02
        -0.11942E-02
        -0.58746E-03
         0.20790E-03
         0.10577E-02
         0.18414E-02
         0.24548E-02
         0.26024E-02
         0.37964E-02
         0.39100E-02
         0.34621E-02
         0.29267E-02
         0.22211E-02
         0.13865E-02
         0.47130E-03
        -0.47130E-03
        -0.13865E-02
        -0.22211E-02
        -0.29267E-02
        -0.34621E-02
        -0.37964E-02
        -0.39100E-02
        -0.37964E-02
        -0.34621E-02
        -0.29267E-02
        -0.22211E-02
        -0.13865E-02
        -0.47130E-03
         0.47130E-03
         0.13865E-02
         0.22211E-02
         0.29267E-02
         0.34621E-02
         0.37964E-02
         0.10373E-02
         0.17445E-02
         0.23172E-02
         0.16689E-02
         0.30376E-02
         0.27805E-02
         0.12846E-02
         0.65041E-03
         0.12652E-03
        -0.12896E-03
         0.94367E-03
         0.11313E-02
         0.17475E-02
         0.40566E-03
         0.39772E-03
        -0.76444E-03
        -0.86648E-03
         0.45940E-03
        -0.18312E-02
        -0.18436E-02
        -0.27237E-02
        -0.28017E-02
        -0.25371E-02
        -0.19305E-02
        -0.99305E-03
        -0.14394E-02
        -0.31494E-03
        -0.11054E-02
        -0.18843E-02
        -0.18708E-02
        -0.15981E-03
        -0.94328E-03
         0.78592E-03
         0.17209E-02
         0.32063E-02
         0.28045E-02
         0.23055E-02
        -0.40558E-03
        -0.12092E-02
        -0.19446E-02
        -0.25027E-02
        -0.26367E-02
        -0.27658E-02
        -0.21129E-02
        -0.16089E-02
        -0.11943E-02
        -0.58781E-03
         0.20749E-03
         0.10574E-02
         0.18415E-02
         0.24549E-02
         0.26025E-02
         0.37964E-02
         0.39100E-02
         0.34621E-02
         0.29267E-02
         0.22211E-02
         0.13865E-02
         0.47130E-03
        -0.47130E-03
        -0.13865E-02
        -0.22211E-02
        -0.29267E-02
        -0.34621E-02
        -0.37964E-02
        -0.39100E-02
        -0.37964E-02
        -0.34621E-02
        -0.29267E-02
        -0.22211E-02
        -0.13865E-02
        -0.47130E-03
         0.47130E-03
         0.13865E-02
         0.22211E-02
         0.29267E-02
         0.34621E-02
         0.37964E-02
         0.10372E-02
         0.17443E-02
         0.23171E-02
         0.16687E-02
         0.30376E-02
         0.27808E-02
         0.12845E-02
         0.65016E-03
         0.12626E-03
        -0.12915E-03
         0.94334E-03
         0.11310E-02
         0.17471E-02
         0.40561E-03
         0.39770E-03
        -0.76480E-03
        -0.86659E-03
         0.45895E-03
        -0.18315E-02
        -0.18435E-02
        -0.27237E-02
        -0.28014E-02
        -0.25372E-02
        -0.19309E-02
        -0.99291E-03
        -0.14398E-02
        -0.31474E-03
        -0.11051E-02
        -0.18843E-02
        -0.18706E-02
        -0.16009E-03
        -0.94388E-03
         0.78526E-03
         0.17208E-02
         0.32066E-02
         0.28045E-02
         0.23053E-02
        -0.40545E-03
        -0.12092E-02
        -0.19446E-02
        -0.25027E-02
        -0.26366E-02
        -0.27655E-02
        -0.21130E-02
        -0.16089E-02
        -0.11944E-02
        -0.58816E-03
         0.20709E-03
         0.10571E-02
         0.18415E-02
         0.24550E-02
         0.26025E-02
         0.37964E-02
         0.39100E-02
         0.34621E-02
         0.29267E-02
         0.22211E-02
         0.13865E-02
         0.47130E-03
        -0.47130E-03
        -0.13865E-02
        -0.22211E-02
        -0.29267E-02
        -0.34621E-02
        -0.37964E-02
        -0.39100E-02
        -0.37964E-02
        -0.34621E-02
        -0.29267E-02
        -0.22211E-02
        -0.13865E-02
        -0.47130E-03
         0.47130E-03
         0.13865E-02
         0.22211E-02
         0.29267E-02
         0.34621E-02
         0.37964E-02
         0.10371E-02
         0.17441E-02
         0.23169E-02
         0.16685E-02
         0.30376E-02
         0.27812E-02
         0.12844E-02
         0.64992E-03
         0.12600E-03
        -0.12933E-03
         0.94301E-03
         0.11306E-02
         0.17467E-02
         0.40556E-03
         0.39769E-03
        -0.76515E-03
        -0.86670E-03
         0.45850E-03
        -0.18318E-02
        -0.18434E-02
        -0.27236E-02
        -0.28011E-02
        -0.25374E-02
        -0.19313E-02
        -0.99277E-03
        -0.14401E-02
        -0.31454E-03
        -0.11047E-02
        -0.18842E-02
        -0.18705E-02
        -0.16036E-03
        -0.94448E-03
         0.78460E-03
         0.17208E-02
         0.32070E-02
         0.28045E-02
         0.23052E-02
        -0.40531E-03
        -0.12092E-02
        -0.19445E-02
        -0.25027E-02
        -0.26366E-02
        -0.27652E-02
        -0.21132E-02
        -0.16090E-02
        -0.11946E-02
        -0.58851E-03
         0.20668E-03
         0.10567E-02
         0.18416E-02
         0.24551E-02
         0.26026E-02
         0.37964E-02
         0.39100E-02
         0.34621E-02
         0.29267E-02
         0.22211E-02
         0.13865E-02
         0.47130E-03
        -0.47130E-03
        -0.13865E-02
        -0.22211E-02
        -0.29267E-02
        -0.34621E-02
        -0.37964E-02
        -0.39100E-02
        -0.37964E-02
        -0.34621E-02
        -0.29267E-02
        -0.22211E-02
        -0.13865E-02
        -0.47130E-03
         0.47130E-03
         0.13865E-02
         0.22211E-02
         0.29267E-02
         0.34621E-02
         0.37964E-02
         0.10370E-02
         0.17439E-02
         0.23168E-02
         0.16683E-02
         0.30375E-02
         0.27815E-02
         0.12843E-02
         0.64967E-03
         0.12573E-03
        -0.12952E-03
         0.94268E-03
         0.11303E-02
         0.17463E-02
         0.40550E-03
         0.39767E-03
        -0.76551E-03
        -0.86680E-03
         0.45806E-03
        -0.18321E-02
        -0.18433E-02
        -0.27236E-02
        -0.28009E-02
        -0.25375E-02
        -0.19317E-02
        -0.99262E-03
        -0.14405E-02
        -0.31434E-03
        -0.11044E-02
        -0.18842E-02
        -0.18704E-02
        -0.16064E-03
        -0.94508E-03
         0.78394E-03
         0.17208E-02
         0.32073E-02
         0.28045E-02
         0.23051E-02
        -0.40517E-03
        -0.12092E-02
        -0.19445E-02
        -0.25026E-02
        -0.26365E-02
        -0.27649E-02
        -0.21133E-02
        -0.16090E-02
        -0.11947E-02
        -0.58886E-03
         0.20627E-03
         0.10564E-02
         0.18416E-02
         0.24553E-02
         0.26027E-02
         0.37964E-02
         0.39100E-02
         0.34621E-02
         0.29267E-02
         0.22211E-02
         0.13865E-02
         0.47130E-03
        -0.47130E-03
        -0.13865E-02
        -0.22211E-02
        -0.29267E-02
        -0.34621E-02
        -0.37964E-02
        -0.39100E-02
        -0.37964E-02
        -0.34621E-02
        -0.29267E-02
        -0.22211E-02
        -0.13865E-02
        -0.47130E-03
         0.47130E-03
         0.13865E-02
         0.22211E-02
         0.29267E-02
         0.34621E-02
         0.37964E-02
         0.10368E-02
         0.17438E-02
         0.23167E-02
         0.16681E-02
         0.30375E-02
         0.27819E-02
         0.12842E-02
         0.64943E-03
         0.12547E-03
        -0.12970E-03
         0.94235E-03
         0.11300E-02
         0.17459E-02
         0.40545E-03
         0.39766E-03
        -0.76586E-03
        -0.86691E-03
         0.45761E-03
        -0.18324E-02
        -0.18432E-02
        -0.27236E-02
        -0.28006E-02
        -0.25377E-02
        -0.19322E-02
        -0.99248E-03
        -0.14408E-02
        -0.31414E-03
        -0.11040E-02
        -0.18841E-02
        -0.18703E-02
        -0.16091E-03
        -0.94568E-03
         0.78328E-03
         0.17207E-02
         0.32076E-02
         0.28044E-02
         0.23050E-02
        -0.40503E-03
        -0.12092E-02
        -0.19445E-02
        -0.25026E-02
        -0.26364E-02
        -0.27646E-02
        -0.21134E-02
        -0.16091E-02
        -0.11948E-02
        -0.58921E-03
         0.20587E-03
         0.10561E-02
         0.18416E-02
         0.24554E-02
         0.26027E-02
         0.37964E-02
         0.39100E-02
         0.34621E-02
         0.29267E-02
         0.22211E-02
         0.13865E-02
         0.47130E-03
        -0.47130E-03
        -0.13865E-02
        -0.22211E-02
        -0.29267E-02
        -0.34621E-02
        -0.37964E-02
        -0.39100E-02
        -0.37964E-02
        -0.34621E-02
        -0.29267E-02
        -0.22211E-02
        -0.13865E-02
        -0.47130E-03
         0.47130E-03
         0.13865E-02
         0.22211E-02
         0.29267E-02
         0.34621E-02
         0.37964E-02
         0.10367E-02
         0.17436E-02
         0.23166E-02
         0.16679E-02
         0.30375E-02
         0.27822E-02
         0.12841E-02
         0.64918E-03
         0.12521E-03
        -0.12989E-03
         0.94202E-03
         0.11296E-02
         0.17455E-02
         0.40539E-03
         0.39764E-03
        -0.76621E-03
        -0.86702E-03
         0.45716E-03
        -0.18326E-02
        -0.18431E-02
        -0.27235E-02
        -0.28003E-02
        -0.25379E-02
        -0.19326E-02
        -0.99233E-03
        -0.14412E-02
        -0.31394E-03
        -0.11037E-02
        -0.18841E-02
        -0.18701E-02
        -0.16119E-03
        -0.94628E-03
         0.78262E-03
         0.17207E-02
         0.32079E-02
         0.28044E-02
         0.23049E-02
        -0.40490E-03
        -0.12093E-02
        -0.19444E-02
        -0.25026E-02
        -0.26363E-02
        -0.27643E-02
        -0.21136E-02
        -0.16091E-02
        -0.11949E-02
        -0.58956E-03
         0.20546E-03
         0.10558E-02
         0.18417E-02
         0.24555E-02
         0.26028E-02
         0.37964E-02
         0.39100E-02
         0.34621E-02
         0.29267E-02
         0.22211E-02
         0.13865E-02
         0.47130E-03
        -0.47130E-03
        -0.13865E-02
        -0.22211E-02
        -0.29267E-02
        -0.34621E-02
        -0.37964E-02
        -0.39100E-02
        -0.37964E-02
        -0.34621E-02
        -0.29267E-02
        -0.22211E-02
        -0.13865E-02
        -0.47130E-03
         0.47130E-03
         0.13865E-02
         0.22211E-02
         0.29267E-02
         0.34621E-02
         0.37964E-02
         0.10366E-02
         0.17434E-02
         0.23164E-02
         0.16677E-02
         0.30375E-02
         0.27825E-02
         0.12840E-02
         0.64894E-03
         0.12495E-03
        -0.13007E-03
         0.94169E-03
         0.11293E-02
         0.17451E-02
         0.40534E-03
         0.39762E-03
        -0.76657E-03
        -0.86713E-03
         0.45671E-03
        -0.18329E-02
        -0.18430E-02
        -0.27235E-02
        -0.28001E-02
        -0.25380E-02
        -0.19330E-02
        -0.99219E-03
        -0.14415E-02
        -0.31374E-03
        -0.11033E-02
        -0.18840E-02
        -0.18700E-02
        -0.16146E-03
        -0.94687E-03
         0.78195E-03
         0.17207E-02
         0.32083E-02
         0.28044E-02
         0.23048E-02
        -0.40476E-03
        -0.12093E-02
        -0.19444E-02
        -0.25026E-02
        -0.26362E-02
        -0.27640E-02
        -0.21137E-02
        -0.16091E-02
        -0.11950E-02
        -0.58991E-03
         0.20505E-03
         0.10555E-02
         0.18417E-02
         0.24556E-02
         0.26029E-02
         0.37964E-02
         0.39100E-02
         0.34621E-02
         0.29267E-02
         0.22211E-02
         0.13865E-02
         0.47130E-03
        -0.47130E-03
        -0.13865E-02
        -0.22211E-02
        -0.29267E-02
        -0.34621E-02
        -0.37964E-02
        -0.39100E-02
        -0.37964E-02
        -0.34621E-02
        -0.29267E-02
        -0.22211E-02
        -0.13865E-02
        -0.47130E-03
         0.47130E-03
         0.13865E-02
         0.22211E-02
         0.29267E-02
         0.34621E-02
         0.37964E-02
         0.10365E-02
         0.17432E-02
         0.23163E-02
         0.16675E-02
         0.30374E-02
         0.27829E-02
         0.12839E-02
         0.64869E-03
         0.12468E-03
        -0.13026E-03
         0.94135E-03
         0.11289E-02
         0.17447E-02
         0.40528E-03
         0.39760E-03
        -0.76692E-03
        -0.86724E-03
         0.45626E-03
        -0.18332E-02
        -0.18430E-02
        -0.27235E-02
        -0.27998E-02
        -0.25382E-02
        -0.19334E-02
        -0.99205E-03
        -0.14419E-02
        -0.31354E-03
        -0.11030E-02
        -0.18840E-02
        -0.18699E-02
        -0.16174E-03
        -0.94747E-03
         0.78129E-03
         0.17206E-02
         0.32086E-02
         0.28044E-02
         0.23047E-02
        -0.40462E-03
        -0.12093E-02
        -0.19444E-02
        -0.25025E-02
        -0.26361E-02
        -0.27637E-02
        -0.21139E-02
        -0.16092E-02
        -0.11951E-02
        -0.59025E-03
         0.20465E-03
         0.10552E-02
         0.18418E-02
         0.24558E-02
         0.26030E-02
         0.37964E-02
         0.39100E-02
         0.34621E-02
         0.29267E-02
         0.22211E-02
         0.13865E-02
         0.47130E-03
        -0.47130E-03
        -0.13865E-02
        -0.22211E-02
        -0.29267E-02
        -0.34621E-02
        -0.37964E-02
        -0.39100E-02
        -0.37964E-02
        -0.34621E-02
        -0.29267E-02
        -0.22211E-02
        -0.13865E-02
        -0.47130E-03
         0.47130E-03
         0.13865E-02
         0.22211E-02
         0.29267E-02
         0.34621E-02
         0.37964E-02
         0.10364E-02
         0.17430E-02
         0.23162E-02
         0.16672E-02
         0.30374E-02
         0.27832E-02
         0.12838E-02
         0.64845E-03
         0.12442E-03
        -0.13044E-03
         0.94102E-03
         0.11286E-02
         0.17443E-02
         0.40523E-03
         0.39759E-03
        -0.76727E-03
        -0.86735E-03
         0.45582E-03
        -0.18335E-02
        -0.18429E-02
        -0.27235E-02
        -0.27995E-02
        -0.25383E-02
        -0.19339E-02
        -0.99190E-03
        -0.14422E-02
        -0.31334E-03
        -0.11026E-02
        -0.18839E-02
        -0.18697E-02
        -0.16201E-03
        -0.94807E-03
         0.78063E-03
         0.17206E-02
         0.32089E-02
         0.28043E-02
         0.23046E-02
        -0.40448E-03
        -0.12093E-02
        -0.19443E-02
        -0.25025E-02
        -0.26360E-02
        -0.27633E-02
        -0.21140E-02
        -0.16092E-02
        -0.11953E-02
        -0.59060E-03
         0.20424E-03
         0.10549E-02
         0.18418E-02
         0.24559E-02
         0.26030E-02
         0.37964E-02
         0.39100E-02
         0.34621E-02
         0.29267E-02
         0.22211E-02
         0.13865E-02
         0.47130E-03
        -0.47130E-03
        -0.13865E-02
        -0.22211E-02
        -0.29267E-02
        -0.34621E-02
        -0.37964E-02
        -0.39100E-02
        -0.37964E-02
        -0.34621E-02
        -0.29267E-02
        -0.22211E-02
        -0.13865E-02
        -0.47130E-03
         0.47130E-03
         0.13865E-02
         0.22211E-02
         0.29267E-02
         0.34621E-02
         0.37964E-02
         0.10363E-02
         0.17429E-02
         0.23161E-02
         0.16670E-02
         0.30374E-02
         0.27836E-02
         0.12837E-02
         0.64820E-03
         0.12416E-03
        -0.13063E-03
         0.94069E-03
         0.11282E-02
         0.17439E-02
         0.40518E-03
         0.39757E-03
        -0.76763E-03
        -0.86746E-03
         0.45537E-03
        -0.18338E-02
        -0.18428E-02
        -0.27234E-02
        -0.27992E-02
        -0.25385E-02
        -0.19343E-02
        -0.99176E-03
        -0.14425E-02
        -0.31314E-03
        -0.11023E-02
        -0.18839E-02
        -0.18696E-02
        -0.16229E-03
        -0.94867E-03
         0.77997E-03
         0.17205E-02
         0.32092E-02
         0.28043E-02
         0.23044E-02
        -0.40434E-03
        -0.12093E-02
        -0.19443E-02
        -0.25025E-02
        -0.26359E-02
        -0.27630E-02
        -0.21141E-02
        -0.16093E-02
        -0.11954E-02
        -0.59095E-03
         0.20384E-03
         0.10546E-02
         0.18419E-02
         0.24560E-02
         0.26031E-02
         0.37964E-02
         0.39100E-02
         0.34621E-02
         0.29267E-02
         0.22211E-02
         0.13865E-02
         0.47130E-03
        -0.47130E-03
        -0.13865E-02
        -0.22211E-02
        -0.29267E-02
        -0.34621E-02
        -0.37964E-02
        -0.39100E-02
        -0.37964E-02
        -0.34621E-02
        -0.29267E-02
        -0.22211E-02
        -0.13865E-02
        -0.47130E-03
         0.47130E-03
         0.13865E-02
         0.22211E-02
         0.29267E-02
         0.34621E-02
         0.37964E-02
         0.10362E-02
         0.17427E-02
         0.23160E-02
         0.16668E-02
         0.30373E-02
         0.27839E-02
         0.12836E-02
         0.64796E-03
         0.12390E-03
        -0.13082E-03
         0.94036E-03
         0.11279E-02
         0.17435E-02
         0.40512E-03
         0.39755E-03
        -0.76798E-03
        -0.86756E-03
         0.45492E-03
        -0.18341E-02
        -0.18427E-02
        -0.27234E-02
        -0.27990E-02
        -0.25386E-02
        -0.19347E-02
        -0.99161E-03
        -0.14429E-02
        -0.31294E-03
        -0.11019E-02
        -0.18838E-02
        -0.18695E-02
        -0.16256E-03
        -0.94927E-03
         0.77931E-03
         0.17205E-02
         0.32096E-02
         0.28043E-02
         0.23043E-02
        -0.40420E-03
        -0.12093E-02
        -0.19443E-02
        -0.25024E-02
        -0.26358E-02
        -0.27627E-02
        -0.21143E-02
        -0.16093E-02
        -0.11955E-02
        -0.59130E-03
         0.20343E-03
         0.10543E-02
         0.18419E-02
         0.24561E-02
         0.26032E-02
         0.37964E-02
         0.39100E-02
         0.34621E-02
         0.29267E-02
         0.22211E-02
         0.13865E-02
         0.47130E-03
        -0.47130E-03
        -0.13865E-02
        -0.22211E-02
        -0.29267E-02
        -0.34621E-02
        -0.37964E-02
        -0.39100E-02
        -0.37964E-02
        -0.34621E-02
        -0.29267E-02
        -0.22211E-02
        -0.13865E-02
        -0.47130E-03
         0.47130E-03
         0.13865E-02
         0.22211E-02
         0.29267E-02
         0.34621E-02
         0.37964E-02
         0.10360E-02
         0.17425E-02
         0.23158E-02
         0.16666E-02
         0.30373E-02
         0.27842E-02
         0.12835E-02
         0.64771E-03
         0.12363E-03
        -0.13100E-03
         0.94003E-03
         0.11276E-02
         0.17432E-02
         0.40507E-03
         0.39754E-03
        -0.76834E-03
        -0.86767E-03
         0.45447E-03
        -0.18344E-02
        -0.18426E-02
        -0.27234E-02
        -0.27987E-02
        -0.25388E-02
        -0.19352E-02
        -0.99147E-03
        -0.14433E-02
        -0.31274E-03
        -0.11016E-02
        -0.18838E-02
        -0.18694E-02
        -0.16284E-03
        -0.94986E-03
         0.77865E-03
         0.17205E-02
         0.32099E-02
         0.28042E-02
         0.23042E-02
        -0.40407E-03
        -0.12093E-02
        -0.19442E-02
        -0.25024E-02
        -0.26358E-02
        -0.27624E-02
        -0.21144E-02
        -0.16094E-02
        -0.11956E-02
        -0.59165E-03
         0.20302E-03
         0.10540E-02
         0.18419E-02
         0.24563E-02
         0.26033E-02
         0.37964E-02
         0.39100E-02
         0.34621E-02
         0.29267E-02
         0.22211E-02
         0.13865E-02
         0.47130E-03
        -0.47130E-03
        -0.13865E-02
        -0.22211E-02
        -0.29267E-02
        -0.34621E-02
        -0.37964E-02
        -0.39100E-02
        -0.37964E-02
        -0.34621E-02
        -0.29267E-02
        -0.22211E-02
        -0.13865E-02
        -0.47130E-03
         0.47130E-03
         0.13865E-02
         0.22211E-02
         0.29267E-02
         0.34621E-02
         0.37964E-02
         0.10359E-02
         0.17423E-02
         0.23157E-02
         0.16664E-02
         0.30373E-02
         0.27846E-02
         0.12834E-02
         0.64747E-03
         0.12337E-03
        -0.13118E-03
         0.93970E-03
         0.11272E-02
         0.17428E-02
         0.40501E-03
         0.39752E-03
        -0.76869E-03
        -0.86778E-03
         0.45402E-03
        -0.18347E-02
        -0.18425E-02
        -0.27234E-02
        -0.27984E-02
        -0.25389E-02
        -0.19356E-02
        -0.99133E-03
        -0.14436E-02
        -0.31254E-03
        -0.11013E-02
        -0.18837E-02
        -0.18692E-02
        -0.16311E-03
        -0.95046E-03
         0.77799E-03
         0.17204E-02
         0.32102E-02
         0.28042E-02
         0.23041E-02
        -0.40393E-03
        -0.12093E-02
        -0.19442E-02
        -0.25024E-02
        -0.26357E-02
        -0.27621E-02
        -0.21146E-02
        -0.16094E-02
        -0.11957E-02
        -0.59200E-03
         0.20262E-03
         0.10536E-02
         0.18420E-02
         0.24564E-02
         0.26033E-02
         0.37964E-02
         0.39100E-02
         0.34621E-02
         0.29267E-02
         0.22211E-02
         0.13865E-02
         0.47130E-03
        -0.47130E-03
        -0.13865E-02
        -0.22211E-02
        -0.29267E-02
        -0.34621E-02
        -0.37964E-02
        -0.39100E-02
        -0.37964E-02
        -0.34621E-02
        -0.29267E-02
        -0.22211E-02
        -0.13865E-02
        -0.47130E-03
         0.47130E-03
         0.13865E-02
         0.22211E-02
         0.29267E-02
         0.34621E-02
         0.37964E-02
         0.10358E-02
         0.17422E-02
         0.23156E-02
         0.16662E-02
         0.30373E-02
         0.27849E-02
         0.12833E-02
         0.64722E-03
         0.12311E-03
        -0.13137E-03
         0.93937E-03
         0.11269E-02
         0.17424E-02
         0.40496E-03
         0.39750E-03
        -0.76904E-03
        -0.86789E-03
         0.45358E-03
        -0.18350E-02
        -0.18424E-02
        -0.27233E-02
        -0.27981E-02
        -0.25391E-02
        -0.19360E-02
        -0.99118E-03
        -0.14440E-02
        -0.31234E-03
        -0.11009E-02
        -0.18836E-02
        -0.18691E-02
        -0.16339E-03
        -0.95106E-03
         0.77733E-03
         0.17204E-02
         0.32105E-02
         0.28042E-02
         0.23040E-02
        -0.40379E-03
        -0.12093E-02
        -0.19441E-02
        -0.25023E-02
        -0.26356E-02
        -0.27618E-02
        -0.21147E-02
        -0.16094E-02
        -0.11958E-02
        -0.59235E-03
         0.20221E-03
         0.10533E-02
         0.18420E-02
         0.24565E-02
         0.26034E-02
         0.37964E-02
         0.39100E-02
         0.34621E-02
         0.29267E-02
         0.22211E-02
         0.13865E-02
         0.47130E-03
        -0.47130E-03
        -0.13865E-02
        -0.22211E-02
        -0.29267E-02
        -0.34621E-02
        -0.37964E-02
        -0.39100E-02
        -0.37964E-02
        -0.34621E-02
        -0.29267E-02
        -0.22211E-02
        -0.13865E-02
        -0.47130E-03
         0.47130E-03
         0.13865E-02
         0.22211E-02
         0.29267E-02
         0.34621E-02
         0.37964E-02
         0.10357E-02
         0.17420E-02
         0.23155E-02
         0.16660E-02
         0.30372E-02
         0.27853E-02
         0.12832E-02
         0.64698E-03
         0.12285E-03
        -0.13155E-03
         0.93903E-03
         0.11266E-02
         0.17420E-02
         0.40490E-03
         0.39749E-03
        -0.76940E-03
        -0.86800E-03
         0.45313E-03
        -0.18353E-02
        -0.18423E-02
        -0.27233E-02
        -0.27979E-02
        -0.25393E-02
        -0.19365E-02
        -0.99104E-03
        -0.14443E-02
        -0.31214E-03
        -0.11006E-02
        -0.18836E-02
        -0.18690E-02
        -0.16366E-03
        -0.95166E-03
         0.77667E-03
         0.17203E-02
         0.32109E-02
         0.28042E-02
         0.23039E-02
        -0.40365E-03
        -0.12093E-02
        -0.19441E-02
        -0.25023E-02
        -0.26355E-02
        -0.27615E-02
        -0.21148E-02
        -0.16095E-02
        -0.11960E-02
        -0.59270E-03
         0.20180E-03
         0.10530E-02
         0.18421E-02
         0.24566E-02
         0.26035E-02
         0.37964E-02
         0.39100E-02
         0.34621E-02
         0.29267E-02
         0.22211E-02
         0.13865E-02
         0.47130E-03
        -0.47130E-03
        -0.13865E-02
        -0.22211E-02
        -0.29267E-02
        -0.34621E-02
        -0.37964E-02
        -0.39100E-02
        -0.37964E-02
        -0.34621E-02
        -0.29267E-02
        -0.22211E-02
        -0.13865E-02
        -0.47130E-03
         0.47130E-03
         0.13865E-02
         0.22211E-02
         0.29267E-02
         0.34621E-02
         0.37964E-02
         0.10356E-02
         0.17418E-02
         0.23153E-02
         0.16657E-02
         0.30372E-02
         0.27856E-02
         0.12830E-02
         0.64673E-03
         0.12259E-03
        -0.13174E-03
         0.93870E-03
         0.11262E-02
         0.17416E-02
         0.40485E-03
         0.39747E-03
        -0.76975E-03
        -0.86811E-03
         0.45268E-03
        -0.18356E-02
        -0.18422E-02
        -0.27233E-02
        -0.27976E-02
        -0.25394E-02
        -0.19369E-02
        -0.99090E-03
        -0.14446E-02
        -0.31194E-03
        -0.11002E-02
        -0.18835E-02
        -0.18689E-02
        -0.16394E-03
        -0.95226E-03
         0.77601E-03
         0.17203E-02
         0.32112E-02
         0.28042E-02
         0.23038E-02
        -0.40352E-03
        -0.12093E-02
        -0.19441E-02
        -0.25023E-02
        -0.26354E-02
        -0.27612E-02
        -0.21150E-02
        -0.16095E-02
        -0.11961E-02
        -0.59305E-03
         0.20140E-03
         0.10527E-02
         0.18421E-02
         0.24568E-02
         0.26036E-02
         0.37964E-02
         0.39100E-02
         0.34621E-02
         0.29267E-02
         0.22211E-02
         0.13865E-02
         0.47130E-03
        -0.47130E-03
        -0.13865E-02
        -0.22211E-02
        -0.29267E-02
        -0.34621E-02
        -0.37964E-02
        -0.39100E-02
        -0.37964E-02
        -0.34621E-02
        -0.29267E-02
        -0.22211E-02
        -0.13865E-02
        -0.47130E-03
         0.47130E-03
         0.13865E-02
         0.22211E-02
         0.29267E-02
         0.34621E-02
         0.37964E-02
         0.10355E-02
         0.17416E-02
         0.23152E-02
         0.16655E-02
         0.30372E-02
         0.27860E-02
         0.12829E-02
         0.64649E-03
         0.12232E-03
        -0.13193E-03
         0.93837E-03
         0.11259E-02
         0.17412E-02
         0.40480E-03
         0.39745E-03
        -0.77011E-03
        -0.86822E-03
         0.45223E-03
        -0.18359E-02
        -0.18421E-02
        -0.27232E-02
        -0.27973E-02
        -0.25396E-02
        -0.19373E-02
        -0.99075E-03
        -0.14450E-02
        -0.31173E-03
        -0.10999E-02
        -0.18835E-02
        -0.18687E-02
        -0.16421E-03
        -0.95285E-03
         0.77535E-03
         0.17202E-02
         0.32115E-02
         0.28041E-02
         0.23037E-02
        -0.40338E-03
        -0.12093E-02
        -0.19440E-02
        -0.25023E-02
        -0.26353E-02
        -0.27609E-02
        -0.21151E-02
        -0.16096E-02
        -0.11962E-02
        -0.59340E-03
         0.20099E-03
         0.10524E-02
         0.18422E-02
         0.24569E-02
         0.26036E-02
         0.37964E-02
         0.39100E-02
         0.34621E-02
         0.29267E-02
         0.22211E-02
         0.13865E-02
         0.47130E-03
        -0.47130E-03
        -0.13865E-02
        -0.22211E-02
        -0.29267E-02
        -0.34621E-02
        -0.37964E-02
        -0.39100E-02
        -0.37964E-02
        -0.34621E-02
        -0.29267E-02
        -0.22211E-02
        -0.13865E-02
        -0.47130E-03
         0.47130E-03
         0.13865E-02
         0.22211E-02
         0.29267E-02
         0.34621E-02
         0.37964E-02
         0.10354E-02
         0.17414E-02
         0.23151E-02
         0.16653E-02
         0.30372E-02
         0.27863E-02
         0.12829E-02
         0.64624E-03
         0.12206E-03
        -0.13211E-03
         0.93804E-03
         0.11255E-02
         0.17408E-02
         0.40474E-03
         0.39744E-03
        -0.77046E-03
        -0.86832E-03
         0.45179E-03
        -0.18362E-02
        -0.18420E-02
        -0.27232E-02
        -0.27970E-02
        -0.25397E-02
        -0.19377E-02
        -0.99061E-03
        -0.14453E-02
        -0.31153E-03
        -0.10995E-02
        -0.18834E-02
        -0.18686E-02
        -0.16449E-03
        -0.95345E-03
         0.77469E-03
         0.17202E-02
         0.32119E-02
         0.28041E-02
         0.23036E-02
        -0.40324E-03
        -0.12093E-02
        -0.19440E-02
        -0.25022E-02
        -0.26352E-02
        -0.27606E-02
        -0.21152E-02
        -0.16096E-02
        -0.11963E-02
        -0.59375E-03
         0.20059E-03
         0.10521E-02
         0.18422E-02
         0.24570E-02
         0.26037E-02
         0.37964E-02
         0.39100E-02
         0.34621E-02
         0.29267E-02
         0.22211E-02
         0.13865E-02
         0.47130E-03
        -0.47130E-03
        -0.13865E-02
        -0.22211E-02
        -0.29267E-02
        -0.34621E-02
        -0.37964E-02
        -0.39100E-02
        -0.37964E-02
        -0.34621E-02
        -0.29267E-02
        -0.22211E-02
        -0.13865E-02
        -0.47130E-03
         0.47130E-03
         0.13865E-02
         0.22211E-02
         0.29267E-02
         0.34621E-02
         0.37964E-02
         0.10352E-02
         0.17413E-02
         0.23150E-02
         0.16651E-02
         0.30371E-02
         0.27866E-02
         0.12827E-02
         0.64600E-03
         0.12180E-03
        -0.13230E-03
         0.93771E-03
         0.11252E-02
         0.17404E-02
         0.40469E-03
         0.39742E-03
        -0.77081E-03
        -0.86843E-03
         0.45134E-03
        -0.18365E-02
        -0.18419E-02
        -0.27232E-02
        -0.27968E-02
        -0.25399E-02
        -0.19382E-02
        -0.99046E-03
        -0.14457E-02
        -0.31133E-03
        -0.10992E-02
        -0.18834E-02
        -0.18685E-02
        -0.16476E-03
        -0.95405E-03
         0.77402E-03
         0.17202E-02
         0.32122E-02
         0.28041E-02
         0.23034E-02
        -0.40310E-03
        -0.12093E-02
        -0.19440E-02
        -0.25022E-02
        -0.26351E-02
        -0.27602E-02
        -0.21154E-02
        -0.16097E-02
        -0.11964E-02
        -0.59409E-03
         0.20018E-03
         0.10518E-02
         0.18422E-02
         0.24571E-02
         0.26038E-02
         0.37964E-02
         0.39100E-02
         0.34621E-02
         0.29267E-02
         0.22211E-02
         0.13865E-02
         0.47130E-03
        -0.47130E-03
        -0.13865E-02
        -0.22211E-02
        -0.29267E-02
        -0.34621E-02
        -0.37964E-02
        -0.39100E-02
        -0.37964E-02
        -0.34621E-02
        -0.29267E-02
        -0.22211E-02
        -0.13865E-02
        -0.47130E-03
         0.47130E-03
         0.13865E-02
         0.22211E-02
         0.29267E-02
         0.34621E-02
         0.37964E-02
         0.10351E-02
         0.17411E-02
         0.23149E-02
         0.16649E-02
         0.30371E-02
         0.27870E-02
         0.12826E-02
         0.64575E-03
         0.12154E-03
        -0.13248E-03
         0.93738E-03
         0.11249E-02
         0.17400E-02
         0.40463E-03
         0.39740E-03
        -0.77117E-03
        -0.86854E-03
         0.45089E-03
        -0.18368E-02
        -0.18418E-02
        -0.27232E-02
        -0.27965E-02
        -0.25400E-02
        -0.19386E-02
        -0.99032E-03
        -0.14460E-02
        -0.31113E-03
        -0.10988E-02
        -0.18833E-02
        -0.18683E-02
        -0.16504E-03
        -0.95465E-03
         0.77336E-03
         0.17201E-02
         0.32125E-02
         0.28041E-02
         0.23033E-02
        -0.40296E-03
        -0.12093E-02
        -0.19439E-02
        -0.25022E-02
        -0.26350E-02
        -0.27599E-02
        -0.21155E-02
        -0.16097E-02
        -0.11965E-02
        -0.59444E-03
         0.19977E-03
         0.10515E-02
         0.18423E-02
         0.24573E-02
         0.26039E-02
         0.37964E-02
         0.39100E-02
         0.34621E-02
         0.29267E-02
         0.22211E-02
         0.13865E-02
         0.47130E-03
        -0.47130E-03
        -0.13865E-02
        -0.22211E-02
        -0.29267E-02
        -0.34621E-02
        -0.37964E-02
        -0.39100E-02
        -0.37964E-02
        -0.34621E-02
        -0.29267E-02
        -0.22211E-02
        -0.13865E-02
        -0.47130E-03
         0.47130E-03
         0.13865E-02
         0.22211E-02
         0.29267E-02
         0.34621E-02
         0.37964E-02
  
SCALARS           initial_coordinate_y  double 1
LOOKUP_TABLE default
         0.67292E-03
         0.12308E-02
         0.59151E-03
        -0.33775E-03
         0.67237E-03
         0.12301E-02
         0.59098E-03
        -0.33851E-03
         0.14882E-03
        -0.67643E-03
         0.14846E-03
        -0.67692E-03
         0.18412E-02
         0.14576E-02
         0.18410E-02
         0.14566E-02
         0.29933E-03
         0.11672E-02
         0.29819E-03
         0.11655E-02
         0.22748E-02
         0.28286E-02
         0.24238E-02
         0.22746E-02
         0.28291E-02
         0.24236E-02
         0.21685E-02
         0.29366E-02
         0.21684E-02
         0.29369E-02
        -0.10033E-02
         0.78969E-04
        -0.70318E-03
        -0.10032E-02
         0.78160E-04
        -0.70391E-03
        -0.71196E-03
         0.82749E-04
        -0.71210E-03
         0.82626E-04
        -0.77865E-03
         0.40713E-04
        -0.77882E-03
         0.40439E-04
        -0.15195E-02
        -0.13230E-02
        -0.15195E-02
        -0.13231E-02
         0.98847E-03
         0.98712E-03
        -0.17325E-02
        -0.17325E-02
         0.20220E-02
         0.20217E-02
         0.18615E-02
         0.18616E-02
         0.17175E-02
         0.90940E-03
         0.17175E-02
         0.90916E-03
        -0.19800E-02
        -0.23489E-02
        -0.19800E-02
        -0.23489E-02
        -0.17074E-02
        -0.17074E-02
        -0.14894E-02
        -0.14892E-02
         0.76036E-03
         0.12477E-02
         0.75936E-03
         0.12473E-02
         0.18665E-02
         0.18664E-02
         0.29038E-02
         0.29049E-02
         0.27207E-02
         0.27212E-02
         0.24642E-02
         0.24645E-02
         0.22359E-02
         0.16503E-02
         0.22359E-02
         0.16503E-02
         0.87493E-03
         0.87466E-03
        -0.21373E-02
        -0.21373E-02
        -0.26931E-02
        -0.26931E-02
        -0.31291E-02
        -0.30382E-02
        -0.31291E-02
        -0.30382E-02
        -0.28748E-02
        -0.28748E-02
        -0.26423E-02
        -0.26420E-02
        -0.23707E-02
        -0.23705E-02
        -0.21445E-02
        -0.15105E-02
        -0.21439E-02
        -0.15106E-02
         0.93572E-03
         0.00000E+00
         0.93572E-03
         0.00000E+00
         0.18171E-02
         0.18171E-02
         0.25928E-02
         0.25928E-02
         0.32179E-02
         0.32179E-02
         0.36559E-02
         0.36559E-02
         0.38815E-02
         0.38815E-02
         0.38815E-02
         0.38815E-02
         0.36559E-02
         0.36559E-02
         0.32179E-02
         0.32179E-02
         0.25928E-02
         0.25928E-02
         0.18171E-02
         0.18171E-02
         0.93572E-03
         0.93572E-03
         0.22152E-17
        -0.47884E-18
        -0.93572E-03
        -0.93572E-03
        -0.18171E-02
        -0.18171E-02
        -0.25928E-02
        -0.25928E-02
        -0.32179E-02
        -0.32179E-02
        -0.36559E-02
        -0.36559E-02
        -0.38815E-02
        -0.38815E-02
        -0.38815E-02
        -0.38815E-02
        -0.36559E-02
        -0.36559E-02
        -0.32179E-02
        -0.32179E-02
        -0.25928E-02
        -0.25928E-02
        -0.18171E-02
        -0.18171E-02
        -0.93572E-03
        -0.93572E-03
         0.67348E-03
         0.12314E-02
         0.59203E-03
        -0.33700E-03
         0.14918E-03
        -0.67594E-03
         0.18414E-02
         0.14586E-02
         0.30048E-03
         0.11690E-02
         0.22749E-02
         0.28282E-02
         0.24239E-02
         0.21685E-02
         0.29364E-02
        -0.10035E-02
         0.79778E-04
        -0.70245E-03
        -0.71182E-03
         0.82873E-04
        -0.77848E-03
         0.40986E-04
        -0.15194E-02
        -0.13228E-02
         0.98983E-03
        -0.17324E-02
         0.20223E-02
         0.18614E-02
         0.17175E-02
         0.90964E-03
        -0.19800E-02
        -0.23489E-02
        -0.17074E-02
        -0.14896E-02
         0.76137E-03
         0.12481E-02
         0.18665E-02
         0.29027E-02
         0.27202E-02
         0.24640E-02
         0.22359E-02
         0.16503E-02
         0.87519E-03
        -0.21373E-02
        -0.26932E-02
        -0.31291E-02
        -0.30382E-02
        -0.28748E-02
        -0.26426E-02
        -0.23709E-02
        -0.21450E-02
        -0.15104E-02
         0.93572E-03
         0.00000E+00
         0.18171E-02
         0.25928E-02
         0.32179E-02
         0.36559E-02
         0.38815E-02
         0.38815E-02
         0.36559E-02
         0.32179E-02
         0.25928E-02
         0.18171E-02
         0.93572E-03
        -0.47884E-18
        -0.93572E-03
        -0.18171E-02
        -0.25928E-02
        -0.32179E-02
        -0.36559E-02
        -0.38815E-02
        -0.38815E-02
        -0.36559E-02
        -0.32179E-02
        -0.25928E-02
        -0.18171E-02
        -0.93572E-03
         0.67403E-03
         0.12321E-02
         0.59255E-03
        -0.33624E-03
         0.14955E-03
        -0.67544E-03
         0.18415E-02
         0.14596E-02
         0.30163E-03
         0.11707E-02
         0.22750E-02
         0.28277E-02
         0.24241E-02
         0.21685E-02
         0.29361E-02
        -0.10036E-02
         0.80588E-04
        -0.70173E-03
        -0.71168E-03
         0.82996E-04
        -0.77831E-03
         0.41259E-04
        -0.15194E-02
        -0.13227E-02
         0.99119E-03
        -0.17324E-02
         0.20226E-02
         0.18613E-02
         0.17175E-02
         0.90988E-03
        -0.19801E-02
        -0.23490E-02
        -0.17074E-02
        -0.14899E-02
         0.76237E-03
         0.12485E-02
         0.18666E-02
         0.29017E-02
         0.27198E-02
         0.24638E-02
         0.22359E-02
         0.16503E-02
         0.87545E-03
        -0.21374E-02
        -0.26932E-02
        -0.31291E-02
        -0.30382E-02
        -0.28748E-02
        -0.26428E-02
        -0.23711E-02
        -0.21456E-02
        -0.15103E-02
         0.93572E-03
         0.00000E+00
         0.18171E-02
         0.25928E-02
         0.32179E-02
         0.36559E-02
         0.38815E-02
         0.38815E-02
         0.36559E-02
         0.32179E-02
         0.25928E-02
         0.18171E-02
         0.93572E-03
         0.39516E-17
        -0.93572E-03
        -0.18171E-02
        -0.25928E-02
        -0.32179E-02
        -0.36559E-02
        -0.38815E-02
        -0.38815E-02
        -0.36559E-02
        -0.32179E-02
        -0.25928E-02
        -0.18171E-02
        -0.93572E-03
         0.67459E-03
         0.12328E-02
         0.59308E-03
        -0.33549E-03
         0.14991E-03
        -0.67495E-03
         0.18417E-02
         0.14606E-02
         0.30278E-03
         0.11725E-02
         0.22752E-02
         0.28273E-02
         0.24242E-02
         0.21686E-02
         0.29359E-02
        -0.10038E-02
         0.81397E-04
        -0.70100E-03
        -0.71154E-03
         0.83120E-04
        -0.77814E-03
         0.41533E-04
        -0.15193E-02
        -0.13227E-02
         0.99254E-03
        -0.17324E-02
         0.20228E-02
         0.18611E-02
         0.17175E-02
         0.91012E-03
        -0.19801E-02
        -0.23490E-02
        -0.17074E-02
        -0.14901E-02
         0.76338E-03
         0.12490E-02
         0.18666E-02
         0.29006E-02
         0.27193E-02
         0.24636E-02
         0.22359E-02
         0.16503E-02
         0.87571E-03
        -0.21374E-02
        -0.26932E-02
        -0.31291E-02
        -0.30382E-02
        -0.28748E-02
        -0.26431E-02
        -0.23713E-02
        -0.21461E-02
        -0.15102E-02
         0.93572E-03
         0.00000E+00
         0.18171E-02
         0.25928E-02
         0.32179E-02
         0.36559E-02
         0.38815E-02
         0.38815E-02
         0.36559E-02
         0.32179E-02
         0.25928E-02
         0.18171E-02
         0.93572E-03
        -0.47884E-18
        -0.93572E-03
        -0.18171E-02
        -0.25928E-02
        -0.32179E-02
        -0.36559E-02
        -0.38815E-02
        -0.38815E-02
        -0.36559E-02
        -0.32179E-02
        -0.25928E-02
        -0.18171E-02
        -0.93572E-03
         0.67514E-03
         0.12334E-02
         0.59360E-03
        -0.33474E-03
         0.15027E-03
        -0.67446E-03
         0.18419E-02
         0.14616E-02
         0.30393E-03
         0.11742E-02
         0.22753E-02
         0.28269E-02
         0.24244E-02
         0.21686E-02
         0.29356E-02
        -0.10039E-02
         0.82206E-04
        -0.70028E-03
        -0.71140E-03
         0.83243E-04
        -0.77797E-03
         0.41806E-04
        -0.15193E-02
        -0.13226E-02
         0.99390E-03
        -0.17323E-02
         0.20231E-02
         0.18610E-02
         0.17175E-02
         0.91036E-03
        -0.19801E-02
        -0.23490E-02
        -0.17074E-02
        -0.14904E-02
         0.76439E-03
         0.12494E-02
         0.18666E-02
         0.28995E-02
         0.27188E-02
         0.24633E-02
         0.22359E-02
         0.16503E-02
         0.87597E-03
        -0.21374E-02
        -0.26932E-02
        -0.31291E-02
        -0.30382E-02
        -0.28748E-02
        -0.26434E-02
        -0.23715E-02
        -0.21467E-02
        -0.15101E-02
         0.93572E-03
         0.00000E+00
         0.18171E-02
         0.25928E-02
         0.32179E-02
         0.36559E-02
         0.38815E-02
         0.38815E-02
         0.36559E-02
         0.32179E-02
         0.25928E-02
         0.18171E-02
         0.93572E-03
        -0.47884E-18
        -0.93572E-03
        -0.18171E-02
        -0.25928E-02
        -0.32179E-02
        -0.36559E-02
        -0.38815E-02
        -0.38815E-02
        -0.36559E-02
        -0.32179E-02
        -0.25928E-02
        -0.18171E-02
        -0.93572E-03
         0.67570E-03
         0.12341E-02
         0.59412E-03
        -0.33398E-03
         0.15064E-03
        -0.67396E-03
         0.18421E-02
         0.14626E-02
         0.30507E-03
         0.11760E-02
         0.22754E-02
         0.28264E-02
         0.24245E-02
         0.21686E-02
         0.29353E-02
        -0.10040E-02
         0.83015E-04
        -0.69955E-03
        -0.71126E-03
         0.83367E-04
        -0.77780E-03
         0.42080E-04
        -0.15192E-02
        -0.13224E-02
         0.99526E-03
        -0.17323E-02
         0.20234E-02
         0.18609E-02
         0.17175E-02
         0.91060E-03
        -0.19801E-02
        -0.23490E-02
        -0.17074E-02
        -0.14906E-02
         0.76539E-03
         0.12498E-02
         0.18667E-02
         0.28984E-02
         0.27184E-02
         0.24631E-02
         0.22359E-02
         0.16503E-02
         0.87623E-03
        -0.21374E-02
        -0.26932E-02
        -0.31291E-02
        -0.30382E-02
        -0.28748E-02
        -0.26436E-02
        -0.23717E-02
        -0.21472E-02
        -0.15100E-02
         0.93572E-03
         0.00000E+00
         0.18171E-02
         0.25928E-02
         0.32179E-02
         0.36559E-02
         0.38815E-02
         0.38815E-02
         0.36559E-02
         0.32179E-02
         0.25928E-02
         0.18171E-02
         0.93572E-03
        -0.47884E-18
        -0.93572E-03
        -0.18171E-02
        -0.25928E-02
        -0.32179E-02
        -0.36559E-02
        -0.38815E-02
        -0.38815E-02
        -0.36559E-02
        -0.32179E-02
        -0.25928E-02
        -0.18171E-02
        -0.93572E-03
         0.67625E-03
         0.12348E-02
         0.59465E-03
        -0.33323E-03
         0.15100E-03
        -0.67347E-03
         0.18423E-02
         0.14636E-02
         0.30622E-03
         0.11777E-02
         0.22755E-02
         0.28260E-02
         0.24247E-02
         0.21687E-02
         0.29351E-02
        -0.10042E-02
         0.83825E-04
        -0.69882E-03
        -0.71112E-03
         0.83490E-04
        -0.77763E-03
         0.42353E-04
        -0.15192E-02
        -0.13223E-02
         0.99661E-03
        -0.17322E-02
         0.20237E-02
         0.18607E-02
         0.17175E-02
         0.91084E-03
        -0.19801E-02
        -0.23491E-02
        -0.17074E-02
        -0.14909E-02
         0.76640E-03
         0.12503E-02
         0.18667E-02
         0.28974E-02
         0.27179E-02
         0.24629E-02
         0.22359E-02
         0.16503E-02
         0.87650E-03
        -0.21374E-02
        -0.26933E-02
        -0.31291E-02
        -0.30382E-02
        -0.28749E-02
        -0.26439E-02
        -0.23719E-02
        -0.21478E-02
        -0.15099E-02
         0.93572E-03
         0.00000E+00
         0.18171E-02
         0.25928E-02
         0.32179E-02
         0.36559E-02
         0.38815E-02
         0.38815E-02
         0.36559E-02
         0.32179E-02
         0.25928E-02
         0.18171E-02
         0.93572E-03
        -0.47884E-18
        -0.93572E-03
        -0.18171E-02
        -0.25928E-02
        -0.32179E-02
        -0.36559E-02
        -0.38815E-02
        -0.38815E-02
        -0.36559E-02
        -0.32179E-02
        -0.25928E-02
        -0.18171E-02
        -0.93572E-03
         0.67680E-03
         0.12354E-02
         0.59517E-03
        -0.33247E-03
         0.15136E-03
        -0.67298E-03
         0.18425E-02
         0.14646E-02
         0.30737E-03
         0.11795E-02
         0.22757E-02
         0.28255E-02
         0.24248E-02
         0.21687E-02
         0.29348E-02
        -0.10043E-02
         0.84634E-04
        -0.69810E-03
        -0.71098E-03
         0.83614E-04
        -0.77746E-03
         0.42626E-04
        -0.15191E-02
        -0.13223E-02
         0.99797E-03
        -0.17322E-02
         0.20240E-02
         0.18606E-02
         0.17175E-02
         0.91108E-03
        -0.19802E-02
        -0.23491E-02
        -0.17074E-02
        -0.14911E-02
         0.76740E-03
         0.12507E-02
         0.18668E-02
         0.28963E-02
         0.27174E-02
         0.24627E-02
         0.22358E-02
         0.16503E-02
         0.87676E-03
        -0.21374E-02
        -0.26933E-02
        -0.31291E-02
        -0.30382E-02
        -0.28749E-02
        -0.26442E-02
        -0.23721E-02
        -0.21483E-02
        -0.15097E-02
         0.93572E-03
         0.00000E+00
         0.18171E-02
         0.25928E-02
         0.32179E-02
         0.36559E-02
         0.38815E-02
         0.38815E-02
         0.36559E-02
         0.32179E-02
         0.25928E-02
         0.18171E-02
         0.93572E-03
        -0.47884E-18
        -0.93572E-03
        -0.18171E-02
        -0.25928E-02
        -0.32179E-02
        -0.36559E-02
        -0.38815E-02
        -0.38815E-02
        -0.36559E-02
        -0.32179E-02
        -0.25928E-02
        -0.18171E-02
        -0.93572E-03
         0.67736E-03
         0.12361E-02
         0.59570E-03
        -0.33172E-03
         0.15173E-03
        -0.67248E-03
         0.18427E-02
         0.14656E-02
         0.30852E-03
         0.11812E-02
         0.22758E-02
         0.28251E-02
         0.24249E-02
         0.21688E-02
         0.29345E-02
        -0.10044E-02
         0.85443E-04
        -0.69737E-03
        -0.71084E-03
         0.83737E-04
        -0.77729E-03
         0.42899E-04
        -0.15191E-02
        -0.13222E-02
         0.99932E-03
        -0.17322E-02
         0.20243E-02
         0.18605E-02
         0.17175E-02
         0.91132E-03
        -0.19802E-02
        -0.23491E-02
        -0.17074E-02
        -0.14914E-02
         0.76841E-03
         0.12511E-02
         0.18668E-02
         0.28952E-02
         0.27170E-02
         0.24624E-02
         0.22358E-02
         0.16503E-02
         0.87702E-03
        -0.21374E-02
        -0.26933E-02
        -0.31291E-02
        -0.30382E-02
        -0.28749E-02
        -0.26444E-02
        -0.23723E-02
        -0.21489E-02
        -0.15096E-02
         0.93572E-03
         0.00000E+00
         0.18171E-02
         0.25928E-02
         0.32179E-02
         0.36559E-02
         0.38815E-02
         0.38815E-02
         0.36559E-02
         0.32179E-02
         0.25928E-02
         0.18171E-02
         0.93572E-03
        -0.47884E-18
        -0.93572E-03
        -0.18171E-02
        -0.25928E-02
        -0.32179E-02
        -0.36559E-02
        -0.38815E-02
        -0.38815E-02
        -0.36559E-02
        -0.32179E-02
        -0.25928E-02
        -0.18171E-02
        -0.93572E-03
         0.67791E-03
         0.12368E-02
         0.59622E-03
        -0.33096E-03
         0.15209E-03
        -0.67199E-03
         0.18429E-02
         0.14666E-02
         0.30967E-03
         0.11830E-02
         0.22759E-02
         0.28247E-02
         0.24251E-02
         0.21688E-02
         0.29343E-02
        -0.10046E-02
         0.86253E-04
        -0.69665E-03
        -0.71070E-03
         0.83861E-04
        -0.77712E-03
         0.43173E-04
        -0.15190E-02
        -0.13220E-02
         0.10007E-02
        -0.17321E-02
         0.20245E-02
         0.18603E-02
         0.17175E-02
         0.91156E-03
        -0.19802E-02
        -0.23491E-02
        -0.17074E-02
        -0.14916E-02
         0.76941E-03
         0.12515E-02
         0.18668E-02
         0.28942E-02
         0.27165E-02
         0.24622E-02
         0.22358E-02
         0.16503E-02
         0.87728E-03
        -0.21374E-02
        -0.26933E-02
        -0.31291E-02
        -0.30382E-02
        -0.28749E-02
        -0.26447E-02
        -0.23725E-02
        -0.21494E-02
        -0.15095E-02
         0.93572E-03
         0.00000E+00
         0.18171E-02
         0.25928E-02
         0.32179E-02
         0.36559E-02
         0.38815E-02
         0.38815E-02
         0.36559E-02
         0.32179E-02
         0.25928E-02
         0.18171E-02
         0.93572E-03
        -0.47884E-18
        -0.93572E-03
        -0.18171E-02
        -0.25928E-02
        -0.32179E-02
        -0.36559E-02
        -0.38815E-02
        -0.38815E-02
        -0.36559E-02
        -0.32179E-02
        -0.25928E-02
        -0.18171E-02
        -0.93572E-03
         0.67847E-03
         0.12374E-02
         0.59674E-03
        -0.33021E-03
         0.15245E-03
        -0.67150E-03
         0.18430E-02
         0.14676E-02
         0.31081E-03
         0.11847E-02
         0.22761E-02
         0.28242E-02
         0.24252E-02
         0.21688E-02
         0.29340E-02
        -0.10047E-02
         0.87062E-04
        -0.69592E-03
        -0.71056E-03
         0.83985E-04
        -0.77695E-03
         0.43446E-04
        -0.15190E-02
        -0.13219E-02
         0.10020E-02
        -0.17321E-02
         0.20248E-02
         0.18602E-02
         0.17175E-02
         0.91180E-03
        -0.19803E-02
        -0.23491E-02
        -0.17073E-02
        -0.14919E-02
         0.77042E-03
         0.12520E-02
         0.18669E-02
         0.28931E-02
         0.27160E-02
         0.24620E-02
         0.22358E-02
         0.16503E-02
         0.87754E-03
        -0.21374E-02
        -0.26933E-02
        -0.31291E-02
        -0.30382E-02
        -0.28749E-02
        -0.26450E-02
        -0.23727E-02
        -0.21500E-02
        -0.15094E-02
         0.93572E-03
         0.00000E+00
         0.18171E-02
         0.25928E-02
         0.32179E-02
         0.36559E-02
         0.38815E-02
         0.38815E-02
         0.36559E-02
         0.32179E-02
         0.25928E-02
         0.18171E-02
         0.93572E-03
         0.39516E-17
        -0.93572E-03
        -0.18171E-02
        -0.25928E-02
        -0.32179E-02
        -0.36559E-02
        -0.38815E-02
        -0.38815E-02
        -0.36559E-02
        -0.32179E-02
        -0.25928E-02
        -0.18171E-02
        -0.93572E-03
         0.67902E-03
         0.12381E-02
         0.59727E-03
        -0.32945E-03
         0.15282E-03
        -0.67100E-03
         0.18432E-02
         0.14686E-02
         0.31196E-03
         0.11865E-02
         0.22762E-02
         0.28238E-02
         0.24254E-02
         0.21688E-02
         0.29337E-02
        -0.10049E-02
         0.87871E-04
        -0.69519E-03
        -0.71042E-03
         0.84108E-04
        -0.77678E-03
         0.43720E-04
        -0.15189E-02
        -0.13219E-02
         0.10034E-02
        -0.17320E-02
         0.20251E-02
         0.18601E-02
         0.17175E-02
         0.91204E-03
        -0.19803E-02
        -0.23492E-02
        -0.17073E-02
        -0.14921E-02
         0.77142E-03
         0.12524E-02
         0.18669E-02
         0.28920E-02
         0.27155E-02
         0.24618E-02
         0.22358E-02
         0.16503E-02
         0.87781E-03
        -0.21374E-02
        -0.26934E-02
        -0.31291E-02
        -0.30382E-02
        -0.28749E-02
        -0.26452E-02
        -0.23729E-02
        -0.21505E-02
        -0.15093E-02
         0.93572E-03
         0.00000E+00
         0.18171E-02
         0.25928E-02
         0.32179E-02
         0.36559E-02
         0.38815E-02
         0.38815E-02
         0.36559E-02
         0.32179E-02
         0.25928E-02
         0.18171E-02
         0.93572E-03
        -0.47884E-18
        -0.93572E-03
        -0.18171E-02
        -0.25928E-02
        -0.32179E-02
        -0.36559E-02
        -0.38815E-02
        -0.38815E-02
        -0.36559E-02
        -0.32179E-02
        -0.25928E-02
        -0.18171E-02
        -0.93572E-03
         0.67958E-03
         0.12387E-02
         0.59779E-03
        -0.32870E-03
         0.15318E-03
        -0.67051E-03
         0.18434E-02
         0.14696E-02
         0.31311E-03
         0.11882E-02
         0.22763E-02
         0.28233E-02
         0.24255E-02
         0.21689E-02
         0.29335E-02
        -0.10050E-02
         0.88681E-04
        -0.69447E-03
        -0.71028E-03
         0.84232E-04
        -0.77661E-03
         0.43993E-04
        -0.15189E-02
        -0.13218E-02
         0.10048E-02
        -0.17320E-02
         0.20254E-02
         0.18599E-02
         0.17175E-02
         0.91228E-03
        -0.19803E-02
        -0.23492E-02
        -0.17073E-02
        -0.14923E-02
         0.77243E-03
         0.12528E-02
         0.18670E-02
         0.28910E-02
         0.27151E-02
         0.24615E-02
         0.22358E-02
         0.16503E-02
         0.87807E-03
        -0.21374E-02
        -0.26934E-02
        -0.31291E-02
        -0.30382E-02
        -0.28749E-02
        -0.26455E-02
        -0.23732E-02
        -0.21511E-02
        -0.15092E-02
         0.93572E-03
         0.00000E+00
         0.18171E-02
         0.25928E-02
         0.32179E-02
         0.36559E-02
         0.38815E-02
         0.38815E-02
         0.36559E-02
         0.32179E-02
         0.25928E-02
         0.18171E-02
         0.93572E-03
         0.22152E-17
        -0.93572E-03
        -0.18171E-02
        -0.25928E-02
        -0.32179E-02
        -0.36559E-02
        -0.38815E-02
        -0.38815E-02
        -0.36559E-02
        -0.32179E-02
        -0.25928E-02
        -0.18171E-02
        -0.93572E-03
         0.68013E-03
         0.12394E-02
         0.59831E-03
        -0.32794E-03
         0.15354E-03
        -0.67002E-03
         0.18436E-02
         0.14706E-02
         0.31426E-03
         0.11900E-02
         0.22765E-02
         0.28229E-02
         0.24257E-02
         0.21689E-02
         0.29332E-02
        -0.10051E-02
         0.89490E-04
        -0.69374E-03
        -0.71013E-03
         0.84355E-04
        -0.77644E-03
         0.44266E-04
        -0.15188E-02
        -0.13216E-02
         0.10061E-02
        -0.17320E-02
         0.20257E-02
         0.18598E-02
         0.17175E-02
         0.91252E-03
        -0.19803E-02
        -0.23492E-02
        -0.17073E-02
        -0.14926E-02
         0.77343E-03
         0.12533E-02
         0.18670E-02
         0.28899E-02
         0.27146E-02
         0.24613E-02
         0.22358E-02
         0.16503E-02
         0.87833E-03
        -0.21374E-02
        -0.26934E-02
        -0.31291E-02
        -0.30382E-02
        -0.28750E-02
        -0.26458E-02
        -0.23734E-02
        -0.21516E-02
        -0.15091E-02
         0.93572E-03
         0.00000E+00
         0.18171E-02
         0.25928E-02
         0.32179E-02
         0.36559E-02
         0.38815E-02
         0.38815E-02
         0.36559E-02
         0.32179E-02
         0.25928E-02
         0.18171E-02
         0.93572E-03
        -0.47884E-18
        -0.93572E-03
        -0.18171E-02
        -0.25928E-02
        -0.32179E-02
        -0.36559E-02
        -0.38815E-02
        -0.38815E-02
        -0.36559E-02
        -0.32179E-02
        -0.25928E-02
        -0.18171E-02
        -0.93572E-03
         0.68068E-03
         0.12401E-02
         0.59884E-03
        -0.32719E-03
         0.15391E-03
        -0.66953E-03
         0.18438E-02
         0.14716E-02
         0.31541E-03
         0.11917E-02
         0.22766E-02
         0.28225E-02
         0.24258E-02
         0.21690E-02
         0.29330E-02
        -0.10053E-02
         0.90299E-04
        -0.69302E-03
        -0.70999E-03
         0.84479E-04
        -0.77627E-03
         0.44540E-04
        -0.15188E-02
        -0.13215E-02
         0.10075E-02
        -0.17319E-02
         0.20260E-02
         0.18597E-02
         0.17175E-02
         0.91276E-03
        -0.19804E-02
        -0.23493E-02
        -0.17073E-02
        -0.14928E-02
         0.77444E-03
         0.12537E-02
         0.18670E-02
         0.28888E-02
         0.27141E-02
         0.24611E-02
         0.22358E-02
         0.16503E-02
         0.87859E-03
        -0.21374E-02
        -0.26934E-02
        -0.31291E-02
        -0.30382E-02
        -0.28750E-02
        -0.26460E-02
        -0.23736E-02
        -0.21521E-02
        -0.15090E-02
         0.93572E-03
         0.00000E+00
         0.18171E-02
         0.25928E-02
         0.32179E-02
         0.36559E-02
         0.38815E-02
         0.38815E-02
         0.36559E-02
         0.32179E-02
         0.25928E-02
         0.18171E-02
         0.93572E-03
         0.22152E-17
        -0.93572E-03
        -0.18171E-02
        -0.25928E-02
        -0.32179E-02
        -0.36559E-02
        -0.38815E-02
        -0.38815E-02
        -0.36559E-02
        -0.32179E-02
        -0.25928E-02
        -0.18171E-02
        -0.93572E-03
         0.68124E-03
         0.12407E-02
         0.59936E-03
        -0.32643E-03
         0.15427E-03
        -0.66903E-03
         0.18440E-02
         0.14727E-02
         0.31656E-03
         0.11935E-02
         0.22767E-02
         0.28220E-02
         0.24260E-02
         0.21690E-02
         0.29327E-02
        -0.10054E-02
         0.91108E-04
        -0.69229E-03
        -0.70985E-03
         0.84602E-04
        -0.77610E-03
         0.44813E-04
        -0.15187E-02
        -0.13215E-02
         0.10088E-02
        -0.17319E-02
         0.20262E-02
         0.18595E-02
         0.17175E-02
         0.91300E-03
        -0.19804E-02
        -0.23493E-02
        -0.17073E-02
        -0.14931E-02
         0.77544E-03
         0.12541E-02
         0.18671E-02
         0.28877E-02
         0.27137E-02
         0.24609E-02
         0.22358E-02
         0.16503E-02
         0.87885E-03
        -0.21374E-02
        -0.26934E-02
        -0.31291E-02
        -0.30382E-02
        -0.28750E-02
        -0.26463E-02
        -0.23738E-02
        -0.21527E-02
        -0.15088E-02
         0.93572E-03
         0.00000E+00
         0.18171E-02
         0.25928E-02
         0.32179E-02
         0.36559E-02
         0.38815E-02
         0.38815E-02
         0.36559E-02
         0.32179E-02
         0.25928E-02
         0.18171E-02
         0.93572E-03
        -0.47884E-18
        -0.93572E-03
        -0.18171E-02
        -0.25928E-02
        -0.32179E-02
        -0.36559E-02
        -0.38815E-02
        -0.38815E-02
        -0.36559E-02
        -0.32179E-02
        -0.25928E-02
        -0.18171E-02
        -0.93572E-03
         0.68179E-03
         0.12414E-02
         0.59988E-03
        -0.32568E-03
         0.15463E-03
        -0.66854E-03
         0.18442E-02
         0.14736E-02
         0.31770E-03
         0.11952E-02
         0.22768E-02
         0.28216E-02
         0.24261E-02
         0.21690E-02
         0.29324E-02
        -0.10056E-02
         0.91918E-04
        -0.69156E-03
        -0.70971E-03
         0.84726E-04
        -0.77593E-03
         0.45086E-04
        -0.15187E-02
        -0.13213E-02
         0.10102E-02
        -0.17318E-02
         0.20265E-02
         0.18594E-02
         0.17175E-02
         0.91324E-03
        -0.19804E-02
        -0.23493E-02
        -0.17073E-02
        -0.14933E-02
         0.77645E-03
         0.12545E-02
         0.18671E-02
         0.28867E-02
         0.27132E-02
         0.24606E-02
         0.22358E-02
         0.16503E-02
         0.87912E-03
        -0.21374E-02
        -0.26935E-02
        -0.31291E-02
        -0.30381E-02
        -0.28750E-02
        -0.26466E-02
        -0.23740E-02
        -0.21533E-02
        -0.15087E-02
         0.93572E-03
         0.00000E+00
         0.18171E-02
         0.25928E-02
         0.32179E-02
         0.36559E-02
         0.38815E-02
         0.38815E-02
         0.36559E-02
         0.32179E-02
         0.25928E-02
         0.18171E-02
         0.93572E-03
        -0.47884E-18
        -0.93572E-03
        -0.18171E-02
        -0.25928E-02
        -0.32179E-02
        -0.36559E-02
        -0.38815E-02
        -0.38815E-02
        -0.36559E-02
        -0.32179E-02
        -0.25928E-02
        -0.18171E-02
        -0.93572E-03
         0.68235E-03
         0.12421E-02
         0.60041E-03
        -0.32493E-03
         0.15500E-03
        -0.66805E-03
         0.18444E-02
         0.14747E-02
         0.31885E-03
         0.11970E-02
         0.22770E-02
         0.28211E-02
         0.24262E-02
         0.21691E-02
         0.29322E-02
        -0.10057E-02
         0.92727E-04
        -0.69084E-03
        -0.70957E-03
         0.84849E-04
        -0.77576E-03
         0.45359E-04
        -0.15186E-02
        -0.13212E-02
         0.10115E-02
        -0.17318E-02
         0.20268E-02
         0.18593E-02
         0.17175E-02
         0.91347E-03
        -0.19804E-02
        -0.23493E-02
        -0.17073E-02
        -0.14936E-02
         0.77745E-03
         0.12550E-02
         0.18671E-02
         0.28856E-02
         0.27127E-02
         0.24604E-02
         0.22358E-02
         0.16503E-02
         0.87938E-03
        -0.21374E-02
        -0.26935E-02
        -0.31291E-02
        -0.30381E-02
        -0.28750E-02
        -0.26468E-02
        -0.23742E-02
        -0.21538E-02
        -0.15086E-02
         0.93572E-03
         0.00000E+00
         0.18171E-02
         0.25928E-02
         0.32179E-02
         0.36559E-02
         0.38815E-02
         0.38815E-02
         0.36559E-02
         0.32179E-02
         0.25928E-02
         0.18171E-02
         0.93572E-03
        -0.47884E-18
        -0.93572E-03
        -0.18171E-02
        -0.25928E-02
        -0.32179E-02
        -0.36559E-02
        -0.38815E-02
        -0.38815E-02
        -0.36559E-02
        -0.32179E-02
        -0.25928E-02
        -0.18171E-02
        -0.93572E-03
         0.68290E-03
         0.12427E-02
         0.60093E-03
        -0.32417E-03
         0.15536E-03
        -0.66755E-03
         0.18445E-02
         0.14757E-02
         0.32000E-03
         0.11987E-02
         0.22771E-02
         0.28207E-02
         0.24264E-02
         0.21691E-02
         0.29319E-02
        -0.10058E-02
         0.93536E-04
        -0.69011E-03
        -0.70943E-03
         0.84973E-04
        -0.77559E-03
         0.45633E-04
        -0.15186E-02
        -0.13212E-02
         0.10129E-02
        -0.17318E-02
         0.20271E-02
         0.18592E-02
         0.17175E-02
         0.91371E-03
        -0.19805E-02
        -0.23493E-02
        -0.17073E-02
        -0.14938E-02
         0.77846E-03
         0.12554E-02
         0.18672E-02
         0.28845E-02
         0.27122E-02
         0.24602E-02
         0.22358E-02
         0.16502E-02
         0.87964E-03
        -0.21374E-02
        -0.26935E-02
        -0.31291E-02
        -0.30381E-02
        -0.28750E-02
        -0.26471E-02
        -0.23744E-02
        -0.21543E-02
        -0.15085E-02
         0.93572E-03
         0.00000E+00
         0.18171E-02
         0.25928E-02
         0.32179E-02
         0.36559E-02
         0.38815E-02
         0.38815E-02
         0.36559E-02
         0.32179E-02
         0.25928E-02
         0.18171E-02
         0.93572E-03
        -0.47884E-18
        -0.93572E-03
        -0.18171E-02
        -0.25928E-02
        -0.32179E-02
        -0.36559E-02
        -0.38815E-02
        -0.38815E-02
        -0.36559E-02
        -0.32179E-02
        -0.25928E-02
        -0.18171E-02
        -0.93572E-03
         0.68346E-03
         0.12434E-02
         0.60145E-03
        -0.32342E-03
         0.15572E-03
        -0.66706E-03
         0.18447E-02
         0.14767E-02
         0.32115E-03
         0.12005E-02
         0.22772E-02
         0.28203E-02
         0.24265E-02
         0.21691E-02
         0.29316E-02
        -0.10060E-02
         0.94345E-04
        -0.68939E-03
        -0.70929E-03
         0.85096E-04
        -0.77542E-03
         0.45906E-04
        -0.15185E-02
        -0.13211E-02
         0.10142E-02
        -0.17317E-02
         0.20274E-02
         0.18590E-02
         0.17175E-02
         0.91395E-03
        -0.19805E-02
        -0.23494E-02
        -0.17073E-02
        -0.14941E-02
         0.77946E-03
         0.12558E-02
         0.18672E-02
         0.28835E-02
         0.27118E-02
         0.24600E-02
         0.22358E-02
         0.16502E-02
         0.87990E-03
        -0.21374E-02
        -0.26935E-02
        -0.31291E-02
        -0.30381E-02
        -0.28750E-02
        -0.26474E-02
        -0.23746E-02
        -0.21549E-02
        -0.15084E-02
         0.93572E-03
         0.00000E+00
         0.18171E-02
         0.25928E-02
         0.32179E-02
         0.36559E-02
         0.38815E-02
         0.38815E-02
         0.36559E-02
         0.32179E-02
         0.25928E-02
         0.18171E-02
         0.93572E-03
         0.22152E-17
        -0.93572E-03
        -0.18171E-02
        -0.25928E-02
        -0.32179E-02
        -0.36559E-02
        -0.38815E-02
        -0.38815E-02
        -0.36559E-02
        -0.32179E-02
        -0.25928E-02
        -0.18171E-02
        -0.93572E-03
         0.68401E-03
         0.12440E-02
         0.60198E-03
        -0.32266E-03
         0.15609E-03
        -0.66657E-03
         0.18449E-02
         0.14777E-02
         0.32230E-03
         0.12022E-02
         0.22774E-02
         0.28198E-02
         0.24267E-02
         0.21692E-02
         0.29314E-02
        -0.10061E-02
         0.95155E-04
        -0.68866E-03
        -0.70915E-03
         0.85220E-04
        -0.77525E-03
         0.46180E-04
        -0.15185E-02
        -0.13210E-02
         0.10156E-02
        -0.17317E-02
         0.20277E-02
         0.18589E-02
         0.17175E-02
         0.91419E-03
        -0.19805E-02
        -0.23494E-02
        -0.17073E-02
        -0.14943E-02
         0.78047E-03
         0.12563E-02
         0.18672E-02
         0.28824E-02
         0.27113E-02
         0.24597E-02
         0.22358E-02
         0.16502E-02
         0.88016E-03
        -0.21374E-02
        -0.26935E-02
        -0.31291E-02
        -0.30381E-02
        -0.28751E-02
        -0.26476E-02
        -0.23748E-02
        -0.21554E-02
        -0.15083E-02
         0.93572E-03
         0.00000E+00
         0.18171E-02
         0.25928E-02
         0.32179E-02
         0.36559E-02
         0.38815E-02
         0.38815E-02
         0.36559E-02
         0.32179E-02
         0.25928E-02
         0.18171E-02
         0.93572E-03
        -0.47884E-18
        -0.93572E-03
        -0.18171E-02
        -0.25928E-02
        -0.32179E-02
        -0.36559E-02
        -0.38815E-02
        -0.38815E-02
        -0.36559E-02
        -0.32179E-02
        -0.25928E-02
        -0.18171E-02
        -0.93572E-03
         0.68457E-03
         0.12447E-02
         0.60250E-03
        -0.32191E-03
         0.15645E-03
        -0.66607E-03
         0.18451E-02
         0.14787E-02
         0.32345E-03
         0.12040E-02
         0.22775E-02
         0.28194E-02
         0.24268E-02
         0.21692E-02
         0.29311E-02
        -0.10062E-02
         0.95964E-04
        -0.68793E-03
        -0.70901E-03
         0.85343E-04
        -0.77507E-03
         0.46453E-04
        -0.15184E-02
        -0.13209E-02
         0.10169E-02
        -0.17316E-02
         0.20280E-02
         0.18588E-02
         0.17175E-02
         0.91443E-03
        -0.19806E-02
        -0.23494E-02
        -0.17073E-02
        -0.14945E-02
         0.78148E-03
         0.12567E-02
         0.18673E-02
         0.28813E-02
         0.27108E-02
         0.24595E-02
         0.22358E-02
         0.16502E-02
         0.88043E-03
        -0.21374E-02
        -0.26936E-02
        -0.31291E-02
        -0.30381E-02
        -0.28751E-02
        -0.26479E-02
        -0.23750E-02
        -0.21560E-02
        -0.15082E-02
         0.93572E-03
         0.00000E+00
         0.18171E-02
         0.25928E-02
         0.32179E-02
         0.36559E-02
         0.38815E-02
         0.38815E-02
         0.36559E-02
         0.32179E-02
         0.25928E-02
         0.18171E-02
         0.93572E-03
        -0.47884E-18
        -0.93572E-03
        -0.18171E-02
        -0.25928E-02
        -0.32179E-02
        -0.36559E-02
        -0.38815E-02
        -0.38815E-02
        -0.36559E-02
        -0.32179E-02
        -0.25928E-02
        -0.18171E-02
        -0.93572E-03
         0.68512E-03
         0.12454E-02
         0.60302E-03
        -0.32115E-03
         0.15681E-03
        -0.66558E-03
         0.18453E-02
         0.14797E-02
         0.32459E-03
         0.12058E-02
         0.22776E-02
         0.28189E-02
         0.24270E-02
         0.21693E-02
         0.29308E-02
        -0.10064E-02
         0.96773E-04
        -0.68721E-03
        -0.70887E-03
         0.85467E-04
        -0.77490E-03
         0.46726E-04
        -0.15184E-02
        -0.13208E-02
         0.10183E-02
        -0.17316E-02
         0.20283E-02
         0.18586E-02
         0.17175E-02
         0.91467E-03
        -0.19806E-02
        -0.23494E-02
        -0.17073E-02
        -0.14948E-02
         0.78248E-03
         0.12571E-02
         0.18673E-02
         0.28802E-02
         0.27103E-02
         0.24593E-02
         0.22358E-02
         0.16502E-02
         0.88069E-03
        -0.21374E-02
        -0.26936E-02
        -0.31291E-02
        -0.30381E-02
        -0.28751E-02
        -0.26482E-02
        -0.23752E-02
        -0.21565E-02
        -0.15081E-02
         0.93572E-03
         0.00000E+00
         0.18171E-02
         0.25928E-02
         0.32179E-02
         0.36559E-02
         0.38815E-02
         0.38815E-02
         0.36559E-02
         0.32179E-02
         0.25928E-02
         0.18171E-02
         0.93572E-03
        -0.47884E-18
        -0.93572E-03
        -0.18171E-02
        -0.25928E-02
        -0.32179E-02
        -0.36559E-02
        -0.38815E-02
        -0.38815E-02
        -0.36559E-02
        -0.32179E-02
        -0.25928E-02
        -0.18171E-02
        -0.93572E-03
         0.68567E-03
         0.12460E-02
         0.60355E-03
        -0.32040E-03
         0.15718E-03
        -0.66509E-03
         0.18455E-02
         0.14807E-02
         0.32574E-03
         0.12075E-02
         0.22777E-02
         0.28185E-02
         0.24271E-02
         0.21693E-02
         0.29306E-02
        -0.10065E-02
         0.97583E-04
        -0.68648E-03
        -0.70873E-03
         0.85591E-04
        -0.77474E-03
         0.47000E-04
        -0.15183E-02
        -0.13207E-02
         0.10197E-02
        -0.17316E-02
         0.20285E-02
         0.18585E-02
         0.17175E-02
         0.91491E-03
        -0.19806E-02
        -0.23495E-02
        -0.17073E-02
        -0.14950E-02
         0.78348E-03
         0.12576E-02
         0.18674E-02
         0.28792E-02
         0.27099E-02
         0.24591E-02
         0.22358E-02
         0.16502E-02
         0.88095E-03
        -0.21374E-02
        -0.26936E-02
        -0.31290E-02
        -0.30381E-02
        -0.28751E-02
        -0.26484E-02
        -0.23754E-02
        -0.21571E-02
        -0.15080E-02
         0.93572E-03
         0.00000E+00
         0.18171E-02
         0.25928E-02
         0.32179E-02
         0.36559E-02
         0.38815E-02
         0.38815E-02
         0.36559E-02
         0.32179E-02
         0.25928E-02
         0.18171E-02
         0.93572E-03
         0.47884E-18
        -0.93572E-03
        -0.18171E-02
        -0.25928E-02
        -0.32179E-02
        -0.36559E-02
        -0.38815E-02
        -0.38815E-02
        -0.36559E-02
        -0.32179E-02
        -0.25928E-02
        -0.18171E-02
        -0.93572E-03
  
SCALARS           initial_coordinate_z  double 1
LOOKUP_TABLE default
        -0.10771E-01
        -0.10771E-01
        -0.10771E-01
        -0.10771E-01
        -0.11750E-01
        -0.11750E-01
        -0.11750E-01
        -0.11750E-01
        -0.10771E-01
        -0.10771E-01
        -0.11750E-01
        -0.11750E-01
        -0.10771E-01
        -0.10771E-01
        -0.11750E-01
        -0.11750E-01
        -0.10771E-01
        -0.10771E-01
        -0.11750E-01
        -0.11750E-01
        -0.10771E-01
        -0.10771E-01
        -0.10771E-01
        -0.11750E-01
        -0.11750E-01
        -0.11750E-01
        -0.10771E-01
        -0.10771E-01
        -0.11750E-01
        -0.11750E-01
        -0.10771E-01
        -0.10771E-01
        -0.10771E-01
        -0.11750E-01
        -0.11750E-01
        -0.11750E-01
        -0.10771E-01
        -0.10771E-01
        -0.11750E-01
        -0.11750E-01
        -0.10771E-01
        -0.10771E-01
        -0.11750E-01
        -0.11750E-01
        -0.10771E-01
        -0.10771E-01
        -0.11750E-01
        -0.11750E-01
        -0.10771E-01
        -0.11750E-01
        -0.10771E-01
        -0.11750E-01
        -0.10771E-01
        -0.11750E-01
        -0.10771E-01
        -0.11750E-01
        -0.10771E-01
        -0.10771E-01
        -0.11750E-01
        -0.11750E-01
        -0.10771E-01
        -0.10771E-01
        -0.11750E-01
        -0.11750E-01
        -0.10771E-01
        -0.11750E-01
        -0.10771E-01
        -0.11750E-01
        -0.10771E-01
        -0.10771E-01
        -0.11750E-01
        -0.11750E-01
        -0.10771E-01
        -0.11750E-01
        -0.10771E-01
        -0.11750E-01
        -0.10771E-01
        -0.11750E-01
        -0.10771E-01
        -0.11750E-01
        -0.10771E-01
        -0.10771E-01
        -0.11750E-01
        -0.11750E-01
        -0.10771E-01
        -0.11750E-01
        -0.10771E-01
        -0.11750E-01
        -0.10771E-01
        -0.11750E-01
        -0.10771E-01
        -0.10771E-01
        -0.11750E-01
        -0.11750E-01
        -0.10771E-01
        -0.11750E-01
        -0.10771E-01
        -0.11750E-01
        -0.10771E-01
        -0.11750E-01
        -0.10771E-01
        -0.10771E-01
        -0.11750E-01
        -0.11750E-01
        -0.10771E-01
        -0.10771E-01
        -0.11750E-01
        -0.11750E-01
        -0.10771E-01
        -0.11750E-01
        -0.10771E-01
        -0.11750E-01
        -0.10771E-01
        -0.11750E-01
        -0.10771E-01
        -0.11750E-01
        -0.10771E-01
        -0.11750E-01
        -0.10771E-01
        -0.11750E-01
        -0.10771E-01
        -0.11750E-01
        -0.10771E-01
        -0.11750E-01
        -0.10771E-01
        -0.11750E-01
        -0.10771E-01
        -0.11750E-01
        -0.10771E-01
        -0.11750E-01
        -0.10771E-01
        -0.11750E-01
        -0.10771E-01
        -0.11750E-01
        -0.10771E-01
        -0.11750E-01
        -0.10771E-01
        -0.11750E-01
        -0.10771E-01
        -0.11750E-01
        -0.10771E-01
        -0.11750E-01
        -0.10771E-01
        -0.11750E-01
        -0.10771E-01
        -0.11750E-01
        -0.10771E-01
        -0.11750E-01
        -0.10771E-01
        -0.11750E-01
        -0.10771E-01
        -0.11750E-01
        -0.10771E-01
        -0.11750E-01
        -0.10771E-01
        -0.11750E-01
        -0.97917E-02
        -0.97917E-02
        -0.97917E-02
        -0.97917E-02
        -0.97917E-02
        -0.97917E-02
        -0.97917E-02
        -0.97917E-02
        -0.97917E-02
        -0.97917E-02
        -0.97917E-02
        -0.97917E-02
        -0.97917E-02
        -0.97917E-02
        -0.97917E-02
        -0.97917E-02
        -0.97917E-02
        -0.97917E-02
        -0.97917E-02
        -0.97917E-02
        -0.97917E-02
        -0.97917E-02
        -0.97917E-02
        -0.97917E-02
        -0.97917E-02
        -0.97917E-02
        -0.97917E-02
        -0.97917E-02
        -0.97917E-02
        -0.97917E-02
        -0.97917E-02
        -0.97917E-02
        -0.97917E-02
        -0.97917E-02
        -0.97917E-02
        -0.97917E-02
        -0.97917E-02
        -0.97917E-02
        -0.97917E-02
        -0.97917E-02
        -0.97917E-02
        -0.97917E-02
        -0.97917E-02
        -0.97917E-02
        -0.97917E-02
        -0.97917E-02
        -0.97917E-02
        -0.97917E-02
        -0.97917E-02
        -0.97917E-02
        -0.97917E-02
        -0.97917E-02
        -0.97917E-02
        -0.97917E-02
        -0.97917E-02
        -0.97917E-02
        -0.97917E-02
        -0.97917E-02
        -0.97917E-02
        -0.97917E-02
        -0.97917E-02
        -0.97917E-02
        -0.97917E-02
        -0.97917E-02
        -0.97917E-02
        -0.97917E-02
        -0.97917E-02
        -0.97917E-02
        -0.97917E-02
        -0.97917E-02
        -0.97917E-02
        -0.97917E-02
        -0.97917E-02
        -0.97917E-02
        -0.97917E-02
        -0.97917E-02
        -0.97917E-02
        -0.97917E-02
        -0.88125E-02
        -0.88125E-02
        -0.88125E-02
        -0.88125E-02
        -0.88125E-02
        -0.88125E-02
        -0.88125E-02
        -0.88125E-02
        -0.88125E-02
        -0.88125E-02
        -0.88125E-02
        -0.88125E-02
        -0.88125E-02
        -0.88125E-02
        -0.88125E-02
        -0.88125E-02
        -0.88125E-02
        -0.88125E-02
        -0.88125E-02
        -0.88125E-02
        -0.88125E-02
        -0.88125E-02
        -0.88125E-02
        -0.88125E-02
        -0.88125E-02
        -0.88125E-02
        -0.88125E-02
        -0.88125E-02
        -0.88125E-02
        -0.88125E-02
        -0.88125E-02
        -0.88125E-02
        -0.88125E-02
        -0.88125E-02
        -0.88125E-02
        -0.88125E-02
        -0.88125E-02
        -0.88125E-02
        -0.88125E-02
        -0.88125E-02
        -0.88125E-02
        -0.88125E-02
        -0.88125E-02
        -0.88125E-02
        -0.88125E-02
        -0.88125E-02
        -0.88125E-02
        -0.88125E-02
        -0.88125E-02
        -0.88125E-02
        -0.88125E-02
        -0.88125E-02
        -0.88125E-02
        -0.88125E-02
        -0.88125E-02
        -0.88125E-02
        -0.88125E-02
        -0.88125E-02
        -0.88125E-02
        -0.88125E-02
        -0.88125E-02
        -0.88125E-02
        -0.88125E-02
        -0.88125E-02
        -0.88125E-02
        -0.88125E-02
        -0.88125E-02
        -0.88125E-02
        -0.88125E-02
        -0.88125E-02
        -0.88125E-02
        -0.88125E-02
        -0.88125E-02
        -0.88125E-02
        -0.88125E-02
        -0.88125E-02
        -0.88125E-02
        -0.88125E-02
        -0.78333E-02
        -0.78333E-02
        -0.78333E-02
        -0.78333E-02
        -0.78333E-02
        -0.78333E-02
        -0.78333E-02
        -0.78333E-02
        -0.78333E-02
        -0.78333E-02
        -0.78333E-02
        -0.78333E-02
        -0.78333E-02
        -0.78333E-02
        -0.78333E-02
        -0.78333E-02
        -0.78333E-02
        -0.78333E-02
        -0.78333E-02
        -0.78333E-02
        -0.78333E-02
        -0.78333E-02
        -0.78333E-02
        -0.78333E-02
        -0.78333E-02
        -0.78333E-02
        -0.78333E-02
        -0.78333E-02
        -0.78333E-02
        -0.78333E-02
        -0.78333E-02
        -0.78333E-02
        -0.78333E-02
        -0.78333E-02
        -0.78333E-02
        -0.78333E-02
        -0.78333E-02
        -0.78333E-02
        -0.78333E-02
        -0.78333E-02
        -0.78333E-02
        -0.78333E-02
        -0.78333E-02
        -0.78333E-02
        -0.78333E-02
        -0.78333E-02
        -0.78333E-02
        -0.78333E-02
        -0.78333E-02
        -0.78333E-02
        -0.78333E-02
        -0.78333E-02
        -0.78333E-02
        -0.78333E-02
        -0.78333E-02
        -0.78333E-02
        -0.78333E-02
        -0.78333E-02
        -0.78333E-02
        -0.78333E-02
        -0.78333E-02
        -0.78333E-02
        -0.78333E-02
        -0.78333E-02
        -0.78333E-02
        -0.78333E-02
        -0.78333E-02
        -0.78333E-02
        -0.78333E-02
        -0.78333E-02
        -0.78333E-02
        -0.78333E-02
        -0.78333E-02
        -0.78333E-02
        -0.78333E-02
        -0.78333E-02
        -0.78333E-02
        -0.78333E-02
        -0.68542E-02
        -0.68542E-02
        -0.68542E-02
        -0.68542E-02
        -0.68542E-02
        -0.68542E-02
        -0.68542E-02
        -0.68542E-02
        -0.68542E-02
        -0.68542E-02
        -0.68542E-02
        -0.68542E-02
        -0.68542E-02
        -0.68542E-02
        -0.68542E-02
        -0.68542E-02
        -0.68542E-02
        -0.68542E-02
        -0.68542E-02
        -0.68542E-02
        -0.68542E-02
        -0.68542E-02
        -0.68542E-02
        -0.68542E-02
        -0.68542E-02
        -0.68542E-02
        -0.68542E-02
        -0.68542E-02
        -0.68542E-02
        -0.68542E-02
        -0.68542E-02
        -0.68542E-02
        -0.68542E-02
        -0.68542E-02
        -0.68542E-02
        -0.68542E-02
        -0.68542E-02
        -0.68542E-02
        -0.68542E-02
        -0.68542E-02
        -0.68542E-02
        -0.68542E-02
        -0.68542E-02
        -0.68542E-02
        -0.68542E-02
        -0.68542E-02
        -0.68542E-02
        -0.68542E-02
        -0.68542E-02
        -0.68542E-02
        -0.68542E-02
        -0.68542E-02
        -0.68542E-02
        -0.68542E-02
        -0.68542E-02
        -0.68542E-02
        -0.68542E-02
        -0.68542E-02
        -0.68542E-02
        -0.68542E-02
        -0.68542E-02
        -0.68542E-02
        -0.68542E-02
        -0.68542E-02
        -0.68542E-02
        -0.68542E-02
        -0.68542E-02
        -0.68542E-02
        -0.68542E-02
        -0.68542E-02
        -0.68542E-02
        -0.68542E-02
        -0.68542E-02
        -0.68542E-02
        -0.68542E-02
        -0.68542E-02
        -0.68542E-02
        -0.68542E-02
        -0.58750E-02
        -0.58750E-02
        -0.58750E-02
        -0.58750E-02
        -0.58750E-02
        -0.58750E-02
        -0.58750E-02
        -0.58750E-02
        -0.58750E-02
        -0.58750E-02
        -0.58750E-02
        -0.58750E-02
        -0.58750E-02
        -0.58750E-02
        -0.58750E-02
        -0.58750E-02
        -0.58750E-02
        -0.58750E-02
        -0.58750E-02
        -0.58750E-02
        -0.58750E-02
        -0.58750E-02
        -0.58750E-02
        -0.58750E-02
        -0.58750E-02
        -0.58750E-02
        -0.58750E-02
        -0.58750E-02
        -0.58750E-02
        -0.58750E-02
        -0.58750E-02
        -0.58750E-02
        -0.58750E-02
        -0.58750E-02
        -0.58750E-02
        -0.58750E-02
        -0.58750E-02
        -0.58750E-02
        -0.58750E-02
        -0.58750E-02
        -0.58750E-02
        -0.58750E-02
        -0.58750E-02
        -0.58750E-02
        -0.58750E-02
        -0.58750E-02
        -0.58750E-02
        -0.58750E-02
        -0.58750E-02
        -0.58750E-02
        -0.58750E-02
        -0.58750E-02
        -0.58750E-02
        -0.58750E-02
        -0.58750E-02
        -0.58750E-02
        -0.58750E-02
        -0.58750E-02
        -0.58750E-02
        -0.58750E-02
        -0.58750E-02
        -0.58750E-02
        -0.58750E-02
        -0.58750E-02
        -0.58750E-02
        -0.58750E-02
        -0.58750E-02
        -0.58750E-02
        -0.58750E-02
        -0.58750E-02
        -0.58750E-02
        -0.58750E-02
        -0.58750E-02
        -0.58750E-02
        -0.58750E-02
        -0.58750E-02
        -0.58750E-02
        -0.58750E-02
        -0.48958E-02
        -0.48958E-02
        -0.48958E-02
        -0.48958E-02
        -0.48958E-02
        -0.48958E-02
        -0.48958E-02
        -0.48958E-02
        -0.48958E-02
        -0.48958E-02
        -0.48958E-02
        -0.48958E-02
        -0.48958E-02
        -0.48958E-02
        -0.48958E-02
        -0.48958E-02
        -0.48958E-02
        -0.48958E-02
        -0.48958E-02
        -0.48958E-02
        -0.48958E-02
        -0.48958E-02
        -0.48958E-02
        -0.48958E-02
        -0.48958E-02
        -0.48958E-02
        -0.48958E-02
        -0.48958E-02
        -0.48958E-02
        -0.48958E-02
        -0.48958E-02
        -0.48958E-02
        -0.48958E-02
        -0.48958E-02
        -0.48958E-02
        -0.48958E-02
        -0.48958E-02
        -0.48958E-02
        -0.48958E-02
        -0.48958E-02
        -0.48958E-02
        -0.48958E-02
        -0.48958E-02
        -0.48958E-02
        -0.48958E-02
        -0.48958E-02
        -0.48958E-02
        -0.48958E-02
        -0.48958E-02
        -0.48958E-02
        -0.48958E-02
        -0.48958E-02
        -0.48958E-02
        -0.48958E-02
        -0.48958E-02
        -0.48958E-02
        -0.48958E-02
        -0.48958E-02
        -0.48958E-02
        -0.48958E-02
        -0.48958E-02
        -0.48958E-02
        -0.48958E-02
        -0.48958E-02
        -0.48958E-02
        -0.48958E-02
        -0.48958E-02
        -0.48958E-02
        -0.48958E-02
        -0.48958E-02
        -0.48958E-02
        -0.48958E-02
        -0.48958E-02
        -0.48958E-02
        -0.48958E-02
        -0.48958E-02
        -0.48958E-02
        -0.48958E-02
        -0.39167E-02
        -0.39167E-02
        -0.39167E-02
        -0.39167E-02
        -0.39167E-02
        -0.39167E-02
        -0.39167E-02
        -0.39167E-02
        -0.39167E-02
        -0.39167E-02
        -0.39167E-02
        -0.39167E-02
        -0.39167E-02
        -0.39167E-02
        -0.39167E-02
        -0.39167E-02
        -0.39167E-02
        -0.39167E-02
        -0.39167E-02
        -0.39167E-02
        -0.39167E-02
        -0.39167E-02
        -0.39167E-02
        -0.39167E-02
        -0.39167E-02
        -0.39167E-02
        -0.39167E-02
        -0.39167E-02
        -0.39167E-02
        -0.39167E-02
        -0.39167E-02
        -0.39167E-02
        -0.39167E-02
        -0.39167E-02
        -0.39167E-02
        -0.39167E-02
        -0.39167E-02
        -0.39167E-02
        -0.39167E-02
        -0.39167E-02
        -0.39167E-02
        -0.39167E-02
        -0.39167E-02
        -0.39167E-02
        -0.39167E-02
        -0.39167E-02
        -0.39167E-02
        -0.39167E-02
        -0.39167E-02
        -0.39167E-02
        -0.39167E-02
        -0.39167E-02
        -0.39167E-02
        -0.39167E-02
        -0.39167E-02
        -0.39167E-02
        -0.39167E-02
        -0.39167E-02
        -0.39167E-02
        -0.39167E-02
        -0.39167E-02
        -0.39167E-02
        -0.39167E-02
        -0.39167E-02
        -0.39167E-02
        -0.39167E-02
        -0.39167E-02
        -0.39167E-02
        -0.39167E-02
        -0.39167E-02
        -0.39167E-02
        -0.39167E-02
        -0.39167E-02
        -0.39167E-02
        -0.39167E-02
        -0.39167E-02
        -0.39167E-02
        -0.39167E-02
        -0.29375E-02
        -0.29375E-02
        -0.29375E-02
        -0.29375E-02
        -0.29375E-02
        -0.29375E-02
        -0.29375E-02
        -0.29375E-02
        -0.29375E-02
        -0.29375E-02
        -0.29375E-02
        -0.29375E-02
        -0.29375E-02
        -0.29375E-02
        -0.29375E-02
        -0.29375E-02
        -0.29375E-02
        -0.29375E-02
        -0.29375E-02
        -0.29375E-02
        -0.29375E-02
        -0.29375E-02
        -0.29375E-02
        -0.29375E-02
        -0.29375E-02
        -0.29375E-02
        -0.29375E-02
        -0.29375E-02
        -0.29375E-02
        -0.29375E-02
        -0.29375E-02
        -0.29375E-02
        -0.29375E-02
        -0.29375E-02
        -0.29375E-02
        -0.29375E-02
        -0.29375E-02
        -0.29375E-02
        -0.29375E-02
        -0.29375E-02
        -0.29375E-02
        -0.29375E-02
        -0.29375E-02
        -0.29375E-02
        -0.29375E-02
        -0.29375E-02
        -0.29375E-02
        -0.29375E-02
        -0.29375E-02
        -0.29375E-02
        -0.29375E-02
        -0.29375E-02
        -0.29375E-02
        -0.29375E-02
        -0.29375E-02
        -0.29375E-02
        -0.29375E-02
        -0.29375E-02
        -0.29375E-02
        -0.29375E-02
        -0.29375E-02
        -0.29375E-02
        -0.29375E-02
        -0.29375E-02
        -0.29375E-02
        -0.29375E-02
        -0.29375E-02
        -0.29375E-02
        -0.29375E-02
        -0.29375E-02
        -0.29375E-02
        -0.29375E-02
        -0.29375E-02
        -0.29375E-02
        -0.29375E-02
        -0.29375E-02
        -0.29375E-02
        -0.29375E-02
        -0.19583E-02
        -0.19583E-02
        -0.19583E-02
        -0.19583E-02
        -0.19583E-02
        -0.19583E-02
        -0.19583E-02
        -0.19583E-02
        -0.19583E-02
        -0.19583E-02
        -0.19583E-02
        -0.19583E-02
        -0.19583E-02
        -0.19583E-02
        -0.19583E-02
        -0.19583E-02
        -0.19583E-02
        -0.19583E-02
        -0.19583E-02
        -0.19583E-02
        -0.19583E-02
        -0.19583E-02
        -0.19583E-02
        -0.19583E-02
        -0.19583E-02
        -0.19583E-02
        -0.19583E-02
        -0.19583E-02
        -0.19583E-02
        -0.19583E-02
        -0.19583E-02
        -0.19583E-02
        -0.19583E-02
        -0.19583E-02
        -0.19583E-02
        -0.19583E-02
        -0.19583E-02
        -0.19583E-02
        -0.19583E-02
        -0.19583E-02
        -0.19583E-02
        -0.19583E-02
        -0.19583E-02
        -0.19583E-02
        -0.19583E-02
        -0.19583E-02
        -0.19583E-02
        -0.19583E-02
        -0.19583E-02
        -0.19583E-02
        -0.19583E-02
        -0.19583E-02
        -0.19583E-02
        -0.19583E-02
        -0.19583E-02
        -0.19583E-02
        -0.19583E-02
        -0.19583E-02
        -0.19583E-02
        -0.19583E-02
        -0.19583E-02
        -0.19583E-02
        -0.19583E-02
        -0.19583E-02
        -0.19583E-02
        -0.19583E-02
        -0.19583E-02
        -0.19583E-02
        -0.19583E-02
        -0.19583E-02
        -0.19583E-02
        -0.19583E-02
        -0.19583E-02
        -0.19583E-02
        -0.19583E-02
        -0.19583E-02
        -0.19583E-02
        -0.19583E-02
        -0.97917E-03
        -0.97917E-03
        -0.97917E-03
        -0.97917E-03
        -0.97917E-03
        -0.97917E-03
        -0.97917E-03
        -0.97917E-03
        -0.97917E-03
        -0.97917E-03
        -0.97917E-03
        -0.97917E-03
        -0.97917E-03
        -0.97917E-03
        -0.97917E-03
        -0.97917E-03
        -0.97917E-03
        -0.97917E-03
        -0.97917E-03
        -0.97917E-03
        -0.97917E-03
        -0.97917E-03
        -0.97917E-03
        -0.97917E-03
        -0.97917E-03
        -0.97917E-03
        -0.97917E-03
        -0.97917E-03
        -0.97917E-03
        -0.97917E-03
        -0.97917E-03
        -0.97917E-03
        -0.97917E-03
        -0.97917E-03
        -0.97917E-03
        -0.97917E-03
        -0.97917E-03
        -0.97917E-03
        -0.97917E-03
        -0.97917E-03
        -0.97917E-03
        -0.97917E-03
        -0.97917E-03
        -0.97917E-03
        -0.97917E-03
        -0.97917E-03
        -0.97917E-03
        -0.97917E-03
        -0.97917E-03
        -0.97917E-03
        -0.97917E-03
        -0.97917E-03
        -0.97917E-03
        -0.97917E-03
        -0.97917E-03
        -0.97917E-03
        -0.97917E-03
        -0.97917E-03
        -0.97917E-03
        -0.97917E-03
        -0.97917E-03
        -0.97917E-03
        -0.97917E-03
        -0.97917E-03
        -0.97917E-03
        -0.97917E-03
        -0.97917E-03
        -0.97917E-03
        -0.97917E-03
        -0.97917E-03
        -0.97917E-03
        -0.97917E-03
        -0.97917E-03
        -0.97917E-03
        -0.97917E-03
        -0.97917E-03
        -0.97917E-03
        -0.97917E-03
         0.38917E-18
         0.44621E-18
         0.34485E-18
         0.23671E-18
         0.26613E-18
         0.16162E-18
         0.53980E-18
         0.50579E-18
         0.36337E-18
         0.48798E-18
         0.60712E-18
         0.67611E-18
         0.60634E-18
         0.60658E-18
         0.70997E-18
         0.20892E-18
         0.35894E-18
         0.21887E-18
         0.27638E-18
         0.38382E-18
         0.29058E-18
         0.40326E-18
         0.18564E-18
         0.19650E-18
         0.48570E-18
         0.12837E-18
         0.60589E-18
         0.60416E-18
         0.60524E-18
         0.49621E-18
         0.61582E-19
         0.32255E-19
         0.73874E-19
         0.78478E-19
         0.34514E-18
         0.42054E-18
         0.51644E-18
         0.72521E-18
         0.72233E-18
         0.70722E-18
         0.69126E-18
         0.61573E-18
         0.51484E-18
         0.91170E-19
         0.30347E-20
        -0.66516E-19
        -0.69988E-19
        -0.68643E-19
        -0.59779E-19
        -0.43507E-19
        -0.29471E-19
         0.53205E-19
         0.86819E-18
         0.00000E+00
         0.86819E-18
         0.86819E-18
         0.00000E+00
         0.00000E+00
         0.00000E+00
         0.17364E-17
         0.17364E-17
         0.17364E-17
         0.43410E-18
         0.43410E-18
         0.43410E-18
         0.00000E+00
         0.00000E+00
         0.00000E+00
         0.00000E+00
         0.00000E+00
         0.21705E-18
        -0.21705E-18
         0.00000E+00
         0.00000E+00
         0.00000E+00
        -0.32557E-18
         0.54262E-19
        -0.40697E-18
         0.97917E-03
         0.97917E-03
         0.97917E-03
         0.97917E-03
         0.97917E-03
         0.97917E-03
         0.97917E-03
         0.97917E-03
         0.97917E-03
         0.97917E-03
         0.97917E-03
         0.97917E-03
         0.97917E-03
         0.97917E-03
         0.97917E-03
         0.97917E-03
         0.97917E-03
         0.97917E-03
         0.97917E-03
         0.97917E-03
         0.97917E-03
         0.97917E-03
         0.97917E-03
         0.97917E-03
         0.97917E-03
         0.97917E-03
         0.97917E-03
         0.97917E-03
         0.97917E-03
         0.97917E-03
         0.97917E-03
         0.97917E-03
         0.97917E-03
         0.97917E-03
         0.97917E-03
         0.97917E-03
         0.97917E-03
         0.97917E-03
         0.97917E-03
         0.97917E-03
         0.97917E-03
         0.97917E-03
         0.97917E-03
         0.97917E-03
         0.97917E-03
         0.97917E-03
         0.97917E-03
         0.97917E-03
         0.97917E-03
         0.97917E-03
         0.97917E-03
         0.97917E-03
         0.97917E-03
         0.97917E-03
         0.97917E-03
         0.97917E-03
         0.97917E-03
         0.97917E-03
         0.97917E-03
         0.97917E-03
         0.97917E-03
         0.97917E-03
         0.97917E-03
         0.97917E-03
         0.97917E-03
         0.97917E-03
         0.97917E-03
         0.97917E-03
         0.97917E-03
         0.97917E-03
         0.97917E-03
         0.97917E-03
         0.97917E-03
         0.97917E-03
         0.97917E-03
         0.97917E-03
         0.97917E-03
         0.97917E-03
         0.19583E-02
         0.19583E-02
         0.19583E-02
         0.19583E-02
         0.19583E-02
         0.19583E-02
         0.19583E-02
         0.19583E-02
         0.19583E-02
         0.19583E-02
         0.19583E-02
         0.19583E-02
         0.19583E-02
         0.19583E-02
         0.19583E-02
         0.19583E-02
         0.19583E-02
         0.19583E-02
         0.19583E-02
         0.19583E-02
         0.19583E-02
         0.19583E-02
         0.19583E-02
         0.19583E-02
         0.19583E-02
         0.19583E-02
         0.19583E-02
         0.19583E-02
         0.19583E-02
         0.19583E-02
         0.19583E-02
         0.19583E-02
         0.19583E-02
         0.19583E-02
         0.19583E-02
         0.19583E-02
         0.19583E-02
         0.19583E-02
         0.19583E-02
         0.19583E-02
         0.19583E-02
         0.19583E-02
         0.19583E-02
         0.19583E-02
         0.19583E-02
         0.19583E-02
         0.19583E-02
         0.19583E-02
         0.19583E-02
         0.19583E-02
         0.19583E-02
         0.19583E-02
         0.19583E-02
         0.19583E-02
         0.19583E-02
         0.19583E-02
         0.19583E-02
         0.19583E-02
         0.19583E-02
         0.19583E-02
         0.19583E-02
         0.19583E-02
         0.19583E-02
         0.19583E-02
         0.19583E-02
         0.19583E-02
         0.19583E-02
         0.19583E-02
         0.19583E-02
         0.19583E-02
         0.19583E-02
         0.19583E-02
         0.19583E-02
         0.19583E-02
         0.19583E-02
         0.19583E-02
         0.19583E-02
         0.19583E-02
         0.29375E-02
         0.29375E-02
         0.29375E-02
         0.29375E-02
         0.29375E-02
         0.29375E-02
         0.29375E-02
         0.29375E-02
         0.29375E-02
         0.29375E-02
         0.29375E-02
         0.29375E-02
         0.29375E-02
         0.29375E-02
         0.29375E-02
         0.29375E-02
         0.29375E-02
         0.29375E-02
         0.29375E-02
         0.29375E-02
         0.29375E-02
         0.29375E-02
         0.29375E-02
         0.29375E-02
         0.29375E-02
         0.29375E-02
         0.29375E-02
         0.29375E-02
         0.29375E-02
         0.29375E-02
         0.29375E-02
         0.29375E-02
         0.29375E-02
         0.29375E-02
         0.29375E-02
         0.29375E-02
         0.29375E-02
         0.29375E-02
         0.29375E-02
         0.29375E-02
         0.29375E-02
         0.29375E-02
         0.29375E-02
         0.29375E-02
         0.29375E-02
         0.29375E-02
         0.29375E-02
         0.29375E-02
         0.29375E-02
         0.29375E-02
         0.29375E-02
         0.29375E-02
         0.29375E-02
         0.29375E-02
         0.29375E-02
         0.29375E-02
         0.29375E-02
         0.29375E-02
         0.29375E-02
         0.29375E-02
         0.29375E-02
         0.29375E-02
         0.29375E-02
         0.29375E-02
         0.29375E-02
         0.29375E-02
         0.29375E-02
         0.29375E-02
         0.29375E-02
         0.29375E-02
         0.29375E-02
         0.29375E-02
         0.29375E-02
         0.29375E-02
         0.29375E-02
         0.29375E-02
         0.29375E-02
         0.29375E-02
         0.39167E-02
         0.39167E-02
         0.39167E-02
         0.39167E-02
         0.39167E-02
         0.39167E-02
         0.39167E-02
         0.39167E-02
         0.39167E-02
         0.39167E-02
         0.39167E-02
         0.39167E-02
         0.39167E-02
         0.39167E-02
         0.39167E-02
         0.39167E-02
         0.39167E-02
         0.39167E-02
         0.39167E-02
         0.39167E-02
         0.39167E-02
         0.39167E-02
         0.39167E-02
         0.39167E-02
         0.39167E-02
         0.39167E-02
         0.39167E-02
         0.39167E-02
         0.39167E-02
         0.39167E-02
         0.39167E-02
         0.39167E-02
         0.39167E-02
         0.39167E-02
         0.39167E-02
         0.39167E-02
         0.39167E-02
         0.39167E-02
         0.39167E-02
         0.39167E-02
         0.39167E-02
         0.39167E-02
         0.39167E-02
         0.39167E-02
         0.39167E-02
         0.39167E-02
         0.39167E-02
         0.39167E-02
         0.39167E-02
         0.39167E-02
         0.39167E-02
         0.39167E-02
         0.39167E-02
         0.39167E-02
         0.39167E-02
         0.39167E-02
         0.39167E-02
         0.39167E-02
         0.39167E-02
         0.39167E-02
         0.39167E-02
         0.39167E-02
         0.39167E-02
         0.39167E-02
         0.39167E-02
         0.39167E-02
         0.39167E-02
         0.39167E-02
         0.39167E-02
         0.39167E-02
         0.39167E-02
         0.39167E-02
         0.39167E-02
         0.39167E-02
         0.39167E-02
         0.39167E-02
         0.39167E-02
         0.39167E-02
         0.48958E-02
         0.48958E-02
         0.48958E-02
         0.48958E-02
         0.48958E-02
         0.48958E-02
         0.48958E-02
         0.48958E-02
         0.48958E-02
         0.48958E-02
         0.48958E-02
         0.48958E-02
         0.48958E-02
         0.48958E-02
         0.48958E-02
         0.48958E-02
         0.48958E-02
         0.48958E-02
         0.48958E-02
         0.48958E-02
         0.48958E-02
         0.48958E-02
         0.48958E-02
         0.48958E-02
         0.48958E-02
         0.48958E-02
         0.48958E-02
         0.48958E-02
         0.48958E-02
         0.48958E-02
         0.48958E-02
         0.48958E-02
         0.48958E-02
         0.48958E-02
         0.48958E-02
         0.48958E-02
         0.48958E-02
         0.48958E-02
         0.48958E-02
         0.48958E-02
         0.48958E-02
         0.48958E-02
         0.48958E-02
         0.48958E-02
         0.48958E-02
         0.48958E-02
         0.48958E-02
         0.48958E-02
         0.48958E-02
         0.48958E-02
         0.48958E-02
         0.48958E-02
         0.48958E-02
         0.48958E-02
         0.48958E-02
         0.48958E-02
         0.48958E-02
         0.48958E-02
         0.48958E-02
         0.48958E-02
         0.48958E-02
         0.48958E-02
         0.48958E-02
         0.48958E-02
         0.48958E-02
         0.48958E-02
         0.48958E-02
         0.48958E-02
         0.48958E-02
         0.48958E-02
         0.48958E-02
         0.48958E-02
         0.48958E-02
         0.48958E-02
         0.48958E-02
         0.48958E-02
         0.48958E-02
         0.48958E-02
         0.58750E-02
         0.58750E-02
         0.58750E-02
         0.58750E-02
         0.58750E-02
         0.58750E-02
         0.58750E-02
         0.58750E-02
         0.58750E-02
         0.58750E-02
         0.58750E-02
         0.58750E-02
         0.58750E-02
         0.58750E-02
         0.58750E-02
         0.58750E-02
         0.58750E-02
         0.58750E-02
         0.58750E-02
         0.58750E-02
         0.58750E-02
         0.58750E-02
         0.58750E-02
         0.58750E-02
         0.58750E-02
         0.58750E-02
         0.58750E-02
         0.58750E-02
         0.58750E-02
         0.58750E-02
         0.58750E-02
         0.58750E-02
         0.58750E-02
         0.58750E-02
         0.58750E-02
         0.58750E-02
         0.58750E-02
         0.58750E-02
         0.58750E-02
         0.58750E-02
         0.58750E-02
         0.58750E-02
         0.58750E-02
         0.58750E-02
         0.58750E-02
         0.58750E-02
         0.58750E-02
         0.58750E-02
         0.58750E-02
         0.58750E-02
         0.58750E-02
         0.58750E-02
         0.58750E-02
         0.58750E-02
         0.58750E-02
         0.58750E-02
         0.58750E-02
         0.58750E-02
         0.58750E-02
         0.58750E-02
         0.58750E-02
         0.58750E-02
         0.58750E-02
         0.58750E-02
         0.58750E-02
         0.58750E-02
         0.58750E-02
         0.58750E-02
         0.58750E-02
         0.58750E-02
         0.58750E-02
         0.58750E-02
         0.58750E-02
         0.58750E-02
         0.58750E-02
         0.58750E-02
         0.58750E-02
         0.58750E-02
         0.68542E-02
         0.68542E-02
         0.68542E-02
         0.68542E-02
         0.68542E-02
         0.68542E-02
         0.68542E-02
         0.68542E-02
         0.68542E-02
         0.68542E-02
         0.68542E-02
         0.68542E-02
         0.68542E-02
         0.68542E-02
         0.68542E-02
         0.68542E-02
         0.68542E-02
         0.68542E-02
         0.68542E-02
         0.68542E-02
         0.68542E-02
         0.68542E-02
         0.68542E-02
         0.68542E-02
         0.68542E-02
         0.68542E-02
         0.68542E-02
         0.68542E-02
         0.68542E-02
         0.68542E-02
         0.68542E-02
         0.68542E-02
         0.68542E-02
         0.68542E-02
         0.68542E-02
         0.68542E-02
         0.68542E-02
         0.68542E-02
         0.68542E-02
         0.68542E-02
         0.68542E-02
         0.68542E-02
         0.68542E-02
         0.68542E-02
         0.68542E-02
         0.68542E-02
         0.68542E-02
         0.68542E-02
         0.68542E-02
         0.68542E-02
         0.68542E-02
         0.68542E-02
         0.68542E-02
         0.68542E-02
         0.68542E-02
         0.68542E-02
         0.68542E-02
         0.68542E-02
         0.68542E-02
         0.68542E-02
         0.68542E-02
         0.68542E-02
         0.68542E-02
         0.68542E-02
         0.68542E-02
         0.68542E-02
         0.68542E-02
         0.68542E-02
         0.68542E-02
         0.68542E-02
         0.68542E-02
         0.68542E-02
         0.68542E-02
         0.68542E-02
         0.68542E-02
         0.68542E-02
         0.68542E-02
         0.68542E-02
         0.78333E-02
         0.78333E-02
         0.78333E-02
         0.78333E-02
         0.78333E-02
         0.78333E-02
         0.78333E-02
         0.78333E-02
         0.78333E-02
         0.78333E-02
         0.78333E-02
         0.78333E-02
         0.78333E-02
         0.78333E-02
         0.78333E-02
         0.78333E-02
         0.78333E-02
         0.78333E-02
         0.78333E-02
         0.78333E-02
         0.78333E-02
         0.78333E-02
         0.78333E-02
         0.78333E-02
         0.78333E-02
         0.78333E-02
         0.78333E-02
         0.78333E-02
         0.78333E-02
         0.78333E-02
         0.78333E-02
         0.78333E-02
         0.78333E-02
         0.78333E-02
         0.78333E-02
         0.78333E-02
         0.78333E-02
         0.78333E-02
         0.78333E-02
         0.78333E-02
         0.78333E-02
         0.78333E-02
         0.78333E-02
         0.78333E-02
         0.78333E-02
         0.78333E-02
         0.78333E-02
         0.78333E-02
         0.78333E-02
         0.78333E-02
         0.78333E-02
         0.78333E-02
         0.78333E-02
         0.78333E-02
         0.78333E-02
         0.78333E-02
         0.78333E-02
         0.78333E-02
         0.78333E-02
         0.78333E-02
         0.78333E-02
         0.78333E-02
         0.78333E-02
         0.78333E-02
         0.78333E-02
         0.78333E-02
         0.78333E-02
         0.78333E-02
         0.78333E-02
         0.78333E-02
         0.78333E-02
         0.78333E-02
         0.78333E-02
         0.78333E-02
         0.78333E-02
         0.78333E-02
         0.78333E-02
         0.78333E-02
         0.88125E-02
         0.88125E-02
         0.88125E-02
         0.88125E-02
         0.88125E-02
         0.88125E-02
         0.88125E-02
         0.88125E-02
         0.88125E-02
         0.88125E-02
         0.88125E-02
         0.88125E-02
         0.88125E-02
         0.88125E-02
         0.88125E-02
         0.88125E-02
         0.88125E-02
         0.88125E-02
         0.88125E-02
         0.88125E-02
         0.88125E-02
         0.88125E-02
         0.88125E-02
         0.88125E-02
         0.88125E-02
         0.88125E-02
         0.88125E-02
         0.88125E-02
         0.88125E-02
         0.88125E-02
         0.88125E-02
         0.88125E-02
         0.88125E-02
         0.88125E-02
         0.88125E-02
         0.88125E-02
         0.88125E-02
         0.88125E-02
         0.88125E-02
         0.88125E-02
         0.88125E-02
         0.88125E-02
         0.88125E-02
         0.88125E-02
         0.88125E-02
         0.88125E-02
         0.88125E-02
         0.88125E-02
         0.88125E-02
         0.88125E-02
         0.88125E-02
         0.88125E-02
         0.88125E-02
         0.88125E-02
         0.88125E-02
         0.88125E-02
         0.88125E-02
         0.88125E-02
         0.88125E-02
         0.88125E-02
         0.88125E-02
         0.88125E-02
         0.88125E-02
         0.88125E-02
         0.88125E-02
         0.88125E-02
         0.88125E-02
         0.88125E-02
         0.88125E-02
         0.88125E-02
         0.88125E-02
         0.88125E-02
         0.88125E-02
         0.88125E-02
         0.88125E-02
         0.88125E-02
         0.88125E-02
         0.88125E-02
         0.97917E-02
         0.97917E-02
         0.97917E-02
         0.97917E-02
         0.97917E-02
         0.97917E-02
         0.97917E-02
         0.97917E-02
         0.97917E-02
         0.97917E-02
         0.97917E-02
         0.97917E-02
         0.97917E-02
         0.97917E-02
         0.97917E-02
         0.97917E-02
         0.97917E-02
         0.97917E-02
         0.97917E-02
         0.97917E-02
         0.97917E-02
         0.97917E-02
         0.97917E-02
         0.97917E-02
         0.97917E-02
         0.97917E-02
         0.97917E-02
         0.97917E-02
         0.97917E-02
         0.97917E-02
         0.97917E-02
         0.97917E-02
         0.97917E-02
         0.97917E-02
         0.97917E-02
         0.97917E-02
         0.97917E-02
         0.97917E-02
         0.97917E-02
         0.97917E-02
         0.97917E-02
         0.97917E-02
         0.97917E-02
         0.97917E-02
         0.97917E-02
         0.97917E-02
         0.97917E-02
         0.97917E-02
         0.97917E-02
         0.97917E-02
         0.97917E-02
         0.97917E-02
         0.97917E-02
         0.97917E-02
         0.97917E-02
         0.97917E-02
         0.97917E-02
         0.97917E-02
         0.97917E-02
         0.97917E-02
         0.97917E-02
         0.97917E-02
         0.97917E-02
         0.97917E-02
         0.97917E-02
         0.97917E-02
         0.97917E-02
         0.97917E-02
         0.97917E-02
         0.97917E-02
         0.97917E-02
         0.97917E-02
         0.97917E-02
         0.97917E-02
         0.97917E-02
         0.97917E-02
         0.97917E-02
         0.97917E-02
         0.10771E-01
         0.10771E-01
         0.10771E-01
         0.10771E-01
         0.10771E-01
         0.10771E-01
         0.10771E-01
         0.10771E-01
         0.10771E-01
         0.10771E-01
         0.10771E-01
         0.10771E-01
         0.10771E-01
         0.10771E-01
         0.10771E-01
         0.10771E-01
         0.10771E-01
         0.10771E-01
         0.10771E-01
         0.10771E-01
         0.10771E-01
         0.10771E-01
         0.10771E-01
         0.10771E-01
         0.10771E-01
         0.10771E-01
         0.10771E-01
         0.10771E-01
         0.10771E-01
         0.10771E-01
         0.10771E-01
         0.10771E-01
         0.10771E-01
         0.10771E-01
         0.10771E-01
         0.10771E-01
         0.10771E-01
         0.10771E-01
         0.10771E-01
         0.10771E-01
         0.10771E-01
         0.10771E-01
         0.10771E-01
         0.10771E-01
         0.10771E-01
         0.10771E-01
         0.10771E-01
         0.10771E-01
         0.10771E-01
         0.10771E-01
         0.10771E-01
         0.10771E-01
         0.10771E-01
         0.10771E-01
         0.10771E-01
         0.10771E-01
         0.10771E-01
         0.10771E-01
         0.10771E-01
         0.10771E-01
         0.10771E-01
         0.10771E-01
         0.10771E-01
         0.10771E-01
         0.10771E-01
         0.10771E-01
         0.10771E-01
         0.10771E-01
         0.10771E-01
         0.10771E-01
         0.10771E-01
         0.10771E-01
         0.10771E-01
         0.10771E-01
         0.10771E-01
         0.10771E-01
         0.10771E-01
         0.10771E-01
         0.11750E-01
         0.11750E-01
         0.11750E-01
         0.11750E-01
         0.11750E-01
         0.11750E-01
         0.11750E-01
         0.11750E-01
         0.11750E-01
         0.11750E-01
         0.11750E-01
         0.11750E-01
         0.11750E-01
         0.11750E-01
         0.11750E-01
         0.11750E-01
         0.11750E-01
         0.11750E-01
         0.11750E-01
         0.11750E-01
         0.11750E-01
         0.11750E-01
         0.11750E-01
         0.11750E-01
         0.11750E-01
         0.11750E-01
         0.11750E-01
         0.11750E-01
         0.11750E-01
         0.11750E-01
         0.11750E-01
         0.11750E-01
         0.11750E-01
         0.11750E-01
         0.11750E-01
         0.11750E-01
         0.11750E-01
         0.11750E-01
         0.11750E-01
         0.11750E-01
         0.11750E-01
         0.11750E-01
         0.11750E-01
         0.11750E-01
         0.11750E-01
         0.11750E-01
         0.11750E-01
         0.11750E-01
         0.11750E-01
         0.11750E-01
         0.11750E-01
         0.11750E-01
         0.11750E-01
         0.11750E-01
         0.11750E-01
         0.11750E-01
         0.11750E-01
         0.11750E-01
         0.11750E-01
         0.11750E-01
         0.11750E-01
         0.11750E-01
         0.11750E-01
         0.11750E-01
         0.11750E-01
         0.11750E-01
         0.11750E-01
         0.11750E-01
         0.11750E-01
         0.11750E-01
         0.11750E-01
         0.11750E-01
         0.11750E-01
         0.11750E-01
         0.11750E-01
         0.11750E-01
         0.11750E-01
         0.11750E-01
  
SCALARS                init_velocity_x  double 1
LOOKUP_TABLE default
         0.00000E+00
         0.00000E+00
         0.00000E+00
         0.00000E+00
         0.00000E+00
         0.00000E+00
         0.00000E+00
         0.00000E+00
         0.00000E+00
         0.00000E+00
         0.00000E+00
         0.00000E+00
         0.00000E+00
         0.00000E+00
         0.00000E+00
         0.00000E+00
         0.00000E+00
         0.00000E+00
         0.00000E+00
         0.00000E+00
         0.00000E+00
         0.00000E+00
         0.00000E+00
         0.00000E+00
         0.00000E+00
         0.00000E+00
         0.00000E+00
         0.00000E+00
         0.00000E+00
         0.00000E+00
         0.00000E+00
         0.00000E+00
         0.00000E+00
         0.00000E+00
         0.00000E+00
         0.00000E+00
         0.00000E+00
         0.00000E+00
         0.00000E+00
         0.00000E+00
         0.00000E+00
         0.00000E+00
         0.00000E+00
         0.00000E+00
         0.00000E+00
         0.00000E+00
         0.00000E+00
         0.00000E+00
         0.00000E+00
         0.00000E+00
         0.00000E+00
         0.00000E+00
         0.00000E+00
         0.00000E+00
         0.00000E+00
         0.00000E+00
         0.00000E+00
         0.00000E+00
         0.00000E+00
         0.00000E+00
         0.00000E+00
         0.00000E+00
         0.00000E+00
         0.00000E+00
         0.00000E+00
         0.00000E+00
         0.00000E+00
         0.00000E+00
         0.00000E+00
         0.00000E+00
         0.00000E+00
         0.00000E+00
         0.00000E+00
         0.00000E+00
         0.00000E+00
         0.00000E+00
         0.00000E+00
         0.00000E+00
         0.00000E+00
         0.00000E+00
         0.00000E+00
         0.00000E+00
         0.00000E+00
         0.00000E+00
         0.00000E+00
         0.00000E+00
         0.00000E+00
         0.00000E+00
         0.00000E+00
         0.00000E+00
         0.00000E+00
         0.00000E+00
         0.00000E+00
         0.00000E+00
         0.00000E+00
         0.00000E+00
         0.00000E+00
         0.00000E+00
         0.00000E+00
         0.00000E+00
         0.00000E+00
         0.00000E+00
         0.00000E+00
         0.00000E+00
         0.00000E+00
         0.00000E+00
         0.00000E+00
         0.00000E+00
         0.00000E+00
         0.00000E+00
         0.00000E+00
         0.00000E+00
         0.00000E+00
         0.00000E+00
         0.00000E+00
         0.00000E+00
         0.00000E+00
         0.00000E+00
         0.00000E+00
         0.00000E+00
         0.00000E+00
         0.00000E+00
         0.00000E+00
         0.00000E+00
         0.00000E+00
         0.00000E+00
         0.00000E+00
         0.00000E+00
         0.00000E+00
         0.00000E+00
         0.00000E+00
         0.00000E+00
         0.00000E+00
         0.00000E+00
         0.00000E+00
         0.00000E+00
         0.00000E+00
         0.00000E+00
         0.00000E+00
         0.00000E+00
         0.00000E+00
         0.00000E+00
         0.00000E+00
         0.00000E+00
         0.00000E+00
         0.00000E+00
         0.00000E+00
         0.00000E+00
         0.00000E+00
         0.00000E+00
         0.00000E+00
         0.00000E+00
         0.00000E+00
         0.00000E+00
         0.00000E+00
         0.00000E+00
         0.00000E+00
         0.00000E+00
         0.00000E+00
         0.00000E+00
         0.00000E+00
         0.00000E+00
         0.00000E+00
         0.00000E+00
         0.00000E+00
         0.00000E+00
         0.00000E+00
         0.00000E+00
         0.00000E+00
         0.00000E+00
         0.00000E+00
         0.00000E+00
         0.00000E+00
         0.00000E+00
         0.00000E+00
         0.00000E+00
         0.00000E+00
         0.00000E+00
         0.00000E+00
         0.00000E+00
         0.00000E+00
         0.00000E+00
         0.00000E+00
         0.00000E+00
         0.00000E+00
         0.00000E+00
         0.00000E+00
         0.00000E+00
         0.00000E+00
         0.00000E+00
         0.00000E+00
         0.00000E+00
         0.00000E+00
         0.00000E+00
         0.00000E+00
         0.00000E+00
         0.00000E+00
         0.00000E+00
         0.00000E+00
         0.00000E+00
         0.00000E+00
         0.00000E+00
         0.00000E+00
         0.00000E+00
         0.00000E+00
         0.00000E+00
         0.00000E+00
         0.00000E+00
         0.00000E+00
         0.00000E+00
         0.00000E+00
         0.00000E+00
         0.00000E+00
         0.00000E+00
         0.00000E+00
         0.00000E+00
         0.00000E+00
         0.00000E+00
         0.00000E+00
         0.00000E+00
         0.00000E+00
         0.00000E+00
         0.00000E+00
         0.00000E+00
         0.00000E+00
         0.00000E+00
         0.00000E+00
         0.00000E+00
         0.00000E+00
         0.00000E+00
         0.00000E+00
         0.00000E+00
         0.00000E+00
         0.00000E+00
         0.00000E+00
         0.00000E+00
         0.00000E+00
         0.00000E+00
         0.00000E+00
         0.00000E+00
         0.00000E+00
         0.00000E+00
         0.00000E+00
         0.00000E+00
         0.00000E+00
         0.00000E+00
         0.00000E+00
         0.00000E+00
         0.00000E+00
         0.00000E+00
         0.00000E+00
         0.00000E+00
         0.00000E+00
         0.00000E+00
         0.00000E+00
         0.00000E+00
         0.00000E+00
         0.00000E+00
         0.00000E+00
         0.00000E+00
         0.00000E+00
         0.00000E+00
         0.00000E+00
         0.00000E+00
         0.00000E+00
         0.00000E+00
         0.00000E+00
         0.00000E+00
         0.00000E+00
         0.00000E+00
         0.00000E+00
         0.00000E+00
         0.00000E+00
         0.00000E+00
         0.00000E+00
         0.00000E+00
         0.00000E+00
         0.00000E+00
         0.00000E+00
         0.00000E+00
         0.00000E+00
         0.00000E+00
         0.00000E+00
         0.00000E+00
         0.00000E+00
         0.00000E+00
         0.00000E+00
         0.00000E+00
         0.00000E+00
         0.00000E+00
         0.00000E+00
         0.00000E+00
         0.00000E+00
         0.00000E+00
         0.00000E+00
         0.00000E+00
         0.00000E+00
         0.00000E+00
         0.00000E+00
         0.00000E+00
         0.00000E+00
         0.00000E+00
         0.00000E+00
         0.00000E+00
         0.00000E+00
         0.00000E+00
         0.00000E+00
         0.00000E+00
         0.00000E+00
         0.00000E+00
         0.00000E+00
         0.00000E+00
         0.00000E+00
         0.00000E+00
         0.00000E+00
         0.00000E+00
         0.00000E+00
         0.00000E+00
         0.00000E+00
         0.00000E+00
         0.00000E+00
         0.00000E+00
         0.00000E+00
         0.00000E+00
         0.00000E+00
         0.00000E+00
         0.00000E+00
         0.00000E+00
         0.00000E+00
         0.00000E+00
         0.00000E+00
         0.00000E+00
         0.00000E+00
         0.00000E+00
         0.00000E+00
         0.00000E+00
         0.00000E+00
         0.00000E+00
         0.00000E+00
         0.00000E+00
         0.00000E+00
         0.00000E+00
         0.00000E+00
         0.00000E+00
         0.00000E+00
         0.00000E+00
         0.00000E+00
         0.00000E+00
         0.00000E+00
         0.00000E+00
         0.00000E+00
         0.00000E+00
         0.00000E+00
         0.00000E+00
         0.00000E+00
         0.00000E+00
         0.00000E+00
         0.00000E+00
         0.00000E+00
         0.00000E+00
         0.00000E+00
         0.00000E+00
         0.00000E+00
         0.00000E+00
         0.00000E+00
         0.00000E+00
         0.00000E+00
         0.00000E+00
         0.00000E+00
         0.00000E+00
         0.00000E+00
         0.00000E+00
         0.00000E+00
         0.00000E+00
         0.00000E+00
         0.00000E+00
         0.00000E+00
         0.00000E+00
         0.00000E+00
         0.00000E+00
         0.00000E+00
         0.00000E+00
         0.00000E+00
         0.00000E+00
         0.00000E+00
         0.00000E+00
         0.00000E+00
         0.00000E+00
         0.00000E+00
         0.00000E+00
         0.00000E+00
         0.00000E+00
         0.00000E+00
         0.00000E+00
         0.00000E+00
         0.00000E+00
         0.00000E+00
         0.00000E+00
         0.00000E+00
         0.00000E+00
         0.00000E+00
         0.00000E+00
         0.00000E+00
         0.00000E+00
         0.00000E+00
         0.00000E+00
         0.00000E+00
         0.00000E+00
         0.00000E+00
         0.00000E+00
         0.00000E+00
         0.00000E+00
         0.00000E+00
         0.00000E+00
         0.00000E+00
         0.00000E+00
         0.00000E+00
         0.00000E+00
         0.00000E+00
         0.00000E+00
         0.00000E+00
         0.00000E+00
         0.00000E+00
         0.00000E+00
         0.00000E+00
         0.00000E+00
         0.00000E+00
         0.00000E+00
         0.00000E+00
         0.00000E+00
         0.00000E+00
         0.00000E+00
         0.00000E+00
         0.00000E+00
         0.00000E+00
         0.00000E+00
         0.00000E+00
         0.00000E+00
         0.00000E+00
         0.00000E+00
         0.00000E+00
         0.00000E+00
         0.00000E+00
         0.00000E+00
         0.00000E+00
         0.00000E+00
         0.00000E+00
         0.00000E+00
         0.00000E+00
         0.00000E+00
         0.00000E+00
         0.00000E+00
         0.00000E+00
         0.00000E+00
         0.00000E+00
         0.00000E+00
         0.00000E+00
         0.00000E+00
         0.00000E+00
         0.00000E+00
         0.00000E+00
         0.00000E+00
         0.00000E+00
         0.00000E+00
         0.00000E+00
         0.00000E+00
         0.00000E+00
         0.00000E+00
         0.00000E+00
         0.00000E+00
         0.00000E+00
         0.00000E+00
         0.00000E+00
         0.00000E+00
         0.00000E+00
         0.00000E+00
         0.00000E+00
         0.00000E+00
         0.00000E+00
         0.00000E+00
         0.00000E+00
         0.00000E+00
         0.00000E+00
         0.00000E+00
         0.00000E+00
         0.00000E+00
         0.00000E+00
         0.00000E+00
         0.00000E+00
         0.00000E+00
         0.00000E+00
         0.00000E+00
         0.00000E+00
         0.00000E+00
         0.00000E+00
         0.00000E+00
         0.00000E+00
         0.00000E+00
         0.00000E+00
         0.00000E+00
         0.00000E+00
         0.00000E+00
         0.00000E+00
         0.00000E+00
         0.00000E+00
         0.00000E+00
         0.00000E+00
         0.00000E+00
         0.00000E+00
         0.00000E+00
         0.00000E+00
         0.00000E+00
         0.00000E+00
         0.00000E+00
         0.00000E+00
         0.00000E+00
         0.00000E+00
         0.00000E+00
         0.00000E+00
         0.00000E+00
         0.00000E+00
         0.00000E+00
         0.00000E+00
         0.00000E+00
         0.00000E+00
         0.00000E+00
         0.00000E+00
         0.00000E+00
         0.00000E+00
         0.00000E+00
         0.00000E+00
         0.00000E+00
         0.00000E+00
         0.00000E+00
         0.00000E+00
         0.00000E+00
         0.00000E+00
         0.00000E+00
         0.00000E+00
         0.00000E+00
         0.00000E+00
         0.00000E+00
         0.00000E+00
         0.00000E+00
         0.00000E+00
         0.00000E+00
         0.00000E+00
         0.00000E+00
         0.00000E+00
         0.00000E+00
         0.00000E+00
         0.00000E+00
         0.00000E+00
         0.00000E+00
         0.00000E+00
         0.00000E+00
         0.00000E+00
         0.00000E+00
         0.00000E+00
         0.00000E+00
         0.00000E+00
         0.00000E+00
         0.00000E+00
         0.00000E+00
         0.00000E+00
         0.00000E+00
         0.00000E+00
         0.00000E+00
         0.00000E+00
         0.00000E+00
         0.00000E+00
         0.00000E+00
         0.00000E+00
         0.00000E+00
         0.00000E+00
         0.00000E+00
         0.00000E+00
         0.00000E+00
         0.00000E+00
         0.00000E+00
         0.00000E+00
         0.00000E+00
         0.00000E+00
         0.00000E+00
         0.00000E+00
         0.00000E+00
         0.00000E+00
         0.00000E+00
         0.00000E+00
         0.00000E+00
         0.00000E+00
         0.00000E+00
         0.00000E+00
         0.00000E+00
         0.00000E+00
         0.00000E+00
         0.00000E+00
         0.00000E+00
         0.00000E+00
         0.00000E+00
         0.00000E+00
         0.00000E+00
         0.00000E+00
         0.00000E+00
         0.00000E+00
         0.00000E+00
         0.00000E+00
         0.00000E+00
         0.00000E+00
         0.00000E+00
         0.00000E+00
         0.00000E+00
         0.00000E+00
         0.00000E+00
         0.00000E+00
         0.00000E+00
         0.00000E+00
         0.00000E+00
         0.00000E+00
         0.00000E+00
         0.00000E+00
         0.00000E+00
         0.00000E+00
         0.00000E+00
         0.00000E+00
         0.00000E+00
         0.00000E+00
         0.00000E+00
         0.00000E+00
         0.00000E+00
         0.00000E+00
         0.00000E+00
         0.00000E+00
         0.00000E+00
         0.00000E+00
         0.00000E+00
         0.00000E+00
         0.00000E+00
         0.00000E+00
         0.00000E+00
         0.00000E+00
         0.00000E+00
         0.00000E+00
         0.00000E+00
         0.00000E+00
         0.00000E+00
         0.00000E+00
         0.00000E+00
         0.00000E+00
         0.00000E+00
         0.00000E+00
         0.00000E+00
         0.00000E+00
         0.00000E+00
         0.00000E+00
         0.00000E+00
         0.00000E+00
         0.00000E+00
         0.00000E+00
         0.00000E+00
         0.00000E+00
         0.00000E+00
         0.00000E+00
         0.00000E+00
         0.00000E+00
         0.00000E+00
         0.00000E+00
         0.00000E+00
         0.00000E+00
         0.00000E+00
         0.00000E+00
         0.00000E+00
         0.00000E+00
         0.00000E+00
         0.00000E+00
         0.00000E+00
         0.00000E+00
         0.00000E+00
         0.00000E+00
         0.00000E+00
         0.00000E+00
         0.00000E+00
         0.00000E+00
         0.00000E+00
         0.00000E+00
         0.00000E+00
         0.00000E+00
         0.00000E+00
         0.00000E+00
         0.00000E+00
         0.00000E+00
         0.00000E+00
         0.00000E+00
         0.00000E+00
         0.00000E+00
         0.00000E+00
         0.00000E+00
         0.00000E+00
         0.00000E+00
         0.00000E+00
         0.00000E+00
         0.00000E+00
         0.00000E+00
         0.00000E+00
         0.00000E+00
         0.00000E+00
         0.00000E+00
         0.00000E+00
         0.00000E+00
         0.00000E+00
         0.00000E+00
         0.00000E+00
         0.00000E+00
         0.00000E+00
         0.00000E+00
         0.00000E+00
         0.00000E+00
         0.00000E+00
         0.00000E+00
         0.00000E+00
         0.00000E+00
         0.00000E+00
         0.00000E+00
         0.00000E+00
         0.00000E+00
         0.00000E+00
         0.00000E+00
         0.00000E+00
         0.00000E+00
         0.00000E+00
         0.00000E+00
         0.00000E+00
         0.00000E+00
         0.00000E+00
         0.00000E+00
         0.00000E+00
         0.00000E+00
         0.00000E+00
         0.00000E+00
         0.00000E+00
         0.00000E+00
         0.00000E+00
         0.00000E+00
         0.00000E+00
         0.00000E+00
         0.00000E+00
         0.00000E+00
         0.00000E+00
         0.00000E+00
         0.00000E+00
         0.00000E+00
         0.00000E+00
         0.00000E+00
         0.00000E+00
         0.00000E+00
         0.00000E+00
         0.00000E+00
         0.00000E+00
         0.00000E+00
         0.00000E+00
         0.00000E+00
         0.00000E+00
         0.00000E+00
         0.00000E+00
         0.00000E+00
         0.00000E+00
         0.00000E+00
         0.00000E+00
         0.00000E+00
         0.00000E+00
         0.00000E+00
         0.00000E+00
         0.00000E+00
         0.00000E+00
         0.00000E+00
         0.00000E+00
         0.00000E+00
         0.00000E+00
         0.00000E+00
         0.00000E+00
         0.00000E+00
         0.00000E+00
         0.00000E+00
         0.00000E+00
         0.00000E+00
         0.00000E+00
         0.00000E+00
         0.00000E+00
         0.00000E+00
         0.00000E+00
         0.00000E+00
         0.00000E+00
         0.00000E+00
         0.00000E+00
         0.00000E+00
         0.00000E+00
         0.00000E+00
         0.00000E+00
         0.00000E+00
         0.00000E+00
         0.00000E+00
         0.00000E+00
         0.00000E+00
         0.00000E+00
         0.00000E+00
         0.00000E+00
         0.00000E+00
         0.00000E+00
         0.00000E+00
         0.00000E+00
         0.00000E+00
         0.00000E+00
         0.00000E+00
         0.00000E+00
         0.00000E+00
         0.00000E+00
         0.00000E+00
         0.00000E+00
         0.00000E+00
         0.00000E+00
         0.00000E+00
         0.00000E+00
         0.00000E+00
         0.00000E+00
         0.00000E+00
         0.00000E+00
         0.00000E+00
         0.00000E+00
         0.00000E+00
         0.00000E+00
         0.00000E+00
         0.00000E+00
         0.00000E+00
         0.00000E+00
         0.00000E+00
         0.00000E+00
         0.00000E+00
         0.00000E+00
         0.00000E+00
         0.00000E+00
         0.00000E+00
         0.00000E+00
         0.00000E+00
         0.00000E+00
         0.00000E+00
         0.00000E+00
         0.00000E+00
         0.00000E+00
         0.00000E+00
         0.00000E+00
         0.00000E+00
         0.00000E+00
         0.00000E+00
         0.00000E+00
         0.00000E+00
         0.00000E+00
         0.00000E+00
         0.00000E+00
         0.00000E+00
         0.00000E+00
         0.00000E+00
         0.00000E+00
         0.00000E+00
         0.00000E+00
         0.00000E+00
         0.00000E+00
         0.00000E+00
         0.00000E+00
         0.00000E+00
         0.00000E+00
         0.00000E+00
         0.00000E+00
         0.00000E+00
         0.00000E+00
         0.00000E+00
         0.00000E+00
         0.00000E+00
         0.00000E+00
         0.00000E+00
         0.00000E+00
         0.00000E+00
         0.00000E+00
         0.00000E+00
         0.00000E+00
         0.00000E+00
         0.00000E+00
         0.00000E+00
         0.00000E+00
         0.00000E+00
         0.00000E+00
         0.00000E+00
         0.00000E+00
         0.00000E+00
         0.00000E+00
         0.00000E+00
         0.00000E+00
         0.00000E+00
         0.00000E+00
         0.00000E+00
         0.00000E+00
         0.00000E+00
         0.00000E+00
         0.00000E+00
         0.00000E+00
         0.00000E+00
         0.00000E+00
         0.00000E+00
         0.00000E+00
         0.00000E+00
         0.00000E+00
         0.00000E+00
         0.00000E+00
         0.00000E+00
         0.00000E+00
         0.00000E+00
         0.00000E+00
         0.00000E+00
         0.00000E+00
         0.00000E+00
         0.00000E+00
         0.00000E+00
         0.00000E+00
         0.00000E+00
         0.00000E+00
         0.00000E+00
         0.00000E+00
         0.00000E+00
         0.00000E+00
         0.00000E+00
         0.00000E+00
         0.00000E+00
         0.00000E+00
         0.00000E+00
         0.00000E+00
         0.00000E+00
         0.00000E+00
         0.00000E+00
         0.00000E+00
         0.00000E+00
         0.00000E+00
         0.00000E+00
         0.00000E+00
         0.00000E+00
         0.00000E+00
         0.00000E+00
         0.00000E+00
         0.00000E+00
         0.00000E+00
         0.00000E+00
         0.00000E+00
         0.00000E+00
         0.00000E+00
         0.00000E+00
         0.00000E+00
         0.00000E+00
         0.00000E+00
         0.00000E+00
         0.00000E+00
         0.00000E+00
         0.00000E+00
         0.00000E+00
         0.00000E+00
         0.00000E+00
         0.00000E+00
         0.00000E+00
         0.00000E+00
         0.00000E+00
         0.00000E+00
         0.00000E+00
         0.00000E+00
         0.00000E+00
         0.00000E+00
         0.00000E+00
         0.00000E+00
         0.00000E+00
         0.00000E+00
         0.00000E+00
         0.00000E+00
         0.00000E+00
         0.00000E+00
         0.00000E+00
         0.00000E+00
         0.00000E+00
         0.00000E+00
         0.00000E+00
         0.00000E+00
         0.00000E+00
         0.00000E+00
         0.00000E+00
         0.00000E+00
         0.00000E+00
         0.00000E+00
         0.00000E+00
         0.00000E+00
         0.00000E+00
         0.00000E+00
         0.00000E+00
         0.00000E+00
         0.00000E+00
         0.00000E+00
         0.00000E+00
         0.00000E+00
         0.00000E+00
         0.00000E+00
         0.00000E+00
         0.00000E+00
         0.00000E+00
         0.00000E+00
         0.00000E+00
         0.00000E+00
         0.00000E+00
         0.00000E+00
         0.00000E+00
         0.00000E+00
         0.00000E+00
         0.00000E+00
         0.00000E+00
         0.00000E+00
         0.00000E+00
         0.00000E+00
         0.00000E+00
         0.00000E+00
         0.00000E+00
         0.00000E+00
         0.00000E+00
         0.00000E+00
         0.00000E+00
         0.00000E+00
         0.00000E+00
         0.00000E+00
         0.00000E+00
         0.00000E+00
         0.00000E+00
         0.00000E+00
         0.00000E+00
         0.00000E+00
         0.00000E+00
         0.00000E+00
         0.00000E+00
         0.00000E+00
         0.00000E+00
         0.00000E+00
         0.00000E+00
         0.00000E+00
         0.00000E+00
         0.00000E+00
         0.00000E+00
         0.00000E+00
         0.00000E+00
         0.00000E+00
         0.00000E+00
         0.00000E+00
         0.00000E+00
         0.00000E+00
         0.00000E+00
         0.00000E+00
         0.00000E+00
         0.00000E+00
         0.00000E+00
         0.00000E+00
         0.00000E+00
         0.00000E+00
         0.00000E+00
         0.00000E+00
         0.00000E+00
         0.00000E+00
         0.00000E+00
         0.00000E+00
         0.00000E+00
         0.00000E+00
         0.00000E+00
         0.00000E+00
         0.00000E+00
         0.00000E+00
         0.00000E+00
         0.00000E+00
         0.00000E+00
         0.00000E+00
         0.00000E+00
         0.00000E+00
         0.00000E+00
         0.00000E+00
         0.00000E+00
         0.00000E+00
         0.00000E+00
         0.00000E+00
         0.00000E+00
         0.00000E+00
         0.00000E+00
         0.00000E+00
         0.00000E+00
         0.00000E+00
         0.00000E+00
         0.00000E+00
         0.00000E+00
         0.00000E+00
         0.00000E+00
         0.00000E+00
         0.00000E+00
         0.00000E+00
         0.00000E+00
         0.00000E+00
         0.00000E+00
         0.00000E+00
         0.00000E+00
         0.00000E+00
         0.00000E+00
         0.00000E+00
         0.00000E+00
         0.00000E+00
         0.00000E+00
         0.00000E+00
         0.00000E+00
         0.00000E+00
         0.00000E+00
         0.00000E+00
         0.00000E+00
         0.00000E+00
         0.00000E+00
         0.00000E+00
         0.00000E+00
         0.00000E+00
         0.00000E+00
         0.00000E+00
         0.00000E+00
         0.00000E+00
         0.00000E+00
         0.00000E+00
         0.00000E+00
         0.00000E+00
         0.00000E+00
         0.00000E+00
         0.00000E+00
         0.00000E+00
         0.00000E+00
         0.00000E+00
         0.00000E+00
         0.00000E+00
         0.00000E+00
         0.00000E+00
         0.00000E+00
         0.00000E+00
         0.00000E+00
         0.00000E+00
         0.00000E+00
         0.00000E+00
         0.00000E+00
         0.00000E+00
         0.00000E+00
         0.00000E+00
         0.00000E+00
         0.00000E+00
         0.00000E+00
         0.00000E+00
         0.00000E+00
         0.00000E+00
         0.00000E+00
         0.00000E+00
         0.00000E+00
         0.00000E+00
         0.00000E+00
         0.00000E+00
         0.00000E+00
         0.00000E+00
         0.00000E+00
         0.00000E+00
         0.00000E+00
         0.00000E+00
         0.00000E+00
         0.00000E+00
         0.00000E+00
         0.00000E+00
         0.00000E+00
         0.00000E+00
         0.00000E+00
         0.00000E+00
         0.00000E+00
         0.00000E+00
         0.00000E+00
         0.00000E+00
         0.00000E+00
         0.00000E+00
         0.00000E+00
         0.00000E+00
         0.00000E+00
         0.00000E+00
         0.00000E+00
         0.00000E+00
         0.00000E+00
         0.00000E+00
         0.00000E+00
         0.00000E+00
         0.00000E+00
         0.00000E+00
         0.00000E+00
         0.00000E+00
         0.00000E+00
         0.00000E+00
         0.00000E+00
         0.00000E+00
         0.00000E+00
         0.00000E+00
         0.00000E+00
         0.00000E+00
         0.00000E+00
         0.00000E+00
         0.00000E+00
         0.00000E+00
         0.00000E+00
         0.00000E+00
         0.00000E+00
         0.00000E+00
         0.00000E+00
         0.00000E+00
         0.00000E+00
         0.00000E+00
         0.00000E+00
         0.00000E+00
         0.00000E+00
         0.00000E+00
         0.00000E+00
         0.00000E+00
         0.00000E+00
         0.00000E+00
         0.00000E+00
         0.00000E+00
         0.00000E+00
         0.00000E+00
         0.00000E+00
         0.00000E+00
         0.00000E+00
         0.00000E+00
         0.00000E+00
         0.00000E+00
         0.00000E+00
         0.00000E+00
         0.00000E+00
         0.00000E+00
         0.00000E+00
         0.00000E+00
         0.00000E+00
         0.00000E+00
         0.00000E+00
         0.00000E+00
         0.00000E+00
         0.00000E+00
         0.00000E+00
         0.00000E+00
         0.00000E+00
         0.00000E+00
         0.00000E+00
         0.00000E+00
         0.00000E+00
         0.00000E+00
         0.00000E+00
         0.00000E+00
         0.00000E+00
         0.00000E+00
         0.00000E+00
         0.00000E+00
         0.00000E+00
         0.00000E+00
         0.00000E+00
         0.00000E+00
         0.00000E+00
         0.00000E+00
         0.00000E+00
         0.00000E+00
         0.00000E+00
         0.00000E+00
         0.00000E+00
         0.00000E+00
         0.00000E+00
         0.00000E+00
         0.00000E+00
         0.00000E+00
         0.00000E+00
         0.00000E+00
         0.00000E+00
         0.00000E+00
         0.00000E+00
         0.00000E+00
         0.00000E+00
         0.00000E+00
         0.00000E+00
         0.00000E+00
         0.00000E+00
         0.00000E+00
         0.00000E+00
         0.00000E+00
         0.00000E+00
         0.00000E+00
         0.00000E+00
         0.00000E+00
         0.00000E+00
         0.00000E+00
         0.00000E+00
         0.00000E+00
         0.00000E+00
         0.00000E+00
         0.00000E+00
         0.00000E+00
         0.00000E+00
         0.00000E+00
         0.00000E+00
         0.00000E+00
         0.00000E+00
         0.00000E+00
         0.00000E+00
         0.00000E+00
         0.00000E+00
         0.00000E+00
         0.00000E+00
         0.00000E+00
         0.00000E+00
         0.00000E+00
         0.00000E+00
         0.00000E+00
         0.00000E+00
         0.00000E+00
         0.00000E+00
         0.00000E+00
         0.00000E+00
         0.00000E+00
         0.00000E+00
         0.00000E+00
         0.00000E+00
         0.00000E+00
         0.00000E+00
         0.00000E+00
         0.00000E+00
         0.00000E+00
         0.00000E+00
         0.00000E+00
         0.00000E+00
         0.00000E+00
         0.00000E+00
         0.00000E+00
         0.00000E+00
         0.00000E+00
         0.00000E+00
         0.00000E+00
         0.00000E+00
         0.00000E+00
         0.00000E+00
         0.00000E+00
         0.00000E+00
         0.00000E+00
         0.00000E+00
         0.00000E+00
         0.00000E+00
         0.00000E+00
         0.00000E+00
         0.00000E+00
         0.00000E+00
         0.00000E+00
         0.00000E+00
         0.00000E+00
         0.00000E+00
         0.00000E+00
         0.00000E+00
         0.00000E+00
         0.00000E+00
         0.00000E+00
         0.00000E+00
         0.00000E+00
         0.00000E+00
         0.00000E+00
         0.00000E+00
         0.00000E+00
         0.00000E+00
         0.00000E+00
         0.00000E+00
         0.00000E+00
         0.00000E+00
         0.00000E+00
         0.00000E+00
         0.00000E+00
         0.00000E+00
         0.00000E+00
         0.00000E+00
         0.00000E+00
         0.00000E+00
         0.00000E+00
         0.00000E+00
         0.00000E+00
         0.00000E+00
         0.00000E+00
         0.00000E+00
         0.00000E+00
         0.00000E+00
         0.00000E+00
         0.00000E+00
         0.00000E+00
         0.00000E+00
         0.00000E+00
         0.00000E+00
         0.00000E+00
         0.00000E+00
         0.00000E+00
         0.00000E+00
         0.00000E+00
         0.00000E+00
         0.00000E+00
         0.00000E+00
         0.00000E+00
         0.00000E+00
         0.00000E+00
         0.00000E+00
         0.00000E+00
         0.00000E+00
         0.00000E+00
         0.00000E+00
         0.00000E+00
         0.00000E+00
         0.00000E+00
         0.00000E+00
         0.00000E+00
         0.00000E+00
         0.00000E+00
         0.00000E+00
         0.00000E+00
         0.00000E+00
         0.00000E+00
         0.00000E+00
         0.00000E+00
         0.00000E+00
         0.00000E+00
         0.00000E+00
         0.00000E+00
         0.00000E+00
         0.00000E+00
         0.00000E+00
         0.00000E+00
         0.00000E+00
         0.00000E+00
         0.00000E+00
         0.00000E+00
         0.00000E+00
         0.00000E+00
         0.00000E+00
         0.00000E+00
         0.00000E+00
         0.00000E+00
         0.00000E+00
         0.00000E+00
         0.00000E+00
         0.00000E+00
         0.00000E+00
         0.00000E+00
         0.00000E+00
         0.00000E+00
         0.00000E+00
         0.00000E+00
         0.00000E+00
         0.00000E+00
         0.00000E+00
         0.00000E+00
         0.00000E+00
         0.00000E+00
         0.00000E+00
         0.00000E+00
         0.00000E+00
         0.00000E+00
         0.00000E+00
         0.00000E+00
         0.00000E+00
         0.00000E+00
         0.00000E+00
         0.00000E+00
         0.00000E+00
         0.00000E+00
         0.00000E+00
         0.00000E+00
         0.00000E+00
         0.00000E+00
         0.00000E+00
         0.00000E+00
         0.00000E+00
         0.00000E+00
         0.00000E+00
         0.00000E+00
         0.00000E+00
         0.00000E+00
         0.00000E+00
         0.00000E+00
         0.00000E+00
         0.00000E+00
         0.00000E+00
         0.00000E+00
         0.00000E+00
         0.00000E+00
         0.00000E+00
         0.00000E+00
         0.00000E+00
         0.00000E+00
         0.00000E+00
         0.00000E+00
         0.00000E+00
         0.00000E+00
         0.00000E+00
         0.00000E+00
         0.00000E+00
         0.00000E+00
         0.00000E+00
         0.00000E+00
         0.00000E+00
         0.00000E+00
         0.00000E+00
         0.00000E+00
         0.00000E+00
         0.00000E+00
         0.00000E+00
         0.00000E+00
         0.00000E+00
         0.00000E+00
         0.00000E+00
         0.00000E+00
         0.00000E+00
         0.00000E+00
         0.00000E+00
         0.00000E+00
         0.00000E+00
         0.00000E+00
         0.00000E+00
         0.00000E+00
         0.00000E+00
         0.00000E+00
         0.00000E+00
         0.00000E+00
         0.00000E+00
         0.00000E+00
         0.00000E+00
         0.00000E+00
         0.00000E+00
         0.00000E+00
         0.00000E+00
         0.00000E+00
         0.00000E+00
         0.00000E+00
         0.00000E+00
         0.00000E+00
         0.00000E+00
         0.00000E+00
         0.00000E+00
         0.00000E+00
         0.00000E+00
         0.00000E+00
         0.00000E+00
         0.00000E+00
         0.00000E+00
         0.00000E+00
         0.00000E+00
         0.00000E+00
         0.00000E+00
         0.00000E+00
         0.00000E+00
         0.00000E+00
         0.00000E+00
         0.00000E+00
         0.00000E+00
         0.00000E+00
         0.00000E+00
         0.00000E+00
         0.00000E+00
         0.00000E+00
         0.00000E+00
         0.00000E+00
         0.00000E+00
         0.00000E+00
         0.00000E+00
         0.00000E+00
         0.00000E+00
         0.00000E+00
         0.00000E+00
         0.00000E+00
         0.00000E+00
         0.00000E+00
         0.00000E+00
         0.00000E+00
         0.00000E+00
         0.00000E+00
         0.00000E+00
         0.00000E+00
         0.00000E+00
         0.00000E+00
         0.00000E+00
         0.00000E+00
         0.00000E+00
         0.00000E+00
         0.00000E+00
         0.00000E+00
         0.00000E+00
         0.00000E+00
         0.00000E+00
         0.00000E+00
         0.00000E+00
         0.00000E+00
         0.00000E+00
         0.00000E+00
         0.00000E+00
         0.00000E+00
         0.00000E+00
         0.00000E+00
         0.00000E+00
         0.00000E+00
         0.00000E+00
         0.00000E+00
         0.00000E+00
         0.00000E+00
         0.00000E+00
         0.00000E+00
         0.00000E+00
         0.00000E+00
         0.00000E+00
         0.00000E+00
         0.00000E+00
         0.00000E+00
         0.00000E+00
         0.00000E+00
         0.00000E+00
         0.00000E+00
         0.00000E+00
         0.00000E+00
         0.00000E+00
         0.00000E+00
         0.00000E+00
         0.00000E+00
         0.00000E+00
         0.00000E+00
         0.00000E+00
         0.00000E+00
         0.00000E+00
         0.00000E+00
         0.00000E+00
         0.00000E+00
         0.00000E+00
         0.00000E+00
         0.00000E+00
         0.00000E+00
         0.00000E+00
         0.00000E+00
         0.00000E+00
         0.00000E+00
         0.00000E+00
         0.00000E+00
         0.00000E+00
         0.00000E+00
         0.00000E+00
         0.00000E+00
         0.00000E+00
         0.00000E+00
         0.00000E+00
         0.00000E+00
         0.00000E+00
         0.00000E+00
         0.00000E+00
         0.00000E+00
         0.00000E+00
         0.00000E+00
         0.00000E+00
         0.00000E+00
         0.00000E+00
         0.00000E+00
         0.00000E+00
         0.00000E+00
         0.00000E+00
         0.00000E+00
         0.00000E+00
         0.00000E+00
         0.00000E+00
         0.00000E+00
         0.00000E+00
         0.00000E+00
         0.00000E+00
         0.00000E+00
         0.00000E+00
         0.00000E+00
         0.00000E+00
         0.00000E+00
         0.00000E+00
         0.00000E+00
         0.00000E+00
         0.00000E+00
         0.00000E+00
         0.00000E+00
         0.00000E+00
         0.00000E+00
         0.00000E+00
         0.00000E+00
         0.00000E+00
         0.00000E+00
         0.00000E+00
         0.00000E+00
         0.00000E+00
         0.00000E+00
         0.00000E+00
         0.00000E+00
         0.00000E+00
         0.00000E+00
         0.00000E+00
         0.00000E+00
         0.00000E+00
         0.00000E+00
         0.00000E+00
         0.00000E+00
         0.00000E+00
         0.00000E+00
         0.00000E+00
         0.00000E+00
         0.00000E+00
         0.00000E+00
         0.00000E+00
         0.00000E+00
         0.00000E+00
         0.00000E+00
         0.00000E+00
         0.00000E+00
         0.00000E+00
         0.00000E+00
         0.00000E+00
         0.00000E+00
         0.00000E+00
         0.00000E+00
         0.00000E+00
         0.00000E+00
         0.00000E+00
         0.00000E+00
         0.00000E+00
         0.00000E+00
         0.00000E+00
         0.00000E+00
         0.00000E+00
         0.00000E+00
         0.00000E+00
         0.00000E+00
         0.00000E+00
         0.00000E+00
         0.00000E+00
         0.00000E+00
         0.00000E+00
         0.00000E+00
         0.00000E+00
         0.00000E+00
         0.00000E+00
         0.00000E+00
         0.00000E+00
         0.00000E+00
         0.00000E+00
         0.00000E+00
         0.00000E+00
         0.00000E+00
         0.00000E+00
         0.00000E+00
         0.00000E+00
         0.00000E+00
         0.00000E+00
         0.00000E+00
         0.00000E+00
         0.00000E+00
         0.00000E+00
         0.00000E+00
         0.00000E+00
         0.00000E+00
         0.00000E+00
         0.00000E+00
         0.00000E+00
         0.00000E+00
         0.00000E+00
         0.00000E+00
         0.00000E+00
         0.00000E+00
         0.00000E+00
         0.00000E+00
         0.00000E+00
         0.00000E+00
         0.00000E+00
         0.00000E+00
         0.00000E+00
         0.00000E+00
         0.00000E+00
         0.00000E+00
         0.00000E+00
         0.00000E+00
         0.00000E+00
         0.00000E+00
         0.00000E+00
         0.00000E+00
         0.00000E+00
         0.00000E+00
         0.00000E+00
         0.00000E+00
         0.00000E+00
         0.00000E+00
         0.00000E+00
         0.00000E+00
         0.00000E+00
         0.00000E+00
         0.00000E+00
         0.00000E+00
         0.00000E+00
         0.00000E+00
         0.00000E+00
         0.00000E+00
         0.00000E+00
         0.00000E+00
         0.00000E+00
         0.00000E+00
         0.00000E+00
         0.00000E+00
         0.00000E+00
         0.00000E+00
         0.00000E+00
         0.00000E+00
         0.00000E+00
         0.00000E+00
         0.00000E+00
         0.00000E+00
         0.00000E+00
         0.00000E+00
         0.00000E+00
         0.00000E+00
         0.00000E+00
         0.00000E+00
         0.00000E+00
         0.00000E+00
         0.00000E+00
         0.00000E+00
         0.00000E+00
         0.00000E+00
         0.00000E+00
         0.00000E+00
         0.00000E+00
         0.00000E+00
         0.00000E+00
         0.00000E+00
         0.00000E+00
         0.00000E+00
         0.00000E+00
         0.00000E+00
         0.00000E+00
         0.00000E+00
         0.00000E+00
         0.00000E+00
         0.00000E+00
         0.00000E+00
         0.00000E+00
         0.00000E+00
         0.00000E+00
         0.00000E+00
         0.00000E+00
         0.00000E+00
         0.00000E+00
         0.00000E+00
         0.00000E+00
         0.00000E+00
         0.00000E+00
         0.00000E+00
         0.00000E+00
         0.00000E+00
         0.00000E+00
         0.00000E+00
         0.00000E+00
         0.00000E+00
         0.00000E+00
         0.00000E+00
         0.00000E+00
         0.00000E+00
         0.00000E+00
         0.00000E+00
         0.00000E+00
         0.00000E+00
         0.00000E+00
         0.00000E+00
         0.00000E+00
         0.00000E+00
         0.00000E+00
         0.00000E+00
         0.00000E+00
         0.00000E+00
         0.00000E+00
         0.00000E+00
         0.00000E+00
         0.00000E+00
         0.00000E+00
         0.00000E+00
         0.00000E+00
         0.00000E+00
         0.00000E+00
         0.00000E+00
         0.00000E+00
         0.00000E+00
         0.00000E+00
         0.00000E+00
         0.00000E+00
         0.00000E+00
         0.00000E+00
         0.00000E+00
         0.00000E+00
         0.00000E+00
         0.00000E+00
         0.00000E+00
         0.00000E+00
         0.00000E+00
         0.00000E+00
         0.00000E+00
         0.00000E+00
         0.00000E+00
         0.00000E+00
         0.00000E+00
         0.00000E+00
         0.00000E+00
         0.00000E+00
         0.00000E+00
         0.00000E+00
         0.00000E+00
         0.00000E+00
         0.00000E+00
         0.00000E+00
         0.00000E+00
         0.00000E+00
         0.00000E+00
         0.00000E+00
         0.00000E+00
         0.00000E+00
         0.00000E+00
         0.00000E+00
         0.00000E+00
         0.00000E+00
         0.00000E+00
         0.00000E+00
         0.00000E+00
         0.00000E+00
         0.00000E+00
         0.00000E+00
         0.00000E+00
         0.00000E+00
         0.00000E+00
         0.00000E+00
         0.00000E+00
         0.00000E+00
         0.00000E+00
         0.00000E+00
         0.00000E+00
         0.00000E+00
         0.00000E+00
         0.00000E+00
         0.00000E+00
         0.00000E+00
         0.00000E+00
  
SCALARS                init_velocity_y  double 1
LOOKUP_TABLE default
         0.00000E+00
         0.00000E+00
         0.00000E+00
         0.00000E+00
         0.00000E+00
         0.00000E+00
         0.00000E+00
         0.00000E+00
         0.00000E+00
         0.00000E+00
         0.00000E+00
         0.00000E+00
         0.00000E+00
         0.00000E+00
         0.00000E+00
         0.00000E+00
         0.00000E+00
         0.00000E+00
         0.00000E+00
         0.00000E+00
         0.00000E+00
         0.00000E+00
         0.00000E+00
         0.00000E+00
         0.00000E+00
         0.00000E+00
         0.00000E+00
         0.00000E+00
         0.00000E+00
         0.00000E+00
         0.00000E+00
         0.00000E+00
         0.00000E+00
         0.00000E+00
         0.00000E+00
         0.00000E+00
         0.00000E+00
         0.00000E+00
         0.00000E+00
         0.00000E+00
         0.00000E+00
         0.00000E+00
         0.00000E+00
         0.00000E+00
         0.00000E+00
         0.00000E+00
         0.00000E+00
         0.00000E+00
         0.00000E+00
         0.00000E+00
         0.00000E+00
         0.00000E+00
         0.00000E+00
         0.00000E+00
         0.00000E+00
         0.00000E+00
         0.00000E+00
         0.00000E+00
         0.00000E+00
         0.00000E+00
         0.00000E+00
         0.00000E+00
         0.00000E+00
         0.00000E+00
         0.00000E+00
         0.00000E+00
         0.00000E+00
         0.00000E+00
         0.00000E+00
         0.00000E+00
         0.00000E+00
         0.00000E+00
         0.00000E+00
         0.00000E+00
         0.00000E+00
         0.00000E+00
         0.00000E+00
         0.00000E+00
         0.00000E+00
         0.00000E+00
         0.00000E+00
         0.00000E+00
         0.00000E+00
         0.00000E+00
         0.00000E+00
         0.00000E+00
         0.00000E+00
         0.00000E+00
         0.00000E+00
         0.00000E+00
         0.00000E+00
         0.00000E+00
         0.00000E+00
         0.00000E+00
         0.00000E+00
         0.00000E+00
         0.00000E+00
         0.00000E+00
         0.00000E+00
         0.00000E+00
         0.00000E+00
         0.00000E+00
         0.00000E+00
         0.00000E+00
         0.00000E+00
         0.00000E+00
         0.00000E+00
         0.00000E+00
         0.00000E+00
         0.00000E+00
         0.00000E+00
         0.00000E+00
         0.00000E+00
         0.00000E+00
         0.00000E+00
         0.00000E+00
         0.00000E+00
         0.00000E+00
         0.00000E+00
         0.00000E+00
         0.00000E+00
         0.00000E+00
         0.00000E+00
         0.00000E+00
         0.00000E+00
         0.00000E+00
         0.00000E+00
         0.00000E+00
         0.00000E+00
         0.00000E+00
         0.00000E+00
         0.00000E+00
         0.00000E+00
         0.00000E+00
         0.00000E+00
         0.00000E+00
         0.00000E+00
         0.00000E+00
         0.00000E+00
         0.00000E+00
         0.00000E+00
         0.00000E+00
         0.00000E+00
         0.00000E+00
         0.00000E+00
         0.00000E+00
         0.00000E+00
         0.00000E+00
         0.00000E+00
         0.00000E+00
         0.00000E+00
         0.00000E+00
         0.00000E+00
         0.00000E+00
         0.00000E+00
         0.00000E+00
         0.00000E+00
         0.00000E+00
         0.00000E+00
         0.00000E+00
         0.00000E+00
         0.00000E+00
         0.00000E+00
         0.00000E+00
         0.00000E+00
         0.00000E+00
         0.00000E+00
         0.00000E+00
         0.00000E+00
         0.00000E+00
         0.00000E+00
         0.00000E+00
         0.00000E+00
         0.00000E+00
         0.00000E+00
         0.00000E+00
         0.00000E+00
         0.00000E+00
         0.00000E+00
         0.00000E+00
         0.00000E+00
         0.00000E+00
         0.00000E+00
         0.00000E+00
         0.00000E+00
         0.00000E+00
         0.00000E+00
         0.00000E+00
         0.00000E+00
         0.00000E+00
         0.00000E+00
         0.00000E+00
         0.00000E+00
         0.00000E+00
         0.00000E+00
         0.00000E+00
         0.00000E+00
         0.00000E+00
         0.00000E+00
         0.00000E+00
         0.00000E+00
         0.00000E+00
         0.00000E+00
         0.00000E+00
         0.00000E+00
         0.00000E+00
         0.00000E+00
         0.00000E+00
         0.00000E+00
         0.00000E+00
         0.00000E+00
         0.00000E+00
         0.00000E+00
         0.00000E+00
         0.00000E+00
         0.00000E+00
         0.00000E+00
         0.00000E+00
         0.00000E+00
         0.00000E+00
         0.00000E+00
         0.00000E+00
         0.00000E+00
         0.00000E+00
         0.00000E+00
         0.00000E+00
         0.00000E+00
         0.00000E+00
         0.00000E+00
         0.00000E+00
         0.00000E+00
         0.00000E+00
         0.00000E+00
         0.00000E+00
         0.00000E+00
         0.00000E+00
         0.00000E+00
         0.00000E+00
         0.00000E+00
         0.00000E+00
         0.00000E+00
         0.00000E+00
         0.00000E+00
         0.00000E+00
         0.00000E+00
         0.00000E+00
         0.00000E+00
         0.00000E+00
         0.00000E+00
         0.00000E+00
         0.00000E+00
         0.00000E+00
         0.00000E+00
         0.00000E+00
         0.00000E+00
         0.00000E+00
         0.00000E+00
         0.00000E+00
         0.00000E+00
         0.00000E+00
         0.00000E+00
         0.00000E+00
         0.00000E+00
         0.00000E+00
         0.00000E+00
         0.00000E+00
         0.00000E+00
         0.00000E+00
         0.00000E+00
         0.00000E+00
         0.00000E+00
         0.00000E+00
         0.00000E+00
         0.00000E+00
         0.00000E+00
         0.00000E+00
         0.00000E+00
         0.00000E+00
         0.00000E+00
         0.00000E+00
         0.00000E+00
         0.00000E+00
         0.00000E+00
         0.00000E+00
         0.00000E+00
         0.00000E+00
         0.00000E+00
         0.00000E+00
         0.00000E+00
         0.00000E+00
         0.00000E+00
         0.00000E+00
         0.00000E+00
         0.00000E+00
         0.00000E+00
         0.00000E+00
         0.00000E+00
         0.00000E+00
         0.00000E+00
         0.00000E+00
         0.00000E+00
         0.00000E+00
         0.00000E+00
         0.00000E+00
         0.00000E+00
         0.00000E+00
         0.00000E+00
         0.00000E+00
         0.00000E+00
         0.00000E+00
         0.00000E+00
         0.00000E+00
         0.00000E+00
         0.00000E+00
         0.00000E+00
         0.00000E+00
         0.00000E+00
         0.00000E+00
         0.00000E+00
         0.00000E+00
         0.00000E+00
         0.00000E+00
         0.00000E+00
         0.00000E+00
         0.00000E+00
         0.00000E+00
         0.00000E+00
         0.00000E+00
         0.00000E+00
         0.00000E+00
         0.00000E+00
         0.00000E+00
         0.00000E+00
         0.00000E+00
         0.00000E+00
         0.00000E+00
         0.00000E+00
         0.00000E+00
         0.00000E+00
         0.00000E+00
         0.00000E+00
         0.00000E+00
         0.00000E+00
         0.00000E+00
         0.00000E+00
         0.00000E+00
         0.00000E+00
         0.00000E+00
         0.00000E+00
         0.00000E+00
         0.00000E+00
         0.00000E+00
         0.00000E+00
         0.00000E+00
         0.00000E+00
         0.00000E+00
         0.00000E+00
         0.00000E+00
         0.00000E+00
         0.00000E+00
         0.00000E+00
         0.00000E+00
         0.00000E+00
         0.00000E+00
         0.00000E+00
         0.00000E+00
         0.00000E+00
         0.00000E+00
         0.00000E+00
         0.00000E+00
         0.00000E+00
         0.00000E+00
         0.00000E+00
         0.00000E+00
         0.00000E+00
         0.00000E+00
         0.00000E+00
         0.00000E+00
         0.00000E+00
         0.00000E+00
         0.00000E+00
         0.00000E+00
         0.00000E+00
         0.00000E+00
         0.00000E+00
         0.00000E+00
         0.00000E+00
         0.00000E+00
         0.00000E+00
         0.00000E+00
         0.00000E+00
         0.00000E+00
         0.00000E+00
         0.00000E+00
         0.00000E+00
         0.00000E+00
         0.00000E+00
         0.00000E+00
         0.00000E+00
         0.00000E+00
         0.00000E+00
         0.00000E+00
         0.00000E+00
         0.00000E+00
         0.00000E+00
         0.00000E+00
         0.00000E+00
         0.00000E+00
         0.00000E+00
         0.00000E+00
         0.00000E+00
         0.00000E+00
         0.00000E+00
         0.00000E+00
         0.00000E+00
         0.00000E+00
         0.00000E+00
         0.00000E+00
         0.00000E+00
         0.00000E+00
         0.00000E+00
         0.00000E+00
         0.00000E+00
         0.00000E+00
         0.00000E+00
         0.00000E+00
         0.00000E+00
         0.00000E+00
         0.00000E+00
         0.00000E+00
         0.00000E+00
         0.00000E+00
         0.00000E+00
         0.00000E+00
         0.00000E+00
         0.00000E+00
         0.00000E+00
         0.00000E+00
         0.00000E+00
         0.00000E+00
         0.00000E+00
         0.00000E+00
         0.00000E+00
         0.00000E+00
         0.00000E+00
         0.00000E+00
         0.00000E+00
         0.00000E+00
         0.00000E+00
         0.00000E+00
         0.00000E+00
         0.00000E+00
         0.00000E+00
         0.00000E+00
         0.00000E+00
         0.00000E+00
         0.00000E+00
         0.00000E+00
         0.00000E+00
         0.00000E+00
         0.00000E+00
         0.00000E+00
         0.00000E+00
         0.00000E+00
         0.00000E+00
         0.00000E+00
         0.00000E+00
         0.00000E+00
         0.00000E+00
         0.00000E+00
         0.00000E+00
         0.00000E+00
         0.00000E+00
         0.00000E+00
         0.00000E+00
         0.00000E+00
         0.00000E+00
         0.00000E+00
         0.00000E+00
         0.00000E+00
         0.00000E+00
         0.00000E+00
         0.00000E+00
         0.00000E+00
         0.00000E+00
         0.00000E+00
         0.00000E+00
         0.00000E+00
         0.00000E+00
         0.00000E+00
         0.00000E+00
         0.00000E+00
         0.00000E+00
         0.00000E+00
         0.00000E+00
         0.00000E+00
         0.00000E+00
         0.00000E+00
         0.00000E+00
         0.00000E+00
         0.00000E+00
         0.00000E+00
         0.00000E+00
         0.00000E+00
         0.00000E+00
         0.00000E+00
         0.00000E+00
         0.00000E+00
         0.00000E+00
         0.00000E+00
         0.00000E+00
         0.00000E+00
         0.00000E+00
         0.00000E+00
         0.00000E+00
         0.00000E+00
         0.00000E+00
         0.00000E+00
         0.00000E+00
         0.00000E+00
         0.00000E+00
         0.00000E+00
         0.00000E+00
         0.00000E+00
         0.00000E+00
         0.00000E+00
         0.00000E+00
         0.00000E+00
         0.00000E+00
         0.00000E+00
         0.00000E+00
         0.00000E+00
         0.00000E+00
         0.00000E+00
         0.00000E+00
         0.00000E+00
         0.00000E+00
         0.00000E+00
         0.00000E+00
         0.00000E+00
         0.00000E+00
         0.00000E+00
         0.00000E+00
         0.00000E+00
         0.00000E+00
         0.00000E+00
         0.00000E+00
         0.00000E+00
         0.00000E+00
         0.00000E+00
         0.00000E+00
         0.00000E+00
         0.00000E+00
         0.00000E+00
         0.00000E+00
         0.00000E+00
         0.00000E+00
         0.00000E+00
         0.00000E+00
         0.00000E+00
         0.00000E+00
         0.00000E+00
         0.00000E+00
         0.00000E+00
         0.00000E+00
         0.00000E+00
         0.00000E+00
         0.00000E+00
         0.00000E+00
         0.00000E+00
         0.00000E+00
         0.00000E+00
         0.00000E+00
         0.00000E+00
         0.00000E+00
         0.00000E+00
         0.00000E+00
         0.00000E+00
         0.00000E+00
         0.00000E+00
         0.00000E+00
         0.00000E+00
         0.00000E+00
         0.00000E+00
         0.00000E+00
         0.00000E+00
         0.00000E+00
         0.00000E+00
         0.00000E+00
         0.00000E+00
         0.00000E+00
         0.00000E+00
         0.00000E+00
         0.00000E+00
         0.00000E+00
         0.00000E+00
         0.00000E+00
         0.00000E+00
         0.00000E+00
         0.00000E+00
         0.00000E+00
         0.00000E+00
         0.00000E+00
         0.00000E+00
         0.00000E+00
         0.00000E+00
         0.00000E+00
         0.00000E+00
         0.00000E+00
         0.00000E+00
         0.00000E+00
         0.00000E+00
         0.00000E+00
         0.00000E+00
         0.00000E+00
         0.00000E+00
         0.00000E+00
         0.00000E+00
         0.00000E+00
         0.00000E+00
         0.00000E+00
         0.00000E+00
         0.00000E+00
         0.00000E+00
         0.00000E+00
         0.00000E+00
         0.00000E+00
         0.00000E+00
         0.00000E+00
         0.00000E+00
         0.00000E+00
         0.00000E+00
         0.00000E+00
         0.00000E+00
         0.00000E+00
         0.00000E+00
         0.00000E+00
         0.00000E+00
         0.00000E+00
         0.00000E+00
         0.00000E+00
         0.00000E+00
         0.00000E+00
         0.00000E+00
         0.00000E+00
         0.00000E+00
         0.00000E+00
         0.00000E+00
         0.00000E+00
         0.00000E+00
         0.00000E+00
         0.00000E+00
         0.00000E+00
         0.00000E+00
         0.00000E+00
         0.00000E+00
         0.00000E+00
         0.00000E+00
         0.00000E+00
         0.00000E+00
         0.00000E+00
         0.00000E+00
         0.00000E+00
         0.00000E+00
         0.00000E+00
         0.00000E+00
         0.00000E+00
         0.00000E+00
         0.00000E+00
         0.00000E+00
         0.00000E+00
         0.00000E+00
         0.00000E+00
         0.00000E+00
         0.00000E+00
         0.00000E+00
         0.00000E+00
         0.00000E+00
         0.00000E+00
         0.00000E+00
         0.00000E+00
         0.00000E+00
         0.00000E+00
         0.00000E+00
         0.00000E+00
         0.00000E+00
         0.00000E+00
         0.00000E+00
         0.00000E+00
         0.00000E+00
         0.00000E+00
         0.00000E+00
         0.00000E+00
         0.00000E+00
         0.00000E+00
         0.00000E+00
         0.00000E+00
         0.00000E+00
         0.00000E+00
         0.00000E+00
         0.00000E+00
         0.00000E+00
         0.00000E+00
         0.00000E+00
         0.00000E+00
         0.00000E+00
         0.00000E+00
         0.00000E+00
         0.00000E+00
         0.00000E+00
         0.00000E+00
         0.00000E+00
         0.00000E+00
         0.00000E+00
         0.00000E+00
         0.00000E+00
         0.00000E+00
         0.00000E+00
         0.00000E+00
         0.00000E+00
         0.00000E+00
         0.00000E+00
         0.00000E+00
         0.00000E+00
         0.00000E+00
         0.00000E+00
         0.00000E+00
         0.00000E+00
         0.00000E+00
         0.00000E+00
         0.00000E+00
         0.00000E+00
         0.00000E+00
         0.00000E+00
         0.00000E+00
         0.00000E+00
         0.00000E+00
         0.00000E+00
         0.00000E+00
         0.00000E+00
         0.00000E+00
         0.00000E+00
         0.00000E+00
         0.00000E+00
         0.00000E+00
         0.00000E+00
         0.00000E+00
         0.00000E+00
         0.00000E+00
         0.00000E+00
         0.00000E+00
         0.00000E+00
         0.00000E+00
         0.00000E+00
         0.00000E+00
         0.00000E+00
         0.00000E+00
         0.00000E+00
         0.00000E+00
         0.00000E+00
         0.00000E+00
         0.00000E+00
         0.00000E+00
         0.00000E+00
         0.00000E+00
         0.00000E+00
         0.00000E+00
         0.00000E+00
         0.00000E+00
         0.00000E+00
         0.00000E+00
         0.00000E+00
         0.00000E+00
         0.00000E+00
         0.00000E+00
         0.00000E+00
         0.00000E+00
         0.00000E+00
         0.00000E+00
         0.00000E+00
         0.00000E+00
         0.00000E+00
         0.00000E+00
         0.00000E+00
         0.00000E+00
         0.00000E+00
         0.00000E+00
         0.00000E+00
         0.00000E+00
         0.00000E+00
         0.00000E+00
         0.00000E+00
         0.00000E+00
         0.00000E+00
         0.00000E+00
         0.00000E+00
         0.00000E+00
         0.00000E+00
         0.00000E+00
         0.00000E+00
         0.00000E+00
         0.00000E+00
         0.00000E+00
         0.00000E+00
         0.00000E+00
         0.00000E+00
         0.00000E+00
         0.00000E+00
         0.00000E+00
         0.00000E+00
         0.00000E+00
         0.00000E+00
         0.00000E+00
         0.00000E+00
         0.00000E+00
         0.00000E+00
         0.00000E+00
         0.00000E+00
         0.00000E+00
         0.00000E+00
         0.00000E+00
         0.00000E+00
         0.00000E+00
         0.00000E+00
         0.00000E+00
         0.00000E+00
         0.00000E+00
         0.00000E+00
         0.00000E+00
         0.00000E+00
         0.00000E+00
         0.00000E+00
         0.00000E+00
         0.00000E+00
         0.00000E+00
         0.00000E+00
         0.00000E+00
         0.00000E+00
         0.00000E+00
         0.00000E+00
         0.00000E+00
         0.00000E+00
         0.00000E+00
         0.00000E+00
         0.00000E+00
         0.00000E+00
         0.00000E+00
         0.00000E+00
         0.00000E+00
         0.00000E+00
         0.00000E+00
         0.00000E+00
         0.00000E+00
         0.00000E+00
         0.00000E+00
         0.00000E+00
         0.00000E+00
         0.00000E+00
         0.00000E+00
         0.00000E+00
         0.00000E+00
         0.00000E+00
         0.00000E+00
         0.00000E+00
         0.00000E+00
         0.00000E+00
         0.00000E+00
         0.00000E+00
         0.00000E+00
         0.00000E+00
         0.00000E+00
         0.00000E+00
         0.00000E+00
         0.00000E+00
         0.00000E+00
         0.00000E+00
         0.00000E+00
         0.00000E+00
         0.00000E+00
         0.00000E+00
         0.00000E+00
         0.00000E+00
         0.00000E+00
         0.00000E+00
         0.00000E+00
         0.00000E+00
         0.00000E+00
         0.00000E+00
         0.00000E+00
         0.00000E+00
         0.00000E+00
         0.00000E+00
         0.00000E+00
         0.00000E+00
         0.00000E+00
         0.00000E+00
         0.00000E+00
         0.00000E+00
         0.00000E+00
         0.00000E+00
         0.00000E+00
         0.00000E+00
         0.00000E+00
         0.00000E+00
         0.00000E+00
         0.00000E+00
         0.00000E+00
         0.00000E+00
         0.00000E+00
         0.00000E+00
         0.00000E+00
         0.00000E+00
         0.00000E+00
         0.00000E+00
         0.00000E+00
         0.00000E+00
         0.00000E+00
         0.00000E+00
         0.00000E+00
         0.00000E+00
         0.00000E+00
         0.00000E+00
         0.00000E+00
         0.00000E+00
         0.00000E+00
         0.00000E+00
         0.00000E+00
         0.00000E+00
         0.00000E+00
         0.00000E+00
         0.00000E+00
         0.00000E+00
         0.00000E+00
         0.00000E+00
         0.00000E+00
         0.00000E+00
         0.00000E+00
         0.00000E+00
         0.00000E+00
         0.00000E+00
         0.00000E+00
         0.00000E+00
         0.00000E+00
         0.00000E+00
         0.00000E+00
         0.00000E+00
         0.00000E+00
         0.00000E+00
         0.00000E+00
         0.00000E+00
         0.00000E+00
         0.00000E+00
         0.00000E+00
         0.00000E+00
         0.00000E+00
         0.00000E+00
         0.00000E+00
         0.00000E+00
         0.00000E+00
         0.00000E+00
         0.00000E+00
         0.00000E+00
         0.00000E+00
         0.00000E+00
         0.00000E+00
         0.00000E+00
         0.00000E+00
         0.00000E+00
         0.00000E+00
         0.00000E+00
         0.00000E+00
         0.00000E+00
         0.00000E+00
         0.00000E+00
         0.00000E+00
         0.00000E+00
         0.00000E+00
         0.00000E+00
         0.00000E+00
         0.00000E+00
         0.00000E+00
         0.00000E+00
         0.00000E+00
         0.00000E+00
         0.00000E+00
         0.00000E+00
         0.00000E+00
         0.00000E+00
         0.00000E+00
         0.00000E+00
         0.00000E+00
         0.00000E+00
         0.00000E+00
         0.00000E+00
         0.00000E+00
         0.00000E+00
         0.00000E+00
         0.00000E+00
         0.00000E+00
         0.00000E+00
         0.00000E+00
         0.00000E+00
         0.00000E+00
         0.00000E+00
         0.00000E+00
         0.00000E+00
         0.00000E+00
         0.00000E+00
         0.00000E+00
         0.00000E+00
         0.00000E+00
         0.00000E+00
         0.00000E+00
         0.00000E+00
         0.00000E+00
         0.00000E+00
         0.00000E+00
         0.00000E+00
         0.00000E+00
         0.00000E+00
         0.00000E+00
         0.00000E+00
         0.00000E+00
         0.00000E+00
         0.00000E+00
         0.00000E+00
         0.00000E+00
         0.00000E+00
         0.00000E+00
         0.00000E+00
         0.00000E+00
         0.00000E+00
         0.00000E+00
         0.00000E+00
         0.00000E+00
         0.00000E+00
         0.00000E+00
         0.00000E+00
         0.00000E+00
         0.00000E+00
         0.00000E+00
         0.00000E+00
         0.00000E+00
         0.00000E+00
         0.00000E+00
         0.00000E+00
         0.00000E+00
         0.00000E+00
         0.00000E+00
         0.00000E+00
         0.00000E+00
         0.00000E+00
         0.00000E+00
         0.00000E+00
         0.00000E+00
         0.00000E+00
         0.00000E+00
         0.00000E+00
         0.00000E+00
         0.00000E+00
         0.00000E+00
         0.00000E+00
         0.00000E+00
         0.00000E+00
         0.00000E+00
         0.00000E+00
         0.00000E+00
         0.00000E+00
         0.00000E+00
         0.00000E+00
         0.00000E+00
         0.00000E+00
         0.00000E+00
         0.00000E+00
         0.00000E+00
         0.00000E+00
         0.00000E+00
         0.00000E+00
         0.00000E+00
         0.00000E+00
         0.00000E+00
         0.00000E+00
         0.00000E+00
         0.00000E+00
         0.00000E+00
         0.00000E+00
         0.00000E+00
         0.00000E+00
         0.00000E+00
         0.00000E+00
         0.00000E+00
         0.00000E+00
         0.00000E+00
         0.00000E+00
         0.00000E+00
         0.00000E+00
         0.00000E+00
         0.00000E+00
         0.00000E+00
         0.00000E+00
         0.00000E+00
         0.00000E+00
         0.00000E+00
         0.00000E+00
         0.00000E+00
         0.00000E+00
         0.00000E+00
         0.00000E+00
         0.00000E+00
         0.00000E+00
         0.00000E+00
         0.00000E+00
         0.00000E+00
         0.00000E+00
         0.00000E+00
         0.00000E+00
         0.00000E+00
         0.00000E+00
         0.00000E+00
         0.00000E+00
         0.00000E+00
         0.00000E+00
         0.00000E+00
         0.00000E+00
         0.00000E+00
         0.00000E+00
         0.00000E+00
         0.00000E+00
         0.00000E+00
         0.00000E+00
         0.00000E+00
         0.00000E+00
         0.00000E+00
         0.00000E+00
         0.00000E+00
         0.00000E+00
         0.00000E+00
         0.00000E+00
         0.00000E+00
         0.00000E+00
         0.00000E+00
         0.00000E+00
         0.00000E+00
         0.00000E+00
         0.00000E+00
         0.00000E+00
         0.00000E+00
         0.00000E+00
         0.00000E+00
         0.00000E+00
         0.00000E+00
         0.00000E+00
         0.00000E+00
         0.00000E+00
         0.00000E+00
         0.00000E+00
         0.00000E+00
         0.00000E+00
         0.00000E+00
         0.00000E+00
         0.00000E+00
         0.00000E+00
         0.00000E+00
         0.00000E+00
         0.00000E+00
         0.00000E+00
         0.00000E+00
         0.00000E+00
         0.00000E+00
         0.00000E+00
         0.00000E+00
         0.00000E+00
         0.00000E+00
         0.00000E+00
         0.00000E+00
         0.00000E+00
         0.00000E+00
         0.00000E+00
         0.00000E+00
         0.00000E+00
         0.00000E+00
         0.00000E+00
         0.00000E+00
         0.00000E+00
         0.00000E+00
         0.00000E+00
         0.00000E+00
         0.00000E+00
         0.00000E+00
         0.00000E+00
         0.00000E+00
         0.00000E+00
         0.00000E+00
         0.00000E+00
         0.00000E+00
         0.00000E+00
         0.00000E+00
         0.00000E+00
         0.00000E+00
         0.00000E+00
         0.00000E+00
         0.00000E+00
         0.00000E+00
         0.00000E+00
         0.00000E+00
         0.00000E+00
         0.00000E+00
         0.00000E+00
         0.00000E+00
         0.00000E+00
         0.00000E+00
         0.00000E+00
         0.00000E+00
         0.00000E+00
         0.00000E+00
         0.00000E+00
         0.00000E+00
         0.00000E+00
         0.00000E+00
         0.00000E+00
         0.00000E+00
         0.00000E+00
         0.00000E+00
         0.00000E+00
         0.00000E+00
         0.00000E+00
         0.00000E+00
         0.00000E+00
         0.00000E+00
         0.00000E+00
         0.00000E+00
         0.00000E+00
         0.00000E+00
         0.00000E+00
         0.00000E+00
         0.00000E+00
         0.00000E+00
         0.00000E+00
         0.00000E+00
         0.00000E+00
         0.00000E+00
         0.00000E+00
         0.00000E+00
         0.00000E+00
         0.00000E+00
         0.00000E+00
         0.00000E+00
         0.00000E+00
         0.00000E+00
         0.00000E+00
         0.00000E+00
         0.00000E+00
         0.00000E+00
         0.00000E+00
         0.00000E+00
         0.00000E+00
         0.00000E+00
         0.00000E+00
         0.00000E+00
         0.00000E+00
         0.00000E+00
         0.00000E+00
         0.00000E+00
         0.00000E+00
         0.00000E+00
         0.00000E+00
         0.00000E+00
         0.00000E+00
         0.00000E+00
         0.00000E+00
         0.00000E+00
         0.00000E+00
         0.00000E+00
         0.00000E+00
         0.00000E+00
         0.00000E+00
         0.00000E+00
         0.00000E+00
         0.00000E+00
         0.00000E+00
         0.00000E+00
         0.00000E+00
         0.00000E+00
         0.00000E+00
         0.00000E+00
         0.00000E+00
         0.00000E+00
         0.00000E+00
         0.00000E+00
         0.00000E+00
         0.00000E+00
         0.00000E+00
         0.00000E+00
         0.00000E+00
         0.00000E+00
         0.00000E+00
         0.00000E+00
         0.00000E+00
         0.00000E+00
         0.00000E+00
         0.00000E+00
         0.00000E+00
         0.00000E+00
         0.00000E+00
         0.00000E+00
         0.00000E+00
         0.00000E+00
         0.00000E+00
         0.00000E+00
         0.00000E+00
         0.00000E+00
         0.00000E+00
         0.00000E+00
         0.00000E+00
         0.00000E+00
         0.00000E+00
         0.00000E+00
         0.00000E+00
         0.00000E+00
         0.00000E+00
         0.00000E+00
         0.00000E+00
         0.00000E+00
         0.00000E+00
         0.00000E+00
         0.00000E+00
         0.00000E+00
         0.00000E+00
         0.00000E+00
         0.00000E+00
         0.00000E+00
         0.00000E+00
         0.00000E+00
         0.00000E+00
         0.00000E+00
         0.00000E+00
         0.00000E+00
         0.00000E+00
         0.00000E+00
         0.00000E+00
         0.00000E+00
         0.00000E+00
         0.00000E+00
         0.00000E+00
         0.00000E+00
         0.00000E+00
         0.00000E+00
         0.00000E+00
         0.00000E+00
         0.00000E+00
         0.00000E+00
         0.00000E+00
         0.00000E+00
         0.00000E+00
         0.00000E+00
         0.00000E+00
         0.00000E+00
         0.00000E+00
         0.00000E+00
         0.00000E+00
         0.00000E+00
         0.00000E+00
         0.00000E+00
         0.00000E+00
         0.00000E+00
         0.00000E+00
         0.00000E+00
         0.00000E+00
         0.00000E+00
         0.00000E+00
         0.00000E+00
         0.00000E+00
         0.00000E+00
         0.00000E+00
         0.00000E+00
         0.00000E+00
         0.00000E+00
         0.00000E+00
         0.00000E+00
         0.00000E+00
         0.00000E+00
         0.00000E+00
         0.00000E+00
         0.00000E+00
         0.00000E+00
         0.00000E+00
         0.00000E+00
         0.00000E+00
         0.00000E+00
         0.00000E+00
         0.00000E+00
         0.00000E+00
         0.00000E+00
         0.00000E+00
         0.00000E+00
         0.00000E+00
         0.00000E+00
         0.00000E+00
         0.00000E+00
         0.00000E+00
         0.00000E+00
         0.00000E+00
         0.00000E+00
         0.00000E+00
         0.00000E+00
         0.00000E+00
         0.00000E+00
         0.00000E+00
         0.00000E+00
         0.00000E+00
         0.00000E+00
         0.00000E+00
         0.00000E+00
         0.00000E+00
         0.00000E+00
         0.00000E+00
         0.00000E+00
         0.00000E+00
         0.00000E+00
         0.00000E+00
         0.00000E+00
         0.00000E+00
         0.00000E+00
         0.00000E+00
         0.00000E+00
         0.00000E+00
         0.00000E+00
         0.00000E+00
         0.00000E+00
         0.00000E+00
         0.00000E+00
         0.00000E+00
         0.00000E+00
         0.00000E+00
         0.00000E+00
         0.00000E+00
         0.00000E+00
         0.00000E+00
         0.00000E+00
         0.00000E+00
         0.00000E+00
         0.00000E+00
         0.00000E+00
         0.00000E+00
         0.00000E+00
         0.00000E+00
         0.00000E+00
         0.00000E+00
         0.00000E+00
         0.00000E+00
         0.00000E+00
         0.00000E+00
         0.00000E+00
         0.00000E+00
         0.00000E+00
         0.00000E+00
         0.00000E+00
         0.00000E+00
         0.00000E+00
         0.00000E+00
         0.00000E+00
         0.00000E+00
         0.00000E+00
         0.00000E+00
         0.00000E+00
         0.00000E+00
         0.00000E+00
         0.00000E+00
         0.00000E+00
         0.00000E+00
         0.00000E+00
         0.00000E+00
         0.00000E+00
         0.00000E+00
         0.00000E+00
         0.00000E+00
         0.00000E+00
         0.00000E+00
         0.00000E+00
         0.00000E+00
         0.00000E+00
         0.00000E+00
         0.00000E+00
         0.00000E+00
         0.00000E+00
         0.00000E+00
         0.00000E+00
         0.00000E+00
         0.00000E+00
         0.00000E+00
         0.00000E+00
         0.00000E+00
         0.00000E+00
         0.00000E+00
         0.00000E+00
         0.00000E+00
         0.00000E+00
         0.00000E+00
         0.00000E+00
         0.00000E+00
         0.00000E+00
         0.00000E+00
         0.00000E+00
         0.00000E+00
         0.00000E+00
         0.00000E+00
         0.00000E+00
         0.00000E+00
         0.00000E+00
         0.00000E+00
         0.00000E+00
         0.00000E+00
         0.00000E+00
         0.00000E+00
         0.00000E+00
         0.00000E+00
         0.00000E+00
         0.00000E+00
         0.00000E+00
         0.00000E+00
         0.00000E+00
         0.00000E+00
         0.00000E+00
         0.00000E+00
         0.00000E+00
         0.00000E+00
         0.00000E+00
         0.00000E+00
         0.00000E+00
         0.00000E+00
         0.00000E+00
         0.00000E+00
         0.00000E+00
         0.00000E+00
         0.00000E+00
         0.00000E+00
         0.00000E+00
         0.00000E+00
         0.00000E+00
         0.00000E+00
         0.00000E+00
         0.00000E+00
         0.00000E+00
         0.00000E+00
         0.00000E+00
         0.00000E+00
         0.00000E+00
         0.00000E+00
         0.00000E+00
         0.00000E+00
         0.00000E+00
         0.00000E+00
         0.00000E+00
         0.00000E+00
         0.00000E+00
         0.00000E+00
         0.00000E+00
         0.00000E+00
         0.00000E+00
         0.00000E+00
         0.00000E+00
         0.00000E+00
         0.00000E+00
         0.00000E+00
         0.00000E+00
         0.00000E+00
         0.00000E+00
         0.00000E+00
         0.00000E+00
         0.00000E+00
         0.00000E+00
         0.00000E+00
         0.00000E+00
         0.00000E+00
         0.00000E+00
         0.00000E+00
         0.00000E+00
         0.00000E+00
         0.00000E+00
         0.00000E+00
         0.00000E+00
         0.00000E+00
         0.00000E+00
         0.00000E+00
         0.00000E+00
         0.00000E+00
         0.00000E+00
         0.00000E+00
         0.00000E+00
         0.00000E+00
         0.00000E+00
         0.00000E+00
         0.00000E+00
         0.00000E+00
         0.00000E+00
         0.00000E+00
         0.00000E+00
         0.00000E+00
         0.00000E+00
         0.00000E+00
         0.00000E+00
         0.00000E+00
         0.00000E+00
         0.00000E+00
         0.00000E+00
         0.00000E+00
         0.00000E+00
         0.00000E+00
         0.00000E+00
         0.00000E+00
         0.00000E+00
         0.00000E+00
         0.00000E+00
         0.00000E+00
         0.00000E+00
         0.00000E+00
         0.00000E+00
         0.00000E+00
         0.00000E+00
         0.00000E+00
         0.00000E+00
         0.00000E+00
         0.00000E+00
         0.00000E+00
         0.00000E+00
         0.00000E+00
         0.00000E+00
         0.00000E+00
         0.00000E+00
         0.00000E+00
         0.00000E+00
         0.00000E+00
         0.00000E+00
         0.00000E+00
         0.00000E+00
         0.00000E+00
         0.00000E+00
         0.00000E+00
         0.00000E+00
         0.00000E+00
         0.00000E+00
         0.00000E+00
         0.00000E+00
         0.00000E+00
         0.00000E+00
         0.00000E+00
         0.00000E+00
         0.00000E+00
         0.00000E+00
         0.00000E+00
         0.00000E+00
         0.00000E+00
         0.00000E+00
         0.00000E+00
         0.00000E+00
         0.00000E+00
         0.00000E+00
         0.00000E+00
         0.00000E+00
         0.00000E+00
         0.00000E+00
         0.00000E+00
         0.00000E+00
         0.00000E+00
         0.00000E+00
         0.00000E+00
         0.00000E+00
         0.00000E+00
         0.00000E+00
         0.00000E+00
         0.00000E+00
         0.00000E+00
         0.00000E+00
         0.00000E+00
         0.00000E+00
         0.00000E+00
         0.00000E+00
         0.00000E+00
         0.00000E+00
         0.00000E+00
         0.00000E+00
         0.00000E+00
         0.00000E+00
         0.00000E+00
         0.00000E+00
         0.00000E+00
         0.00000E+00
         0.00000E+00
         0.00000E+00
         0.00000E+00
         0.00000E+00
         0.00000E+00
         0.00000E+00
         0.00000E+00
         0.00000E+00
         0.00000E+00
         0.00000E+00
         0.00000E+00
         0.00000E+00
         0.00000E+00
         0.00000E+00
         0.00000E+00
         0.00000E+00
         0.00000E+00
         0.00000E+00
         0.00000E+00
         0.00000E+00
         0.00000E+00
         0.00000E+00
         0.00000E+00
         0.00000E+00
         0.00000E+00
         0.00000E+00
         0.00000E+00
         0.00000E+00
         0.00000E+00
         0.00000E+00
         0.00000E+00
         0.00000E+00
         0.00000E+00
         0.00000E+00
         0.00000E+00
         0.00000E+00
         0.00000E+00
         0.00000E+00
         0.00000E+00
         0.00000E+00
         0.00000E+00
         0.00000E+00
         0.00000E+00
         0.00000E+00
         0.00000E+00
         0.00000E+00
         0.00000E+00
         0.00000E+00
         0.00000E+00
         0.00000E+00
         0.00000E+00
         0.00000E+00
         0.00000E+00
         0.00000E+00
         0.00000E+00
         0.00000E+00
         0.00000E+00
         0.00000E+00
         0.00000E+00
         0.00000E+00
         0.00000E+00
         0.00000E+00
         0.00000E+00
         0.00000E+00
         0.00000E+00
         0.00000E+00
         0.00000E+00
         0.00000E+00
         0.00000E+00
         0.00000E+00
         0.00000E+00
         0.00000E+00
         0.00000E+00
         0.00000E+00
         0.00000E+00
         0.00000E+00
         0.00000E+00
         0.00000E+00
         0.00000E+00
         0.00000E+00
         0.00000E+00
         0.00000E+00
         0.00000E+00
         0.00000E+00
         0.00000E+00
         0.00000E+00
         0.00000E+00
         0.00000E+00
         0.00000E+00
         0.00000E+00
         0.00000E+00
         0.00000E+00
         0.00000E+00
         0.00000E+00
         0.00000E+00
         0.00000E+00
         0.00000E+00
         0.00000E+00
         0.00000E+00
         0.00000E+00
         0.00000E+00
         0.00000E+00
         0.00000E+00
         0.00000E+00
         0.00000E+00
         0.00000E+00
         0.00000E+00
         0.00000E+00
         0.00000E+00
         0.00000E+00
         0.00000E+00
         0.00000E+00
         0.00000E+00
         0.00000E+00
         0.00000E+00
         0.00000E+00
         0.00000E+00
         0.00000E+00
         0.00000E+00
         0.00000E+00
         0.00000E+00
         0.00000E+00
         0.00000E+00
         0.00000E+00
         0.00000E+00
         0.00000E+00
         0.00000E+00
         0.00000E+00
         0.00000E+00
         0.00000E+00
         0.00000E+00
         0.00000E+00
         0.00000E+00
         0.00000E+00
         0.00000E+00
         0.00000E+00
         0.00000E+00
         0.00000E+00
         0.00000E+00
         0.00000E+00
         0.00000E+00
         0.00000E+00
         0.00000E+00
         0.00000E+00
         0.00000E+00
         0.00000E+00
         0.00000E+00
         0.00000E+00
         0.00000E+00
         0.00000E+00
         0.00000E+00
         0.00000E+00
         0.00000E+00
         0.00000E+00
         0.00000E+00
         0.00000E+00
         0.00000E+00
         0.00000E+00
         0.00000E+00
         0.00000E+00
         0.00000E+00
         0.00000E+00
         0.00000E+00
         0.00000E+00
         0.00000E+00
         0.00000E+00
         0.00000E+00
         0.00000E+00
         0.00000E+00
         0.00000E+00
         0.00000E+00
         0.00000E+00
         0.00000E+00
         0.00000E+00
         0.00000E+00
         0.00000E+00
         0.00000E+00
         0.00000E+00
         0.00000E+00
         0.00000E+00
         0.00000E+00
         0.00000E+00
         0.00000E+00
         0.00000E+00
         0.00000E+00
         0.00000E+00
         0.00000E+00
         0.00000E+00
         0.00000E+00
         0.00000E+00
         0.00000E+00
         0.00000E+00
         0.00000E+00
         0.00000E+00
         0.00000E+00
         0.00000E+00
         0.00000E+00
         0.00000E+00
         0.00000E+00
         0.00000E+00
         0.00000E+00
         0.00000E+00
         0.00000E+00
         0.00000E+00
         0.00000E+00
         0.00000E+00
         0.00000E+00
         0.00000E+00
         0.00000E+00
         0.00000E+00
         0.00000E+00
         0.00000E+00
         0.00000E+00
         0.00000E+00
         0.00000E+00
         0.00000E+00
         0.00000E+00
         0.00000E+00
         0.00000E+00
         0.00000E+00
         0.00000E+00
         0.00000E+00
         0.00000E+00
         0.00000E+00
         0.00000E+00
         0.00000E+00
         0.00000E+00
         0.00000E+00
         0.00000E+00
         0.00000E+00
         0.00000E+00
         0.00000E+00
         0.00000E+00
         0.00000E+00
         0.00000E+00
         0.00000E+00
         0.00000E+00
         0.00000E+00
         0.00000E+00
         0.00000E+00
         0.00000E+00
         0.00000E+00
         0.00000E+00
         0.00000E+00
         0.00000E+00
         0.00000E+00
         0.00000E+00
         0.00000E+00
         0.00000E+00
         0.00000E+00
         0.00000E+00
         0.00000E+00
         0.00000E+00
         0.00000E+00
         0.00000E+00
         0.00000E+00
         0.00000E+00
         0.00000E+00
         0.00000E+00
         0.00000E+00
         0.00000E+00
         0.00000E+00
         0.00000E+00
  
SCALARS                init_velocity_z  double 1
LOOKUP_TABLE default
        -0.37300E+03
        -0.37300E+03
        -0.37300E+03
        -0.37300E+03
        -0.37300E+03
        -0.37300E+03
        -0.37300E+03
        -0.37300E+03
        -0.37300E+03
        -0.37300E+03
        -0.37300E+03
        -0.37300E+03
        -0.37300E+03
        -0.37300E+03
        -0.37300E+03
        -0.37300E+03
        -0.37300E+03
        -0.37300E+03
        -0.37300E+03
        -0.37300E+03
        -0.37300E+03
        -0.37300E+03
        -0.37300E+03
        -0.37300E+03
        -0.37300E+03
        -0.37300E+03
        -0.37300E+03
        -0.37300E+03
        -0.37300E+03
        -0.37300E+03
        -0.37300E+03
        -0.37300E+03
        -0.37300E+03
        -0.37300E+03
        -0.37300E+03
        -0.37300E+03
        -0.37300E+03
        -0.37300E+03
        -0.37300E+03
        -0.37300E+03
        -0.37300E+03
        -0.37300E+03
        -0.37300E+03
        -0.37300E+03
        -0.37300E+03
        -0.37300E+03
        -0.37300E+03
        -0.37300E+03
        -0.37300E+03
        -0.37300E+03
        -0.37300E+03
        -0.37300E+03
        -0.37300E+03
        -0.37300E+03
        -0.37300E+03
        -0.37300E+03
        -0.37300E+03
        -0.37300E+03
        -0.37300E+03
        -0.37300E+03
        -0.37300E+03
        -0.37300E+03
        -0.37300E+03
        -0.37300E+03
        -0.37300E+03
        -0.37300E+03
        -0.37300E+03
        -0.37300E+03
        -0.37300E+03
        -0.37300E+03
        -0.37300E+03
        -0.37300E+03
        -0.37300E+03
        -0.37300E+03
        -0.37300E+03
        -0.37300E+03
        -0.37300E+03
        -0.37300E+03
        -0.37300E+03
        -0.37300E+03
        -0.37300E+03
        -0.37300E+03
        -0.37300E+03
        -0.37300E+03
        -0.37300E+03
        -0.37300E+03
        -0.37300E+03
        -0.37300E+03
        -0.37300E+03
        -0.37300E+03
        -0.37300E+03
        -0.37300E+03
        -0.37300E+03
        -0.37300E+03
        -0.37300E+03
        -0.37300E+03
        -0.37300E+03
        -0.37300E+03
        -0.37300E+03
        -0.37300E+03
        -0.37300E+03
        -0.37300E+03
        -0.37300E+03
        -0.37300E+03
        -0.37300E+03
        -0.37300E+03
        -0.37300E+03
        -0.37300E+03
        -0.37300E+03
        -0.37300E+03
        -0.37300E+03
        -0.37300E+03
        -0.37300E+03
        -0.37300E+03
        -0.37300E+03
        -0.37300E+03
        -0.37300E+03
        -0.37300E+03
        -0.37300E+03
        -0.37300E+03
        -0.37300E+03
        -0.37300E+03
        -0.37300E+03
        -0.37300E+03
        -0.37300E+03
        -0.37300E+03
        -0.37300E+03
        -0.37300E+03
        -0.37300E+03
        -0.37300E+03
        -0.37300E+03
        -0.37300E+03
        -0.37300E+03
        -0.37300E+03
        -0.37300E+03
        -0.37300E+03
        -0.37300E+03
        -0.37300E+03
        -0.37300E+03
        -0.37300E+03
        -0.37300E+03
        -0.37300E+03
        -0.37300E+03
        -0.37300E+03
        -0.37300E+03
        -0.37300E+03
        -0.37300E+03
        -0.37300E+03
        -0.37300E+03
        -0.37300E+03
        -0.37300E+03
        -0.37300E+03
        -0.37300E+03
        -0.37300E+03
        -0.37300E+03
        -0.37300E+03
        -0.37300E+03
        -0.37300E+03
        -0.37300E+03
        -0.37300E+03
        -0.37300E+03
        -0.37300E+03
        -0.37300E+03
        -0.37300E+03
        -0.37300E+03
        -0.37300E+03
        -0.37300E+03
        -0.37300E+03
        -0.37300E+03
        -0.37300E+03
        -0.37300E+03
        -0.37300E+03
        -0.37300E+03
        -0.37300E+03
        -0.37300E+03
        -0.37300E+03
        -0.37300E+03
        -0.37300E+03
        -0.37300E+03
        -0.37300E+03
        -0.37300E+03
        -0.37300E+03
        -0.37300E+03
        -0.37300E+03
        -0.37300E+03
        -0.37300E+03
        -0.37300E+03
        -0.37300E+03
        -0.37300E+03
        -0.37300E+03
        -0.37300E+03
        -0.37300E+03
        -0.37300E+03
        -0.37300E+03
        -0.37300E+03
        -0.37300E+03
        -0.37300E+03
        -0.37300E+03
        -0.37300E+03
        -0.37300E+03
        -0.37300E+03
        -0.37300E+03
        -0.37300E+03
        -0.37300E+03
        -0.37300E+03
        -0.37300E+03
        -0.37300E+03
        -0.37300E+03
        -0.37300E+03
        -0.37300E+03
        -0.37300E+03
        -0.37300E+03
        -0.37300E+03
        -0.37300E+03
        -0.37300E+03
        -0.37300E+03
        -0.37300E+03
        -0.37300E+03
        -0.37300E+03
        -0.37300E+03
        -0.37300E+03
        -0.37300E+03
        -0.37300E+03
        -0.37300E+03
        -0.37300E+03
        -0.37300E+03
        -0.37300E+03
        -0.37300E+03
        -0.37300E+03
        -0.37300E+03
        -0.37300E+03
        -0.37300E+03
        -0.37300E+03
        -0.37300E+03
        -0.37300E+03
        -0.37300E+03
        -0.37300E+03
        -0.37300E+03
        -0.37300E+03
        -0.37300E+03
        -0.37300E+03
        -0.37300E+03
        -0.37300E+03
        -0.37300E+03
        -0.37300E+03
        -0.37300E+03
        -0.37300E+03
        -0.37300E+03
        -0.37300E+03
        -0.37300E+03
        -0.37300E+03
        -0.37300E+03
        -0.37300E+03
        -0.37300E+03
        -0.37300E+03
        -0.37300E+03
        -0.37300E+03
        -0.37300E+03
        -0.37300E+03
        -0.37300E+03
        -0.37300E+03
        -0.37300E+03
        -0.37300E+03
        -0.37300E+03
        -0.37300E+03
        -0.37300E+03
        -0.37300E+03
        -0.37300E+03
        -0.37300E+03
        -0.37300E+03
        -0.37300E+03
        -0.37300E+03
        -0.37300E+03
        -0.37300E+03
        -0.37300E+03
        -0.37300E+03
        -0.37300E+03
        -0.37300E+03
        -0.37300E+03
        -0.37300E+03
        -0.37300E+03
        -0.37300E+03
        -0.37300E+03
        -0.37300E+03
        -0.37300E+03
        -0.37300E+03
        -0.37300E+03
        -0.37300E+03
        -0.37300E+03
        -0.37300E+03
        -0.37300E+03
        -0.37300E+03
        -0.37300E+03
        -0.37300E+03
        -0.37300E+03
        -0.37300E+03
        -0.37300E+03
        -0.37300E+03
        -0.37300E+03
        -0.37300E+03
        -0.37300E+03
        -0.37300E+03
        -0.37300E+03
        -0.37300E+03
        -0.37300E+03
        -0.37300E+03
        -0.37300E+03
        -0.37300E+03
        -0.37300E+03
        -0.37300E+03
        -0.37300E+03
        -0.37300E+03
        -0.37300E+03
        -0.37300E+03
        -0.37300E+03
        -0.37300E+03
        -0.37300E+03
        -0.37300E+03
        -0.37300E+03
        -0.37300E+03
        -0.37300E+03
        -0.37300E+03
        -0.37300E+03
        -0.37300E+03
        -0.37300E+03
        -0.37300E+03
        -0.37300E+03
        -0.37300E+03
        -0.37300E+03
        -0.37300E+03
        -0.37300E+03
        -0.37300E+03
        -0.37300E+03
        -0.37300E+03
        -0.37300E+03
        -0.37300E+03
        -0.37300E+03
        -0.37300E+03
        -0.37300E+03
        -0.37300E+03
        -0.37300E+03
        -0.37300E+03
        -0.37300E+03
        -0.37300E+03
        -0.37300E+03
        -0.37300E+03
        -0.37300E+03
        -0.37300E+03
        -0.37300E+03
        -0.37300E+03
        -0.37300E+03
        -0.37300E+03
        -0.37300E+03
        -0.37300E+03
        -0.37300E+03
        -0.37300E+03
        -0.37300E+03
        -0.37300E+03
        -0.37300E+03
        -0.37300E+03
        -0.37300E+03
        -0.37300E+03
        -0.37300E+03
        -0.37300E+03
        -0.37300E+03
        -0.37300E+03
        -0.37300E+03
        -0.37300E+03
        -0.37300E+03
        -0.37300E+03
        -0.37300E+03
        -0.37300E+03
        -0.37300E+03
        -0.37300E+03
        -0.37300E+03
        -0.37300E+03
        -0.37300E+03
        -0.37300E+03
        -0.37300E+03
        -0.37300E+03
        -0.37300E+03
        -0.37300E+03
        -0.37300E+03
        -0.37300E+03
        -0.37300E+03
        -0.37300E+03
        -0.37300E+03
        -0.37300E+03
        -0.37300E+03
        -0.37300E+03
        -0.37300E+03
        -0.37300E+03
        -0.37300E+03
        -0.37300E+03
        -0.37300E+03
        -0.37300E+03
        -0.37300E+03
        -0.37300E+03
        -0.37300E+03
        -0.37300E+03
        -0.37300E+03
        -0.37300E+03
        -0.37300E+03
        -0.37300E+03
        -0.37300E+03
        -0.37300E+03
        -0.37300E+03
        -0.37300E+03
        -0.37300E+03
        -0.37300E+03
        -0.37300E+03
        -0.37300E+03
        -0.37300E+03
        -0.37300E+03
        -0.37300E+03
        -0.37300E+03
        -0.37300E+03
        -0.37300E+03
        -0.37300E+03
        -0.37300E+03
        -0.37300E+03
        -0.37300E+03
        -0.37300E+03
        -0.37300E+03
        -0.37300E+03
        -0.37300E+03
        -0.37300E+03
        -0.37300E+03
        -0.37300E+03
        -0.37300E+03
        -0.37300E+03
        -0.37300E+03
        -0.37300E+03
        -0.37300E+03
        -0.37300E+03
        -0.37300E+03
        -0.37300E+03
        -0.37300E+03
        -0.37300E+03
        -0.37300E+03
        -0.37300E+03
        -0.37300E+03
        -0.37300E+03
        -0.37300E+03
        -0.37300E+03
        -0.37300E+03
        -0.37300E+03
        -0.37300E+03
        -0.37300E+03
        -0.37300E+03
        -0.37300E+03
        -0.37300E+03
        -0.37300E+03
        -0.37300E+03
        -0.37300E+03
        -0.37300E+03
        -0.37300E+03
        -0.37300E+03
        -0.37300E+03
        -0.37300E+03
        -0.37300E+03
        -0.37300E+03
        -0.37300E+03
        -0.37300E+03
        -0.37300E+03
        -0.37300E+03
        -0.37300E+03
        -0.37300E+03
        -0.37300E+03
        -0.37300E+03
        -0.37300E+03
        -0.37300E+03
        -0.37300E+03
        -0.37300E+03
        -0.37300E+03
        -0.37300E+03
        -0.37300E+03
        -0.37300E+03
        -0.37300E+03
        -0.37300E+03
        -0.37300E+03
        -0.37300E+03
        -0.37300E+03
        -0.37300E+03
        -0.37300E+03
        -0.37300E+03
        -0.37300E+03
        -0.37300E+03
        -0.37300E+03
        -0.37300E+03
        -0.37300E+03
        -0.37300E+03
        -0.37300E+03
        -0.37300E+03
        -0.37300E+03
        -0.37300E+03
        -0.37300E+03
        -0.37300E+03
        -0.37300E+03
        -0.37300E+03
        -0.37300E+03
        -0.37300E+03
        -0.37300E+03
        -0.37300E+03
        -0.37300E+03
        -0.37300E+03
        -0.37300E+03
        -0.37300E+03
        -0.37300E+03
        -0.37300E+03
        -0.37300E+03
        -0.37300E+03
        -0.37300E+03
        -0.37300E+03
        -0.37300E+03
        -0.37300E+03
        -0.37300E+03
        -0.37300E+03
        -0.37300E+03
        -0.37300E+03
        -0.37300E+03
        -0.37300E+03
        -0.37300E+03
        -0.37300E+03
        -0.37300E+03
        -0.37300E+03
        -0.37300E+03
        -0.37300E+03
        -0.37300E+03
        -0.37300E+03
        -0.37300E+03
        -0.37300E+03
        -0.37300E+03
        -0.37300E+03
        -0.37300E+03
        -0.37300E+03
        -0.37300E+03
        -0.37300E+03
        -0.37300E+03
        -0.37300E+03
        -0.37300E+03
        -0.37300E+03
        -0.37300E+03
        -0.37300E+03
        -0.37300E+03
        -0.37300E+03
        -0.37300E+03
        -0.37300E+03
        -0.37300E+03
        -0.37300E+03
        -0.37300E+03
        -0.37300E+03
        -0.37300E+03
        -0.37300E+03
        -0.37300E+03
        -0.37300E+03
        -0.37300E+03
        -0.37300E+03
        -0.37300E+03
        -0.37300E+03
        -0.37300E+03
        -0.37300E+03
        -0.37300E+03
        -0.37300E+03
        -0.37300E+03
        -0.37300E+03
        -0.37300E+03
        -0.37300E+03
        -0.37300E+03
        -0.37300E+03
        -0.37300E+03
        -0.37300E+03
        -0.37300E+03
        -0.37300E+03
        -0.37300E+03
        -0.37300E+03
        -0.37300E+03
        -0.37300E+03
        -0.37300E+03
        -0.37300E+03
        -0.37300E+03
        -0.37300E+03
        -0.37300E+03
        -0.37300E+03
        -0.37300E+03
        -0.37300E+03
        -0.37300E+03
        -0.37300E+03
        -0.37300E+03
        -0.37300E+03
        -0.37300E+03
        -0.37300E+03
        -0.37300E+03
        -0.37300E+03
        -0.37300E+03
        -0.37300E+03
        -0.37300E+03
        -0.37300E+03
        -0.37300E+03
        -0.37300E+03
        -0.37300E+03
        -0.37300E+03
        -0.37300E+03
        -0.37300E+03
        -0.37300E+03
        -0.37300E+03
        -0.37300E+03
        -0.37300E+03
        -0.37300E+03
        -0.37300E+03
        -0.37300E+03
        -0.37300E+03
        -0.37300E+03
        -0.37300E+03
        -0.37300E+03
        -0.37300E+03
        -0.37300E+03
        -0.37300E+03
        -0.37300E+03
        -0.37300E+03
        -0.37300E+03
        -0.37300E+03
        -0.37300E+03
        -0.37300E+03
        -0.37300E+03
        -0.37300E+03
        -0.37300E+03
        -0.37300E+03
        -0.37300E+03
        -0.37300E+03
        -0.37300E+03
        -0.37300E+03
        -0.37300E+03
        -0.37300E+03
        -0.37300E+03
        -0.37300E+03
        -0.37300E+03
        -0.37300E+03
        -0.37300E+03
        -0.37300E+03
        -0.37300E+03
        -0.37300E+03
        -0.37300E+03
        -0.37300E+03
        -0.37300E+03
        -0.37300E+03
        -0.37300E+03
        -0.37300E+03
        -0.37300E+03
        -0.37300E+03
        -0.37300E+03
        -0.37300E+03
        -0.37300E+03
        -0.37300E+03
        -0.37300E+03
        -0.37300E+03
        -0.37300E+03
        -0.37300E+03
        -0.37300E+03
        -0.37300E+03
        -0.37300E+03
        -0.37300E+03
        -0.37300E+03
        -0.37300E+03
        -0.37300E+03
        -0.37300E+03
        -0.37300E+03
        -0.37300E+03
        -0.37300E+03
        -0.37300E+03
        -0.37300E+03
        -0.37300E+03
        -0.37300E+03
        -0.37300E+03
        -0.37300E+03
        -0.37300E+03
        -0.37300E+03
        -0.37300E+03
        -0.37300E+03
        -0.37300E+03
        -0.37300E+03
        -0.37300E+03
        -0.37300E+03
        -0.37300E+03
        -0.37300E+03
        -0.37300E+03
        -0.37300E+03
        -0.37300E+03
        -0.37300E+03
        -0.37300E+03
        -0.37300E+03
        -0.37300E+03
        -0.37300E+03
        -0.37300E+03
        -0.37300E+03
        -0.37300E+03
        -0.37300E+03
        -0.37300E+03
        -0.37300E+03
        -0.37300E+03
        -0.37300E+03
        -0.37300E+03
        -0.37300E+03
        -0.37300E+03
        -0.37300E+03
        -0.37300E+03
        -0.37300E+03
        -0.37300E+03
        -0.37300E+03
        -0.37300E+03
        -0.37300E+03
        -0.37300E+03
        -0.37300E+03
        -0.37300E+03
        -0.37300E+03
        -0.37300E+03
        -0.37300E+03
        -0.37300E+03
        -0.37300E+03
        -0.37300E+03
        -0.37300E+03
        -0.37300E+03
        -0.37300E+03
        -0.37300E+03
        -0.37300E+03
        -0.37300E+03
        -0.37300E+03
        -0.37300E+03
        -0.37300E+03
        -0.37300E+03
        -0.37300E+03
        -0.37300E+03
        -0.37300E+03
        -0.37300E+03
        -0.37300E+03
        -0.37300E+03
        -0.37300E+03
        -0.37300E+03
        -0.37300E+03
        -0.37300E+03
        -0.37300E+03
        -0.37300E+03
        -0.37300E+03
        -0.37300E+03
        -0.37300E+03
        -0.37300E+03
        -0.37300E+03
        -0.37300E+03
        -0.37300E+03
        -0.37300E+03
        -0.37300E+03
        -0.37300E+03
        -0.37300E+03
        -0.37300E+03
        -0.37300E+03
        -0.37300E+03
        -0.37300E+03
        -0.37300E+03
        -0.37300E+03
        -0.37300E+03
        -0.37300E+03
        -0.37300E+03
        -0.37300E+03
        -0.37300E+03
        -0.37300E+03
        -0.37300E+03
        -0.37300E+03
        -0.37300E+03
        -0.37300E+03
        -0.37300E+03
        -0.37300E+03
        -0.37300E+03
        -0.37300E+03
        -0.37300E+03
        -0.37300E+03
        -0.37300E+03
        -0.37300E+03
        -0.37300E+03
        -0.37300E+03
        -0.37300E+03
        -0.37300E+03
        -0.37300E+03
        -0.37300E+03
        -0.37300E+03
        -0.37300E+03
        -0.37300E+03
        -0.37300E+03
        -0.37300E+03
        -0.37300E+03
        -0.37300E+03
        -0.37300E+03
        -0.37300E+03
        -0.37300E+03
        -0.37300E+03
        -0.37300E+03
        -0.37300E+03
        -0.37300E+03
        -0.37300E+03
        -0.37300E+03
        -0.37300E+03
        -0.37300E+03
        -0.37300E+03
        -0.37300E+03
        -0.37300E+03
        -0.37300E+03
        -0.37300E+03
        -0.37300E+03
        -0.37300E+03
        -0.37300E+03
        -0.37300E+03
        -0.37300E+03
        -0.37300E+03
        -0.37300E+03
        -0.37300E+03
        -0.37300E+03
        -0.37300E+03
        -0.37300E+03
        -0.37300E+03
        -0.37300E+03
        -0.37300E+03
        -0.37300E+03
        -0.37300E+03
        -0.37300E+03
        -0.37300E+03
        -0.37300E+03
        -0.37300E+03
        -0.37300E+03
        -0.37300E+03
        -0.37300E+03
        -0.37300E+03
        -0.37300E+03
        -0.37300E+03
        -0.37300E+03
        -0.37300E+03
        -0.37300E+03
        -0.37300E+03
        -0.37300E+03
        -0.37300E+03
        -0.37300E+03
        -0.37300E+03
        -0.37300E+03
        -0.37300E+03
        -0.37300E+03
        -0.37300E+03
        -0.37300E+03
        -0.37300E+03
        -0.37300E+03
        -0.37300E+03
        -0.37300E+03
        -0.37300E+03
        -0.37300E+03
        -0.37300E+03
        -0.37300E+03
        -0.37300E+03
        -0.37300E+03
        -0.37300E+03
        -0.37300E+03
        -0.37300E+03
        -0.37300E+03
        -0.37300E+03
        -0.37300E+03
        -0.37300E+03
        -0.37300E+03
        -0.37300E+03
        -0.37300E+03
        -0.37300E+03
        -0.37300E+03
        -0.37300E+03
        -0.37300E+03
        -0.37300E+03
        -0.37300E+03
        -0.37300E+03
        -0.37300E+03
        -0.37300E+03
        -0.37300E+03
        -0.37300E+03
        -0.37300E+03
        -0.37300E+03
        -0.37300E+03
        -0.37300E+03
        -0.37300E+03
        -0.37300E+03
        -0.37300E+03
        -0.37300E+03
        -0.37300E+03
        -0.37300E+03
        -0.37300E+03
        -0.37300E+03
        -0.37300E+03
        -0.37300E+03
        -0.37300E+03
        -0.37300E+03
        -0.37300E+03
        -0.37300E+03
        -0.37300E+03
        -0.37300E+03
        -0.37300E+03
        -0.37300E+03
        -0.37300E+03
        -0.37300E+03
        -0.37300E+03
        -0.37300E+03
        -0.37300E+03
        -0.37300E+03
        -0.37300E+03
        -0.37300E+03
        -0.37300E+03
        -0.37300E+03
        -0.37300E+03
        -0.37300E+03
        -0.37300E+03
        -0.37300E+03
        -0.37300E+03
        -0.37300E+03
        -0.37300E+03
        -0.37300E+03
        -0.37300E+03
        -0.37300E+03
        -0.37300E+03
        -0.37300E+03
        -0.37300E+03
        -0.37300E+03
        -0.37300E+03
        -0.37300E+03
        -0.37300E+03
        -0.37300E+03
        -0.37300E+03
        -0.37300E+03
        -0.37300E+03
        -0.37300E+03
        -0.37300E+03
        -0.37300E+03
        -0.37300E+03
        -0.37300E+03
        -0.37300E+03
        -0.37300E+03
        -0.37300E+03
        -0.37300E+03
        -0.37300E+03
        -0.37300E+03
        -0.37300E+03
        -0.37300E+03
        -0.37300E+03
        -0.37300E+03
        -0.37300E+03
        -0.37300E+03
        -0.37300E+03
        -0.37300E+03
        -0.37300E+03
        -0.37300E+03
        -0.37300E+03
        -0.37300E+03
        -0.37300E+03
        -0.37300E+03
        -0.37300E+03
        -0.37300E+03
        -0.37300E+03
        -0.37300E+03
        -0.37300E+03
        -0.37300E+03
        -0.37300E+03
        -0.37300E+03
        -0.37300E+03
        -0.37300E+03
        -0.37300E+03
        -0.37300E+03
        -0.37300E+03
        -0.37300E+03
        -0.37300E+03
        -0.37300E+03
        -0.37300E+03
        -0.37300E+03
        -0.37300E+03
        -0.37300E+03
        -0.37300E+03
        -0.37300E+03
        -0.37300E+03
        -0.37300E+03
        -0.37300E+03
        -0.37300E+03
        -0.37300E+03
        -0.37300E+03
        -0.37300E+03
        -0.37300E+03
        -0.37300E+03
        -0.37300E+03
        -0.37300E+03
        -0.37300E+03
        -0.37300E+03
        -0.37300E+03
        -0.37300E+03
        -0.37300E+03
        -0.37300E+03
        -0.37300E+03
        -0.37300E+03
        -0.37300E+03
        -0.37300E+03
        -0.37300E+03
        -0.37300E+03
        -0.37300E+03
        -0.37300E+03
        -0.37300E+03
        -0.37300E+03
        -0.37300E+03
        -0.37300E+03
        -0.37300E+03
        -0.37300E+03
        -0.37300E+03
        -0.37300E+03
        -0.37300E+03
        -0.37300E+03
        -0.37300E+03
        -0.37300E+03
        -0.37300E+03
        -0.37300E+03
        -0.37300E+03
        -0.37300E+03
        -0.37300E+03
        -0.37300E+03
        -0.37300E+03
        -0.37300E+03
        -0.37300E+03
        -0.37300E+03
        -0.37300E+03
        -0.37300E+03
        -0.37300E+03
        -0.37300E+03
        -0.37300E+03
        -0.37300E+03
        -0.37300E+03
        -0.37300E+03
        -0.37300E+03
        -0.37300E+03
        -0.37300E+03
        -0.37300E+03
        -0.37300E+03
        -0.37300E+03
        -0.37300E+03
        -0.37300E+03
        -0.37300E+03
        -0.37300E+03
        -0.37300E+03
        -0.37300E+03
        -0.37300E+03
        -0.37300E+03
        -0.37300E+03
        -0.37300E+03
        -0.37300E+03
        -0.37300E+03
        -0.37300E+03
        -0.37300E+03
        -0.37300E+03
        -0.37300E+03
        -0.37300E+03
        -0.37300E+03
        -0.37300E+03
        -0.37300E+03
        -0.37300E+03
        -0.37300E+03
        -0.37300E+03
        -0.37300E+03
        -0.37300E+03
        -0.37300E+03
        -0.37300E+03
        -0.37300E+03
        -0.37300E+03
        -0.37300E+03
        -0.37300E+03
        -0.37300E+03
        -0.37300E+03
        -0.37300E+03
        -0.37300E+03
        -0.37300E+03
        -0.37300E+03
        -0.37300E+03
        -0.37300E+03
        -0.37300E+03
        -0.37300E+03
        -0.37300E+03
        -0.37300E+03
        -0.37300E+03
        -0.37300E+03
        -0.37300E+03
        -0.37300E+03
        -0.37300E+03
        -0.37300E+03
        -0.37300E+03
        -0.37300E+03
        -0.37300E+03
        -0.37300E+03
        -0.37300E+03
        -0.37300E+03
        -0.37300E+03
        -0.37300E+03
        -0.37300E+03
        -0.37300E+03
        -0.37300E+03
        -0.37300E+03
        -0.37300E+03
        -0.37300E+03
        -0.37300E+03
        -0.37300E+03
        -0.37300E+03
        -0.37300E+03
        -0.37300E+03
        -0.37300E+03
        -0.37300E+03
        -0.37300E+03
        -0.37300E+03
        -0.37300E+03
        -0.37300E+03
        -0.37300E+03
        -0.37300E+03
        -0.37300E+03
        -0.37300E+03
        -0.37300E+03
        -0.37300E+03
        -0.37300E+03
        -0.37300E+03
        -0.37300E+03
        -0.37300E+03
        -0.37300E+03
        -0.37300E+03
        -0.37300E+03
        -0.37300E+03
        -0.37300E+03
        -0.37300E+03
        -0.37300E+03
        -0.37300E+03
        -0.37300E+03
        -0.37300E+03
        -0.37300E+03
        -0.37300E+03
        -0.37300E+03
        -0.37300E+03
        -0.37300E+03
        -0.37300E+03
        -0.37300E+03
        -0.37300E+03
        -0.37300E+03
        -0.37300E+03
        -0.37300E+03
        -0.37300E+03
        -0.37300E+03
        -0.37300E+03
        -0.37300E+03
        -0.37300E+03
        -0.37300E+03
        -0.37300E+03
        -0.37300E+03
        -0.37300E+03
        -0.37300E+03
        -0.37300E+03
        -0.37300E+03
        -0.37300E+03
        -0.37300E+03
        -0.37300E+03
        -0.37300E+03
        -0.37300E+03
        -0.37300E+03
        -0.37300E+03
        -0.37300E+03
        -0.37300E+03
        -0.37300E+03
        -0.37300E+03
        -0.37300E+03
        -0.37300E+03
        -0.37300E+03
        -0.37300E+03
        -0.37300E+03
        -0.37300E+03
        -0.37300E+03
        -0.37300E+03
        -0.37300E+03
        -0.37300E+03
        -0.37300E+03
        -0.37300E+03
        -0.37300E+03
        -0.37300E+03
        -0.37300E+03
        -0.37300E+03
        -0.37300E+03
        -0.37300E+03
        -0.37300E+03
        -0.37300E+03
        -0.37300E+03
        -0.37300E+03
        -0.37300E+03
        -0.37300E+03
        -0.37300E+03
        -0.37300E+03
        -0.37300E+03
        -0.37300E+03
        -0.37300E+03
        -0.37300E+03
        -0.37300E+03
        -0.37300E+03
        -0.37300E+03
        -0.37300E+03
        -0.37300E+03
        -0.37300E+03
        -0.37300E+03
        -0.37300E+03
        -0.37300E+03
        -0.37300E+03
        -0.37300E+03
        -0.37300E+03
        -0.37300E+03
        -0.37300E+03
        -0.37300E+03
        -0.37300E+03
        -0.37300E+03
        -0.37300E+03
        -0.37300E+03
        -0.37300E+03
        -0.37300E+03
        -0.37300E+03
        -0.37300E+03
        -0.37300E+03
        -0.37300E+03
        -0.37300E+03
        -0.37300E+03
        -0.37300E+03
        -0.37300E+03
        -0.37300E+03
        -0.37300E+03
        -0.37300E+03
        -0.37300E+03
        -0.37300E+03
        -0.37300E+03
        -0.37300E+03
        -0.37300E+03
        -0.37300E+03
        -0.37300E+03
        -0.37300E+03
        -0.37300E+03
        -0.37300E+03
        -0.37300E+03
        -0.37300E+03
        -0.37300E+03
        -0.37300E+03
        -0.37300E+03
        -0.37300E+03
        -0.37300E+03
        -0.37300E+03
        -0.37300E+03
        -0.37300E+03
        -0.37300E+03
        -0.37300E+03
        -0.37300E+03
        -0.37300E+03
        -0.37300E+03
        -0.37300E+03
        -0.37300E+03
        -0.37300E+03
        -0.37300E+03
        -0.37300E+03
        -0.37300E+03
        -0.37300E+03
        -0.37300E+03
        -0.37300E+03
        -0.37300E+03
        -0.37300E+03
        -0.37300E+03
        -0.37300E+03
        -0.37300E+03
        -0.37300E+03
        -0.37300E+03
        -0.37300E+03
        -0.37300E+03
        -0.37300E+03
        -0.37300E+03
        -0.37300E+03
        -0.37300E+03
        -0.37300E+03
        -0.37300E+03
        -0.37300E+03
        -0.37300E+03
        -0.37300E+03
        -0.37300E+03
        -0.37300E+03
        -0.37300E+03
        -0.37300E+03
        -0.37300E+03
        -0.37300E+03
        -0.37300E+03
        -0.37300E+03
        -0.37300E+03
        -0.37300E+03
        -0.37300E+03
        -0.37300E+03
        -0.37300E+03
        -0.37300E+03
        -0.37300E+03
        -0.37300E+03
        -0.37300E+03
        -0.37300E+03
        -0.37300E+03
        -0.37300E+03
        -0.37300E+03
        -0.37300E+03
        -0.37300E+03
        -0.37300E+03
        -0.37300E+03
        -0.37300E+03
        -0.37300E+03
        -0.37300E+03
        -0.37300E+03
        -0.37300E+03
        -0.37300E+03
        -0.37300E+03
        -0.37300E+03
        -0.37300E+03
        -0.37300E+03
        -0.37300E+03
        -0.37300E+03
        -0.37300E+03
        -0.37300E+03
        -0.37300E+03
        -0.37300E+03
        -0.37300E+03
        -0.37300E+03
        -0.37300E+03
        -0.37300E+03
        -0.37300E+03
        -0.37300E+03
        -0.37300E+03
        -0.37300E+03
        -0.37300E+03
        -0.37300E+03
        -0.37300E+03
        -0.37300E+03
        -0.37300E+03
        -0.37300E+03
        -0.37300E+03
        -0.37300E+03
        -0.37300E+03
        -0.37300E+03
        -0.37300E+03
        -0.37300E+03
        -0.37300E+03
        -0.37300E+03
        -0.37300E+03
        -0.37300E+03
        -0.37300E+03
        -0.37300E+03
        -0.37300E+03
        -0.37300E+03
        -0.37300E+03
        -0.37300E+03
        -0.37300E+03
        -0.37300E+03
        -0.37300E+03
        -0.37300E+03
        -0.37300E+03
        -0.37300E+03
        -0.37300E+03
        -0.37300E+03
        -0.37300E+03
        -0.37300E+03
        -0.37300E+03
        -0.37300E+03
        -0.37300E+03
        -0.37300E+03
        -0.37300E+03
        -0.37300E+03
        -0.37300E+03
        -0.37300E+03
        -0.37300E+03
        -0.37300E+03
        -0.37300E+03
        -0.37300E+03
        -0.37300E+03
        -0.37300E+03
        -0.37300E+03
        -0.37300E+03
        -0.37300E+03
        -0.37300E+03
        -0.37300E+03
        -0.37300E+03
        -0.37300E+03
        -0.37300E+03
        -0.37300E+03
        -0.37300E+03
        -0.37300E+03
        -0.37300E+03
        -0.37300E+03
        -0.37300E+03
        -0.37300E+03
        -0.37300E+03
        -0.37300E+03
        -0.37300E+03
        -0.37300E+03
        -0.37300E+03
        -0.37300E+03
        -0.37300E+03
        -0.37300E+03
        -0.37300E+03
        -0.37300E+03
        -0.37300E+03
        -0.37300E+03
        -0.37300E+03
        -0.37300E+03
        -0.37300E+03
        -0.37300E+03
        -0.37300E+03
        -0.37300E+03
        -0.37300E+03
        -0.37300E+03
        -0.37300E+03
        -0.37300E+03
        -0.37300E+03
        -0.37300E+03
        -0.37300E+03
        -0.37300E+03
        -0.37300E+03
        -0.37300E+03
        -0.37300E+03
        -0.37300E+03
        -0.37300E+03
        -0.37300E+03
        -0.37300E+03
        -0.37300E+03
        -0.37300E+03
        -0.37300E+03
        -0.37300E+03
        -0.37300E+03
        -0.37300E+03
        -0.37300E+03
        -0.37300E+03
        -0.37300E+03
        -0.37300E+03
        -0.37300E+03
        -0.37300E+03
        -0.37300E+03
        -0.37300E+03
        -0.37300E+03
        -0.37300E+03
        -0.37300E+03
        -0.37300E+03
        -0.37300E+03
        -0.37300E+03
        -0.37300E+03
        -0.37300E+03
        -0.37300E+03
        -0.37300E+03
        -0.37300E+03
        -0.37300E+03
        -0.37300E+03
        -0.37300E+03
        -0.37300E+03
        -0.37300E+03
        -0.37300E+03
        -0.37300E+03
        -0.37300E+03
        -0.37300E+03
        -0.37300E+03
        -0.37300E+03
        -0.37300E+03
        -0.37300E+03
        -0.37300E+03
        -0.37300E+03
        -0.37300E+03
        -0.37300E+03
        -0.37300E+03
        -0.37300E+03
        -0.37300E+03
        -0.37300E+03
        -0.37300E+03
        -0.37300E+03
        -0.37300E+03
        -0.37300E+03
        -0.37300E+03
        -0.37300E+03
        -0.37300E+03
        -0.37300E+03
        -0.37300E+03
        -0.37300E+03
        -0.37300E+03
        -0.37300E+03
        -0.37300E+03
        -0.37300E+03
        -0.37300E+03
        -0.37300E+03
        -0.37300E+03
        -0.37300E+03
        -0.37300E+03
        -0.37300E+03
        -0.37300E+03
        -0.37300E+03
        -0.37300E+03
        -0.37300E+03
        -0.37300E+03
        -0.37300E+03
        -0.37300E+03
        -0.37300E+03
        -0.37300E+03
        -0.37300E+03
        -0.37300E+03
        -0.37300E+03
        -0.37300E+03
        -0.37300E+03
        -0.37300E+03
        -0.37300E+03
        -0.37300E+03
        -0.37300E+03
        -0.37300E+03
        -0.37300E+03
        -0.37300E+03
        -0.37300E+03
        -0.37300E+03
        -0.37300E+03
        -0.37300E+03
        -0.37300E+03
        -0.37300E+03
        -0.37300E+03
        -0.37300E+03
        -0.37300E+03
        -0.37300E+03
        -0.37300E+03
        -0.37300E+03
        -0.37300E+03
        -0.37300E+03
        -0.37300E+03
        -0.37300E+03
        -0.37300E+03
        -0.37300E+03
        -0.37300E+03
        -0.37300E+03
        -0.37300E+03
        -0.37300E+03
        -0.37300E+03
        -0.37300E+03
        -0.37300E+03
        -0.37300E+03
        -0.37300E+03
        -0.37300E+03
        -0.37300E+03
        -0.37300E+03
        -0.37300E+03
        -0.37300E+03
        -0.37300E+03
        -0.37300E+03
        -0.37300E+03
        -0.37300E+03
        -0.37300E+03
        -0.37300E+03
        -0.37300E+03
        -0.37300E+03
        -0.37300E+03
        -0.37300E+03
        -0.37300E+03
        -0.37300E+03
        -0.37300E+03
        -0.37300E+03
        -0.37300E+03
        -0.37300E+03
        -0.37300E+03
        -0.37300E+03
        -0.37300E+03
        -0.37300E+03
        -0.37300E+03
        -0.37300E+03
        -0.37300E+03
        -0.37300E+03
        -0.37300E+03
        -0.37300E+03
        -0.37300E+03
        -0.37300E+03
        -0.37300E+03
        -0.37300E+03
        -0.37300E+03
        -0.37300E+03
        -0.37300E+03
        -0.37300E+03
        -0.37300E+03
        -0.37300E+03
        -0.37300E+03
        -0.37300E+03
        -0.37300E+03
        -0.37300E+03
        -0.37300E+03
        -0.37300E+03
        -0.37300E+03
        -0.37300E+03
        -0.37300E+03
        -0.37300E+03
        -0.37300E+03
        -0.37300E+03
        -0.37300E+03
        -0.37300E+03
        -0.37300E+03
        -0.37300E+03
        -0.37300E+03
        -0.37300E+03
        -0.37300E+03
        -0.37300E+03
        -0.37300E+03
        -0.37300E+03
        -0.37300E+03
        -0.37300E+03
        -0.37300E+03
        -0.37300E+03
        -0.37300E+03
        -0.37300E+03
        -0.37300E+03
        -0.37300E+03
        -0.37300E+03
        -0.37300E+03
        -0.37300E+03
        -0.37300E+03
        -0.37300E+03
        -0.37300E+03
        -0.37300E+03
        -0.37300E+03
        -0.37300E+03
        -0.37300E+03
        -0.37300E+03
        -0.37300E+03
        -0.37300E+03
        -0.37300E+03
        -0.37300E+03
        -0.37300E+03
        -0.37300E+03
        -0.37300E+03
        -0.37300E+03
        -0.37300E+03
        -0.37300E+03
        -0.37300E+03
        -0.37300E+03
        -0.37300E+03
        -0.37300E+03
        -0.37300E+03
        -0.37300E+03
        -0.37300E+03
        -0.37300E+03
        -0.37300E+03
        -0.37300E+03
        -0.37300E+03
        -0.37300E+03
        -0.37300E+03
        -0.37300E+03
        -0.37300E+03
        -0.37300E+03
        -0.37300E+03
        -0.37300E+03
        -0.37300E+03
        -0.37300E+03
        -0.37300E+03
        -0.37300E+03
        -0.37300E+03
        -0.37300E+03
        -0.37300E+03
        -0.37300E+03
        -0.37300E+03
        -0.37300E+03
        -0.37300E+03
        -0.37300E+03
        -0.37300E+03
        -0.37300E+03
        -0.37300E+03
        -0.37300E+03
        -0.37300E+03
        -0.37300E+03
        -0.37300E+03
        -0.37300E+03
        -0.37300E+03
        -0.37300E+03
        -0.37300E+03
        -0.37300E+03
        -0.37300E+03
        -0.37300E+03
        -0.37300E+03
        -0.37300E+03
        -0.37300E+03
        -0.37300E+03
        -0.37300E+03
        -0.37300E+03
        -0.37300E+03
        -0.37300E+03
        -0.37300E+03
        -0.37300E+03
        -0.37300E+03
        -0.37300E+03
        -0.37300E+03
        -0.37300E+03
        -0.37300E+03
        -0.37300E+03
        -0.37300E+03
        -0.37300E+03
        -0.37300E+03
        -0.37300E+03
        -0.37300E+03
        -0.37300E+03
        -0.37300E+03
        -0.37300E+03
        -0.37300E+03
        -0.37300E+03
        -0.37300E+03
        -0.37300E+03
        -0.37300E+03
        -0.37300E+03
        -0.37300E+03
        -0.37300E+03
        -0.37300E+03
        -0.37300E+03
        -0.37300E+03
        -0.37300E+03
        -0.37300E+03
        -0.37300E+03
        -0.37300E+03
        -0.37300E+03
        -0.37300E+03
        -0.37300E+03
        -0.37300E+03
        -0.37300E+03
        -0.37300E+03
        -0.37300E+03
        -0.37300E+03
        -0.37300E+03
        -0.37300E+03
        -0.37300E+03
        -0.37300E+03
        -0.37300E+03
        -0.37300E+03
        -0.37300E+03
        -0.37300E+03
        -0.37300E+03
        -0.37300E+03
        -0.37300E+03
        -0.37300E+03
        -0.37300E+03
        -0.37300E+03
        -0.37300E+03
        -0.37300E+03
        -0.37300E+03
        -0.37300E+03
        -0.37300E+03
        -0.37300E+03
        -0.37300E+03
        -0.37300E+03
        -0.37300E+03
        -0.37300E+03
        -0.37300E+03
        -0.37300E+03
        -0.37300E+03
        -0.37300E+03
        -0.37300E+03
        -0.37300E+03
        -0.37300E+03
        -0.37300E+03
        -0.37300E+03
        -0.37300E+03
        -0.37300E+03
        -0.37300E+03
        -0.37300E+03
        -0.37300E+03
        -0.37300E+03
        -0.37300E+03
        -0.37300E+03
        -0.37300E+03
        -0.37300E+03
        -0.37300E+03
        -0.37300E+03
        -0.37300E+03
        -0.37300E+03
        -0.37300E+03
        -0.37300E+03
        -0.37300E+03
        -0.37300E+03
        -0.37300E+03
        -0.37300E+03
        -0.37300E+03
        -0.37300E+03
        -0.37300E+03
        -0.37300E+03
        -0.37300E+03
        -0.37300E+03
        -0.37300E+03
        -0.37300E+03
        -0.37300E+03
        -0.37300E+03
        -0.37300E+03
        -0.37300E+03
        -0.37300E+03
        -0.37300E+03
        -0.37300E+03
        -0.37300E+03
        -0.37300E+03
        -0.37300E+03
        -0.37300E+03
        -0.37300E+03
        -0.37300E+03
        -0.37300E+03
        -0.37300E+03
        -0.37300E+03
        -0.37300E+03
        -0.37300E+03
        -0.37300E+03
        -0.37300E+03
        -0.37300E+03
        -0.37300E+03
        -0.37300E+03
        -0.37300E+03
        -0.37300E+03
        -0.37300E+03
        -0.37300E+03
        -0.37300E+03
        -0.37300E+03
        -0.37300E+03
        -0.37300E+03
        -0.37300E+03
        -0.37300E+03
        -0.37300E+03
        -0.37300E+03
        -0.37300E+03
        -0.37300E+03
        -0.37300E+03
        -0.37300E+03
        -0.37300E+03
        -0.37300E+03
        -0.37300E+03
        -0.37300E+03
        -0.37300E+03
        -0.37300E+03
        -0.37300E+03
        -0.37300E+03
        -0.37300E+03
        -0.37300E+03
        -0.37300E+03
        -0.37300E+03
        -0.37300E+03
        -0.37300E+03
        -0.37300E+03
        -0.37300E+03
        -0.37300E+03
        -0.37300E+03
        -0.37300E+03
        -0.37300E+03
        -0.37300E+03
        -0.37300E+03
        -0.37300E+03
        -0.37300E+03
        -0.37300E+03
        -0.37300E+03
        -0.37300E+03
        -0.37300E+03
        -0.37300E+03
        -0.37300E+03
        -0.37300E+03
        -0.37300E+03
        -0.37300E+03
        -0.37300E+03
        -0.37300E+03
        -0.37300E+03
        -0.37300E+03
        -0.37300E+03
        -0.37300E+03
        -0.37300E+03
        -0.37300E+03
        -0.37300E+03
        -0.37300E+03
        -0.37300E+03
        -0.37300E+03
        -0.37300E+03
        -0.37300E+03
        -0.37300E+03
        -0.37300E+03
        -0.37300E+03
        -0.37300E+03
        -0.37300E+03
        -0.37300E+03
        -0.37300E+03
        -0.37300E+03
        -0.37300E+03
        -0.37300E+03
        -0.37300E+03
        -0.37300E+03
        -0.37300E+03
        -0.37300E+03
        -0.37300E+03
        -0.37300E+03
        -0.37300E+03
        -0.37300E+03
        -0.37300E+03
        -0.37300E+03
        -0.37300E+03
        -0.37300E+03
        -0.37300E+03
        -0.37300E+03
        -0.37300E+03
        -0.37300E+03
        -0.37300E+03
        -0.37300E+03
        -0.37300E+03
        -0.37300E+03
        -0.37300E+03
        -0.37300E+03
        -0.37300E+03
        -0.37300E+03
        -0.37300E+03
        -0.37300E+03
        -0.37300E+03
        -0.37300E+03
        -0.37300E+03
        -0.37300E+03
        -0.37300E+03
        -0.37300E+03
        -0.37300E+03
        -0.37300E+03
        -0.37300E+03
        -0.37300E+03
        -0.37300E+03
        -0.37300E+03
        -0.37300E+03
        -0.37300E+03
        -0.37300E+03
        -0.37300E+03
        -0.37300E+03
        -0.37300E+03
        -0.37300E+03
        -0.37300E+03
        -0.37300E+03
        -0.37300E+03
        -0.37300E+03
        -0.37300E+03
        -0.37300E+03
        -0.37300E+03
        -0.37300E+03
        -0.37300E+03
        -0.37300E+03
        -0.37300E+03
        -0.37300E+03
        -0.37300E+03
        -0.37300E+03
        -0.37300E+03
        -0.37300E+03
        -0.37300E+03
        -0.37300E+03
        -0.37300E+03
        -0.37300E+03
        -0.37300E+03
        -0.37300E+03
        -0.37300E+03
        -0.37300E+03
        -0.37300E+03
        -0.37300E+03
        -0.37300E+03
        -0.37300E+03
        -0.37300E+03
  
SCALARS              normalized_window  double 1
LOOKUP_TABLE default
         0.27500E+01
         0.27500E+01
         0.27500E+01
         0.27500E+01
         0.27500E+01
         0.27500E+01
         0.27500E+01
         0.27500E+01
         0.27500E+01
         0.27500E+01
         0.27500E+01
         0.27500E+01
         0.27500E+01
         0.27500E+01
         0.27500E+01
         0.27500E+01
         0.27500E+01
         0.27500E+01
         0.27500E+01
         0.27500E+01
         0.27500E+01
         0.27500E+01
         0.27500E+01
         0.27500E+01
         0.27500E+01
         0.27500E+01
         0.27500E+01
         0.27500E+01
         0.27500E+01
         0.27500E+01
         0.27500E+01
         0.27500E+01
         0.27500E+01
         0.27500E+01
         0.27500E+01
         0.27500E+01
         0.27500E+01
         0.27500E+01
         0.27500E+01
         0.27500E+01
         0.27500E+01
         0.27500E+01
         0.27500E+01
         0.27500E+01
         0.27500E+01
         0.27500E+01
         0.27500E+01
         0.27500E+01
         0.27500E+01
         0.27500E+01
         0.27500E+01
         0.27500E+01
         0.27500E+01
         0.27500E+01
         0.27500E+01
         0.27500E+01
         0.27500E+01
         0.27500E+01
         0.27500E+01
         0.27500E+01
         0.27500E+01
         0.27500E+01
         0.27500E+01
         0.27500E+01
         0.27500E+01
         0.27500E+01
         0.27500E+01
         0.27500E+01
         0.27500E+01
         0.27500E+01
         0.27500E+01
         0.27500E+01
         0.27500E+01
         0.27500E+01
         0.27500E+01
         0.27500E+01
         0.27500E+01
         0.27500E+01
         0.27500E+01
         0.27500E+01
         0.27500E+01
         0.27500E+01
         0.27500E+01
         0.27500E+01
         0.27500E+01
         0.27500E+01
         0.27500E+01
         0.27500E+01
         0.27500E+01
         0.27500E+01
         0.27500E+01
         0.27500E+01
         0.27500E+01
         0.27500E+01
         0.27500E+01
         0.27500E+01
         0.27500E+01
         0.27500E+01
         0.27500E+01
         0.27500E+01
         0.27500E+01
         0.27500E+01
         0.27500E+01
         0.27500E+01
         0.27500E+01
         0.27500E+01
         0.27500E+01
         0.27500E+01
         0.27500E+01
         0.27500E+01
         0.27500E+01
         0.27500E+01
         0.27500E+01
         0.27500E+01
         0.27500E+01
         0.27500E+01
         0.27500E+01
         0.27500E+01
         0.27500E+01
         0.27500E+01
         0.27500E+01
         0.27500E+01
         0.27500E+01
         0.27500E+01
         0.27500E+01
         0.27500E+01
         0.27500E+01
         0.27500E+01
         0.27500E+01
         0.27500E+01
         0.27500E+01
         0.27500E+01
         0.27500E+01
         0.27500E+01
         0.27500E+01
         0.27500E+01
         0.27500E+01
         0.27500E+01
         0.27500E+01
         0.27500E+01
         0.27500E+01
         0.27500E+01
         0.27500E+01
         0.27500E+01
         0.27500E+01
         0.27500E+01
         0.27500E+01
         0.27500E+01
         0.27500E+01
         0.27500E+01
         0.27500E+01
         0.27500E+01
         0.27500E+01
         0.27500E+01
         0.27500E+01
         0.27500E+01
         0.27500E+01
         0.27500E+01
         0.27500E+01
         0.27500E+01
         0.27500E+01
         0.27500E+01
         0.27500E+01
         0.27500E+01
         0.27500E+01
         0.27500E+01
         0.27500E+01
         0.27500E+01
         0.27500E+01
         0.27500E+01
         0.27500E+01
         0.27500E+01
         0.27500E+01
         0.27500E+01
         0.27500E+01
         0.27500E+01
         0.27500E+01
         0.27500E+01
         0.27500E+01
         0.27500E+01
         0.27500E+01
         0.27500E+01
         0.27500E+01
         0.27500E+01
         0.27500E+01
         0.27500E+01
         0.27500E+01
         0.27500E+01
         0.27500E+01
         0.27500E+01
         0.27500E+01
         0.27500E+01
         0.27500E+01
         0.27500E+01
         0.27500E+01
         0.27500E+01
         0.27500E+01
         0.27500E+01
         0.27500E+01
         0.27500E+01
         0.27500E+01
         0.27500E+01
         0.27500E+01
         0.27500E+01
         0.27500E+01
         0.27500E+01
         0.27500E+01
         0.27500E+01
         0.27500E+01
         0.27500E+01
         0.27500E+01
         0.27500E+01
         0.27500E+01
         0.27500E+01
         0.27500E+01
         0.27500E+01
         0.27500E+01
         0.27500E+01
         0.27500E+01
         0.27500E+01
         0.27500E+01
         0.27500E+01
         0.27500E+01
         0.27500E+01
         0.27500E+01
         0.27500E+01
         0.27500E+01
         0.27500E+01
         0.27500E+01
         0.27500E+01
         0.27500E+01
         0.27500E+01
         0.27500E+01
         0.27500E+01
         0.27500E+01
         0.27500E+01
         0.27500E+01
         0.27500E+01
         0.27500E+01
         0.27500E+01
         0.27500E+01
         0.27500E+01
         0.27500E+01
         0.27500E+01
         0.27500E+01
         0.27500E+01
         0.27500E+01
         0.27500E+01
         0.27500E+01
         0.27500E+01
         0.27500E+01
         0.27500E+01
         0.27500E+01
         0.27500E+01
         0.27500E+01
         0.27500E+01
         0.27500E+01
         0.27500E+01
         0.27500E+01
         0.27500E+01
         0.27500E+01
         0.27500E+01
         0.27500E+01
         0.27500E+01
         0.27500E+01
         0.27500E+01
         0.27500E+01
         0.27500E+01
         0.27500E+01
         0.27500E+01
         0.27500E+01
         0.27500E+01
         0.27500E+01
         0.27500E+01
         0.27500E+01
         0.27500E+01
         0.27500E+01
         0.27500E+01
         0.27500E+01
         0.27500E+01
         0.27500E+01
         0.27500E+01
         0.27500E+01
         0.27500E+01
         0.27500E+01
         0.27500E+01
         0.27500E+01
         0.27500E+01
         0.27500E+01
         0.27500E+01
         0.27500E+01
         0.27500E+01
         0.27500E+01
         0.27500E+01
         0.27500E+01
         0.27500E+01
         0.27500E+01
         0.27500E+01
         0.27500E+01
         0.27500E+01
         0.27500E+01
         0.27500E+01
         0.27500E+01
         0.27500E+01
         0.27500E+01
         0.27500E+01
         0.27500E+01
         0.27500E+01
         0.27500E+01
         0.27500E+01
         0.27500E+01
         0.27500E+01
         0.27500E+01
         0.27500E+01
         0.27500E+01
         0.27500E+01
         0.27500E+01
         0.27500E+01
         0.27500E+01
         0.27500E+01
         0.27500E+01
         0.27500E+01
         0.27500E+01
         0.27500E+01
         0.27500E+01
         0.27500E+01
         0.27500E+01
         0.27500E+01
         0.27500E+01
         0.27500E+01
         0.27500E+01
         0.27500E+01
         0.27500E+01
         0.27500E+01
         0.27500E+01
         0.27500E+01
         0.27500E+01
         0.27500E+01
         0.27500E+01
         0.27500E+01
         0.27500E+01
         0.27500E+01
         0.27500E+01
         0.27500E+01
         0.27500E+01
         0.27500E+01
         0.27500E+01
         0.27500E+01
         0.27500E+01
         0.27500E+01
         0.27500E+01
         0.27500E+01
         0.27500E+01
         0.27500E+01
         0.27500E+01
         0.27500E+01
         0.27500E+01
         0.27500E+01
         0.27500E+01
         0.27500E+01
         0.27500E+01
         0.27500E+01
         0.27500E+01
         0.27500E+01
         0.27500E+01
         0.27500E+01
         0.27500E+01
         0.27500E+01
         0.27500E+01
         0.27500E+01
         0.27500E+01
         0.27500E+01
         0.27500E+01
         0.27500E+01
         0.27500E+01
         0.27500E+01
         0.27500E+01
         0.27500E+01
         0.27500E+01
         0.27500E+01
         0.27500E+01
         0.27500E+01
         0.27500E+01
         0.27500E+01
         0.27500E+01
         0.27500E+01
         0.27500E+01
         0.27500E+01
         0.27500E+01
         0.27500E+01
         0.27500E+01
         0.27500E+01
         0.27500E+01
         0.27500E+01
         0.27500E+01
         0.27500E+01
         0.27500E+01
         0.27500E+01
         0.27500E+01
         0.27500E+01
         0.27500E+01
         0.27500E+01
         0.27500E+01
         0.27500E+01
         0.27500E+01
         0.27500E+01
         0.27500E+01
         0.27500E+01
         0.27500E+01
         0.27500E+01
         0.27500E+01
         0.27500E+01
         0.27500E+01
         0.27500E+01
         0.27500E+01
         0.27500E+01
         0.27500E+01
         0.27500E+01
         0.27500E+01
         0.27500E+01
         0.27500E+01
         0.27500E+01
         0.27500E+01
         0.27500E+01
         0.27500E+01
         0.27500E+01
         0.27500E+01
         0.27500E+01
         0.27500E+01
         0.27500E+01
         0.27500E+01
         0.27500E+01
         0.27500E+01
         0.27500E+01
         0.27500E+01
         0.27500E+01
         0.27500E+01
         0.27500E+01
         0.27500E+01
         0.27500E+01
         0.27500E+01
         0.27500E+01
         0.27500E+01
         0.27500E+01
         0.27500E+01
         0.27500E+01
         0.27500E+01
         0.27500E+01
         0.27500E+01
         0.27500E+01
         0.27500E+01
         0.27500E+01
         0.27500E+01
         0.27500E+01
         0.27500E+01
         0.27500E+01
         0.27500E+01
         0.27500E+01
         0.27500E+01
         0.27500E+01
         0.27500E+01
         0.27500E+01
         0.27500E+01
         0.27500E+01
         0.27500E+01
         0.27500E+01
         0.27500E+01
         0.27500E+01
         0.27500E+01
         0.27500E+01
         0.27500E+01
         0.27500E+01
         0.27500E+01
         0.27500E+01
         0.27500E+01
         0.27500E+01
         0.27500E+01
         0.27500E+01
         0.27500E+01
         0.27500E+01
         0.27500E+01
         0.27500E+01
         0.27500E+01
         0.27500E+01
         0.27500E+01
         0.27500E+01
         0.27500E+01
         0.27500E+01
         0.27500E+01
         0.27500E+01
         0.27500E+01
         0.27500E+01
         0.27500E+01
         0.27500E+01
         0.27500E+01
         0.27500E+01
         0.27500E+01
         0.27500E+01
         0.27500E+01
         0.27500E+01
         0.27500E+01
         0.27500E+01
         0.27500E+01
         0.27500E+01
         0.27500E+01
         0.27500E+01
         0.27500E+01
         0.27500E+01
         0.27500E+01
         0.27500E+01
         0.27500E+01
         0.27500E+01
         0.27500E+01
         0.27500E+01
         0.27500E+01
         0.27500E+01
         0.27500E+01
         0.27500E+01
         0.27500E+01
         0.27500E+01
         0.27500E+01
         0.27500E+01
         0.27500E+01
         0.27500E+01
         0.27500E+01
         0.27500E+01
         0.27500E+01
         0.27500E+01
         0.27500E+01
         0.27500E+01
         0.27500E+01
         0.27500E+01
         0.27500E+01
         0.27500E+01
         0.27500E+01
         0.27500E+01
         0.27500E+01
         0.27500E+01
         0.27500E+01
         0.27500E+01
         0.27500E+01
         0.27500E+01
         0.27500E+01
         0.27500E+01
         0.27500E+01
         0.27500E+01
         0.27500E+01
         0.27500E+01
         0.27500E+01
         0.27500E+01
         0.27500E+01
         0.27500E+01
         0.27500E+01
         0.27500E+01
         0.27500E+01
         0.27500E+01
         0.27500E+01
         0.27500E+01
         0.27500E+01
         0.27500E+01
         0.27500E+01
         0.27500E+01
         0.27500E+01
         0.27500E+01
         0.27500E+01
         0.27500E+01
         0.27500E+01
         0.27500E+01
         0.27500E+01
         0.27500E+01
         0.27500E+01
         0.27500E+01
         0.27500E+01
         0.27500E+01
         0.27500E+01
         0.27500E+01
         0.27500E+01
         0.27500E+01
         0.27500E+01
         0.27500E+01
         0.27500E+01
         0.27500E+01
         0.27500E+01
         0.27500E+01
         0.27500E+01
         0.27500E+01
         0.27500E+01
         0.27500E+01
         0.27500E+01
         0.27500E+01
         0.27500E+01
         0.27500E+01
         0.27500E+01
         0.27500E+01
         0.27500E+01
         0.27500E+01
         0.27500E+01
         0.27500E+01
         0.27500E+01
         0.27500E+01
         0.27500E+01
         0.27500E+01
         0.27500E+01
         0.27500E+01
         0.27500E+01
         0.27500E+01
         0.27500E+01
         0.27500E+01
         0.27500E+01
         0.27500E+01
         0.27500E+01
         0.27500E+01
         0.27500E+01
         0.27500E+01
         0.27500E+01
         0.27500E+01
         0.27500E+01
         0.27500E+01
         0.27500E+01
         0.27500E+01
         0.27500E+01
         0.27500E+01
         0.27500E+01
         0.27500E+01
         0.27500E+01
         0.27500E+01
         0.27500E+01
         0.27500E+01
         0.27500E+01
         0.27500E+01
         0.27500E+01
         0.27500E+01
         0.27500E+01
         0.27500E+01
         0.27500E+01
         0.27500E+01
         0.27500E+01
         0.27500E+01
         0.27500E+01
         0.27500E+01
         0.27500E+01
         0.27500E+01
         0.27500E+01
         0.27500E+01
         0.27500E+01
         0.27500E+01
         0.27500E+01
         0.27500E+01
         0.27500E+01
         0.27500E+01
         0.27500E+01
         0.27500E+01
         0.27500E+01
         0.27500E+01
         0.27500E+01
         0.27500E+01
         0.27500E+01
         0.27500E+01
         0.27500E+01
         0.27500E+01
         0.27500E+01
         0.27500E+01
         0.27500E+01
         0.27500E+01
         0.27500E+01
         0.27500E+01
         0.27500E+01
         0.27500E+01
         0.27500E+01
         0.27500E+01
         0.27500E+01
         0.27500E+01
         0.27500E+01
         0.27500E+01
         0.27500E+01
         0.27500E+01
         0.27500E+01
         0.27500E+01
         0.27500E+01
         0.27500E+01
         0.27500E+01
         0.27500E+01
         0.27500E+01
         0.27500E+01
         0.27500E+01
         0.27500E+01
         0.27500E+01
         0.27500E+01
         0.27500E+01
         0.27500E+01
         0.27500E+01
         0.27500E+01
         0.27500E+01
         0.27500E+01
         0.27500E+01
         0.27500E+01
         0.27500E+01
         0.27500E+01
         0.27500E+01
         0.27500E+01
         0.27500E+01
         0.27500E+01
         0.27500E+01
         0.27500E+01
         0.27500E+01
         0.27500E+01
         0.27500E+01
         0.27500E+01
         0.27500E+01
         0.27500E+01
         0.27500E+01
         0.27500E+01
         0.27500E+01
         0.27500E+01
         0.27500E+01
         0.27500E+01
         0.27500E+01
         0.27500E+01
         0.27500E+01
         0.27500E+01
         0.27500E+01
         0.27500E+01
         0.27500E+01
         0.27500E+01
         0.27500E+01
         0.27500E+01
         0.27500E+01
         0.27500E+01
         0.27500E+01
         0.27500E+01
         0.27500E+01
         0.27500E+01
         0.27500E+01
         0.27500E+01
         0.27500E+01
         0.27500E+01
         0.27500E+01
         0.27500E+01
         0.27500E+01
         0.27500E+01
         0.27500E+01
         0.27500E+01
         0.27500E+01
         0.27500E+01
         0.27500E+01
         0.27500E+01
         0.27500E+01
         0.27500E+01
         0.27500E+01
         0.27500E+01
         0.27500E+01
         0.27500E+01
         0.27500E+01
         0.27500E+01
         0.27500E+01
         0.27500E+01
         0.27500E+01
         0.27500E+01
         0.27500E+01
         0.27500E+01
         0.27500E+01
         0.27500E+01
         0.27500E+01
         0.27500E+01
         0.27500E+01
         0.27500E+01
         0.27500E+01
         0.27500E+01
         0.27500E+01
         0.27500E+01
         0.27500E+01
         0.27500E+01
         0.27500E+01
         0.27500E+01
         0.27500E+01
         0.27500E+01
         0.27500E+01
         0.27500E+01
         0.27500E+01
         0.27500E+01
         0.27500E+01
         0.27500E+01
         0.27500E+01
         0.27500E+01
         0.27500E+01
         0.27500E+01
         0.27500E+01
         0.27500E+01
         0.27500E+01
         0.27500E+01
         0.27500E+01
         0.27500E+01
         0.27500E+01
         0.27500E+01
         0.27500E+01
         0.27500E+01
         0.27500E+01
         0.27500E+01
         0.27500E+01
         0.27500E+01
         0.27500E+01
         0.27500E+01
         0.27500E+01
         0.27500E+01
         0.27500E+01
         0.27500E+01
         0.27500E+01
         0.27500E+01
         0.27500E+01
         0.27500E+01
         0.27500E+01
         0.27500E+01
         0.27500E+01
         0.27500E+01
         0.27500E+01
         0.27500E+01
         0.27500E+01
         0.27500E+01
         0.27500E+01
         0.27500E+01
         0.27500E+01
         0.27500E+01
         0.27500E+01
         0.27500E+01
         0.27500E+01
         0.27500E+01
         0.27500E+01
         0.27500E+01
         0.27500E+01
         0.27500E+01
         0.27500E+01
         0.27500E+01
         0.27500E+01
         0.27500E+01
         0.27500E+01
         0.27500E+01
         0.27500E+01
         0.27500E+01
         0.27500E+01
         0.27500E+01
         0.27500E+01
         0.27500E+01
         0.27500E+01
         0.27500E+01
         0.27500E+01
         0.27500E+01
         0.27500E+01
         0.27500E+01
         0.27500E+01
         0.27500E+01
         0.27500E+01
         0.27500E+01
         0.27500E+01
         0.27500E+01
         0.27500E+01
         0.27500E+01
         0.27500E+01
         0.27500E+01
         0.27500E+01
         0.27500E+01
         0.27500E+01
         0.27500E+01
         0.27500E+01
         0.27500E+01
         0.27500E+01
         0.27500E+01
         0.27500E+01
         0.27500E+01
         0.27500E+01
         0.27500E+01
         0.27500E+01
         0.27500E+01
         0.27500E+01
         0.27500E+01
         0.27500E+01
         0.27500E+01
         0.27500E+01
         0.27500E+01
         0.27500E+01
         0.27500E+01
         0.27500E+01
         0.27500E+01
         0.27500E+01
         0.27500E+01
         0.27500E+01
         0.27500E+01
         0.27500E+01
         0.27500E+01
         0.27500E+01
         0.27500E+01
         0.27500E+01
         0.27500E+01
         0.27500E+01
         0.27500E+01
         0.27500E+01
         0.27500E+01
         0.27500E+01
         0.27500E+01
         0.27500E+01
         0.27500E+01
         0.27500E+01
         0.27500E+01
         0.27500E+01
         0.27500E+01
         0.27500E+01
         0.27500E+01
         0.27500E+01
         0.27500E+01
         0.27500E+01
         0.27500E+01
         0.27500E+01
         0.27500E+01
         0.27500E+01
         0.27500E+01
         0.27500E+01
         0.27500E+01
         0.27500E+01
         0.27500E+01
         0.27500E+01
         0.27500E+01
         0.27500E+01
         0.27500E+01
         0.27500E+01
         0.27500E+01
         0.27500E+01
         0.27500E+01
         0.27500E+01
         0.27500E+01
         0.27500E+01
         0.27500E+01
         0.27500E+01
         0.27500E+01
         0.27500E+01
         0.27500E+01
         0.27500E+01
         0.27500E+01
         0.27500E+01
         0.27500E+01
         0.27500E+01
         0.27500E+01
         0.27500E+01
         0.27500E+01
         0.27500E+01
         0.27500E+01
         0.27500E+01
         0.27500E+01
         0.27500E+01
         0.27500E+01
         0.27500E+01
         0.27500E+01
         0.27500E+01
         0.27500E+01
         0.27500E+01
         0.27500E+01
         0.27500E+01
         0.27500E+01
         0.27500E+01
         0.27500E+01
         0.27500E+01
         0.27500E+01
         0.27500E+01
         0.27500E+01
         0.27500E+01
         0.27500E+01
         0.27500E+01
         0.27500E+01
         0.27500E+01
         0.27500E+01
         0.27500E+01
         0.27500E+01
         0.27500E+01
         0.27500E+01
         0.27500E+01
         0.27500E+01
         0.27500E+01
         0.27500E+01
         0.27500E+01
         0.27500E+01
         0.27500E+01
         0.27500E+01
         0.27500E+01
         0.27500E+01
         0.27500E+01
         0.27500E+01
         0.27500E+01
         0.27500E+01
         0.27500E+01
         0.27500E+01
         0.27500E+01
         0.27500E+01
         0.27500E+01
         0.27500E+01
         0.27500E+01
         0.27500E+01
         0.27500E+01
         0.27500E+01
         0.27500E+01
         0.27500E+01
         0.27500E+01
         0.27500E+01
         0.27500E+01
         0.27500E+01
         0.27500E+01
         0.27500E+01
         0.27500E+01
         0.27500E+01
         0.27500E+01
         0.27500E+01
         0.27500E+01
         0.27500E+01
         0.27500E+01
         0.27500E+01
         0.27500E+01
         0.27500E+01
         0.27500E+01
         0.27500E+01
         0.27500E+01
         0.27500E+01
         0.27500E+01
         0.27500E+01
         0.27500E+01
         0.27500E+01
         0.27500E+01
         0.27500E+01
         0.27500E+01
         0.27500E+01
         0.27500E+01
         0.27500E+01
         0.27500E+01
         0.27500E+01
         0.27500E+01
         0.27500E+01
         0.27500E+01
         0.27500E+01
         0.27500E+01
         0.27500E+01
         0.27500E+01
         0.27500E+01
         0.27500E+01
         0.27500E+01
         0.27500E+01
         0.27500E+01
         0.27500E+01
         0.27500E+01
         0.27500E+01
         0.27500E+01
         0.27500E+01
         0.27500E+01
         0.27500E+01
         0.27500E+01
         0.27500E+01
         0.27500E+01
         0.27500E+01
         0.27500E+01
         0.27500E+01
         0.27500E+01
         0.27500E+01
         0.27500E+01
         0.27500E+01
         0.27500E+01
         0.27500E+01
         0.27500E+01
         0.27500E+01
         0.27500E+01
         0.27500E+01
         0.27500E+01
         0.27500E+01
         0.27500E+01
         0.27500E+01
         0.27500E+01
         0.27500E+01
         0.27500E+01
         0.27500E+01
         0.27500E+01
         0.27500E+01
         0.27500E+01
         0.27500E+01
         0.27500E+01
         0.27500E+01
         0.27500E+01
         0.27500E+01
         0.27500E+01
         0.27500E+01
         0.27500E+01
         0.27500E+01
         0.27500E+01
         0.27500E+01
         0.27500E+01
         0.27500E+01
         0.27500E+01
         0.27500E+01
         0.27500E+01
         0.27500E+01
         0.27500E+01
         0.27500E+01
         0.27500E+01
         0.27500E+01
         0.27500E+01
         0.27500E+01
         0.27500E+01
         0.27500E+01
         0.27500E+01
         0.27500E+01
         0.27500E+01
         0.27500E+01
         0.27500E+01
         0.27500E+01
         0.27500E+01
         0.27500E+01
         0.27500E+01
         0.27500E+01
         0.27500E+01
         0.27500E+01
         0.27500E+01
         0.27500E+01
         0.27500E+01
         0.27500E+01
         0.27500E+01
         0.27500E+01
         0.27500E+01
         0.27500E+01
         0.27500E+01
         0.27500E+01
         0.27500E+01
         0.27500E+01
         0.27500E+01
         0.27500E+01
         0.27500E+01
         0.27500E+01
         0.27500E+01
         0.27500E+01
         0.27500E+01
         0.27500E+01
         0.27500E+01
         0.27500E+01
         0.27500E+01
         0.27500E+01
         0.27500E+01
         0.27500E+01
         0.27500E+01
         0.27500E+01
         0.27500E+01
         0.27500E+01
         0.27500E+01
         0.27500E+01
         0.27500E+01
         0.27500E+01
         0.27500E+01
         0.27500E+01
         0.27500E+01
         0.27500E+01
         0.27500E+01
         0.27500E+01
         0.27500E+01
         0.27500E+01
         0.27500E+01
         0.27500E+01
         0.27500E+01
         0.27500E+01
         0.27500E+01
         0.27500E+01
         0.27500E+01
         0.27500E+01
         0.27500E+01
         0.27500E+01
         0.27500E+01
         0.27500E+01
         0.27500E+01
         0.27500E+01
         0.27500E+01
         0.27500E+01
         0.27500E+01
         0.27500E+01
         0.27500E+01
         0.27500E+01
         0.27500E+01
         0.27500E+01
         0.27500E+01
         0.27500E+01
         0.27500E+01
         0.27500E+01
         0.27500E+01
         0.27500E+01
         0.27500E+01
         0.27500E+01
         0.27500E+01
         0.27500E+01
         0.27500E+01
         0.27500E+01
         0.27500E+01
         0.27500E+01
         0.27500E+01
         0.27500E+01
         0.27500E+01
         0.27500E+01
         0.27500E+01
         0.27500E+01
         0.27500E+01
         0.27500E+01
         0.27500E+01
         0.27500E+01
         0.27500E+01
         0.27500E+01
         0.27500E+01
         0.27500E+01
         0.27500E+01
         0.27500E+01
         0.27500E+01
         0.27500E+01
         0.27500E+01
         0.27500E+01
         0.27500E+01
         0.27500E+01
         0.27500E+01
         0.27500E+01
         0.27500E+01
         0.27500E+01
         0.27500E+01
         0.27500E+01
         0.27500E+01
         0.27500E+01
         0.27500E+01
         0.27500E+01
         0.27500E+01
         0.27500E+01
         0.27500E+01
         0.27500E+01
         0.27500E+01
         0.27500E+01
         0.27500E+01
         0.27500E+01
         0.27500E+01
         0.27500E+01
         0.27500E+01
         0.27500E+01
         0.27500E+01
         0.27500E+01
         0.27500E+01
         0.27500E+01
         0.27500E+01
         0.27500E+01
         0.27500E+01
         0.27500E+01
         0.27500E+01
         0.27500E+01
         0.27500E+01
         0.27500E+01
         0.27500E+01
         0.27500E+01
         0.27500E+01
         0.27500E+01
         0.27500E+01
         0.27500E+01
         0.27500E+01
         0.27500E+01
         0.27500E+01
         0.27500E+01
         0.27500E+01
         0.27500E+01
         0.27500E+01
         0.27500E+01
         0.27500E+01
         0.27500E+01
         0.27500E+01
         0.27500E+01
         0.27500E+01
         0.27500E+01
         0.27500E+01
         0.27500E+01
         0.27500E+01
         0.27500E+01
         0.27500E+01
         0.27500E+01
         0.27500E+01
         0.27500E+01
         0.27500E+01
         0.27500E+01
         0.27500E+01
         0.27500E+01
         0.27500E+01
         0.27500E+01
         0.27500E+01
         0.27500E+01
         0.27500E+01
         0.27500E+01
         0.27500E+01
         0.27500E+01
         0.27500E+01
         0.27500E+01
         0.27500E+01
         0.27500E+01
         0.27500E+01
         0.27500E+01
         0.27500E+01
         0.27500E+01
         0.27500E+01
         0.27500E+01
         0.27500E+01
         0.27500E+01
         0.27500E+01
         0.27500E+01
         0.27500E+01
         0.27500E+01
         0.27500E+01
         0.27500E+01
         0.27500E+01
         0.27500E+01
         0.27500E+01
         0.27500E+01
         0.27500E+01
         0.27500E+01
         0.27500E+01
         0.27500E+01
         0.27500E+01
         0.27500E+01
         0.27500E+01
         0.27500E+01
         0.27500E+01
         0.27500E+01
         0.27500E+01
         0.27500E+01
         0.27500E+01
         0.27500E+01
         0.27500E+01
         0.27500E+01
         0.27500E+01
         0.27500E+01
         0.27500E+01
         0.27500E+01
         0.27500E+01
         0.27500E+01
         0.27500E+01
         0.27500E+01
         0.27500E+01
         0.27500E+01
         0.27500E+01
         0.27500E+01
         0.27500E+01
         0.27500E+01
         0.27500E+01
         0.27500E+01
         0.27500E+01
         0.27500E+01
         0.27500E+01
         0.27500E+01
         0.27500E+01
         0.27500E+01
         0.27500E+01
         0.27500E+01
         0.27500E+01
         0.27500E+01
         0.27500E+01
         0.27500E+01
         0.27500E+01
         0.27500E+01
         0.27500E+01
         0.27500E+01
         0.27500E+01
         0.27500E+01
         0.27500E+01
         0.27500E+01
         0.27500E+01
         0.27500E+01
         0.27500E+01
         0.27500E+01
         0.27500E+01
         0.27500E+01
         0.27500E+01
         0.27500E+01
         0.27500E+01
         0.27500E+01
         0.27500E+01
         0.27500E+01
         0.27500E+01
         0.27500E+01
         0.27500E+01
         0.27500E+01
         0.27500E+01
         0.27500E+01
         0.27500E+01
         0.27500E+01
         0.27500E+01
         0.27500E+01
         0.27500E+01
         0.27500E+01
         0.27500E+01
         0.27500E+01
         0.27500E+01
         0.27500E+01
         0.27500E+01
         0.27500E+01
         0.27500E+01
         0.27500E+01
         0.27500E+01
         0.27500E+01
         0.27500E+01
         0.27500E+01
         0.27500E+01
         0.27500E+01
         0.27500E+01
         0.27500E+01
         0.27500E+01
         0.27500E+01
         0.27500E+01
         0.27500E+01
         0.27500E+01
         0.27500E+01
         0.27500E+01
         0.27500E+01
         0.27500E+01
         0.27500E+01
         0.27500E+01
         0.27500E+01
         0.27500E+01
         0.27500E+01
         0.27500E+01
         0.27500E+01
         0.27500E+01
         0.27500E+01
         0.27500E+01
         0.27500E+01
         0.27500E+01
         0.27500E+01
         0.27500E+01
         0.27500E+01
         0.27500E+01
         0.27500E+01
         0.27500E+01
         0.27500E+01
         0.27500E+01
         0.27500E+01
         0.27500E+01
         0.27500E+01
         0.27500E+01
         0.27500E+01
         0.27500E+01
         0.27500E+01
         0.27500E+01
         0.27500E+01
         0.27500E+01
         0.27500E+01
         0.27500E+01
         0.27500E+01
         0.27500E+01
         0.27500E+01
         0.27500E+01
         0.27500E+01
         0.27500E+01
         0.27500E+01
         0.27500E+01
         0.27500E+01
         0.27500E+01
         0.27500E+01
         0.27500E+01
         0.27500E+01
         0.27500E+01
         0.27500E+01
         0.27500E+01
         0.27500E+01
         0.27500E+01
         0.27500E+01
         0.27500E+01
         0.27500E+01
         0.27500E+01
         0.27500E+01
         0.27500E+01
         0.27500E+01
         0.27500E+01
         0.27500E+01
         0.27500E+01
         0.27500E+01
         0.27500E+01
         0.27500E+01
         0.27500E+01
         0.27500E+01
         0.27500E+01
         0.27500E+01
         0.27500E+01
         0.27500E+01
         0.27500E+01
         0.27500E+01
         0.27500E+01
         0.27500E+01
         0.27500E+01
         0.27500E+01
         0.27500E+01
         0.27500E+01
         0.27500E+01
         0.27500E+01
         0.27500E+01
         0.27500E+01
         0.27500E+01
         0.27500E+01
         0.27500E+01
         0.27500E+01
         0.27500E+01
         0.27500E+01
         0.27500E+01
         0.27500E+01
         0.27500E+01
         0.27500E+01
         0.27500E+01
         0.27500E+01
         0.27500E+01
         0.27500E+01
         0.27500E+01
         0.27500E+01
         0.27500E+01
         0.27500E+01
         0.27500E+01
         0.27500E+01
         0.27500E+01
         0.27500E+01
         0.27500E+01
         0.27500E+01
         0.27500E+01
         0.27500E+01
         0.27500E+01
         0.27500E+01
         0.27500E+01
         0.27500E+01
         0.27500E+01
         0.27500E+01
         0.27500E+01
         0.27500E+01
         0.27500E+01
         0.27500E+01
         0.27500E+01
         0.27500E+01
         0.27500E+01
         0.27500E+01
         0.27500E+01
         0.27500E+01
         0.27500E+01
         0.27500E+01
         0.27500E+01
         0.27500E+01
         0.27500E+01
         0.27500E+01
         0.27500E+01
         0.27500E+01
         0.27500E+01
         0.27500E+01
         0.27500E+01
         0.27500E+01
         0.27500E+01
         0.27500E+01
         0.27500E+01
         0.27500E+01
         0.27500E+01
         0.27500E+01
         0.27500E+01
         0.27500E+01
         0.27500E+01
         0.27500E+01
         0.27500E+01
         0.27500E+01
         0.27500E+01
         0.27500E+01
         0.27500E+01
         0.27500E+01
         0.27500E+01
         0.27500E+01
         0.27500E+01
         0.27500E+01
         0.27500E+01
         0.27500E+01
         0.27500E+01
         0.27500E+01
         0.27500E+01
         0.27500E+01
         0.27500E+01
         0.27500E+01
         0.27500E+01
         0.27500E+01
         0.27500E+01
         0.27500E+01
         0.27500E+01
         0.27500E+01
         0.27500E+01
         0.27500E+01
         0.27500E+01
         0.27500E+01
         0.27500E+01
         0.27500E+01
         0.27500E+01
         0.27500E+01
         0.27500E+01
         0.27500E+01
         0.27500E+01
         0.27500E+01
         0.27500E+01
         0.27500E+01
         0.27500E+01
         0.27500E+01
         0.27500E+01
         0.27500E+01
         0.27500E+01
         0.27500E+01
         0.27500E+01
         0.27500E+01
         0.27500E+01
         0.27500E+01
         0.27500E+01
         0.27500E+01
         0.27500E+01
         0.27500E+01
         0.27500E+01
         0.27500E+01
         0.27500E+01
         0.27500E+01
         0.27500E+01
         0.27500E+01
         0.27500E+01
         0.27500E+01
         0.27500E+01
         0.27500E+01
         0.27500E+01
         0.27500E+01
         0.27500E+01
         0.27500E+01
         0.27500E+01
         0.27500E+01
         0.27500E+01
         0.27500E+01
         0.27500E+01
         0.27500E+01
         0.27500E+01
         0.27500E+01
         0.27500E+01
         0.27500E+01
         0.27500E+01
         0.27500E+01
         0.27500E+01
         0.27500E+01
         0.27500E+01
         0.27500E+01
         0.27500E+01
         0.27500E+01
         0.27500E+01
         0.27500E+01
         0.27500E+01
         0.27500E+01
         0.27500E+01
         0.27500E+01
         0.27500E+01
         0.27500E+01
         0.27500E+01
         0.27500E+01
         0.27500E+01
         0.27500E+01
         0.27500E+01
         0.27500E+01
         0.27500E+01
         0.27500E+01
         0.27500E+01
         0.27500E+01
         0.27500E+01
         0.27500E+01
         0.27500E+01
         0.27500E+01
         0.27500E+01
         0.27500E+01
         0.27500E+01
         0.27500E+01
         0.27500E+01
         0.27500E+01
         0.27500E+01
         0.27500E+01
         0.27500E+01
         0.27500E+01
         0.27500E+01
         0.27500E+01
         0.27500E+01
         0.27500E+01
         0.27500E+01
         0.27500E+01
         0.27500E+01
         0.27500E+01
         0.27500E+01
         0.27500E+01
         0.27500E+01
         0.27500E+01
         0.27500E+01
         0.27500E+01
         0.27500E+01
         0.27500E+01
         0.27500E+01
         0.27500E+01
         0.27500E+01
         0.27500E+01
         0.27500E+01
         0.27500E+01
         0.27500E+01
         0.27500E+01
         0.27500E+01
         0.27500E+01
         0.27500E+01
         0.27500E+01
         0.27500E+01
         0.27500E+01
         0.27500E+01
         0.27500E+01
         0.27500E+01
         0.27500E+01
         0.27500E+01
         0.27500E+01
         0.27500E+01
         0.27500E+01
         0.27500E+01
         0.27500E+01
         0.27500E+01
         0.27500E+01
         0.27500E+01
         0.27500E+01
         0.27500E+01
         0.27500E+01
         0.27500E+01
         0.27500E+01
         0.27500E+01
         0.27500E+01
         0.27500E+01
         0.27500E+01
         0.27500E+01
         0.27500E+01
         0.27500E+01
         0.27500E+01
         0.27500E+01
         0.27500E+01
         0.27500E+01
         0.27500E+01
         0.27500E+01
         0.27500E+01
         0.27500E+01
         0.27500E+01
         0.27500E+01
         0.27500E+01
         0.27500E+01
         0.27500E+01
         0.27500E+01
         0.27500E+01
         0.27500E+01
         0.27500E+01
         0.27500E+01
         0.27500E+01
         0.27500E+01
         0.27500E+01
         0.27500E+01
         0.27500E+01
         0.27500E+01
         0.27500E+01
         0.27500E+01
         0.27500E+01
         0.27500E+01
         0.27500E+01
         0.27500E+01
         0.27500E+01
         0.27500E+01
         0.27500E+01
         0.27500E+01
         0.27500E+01
         0.27500E+01
         0.27500E+01
         0.27500E+01
         0.27500E+01
         0.27500E+01
         0.27500E+01
         0.27500E+01
         0.27500E+01
         0.27500E+01
         0.27500E+01
         0.27500E+01
         0.27500E+01
         0.27500E+01
         0.27500E+01
         0.27500E+01
         0.27500E+01
         0.27500E+01
         0.27500E+01
         0.27500E+01
         0.27500E+01
         0.27500E+01
         0.27500E+01
         0.27500E+01
         0.27500E+01
         0.27500E+01
         0.27500E+01
         0.27500E+01
         0.27500E+01
         0.27500E+01
         0.27500E+01
         0.27500E+01
         0.27500E+01
         0.27500E+01
         0.27500E+01
         0.27500E+01
         0.27500E+01
         0.27500E+01
         0.27500E+01
         0.27500E+01
         0.27500E+01
         0.27500E+01
         0.27500E+01
         0.27500E+01
         0.27500E+01
         0.27500E+01
         0.27500E+01
         0.27500E+01
         0.27500E+01
         0.27500E+01
         0.27500E+01
         0.27500E+01
         0.27500E+01
         0.27500E+01
         0.27500E+01
         0.27500E+01
         0.27500E+01
         0.27500E+01
         0.27500E+01
         0.27500E+01
         0.27500E+01
         0.27500E+01
         0.27500E+01
         0.27500E+01
         0.27500E+01
         0.27500E+01
         0.27500E+01
         0.27500E+01
         0.27500E+01
         0.27500E+01
         0.27500E+01
         0.27500E+01
         0.27500E+01
         0.27500E+01
         0.27500E+01
         0.27500E+01
         0.27500E+01
         0.27500E+01
         0.27500E+01
         0.27500E+01
         0.27500E+01
         0.27500E+01
         0.27500E+01
         0.27500E+01
         0.27500E+01
         0.27500E+01
         0.27500E+01
         0.27500E+01
         0.27500E+01
         0.27500E+01
         0.27500E+01
         0.27500E+01
         0.27500E+01
         0.27500E+01
         0.27500E+01
         0.27500E+01
         0.27500E+01
         0.27500E+01
         0.27500E+01
         0.27500E+01
         0.27500E+01
         0.27500E+01
         0.27500E+01
         0.27500E+01
         0.27500E+01
         0.27500E+01
         0.27500E+01
         0.27500E+01
         0.27500E+01
         0.27500E+01
         0.27500E+01
         0.27500E+01
         0.27500E+01
         0.27500E+01
         0.27500E+01
         0.27500E+01
         0.27500E+01
         0.27500E+01
         0.27500E+01
         0.27500E+01
         0.27500E+01
         0.27500E+01
         0.27500E+01
         0.27500E+01
         0.27500E+01
         0.27500E+01
         0.27500E+01
         0.27500E+01
         0.27500E+01
         0.27500E+01
         0.27500E+01
         0.27500E+01
         0.27500E+01
         0.27500E+01
         0.27500E+01
         0.27500E+01
         0.27500E+01
         0.27500E+01
         0.27500E+01
         0.27500E+01
         0.27500E+01
         0.27500E+01
         0.27500E+01
         0.27500E+01
         0.27500E+01
         0.27500E+01
         0.27500E+01
         0.27500E+01
         0.27500E+01
         0.27500E+01
         0.27500E+01
         0.27500E+01
         0.27500E+01
         0.27500E+01
         0.27500E+01
         0.27500E+01
         0.27500E+01
         0.27500E+01
         0.27500E+01
         0.27500E+01
         0.27500E+01
         0.27500E+01
         0.27500E+01
         0.27500E+01
         0.27500E+01
         0.27500E+01
         0.27500E+01
         0.27500E+01
         0.27500E+01
         0.27500E+01
         0.27500E+01
         0.27500E+01
         0.27500E+01
         0.27500E+01
         0.27500E+01
         0.27500E+01
         0.27500E+01
         0.27500E+01
         0.27500E+01
         0.27500E+01
         0.27500E+01
         0.27500E+01
         0.27500E+01
         0.27500E+01
         0.27500E+01
         0.27500E+01
         0.27500E+01
         0.27500E+01
         0.27500E+01
         0.27500E+01
  
SCALARS              physical_window_x  double 1
LOOKUP_TABLE default
         0.42419E-02
         0.35201E-02
         0.37624E-02
         0.42419E-02
         0.42417E-02
         0.35201E-02
         0.37618E-02
         0.42417E-02
         0.37624E-02
         0.37624E-02
         0.37618E-02
         0.37618E-02
         0.30086E-02
         0.32069E-02
         0.30084E-02
         0.32067E-02
         0.42419E-02
         0.32069E-02
         0.42417E-02
         0.32067E-02
         0.24180E-02
         0.29942E-02
         0.32396E-02
         0.24180E-02
         0.29933E-02
         0.32385E-02
         0.26608E-02
         0.27190E-02
         0.26608E-02
         0.27190E-02
         0.42687E-02
         0.36511E-02
         0.42687E-02
         0.42687E-02
         0.36511E-02
         0.42687E-02
         0.32069E-02
         0.29739E-02
         0.32066E-02
         0.29739E-02
         0.34652E-02
         0.32621E-02
         0.34652E-02
         0.32621E-02
         0.37123E-02
         0.32069E-02
         0.37123E-02
         0.32066E-02
         0.30844E-02
         0.30844E-02
         0.35191E-02
         0.35189E-02
         0.26925E-02
         0.26925E-02
         0.26925E-02
         0.26925E-02
         0.24643E-02
         0.27651E-02
         0.24643E-02
         0.27651E-02
         0.42687E-02
         0.35191E-02
         0.42687E-02
         0.35189E-02
         0.42687E-02
         0.42687E-02
         0.34658E-02
         0.34648E-02
         0.27274E-02
         0.31799E-02
         0.27273E-02
         0.31796E-02
         0.32396E-02
         0.32385E-02
         0.26964E-02
         0.26960E-02
         0.27828E-02
         0.27828E-02
         0.27828E-02
         0.27828E-02
         0.27004E-02
         0.31883E-02
         0.27003E-02
         0.31880E-02
         0.31883E-02
         0.31880E-02
         0.37123E-02
         0.37123E-02
         0.36245E-02
         0.36245E-02
         0.28253E-02
         0.31642E-02
         0.28253E-02
         0.31636E-02
         0.33485E-02
         0.33485E-02
         0.33485E-02
         0.33485E-02
         0.31978E-02
         0.31969E-02
         0.29849E-02
         0.32843E-02
         0.29849E-02
         0.32843E-02
         0.27274E-02
         0.31109E-02
         0.27273E-02
         0.31109E-02
         0.31799E-02
         0.31796E-02
         0.32396E-02
         0.32385E-02
         0.32396E-02
         0.32385E-02
         0.29942E-02
         0.29933E-02
         0.27190E-02
         0.27190E-02
         0.26964E-02
         0.26960E-02
         0.27828E-02
         0.27828E-02
         0.27828E-02
         0.27828E-02
         0.27004E-02
         0.27003E-02
         0.31883E-02
         0.31880E-02
         0.31883E-02
         0.31880E-02
         0.32621E-02
         0.32621E-02
         0.34652E-02
         0.34652E-02
         0.37123E-02
         0.37123E-02
         0.37123E-02
         0.37123E-02
         0.36245E-02
         0.36245E-02
         0.28253E-02
         0.28253E-02
         0.29097E-02
         0.29087E-02
         0.32389E-02
         0.32378E-02
         0.32389E-02
         0.32378E-02
         0.31978E-02
         0.31969E-02
         0.29849E-02
         0.29849E-02
         0.32843E-02
         0.32843E-02
         0.32843E-02
         0.32843E-02
         0.42420E-02
         0.35201E-02
         0.37629E-02
         0.42420E-02
         0.37629E-02
         0.37629E-02
         0.30087E-02
         0.32071E-02
         0.42420E-02
         0.32071E-02
         0.24178E-02
         0.29952E-02
         0.32407E-02
         0.26596E-02
         0.27191E-02
         0.42679E-02
         0.36502E-02
         0.42679E-02
         0.32071E-02
         0.29727E-02
         0.34648E-02
         0.32622E-02
         0.37119E-02
         0.32071E-02
         0.30833E-02
         0.35193E-02
         0.26910E-02
         0.26910E-02
         0.24638E-02
         0.27644E-02
         0.42679E-02
         0.35193E-02
         0.42679E-02
         0.34670E-02
         0.27274E-02
         0.31802E-02
         0.32407E-02
         0.26968E-02
         0.27828E-02
         0.27828E-02
         0.27005E-02
         0.31885E-02
         0.31885E-02
         0.37119E-02
         0.36244E-02
         0.28250E-02
         0.31647E-02
         0.33484E-02
         0.33484E-02
         0.31986E-02
         0.29848E-02
         0.32841E-02
         0.27274E-02
         0.31099E-02
         0.31802E-02
         0.32407E-02
         0.32407E-02
         0.29952E-02
         0.27191E-02
         0.26968E-02
         0.27828E-02
         0.27828E-02
         0.27005E-02
         0.31885E-02
         0.31885E-02
         0.32622E-02
         0.34648E-02
         0.37119E-02
         0.37119E-02
         0.36244E-02
         0.28250E-02
         0.29106E-02
         0.32401E-02
         0.32401E-02
         0.31986E-02
         0.29848E-02
         0.32841E-02
         0.32841E-02
         0.42421E-02
         0.35201E-02
         0.37634E-02
         0.42421E-02
         0.37634E-02
         0.37634E-02
         0.30089E-02
         0.32073E-02
         0.42421E-02
         0.32073E-02
         0.24177E-02
         0.29961E-02
         0.32418E-02
         0.26584E-02
         0.27191E-02
         0.42670E-02
         0.36493E-02
         0.42670E-02
         0.32073E-02
         0.29714E-02
         0.34644E-02
         0.32623E-02
         0.37115E-02
         0.32073E-02
         0.30822E-02
         0.35195E-02
         0.26896E-02
         0.26896E-02
         0.24633E-02
         0.27638E-02
         0.42670E-02
         0.35195E-02
         0.42670E-02
         0.34681E-02
         0.27275E-02
         0.31805E-02
         0.32418E-02
         0.26972E-02
         0.27828E-02
         0.27828E-02
         0.27006E-02
         0.31888E-02
         0.31888E-02
         0.37115E-02
         0.36243E-02
         0.28247E-02
         0.31652E-02
         0.33483E-02
         0.33483E-02
         0.31995E-02
         0.29847E-02
         0.32839E-02
         0.27275E-02
         0.31090E-02
         0.31805E-02
         0.32418E-02
         0.32418E-02
         0.29961E-02
         0.27191E-02
         0.26972E-02
         0.27828E-02
         0.27828E-02
         0.27006E-02
         0.31888E-02
         0.31888E-02
         0.32623E-02
         0.34644E-02
         0.37115E-02
         0.37115E-02
         0.36243E-02
         0.28247E-02
         0.29116E-02
         0.32412E-02
         0.32412E-02
         0.31995E-02
         0.29847E-02
         0.32839E-02
         0.32839E-02
         0.42423E-02
         0.35200E-02
         0.37639E-02
         0.42423E-02
         0.37639E-02
         0.37639E-02
         0.30091E-02
         0.32075E-02
         0.42423E-02
         0.32075E-02
         0.24176E-02
         0.29970E-02
         0.32428E-02
         0.26572E-02
         0.27192E-02
         0.42662E-02
         0.36483E-02
         0.42662E-02
         0.32075E-02
         0.29702E-02
         0.34639E-02
         0.32624E-02
         0.37111E-02
         0.32075E-02
         0.30811E-02
         0.35197E-02
         0.26881E-02
         0.26881E-02
         0.24628E-02
         0.27631E-02
         0.42662E-02
         0.35197E-02
         0.42662E-02
         0.34692E-02
         0.27276E-02
         0.31808E-02
         0.32428E-02
         0.26975E-02
         0.27828E-02
         0.27828E-02
         0.27007E-02
         0.31890E-02
         0.31890E-02
         0.37111E-02
         0.36242E-02
         0.28243E-02
         0.31658E-02
         0.33482E-02
         0.33482E-02
         0.32003E-02
         0.29846E-02
         0.32837E-02
         0.27276E-02
         0.31081E-02
         0.31808E-02
         0.32428E-02
         0.32428E-02
         0.29970E-02
         0.27192E-02
         0.26975E-02
         0.27828E-02
         0.27828E-02
         0.27007E-02
         0.31890E-02
         0.31890E-02
         0.32624E-02
         0.34639E-02
         0.37111E-02
         0.37111E-02
         0.36242E-02
         0.28243E-02
         0.29125E-02
         0.32423E-02
         0.32423E-02
         0.32003E-02
         0.29846E-02
         0.32837E-02
         0.32837E-02
         0.42424E-02
         0.35200E-02
         0.37644E-02
         0.42424E-02
         0.37644E-02
         0.37644E-02
         0.30093E-02
         0.32077E-02
         0.42424E-02
         0.32077E-02
         0.24174E-02
         0.29979E-02
         0.32439E-02
         0.26559E-02
         0.27192E-02
         0.42653E-02
         0.36474E-02
         0.42653E-02
         0.32077E-02
         0.29690E-02
         0.34635E-02
         0.32624E-02
         0.37108E-02
         0.32077E-02
         0.30799E-02
         0.35199E-02
         0.26867E-02
         0.26867E-02
         0.24623E-02
         0.27625E-02
         0.42653E-02
         0.35199E-02
         0.42653E-02
         0.34703E-02
         0.27276E-02
         0.31812E-02
         0.32439E-02
         0.26979E-02
         0.27828E-02
         0.27828E-02
         0.27008E-02
         0.31893E-02
         0.31893E-02
         0.37108E-02
         0.36241E-02
         0.28240E-02
         0.31663E-02
         0.33481E-02
         0.33481E-02
         0.32012E-02
         0.29844E-02
         0.32835E-02
         0.27276E-02
         0.31071E-02
         0.31812E-02
         0.32439E-02
         0.32439E-02
         0.29979E-02
         0.27192E-02
         0.26979E-02
         0.27828E-02
         0.27828E-02
         0.27008E-02
         0.31893E-02
         0.31893E-02
         0.32624E-02
         0.34635E-02
         0.37108E-02
         0.37108E-02
         0.36241E-02
         0.28240E-02
         0.29135E-02
         0.32434E-02
         0.32434E-02
         0.32012E-02
         0.29844E-02
         0.32835E-02
         0.32835E-02
         0.42425E-02
         0.35200E-02
         0.37649E-02
         0.42425E-02
         0.37649E-02
         0.37649E-02
         0.30095E-02
         0.32079E-02
         0.42425E-02
         0.32079E-02
         0.24173E-02
         0.29989E-02
         0.32450E-02
         0.26547E-02
         0.27193E-02
         0.42645E-02
         0.36465E-02
         0.42645E-02
         0.32079E-02
         0.29677E-02
         0.34631E-02
         0.32625E-02
         0.37104E-02
         0.32079E-02
         0.30788E-02
         0.35201E-02
         0.26852E-02
         0.26852E-02
         0.24618E-02
         0.27618E-02
         0.42645E-02
         0.35201E-02
         0.42645E-02
         0.34715E-02
         0.27277E-02
         0.31815E-02
         0.32450E-02
         0.26983E-02
         0.27828E-02
         0.27828E-02
         0.27009E-02
         0.31895E-02
         0.31895E-02
         0.37104E-02
         0.36239E-02
         0.28237E-02
         0.31668E-02
         0.33480E-02
         0.33480E-02
         0.32020E-02
         0.29843E-02
         0.32833E-02
         0.27277E-02
         0.31062E-02
         0.31815E-02
         0.32450E-02
         0.32450E-02
         0.29989E-02
         0.27193E-02
         0.26983E-02
         0.27828E-02
         0.27828E-02
         0.27009E-02
         0.31895E-02
         0.31895E-02
         0.32625E-02
         0.34631E-02
         0.37104E-02
         0.37104E-02
         0.36239E-02
         0.28237E-02
         0.29145E-02
         0.32445E-02
         0.32445E-02
         0.32020E-02
         0.29843E-02
         0.32833E-02
         0.32833E-02
         0.42427E-02
         0.35200E-02
         0.37654E-02
         0.42427E-02
         0.37654E-02
         0.37654E-02
         0.30097E-02
         0.32081E-02
         0.42427E-02
         0.32081E-02
         0.24171E-02
         0.29998E-02
         0.32461E-02
         0.26535E-02
         0.27193E-02
         0.42636E-02
         0.36455E-02
         0.42636E-02
         0.32081E-02
         0.29665E-02
         0.34626E-02
         0.32626E-02
         0.37100E-02
         0.32081E-02
         0.30777E-02
         0.35203E-02
         0.26838E-02
         0.26838E-02
         0.24613E-02
         0.27611E-02
         0.42636E-02
         0.35203E-02
         0.42636E-02
         0.34726E-02
         0.27278E-02
         0.31818E-02
         0.32461E-02
         0.26987E-02
         0.27827E-02
         0.27827E-02
         0.27010E-02
         0.31898E-02
         0.31898E-02
         0.37100E-02
         0.36238E-02
         0.28234E-02
         0.31673E-02
         0.33479E-02
         0.33479E-02
         0.32029E-02
         0.29842E-02
         0.32831E-02
         0.27278E-02
         0.31052E-02
         0.31818E-02
         0.32461E-02
         0.32461E-02
         0.29998E-02
         0.27193E-02
         0.26987E-02
         0.27827E-02
         0.27827E-02
         0.27010E-02
         0.31898E-02
         0.31898E-02
         0.32626E-02
         0.34626E-02
         0.37100E-02
         0.37100E-02
         0.36238E-02
         0.28234E-02
         0.29154E-02
         0.32457E-02
         0.32457E-02
         0.32029E-02
         0.29842E-02
         0.32831E-02
         0.32831E-02
         0.42428E-02
         0.35199E-02
         0.37660E-02
         0.42428E-02
         0.37660E-02
         0.37660E-02
         0.30099E-02
         0.32083E-02
         0.42428E-02
         0.32083E-02
         0.24170E-02
         0.30007E-02
         0.32471E-02
         0.26523E-02
         0.27194E-02
         0.42628E-02
         0.36446E-02
         0.42628E-02
         0.32083E-02
         0.29652E-02
         0.34622E-02
         0.32627E-02
         0.37096E-02
         0.32083E-02
         0.30766E-02
         0.35205E-02
         0.26823E-02
         0.26823E-02
         0.24608E-02
         0.27605E-02
         0.42628E-02
         0.35205E-02
         0.42628E-02
         0.34737E-02
         0.27279E-02
         0.31821E-02
         0.32471E-02
         0.26991E-02
         0.27827E-02
         0.27827E-02
         0.27011E-02
         0.31900E-02
         0.31900E-02
         0.37096E-02
         0.36237E-02
         0.28231E-02
         0.31679E-02
         0.33478E-02
         0.33478E-02
         0.32038E-02
         0.29841E-02
         0.32829E-02
         0.27279E-02
         0.31043E-02
         0.31821E-02
         0.32471E-02
         0.32471E-02
         0.30007E-02
         0.27194E-02
         0.26991E-02
         0.27827E-02
         0.27827E-02
         0.27011E-02
         0.31900E-02
         0.31900E-02
         0.32627E-02
         0.34622E-02
         0.37096E-02
         0.37096E-02
         0.36237E-02
         0.28231E-02
         0.29164E-02
         0.32468E-02
         0.32468E-02
         0.32038E-02
         0.29841E-02
         0.32829E-02
         0.32829E-02
         0.42429E-02
         0.35199E-02
         0.37665E-02
         0.42429E-02
         0.37665E-02
         0.37665E-02
         0.30101E-02
         0.32085E-02
         0.42429E-02
         0.32085E-02
         0.24168E-02
         0.30017E-02
         0.32482E-02
         0.26510E-02
         0.27194E-02
         0.42619E-02
         0.36437E-02
         0.42619E-02
         0.32085E-02
         0.29640E-02
         0.34618E-02
         0.32627E-02
         0.37092E-02
         0.32085E-02
         0.30755E-02
         0.35207E-02
         0.26808E-02
         0.26808E-02
         0.24603E-02
         0.27599E-02
         0.42619E-02
         0.35207E-02
         0.42619E-02
         0.34748E-02
         0.27279E-02
         0.31824E-02
         0.32482E-02
         0.26994E-02
         0.27827E-02
         0.27827E-02
         0.27012E-02
         0.31902E-02
         0.31902E-02
         0.37092E-02
         0.36236E-02
         0.28227E-02
         0.31684E-02
         0.33477E-02
         0.33477E-02
         0.32046E-02
         0.29840E-02
         0.32827E-02
         0.27279E-02
         0.31034E-02
         0.31824E-02
         0.32482E-02
         0.32482E-02
         0.30017E-02
         0.27194E-02
         0.26994E-02
         0.27827E-02
         0.27827E-02
         0.27012E-02
         0.31902E-02
         0.31902E-02
         0.32627E-02
         0.34618E-02
         0.37092E-02
         0.37092E-02
         0.36236E-02
         0.28227E-02
         0.29173E-02
         0.32479E-02
         0.32479E-02
         0.32046E-02
         0.29840E-02
         0.32827E-02
         0.32827E-02
         0.42431E-02
         0.35199E-02
         0.37670E-02
         0.42431E-02
         0.37670E-02
         0.37670E-02
         0.30102E-02
         0.32087E-02
         0.42431E-02
         0.32087E-02
         0.24167E-02
         0.30026E-02
         0.32493E-02
         0.26498E-02
         0.27194E-02
         0.42611E-02
         0.36427E-02
         0.42611E-02
         0.32087E-02
         0.29628E-02
         0.34613E-02
         0.32628E-02
         0.37089E-02
         0.32087E-02
         0.30744E-02
         0.35209E-02
         0.26794E-02
         0.26794E-02
         0.24598E-02
         0.27592E-02
         0.42611E-02
         0.35209E-02
         0.42611E-02
         0.34759E-02
         0.27280E-02
         0.31827E-02
         0.32493E-02
         0.26998E-02
         0.27827E-02
         0.27827E-02
         0.27013E-02
         0.31905E-02
         0.31905E-02
         0.37089E-02
         0.36235E-02
         0.28224E-02
         0.31689E-02
         0.33476E-02
         0.33476E-02
         0.32055E-02
         0.29839E-02
         0.32825E-02
         0.27280E-02
         0.31024E-02
         0.31827E-02
         0.32493E-02
         0.32493E-02
         0.30026E-02
         0.27194E-02
         0.26998E-02
         0.27827E-02
         0.27827E-02
         0.27013E-02
         0.31905E-02
         0.31905E-02
         0.32628E-02
         0.34613E-02
         0.37089E-02
         0.37089E-02
         0.36235E-02
         0.28224E-02
         0.29183E-02
         0.32490E-02
         0.32490E-02
         0.32055E-02
         0.29839E-02
         0.32825E-02
         0.32825E-02
         0.42432E-02
         0.35199E-02
         0.37675E-02
         0.42432E-02
         0.37675E-02
         0.37675E-02
         0.30104E-02
         0.32089E-02
         0.42432E-02
         0.32089E-02
         0.24166E-02
         0.30035E-02
         0.32504E-02
         0.26486E-02
         0.27195E-02
         0.42603E-02
         0.36418E-02
         0.42603E-02
         0.32089E-02
         0.29615E-02
         0.34609E-02
         0.32629E-02
         0.37085E-02
         0.32089E-02
         0.30732E-02
         0.35211E-02
         0.26779E-02
         0.26779E-02
         0.24593E-02
         0.27585E-02
         0.42603E-02
         0.35211E-02
         0.42603E-02
         0.34771E-02
         0.27281E-02
         0.31830E-02
         0.32504E-02
         0.27002E-02
         0.27827E-02
         0.27827E-02
         0.27014E-02
         0.31907E-02
         0.31907E-02
         0.37085E-02
         0.36233E-02
         0.28221E-02
         0.31694E-02
         0.33475E-02
         0.33475E-02
         0.32063E-02
         0.29838E-02
         0.32823E-02
         0.27281E-02
         0.31015E-02
         0.31830E-02
         0.32504E-02
         0.32504E-02
         0.30035E-02
         0.27195E-02
         0.27002E-02
         0.27827E-02
         0.27827E-02
         0.27014E-02
         0.31907E-02
         0.31907E-02
         0.32629E-02
         0.34609E-02
         0.37085E-02
         0.37085E-02
         0.36233E-02
         0.28221E-02
         0.29193E-02
         0.32501E-02
         0.32501E-02
         0.32063E-02
         0.29838E-02
         0.32823E-02
         0.32823E-02
         0.42433E-02
         0.35199E-02
         0.37680E-02
         0.42433E-02
         0.37680E-02
         0.37680E-02
         0.30106E-02
         0.32091E-02
         0.42433E-02
         0.32091E-02
         0.24164E-02
         0.30045E-02
         0.32514E-02
         0.26474E-02
         0.27195E-02
         0.42594E-02
         0.36409E-02
         0.42594E-02
         0.32091E-02
         0.29603E-02
         0.34605E-02
         0.32630E-02
         0.37081E-02
         0.32091E-02
         0.30721E-02
         0.35213E-02
         0.26765E-02
         0.26765E-02
         0.24588E-02
         0.27579E-02
         0.42594E-02
         0.35213E-02
         0.42594E-02
         0.34782E-02
         0.27281E-02
         0.31833E-02
         0.32514E-02
         0.27006E-02
         0.27826E-02
         0.27826E-02
         0.27015E-02
         0.31910E-02
         0.31910E-02
         0.37081E-02
         0.36232E-02
         0.28218E-02
         0.31700E-02
         0.33474E-02
         0.33474E-02
         0.32072E-02
         0.29836E-02
         0.32821E-02
         0.27281E-02
         0.31005E-02
         0.31833E-02
         0.32514E-02
         0.32514E-02
         0.30045E-02
         0.27195E-02
         0.27006E-02
         0.27826E-02
         0.27826E-02
         0.27015E-02
         0.31910E-02
         0.31910E-02
         0.32630E-02
         0.34605E-02
         0.37081E-02
         0.37081E-02
         0.36232E-02
         0.28218E-02
         0.29202E-02
         0.32512E-02
         0.32512E-02
         0.32072E-02
         0.29836E-02
         0.32821E-02
         0.32821E-02
         0.42435E-02
         0.35199E-02
         0.37685E-02
         0.42435E-02
         0.37685E-02
         0.37685E-02
         0.30108E-02
         0.32093E-02
         0.42435E-02
         0.32093E-02
         0.24163E-02
         0.30054E-02
         0.32525E-02
         0.26461E-02
         0.27196E-02
         0.42586E-02
         0.36399E-02
         0.42586E-02
         0.32093E-02
         0.29591E-02
         0.34601E-02
         0.32630E-02
         0.37077E-02
         0.32093E-02
         0.30710E-02
         0.35215E-02
         0.26750E-02
         0.26750E-02
         0.24583E-02
         0.27572E-02
         0.42586E-02
         0.35215E-02
         0.42586E-02
         0.34793E-02
         0.27282E-02
         0.31836E-02
         0.32525E-02
         0.27010E-02
         0.27826E-02
         0.27826E-02
         0.27016E-02
         0.31912E-02
         0.31912E-02
         0.37077E-02
         0.36231E-02
         0.28215E-02
         0.31705E-02
         0.33473E-02
         0.33473E-02
         0.32080E-02
         0.29835E-02
         0.32819E-02
         0.27282E-02
         0.30996E-02
         0.31836E-02
         0.32525E-02
         0.32525E-02
         0.30054E-02
         0.27196E-02
         0.27010E-02
         0.27826E-02
         0.27826E-02
         0.27016E-02
         0.31912E-02
         0.31912E-02
         0.32630E-02
         0.34601E-02
         0.37077E-02
         0.37077E-02
         0.36231E-02
         0.28215E-02
         0.29212E-02
         0.32524E-02
         0.32524E-02
         0.32080E-02
         0.29835E-02
         0.32819E-02
         0.32819E-02
         0.42436E-02
         0.35198E-02
         0.37690E-02
         0.42436E-02
         0.37690E-02
         0.37690E-02
         0.30110E-02
         0.32095E-02
         0.42436E-02
         0.32095E-02
         0.24162E-02
         0.30064E-02
         0.32536E-02
         0.26449E-02
         0.27196E-02
         0.42577E-02
         0.36390E-02
         0.42577E-02
         0.32096E-02
         0.29578E-02
         0.34596E-02
         0.32631E-02
         0.37074E-02
         0.32096E-02
         0.30699E-02
         0.35217E-02
         0.26735E-02
         0.26735E-02
         0.24578E-02
         0.27566E-02
         0.42577E-02
         0.35217E-02
         0.42577E-02
         0.34804E-02
         0.27283E-02
         0.31839E-02
         0.32536E-02
         0.27013E-02
         0.27826E-02
         0.27826E-02
         0.27017E-02
         0.31915E-02
         0.31915E-02
         0.37074E-02
         0.36230E-02
         0.28211E-02
         0.31710E-02
         0.33472E-02
         0.33472E-02
         0.32089E-02
         0.29834E-02
         0.32817E-02
         0.27283E-02
         0.30986E-02
         0.31839E-02
         0.32536E-02
         0.32536E-02
         0.30064E-02
         0.27196E-02
         0.27013E-02
         0.27826E-02
         0.27826E-02
         0.27017E-02
         0.31915E-02
         0.31915E-02
         0.32631E-02
         0.34596E-02
         0.37074E-02
         0.37074E-02
         0.36230E-02
         0.28211E-02
         0.29221E-02
         0.32535E-02
         0.32535E-02
         0.32089E-02
         0.29834E-02
         0.32817E-02
         0.32817E-02
         0.42437E-02
         0.35198E-02
         0.37695E-02
         0.42437E-02
         0.37695E-02
         0.37695E-02
         0.30112E-02
         0.32097E-02
         0.42437E-02
         0.32097E-02
         0.24160E-02
         0.30073E-02
         0.32547E-02
         0.26437E-02
         0.27197E-02
         0.42569E-02
         0.36381E-02
         0.42569E-02
         0.32098E-02
         0.29566E-02
         0.34592E-02
         0.32632E-02
         0.37070E-02
         0.32098E-02
         0.30688E-02
         0.35219E-02
         0.26721E-02
         0.26721E-02
         0.24573E-02
         0.27560E-02
         0.42569E-02
         0.35219E-02
         0.42569E-02
         0.34815E-02
         0.27284E-02
         0.31843E-02
         0.32547E-02
         0.27017E-02
         0.27826E-02
         0.27826E-02
         0.27018E-02
         0.31917E-02
         0.31917E-02
         0.37070E-02
         0.36229E-02
         0.28208E-02
         0.31716E-02
         0.33471E-02
         0.33471E-02
         0.32097E-02
         0.29833E-02
         0.32815E-02
         0.27284E-02
         0.30977E-02
         0.31843E-02
         0.32547E-02
         0.32547E-02
         0.30073E-02
         0.27197E-02
         0.27017E-02
         0.27826E-02
         0.27826E-02
         0.27018E-02
         0.31917E-02
         0.31917E-02
         0.32632E-02
         0.34592E-02
         0.37070E-02
         0.37070E-02
         0.36229E-02
         0.28208E-02
         0.29231E-02
         0.32546E-02
         0.32546E-02
         0.32097E-02
         0.29833E-02
         0.32815E-02
         0.32815E-02
         0.42439E-02
         0.35198E-02
         0.37701E-02
         0.42439E-02
         0.37701E-02
         0.37701E-02
         0.30113E-02
         0.32099E-02
         0.42439E-02
         0.32099E-02
         0.24159E-02
         0.30082E-02
         0.32558E-02
         0.26425E-02
         0.27197E-02
         0.42560E-02
         0.36371E-02
         0.42560E-02
         0.32100E-02
         0.29554E-02
         0.34588E-02
         0.32633E-02
         0.37066E-02
         0.32100E-02
         0.30677E-02
         0.35221E-02
         0.26706E-02
         0.26706E-02
         0.24568E-02
         0.27553E-02
         0.42560E-02
         0.35221E-02
         0.42560E-02
         0.34827E-02
         0.27284E-02
         0.31846E-02
         0.32558E-02
         0.27021E-02
         0.27826E-02
         0.27826E-02
         0.27019E-02
         0.31920E-02
         0.31920E-02
         0.37066E-02
         0.36227E-02
         0.28205E-02
         0.31721E-02
         0.33470E-02
         0.33470E-02
         0.32106E-02
         0.29831E-02
         0.32813E-02
         0.27284E-02
         0.30968E-02
         0.31846E-02
         0.32558E-02
         0.32558E-02
         0.30082E-02
         0.27197E-02
         0.27021E-02
         0.27826E-02
         0.27826E-02
         0.27019E-02
         0.31920E-02
         0.31920E-02
         0.32633E-02
         0.34588E-02
         0.37066E-02
         0.37066E-02
         0.36227E-02
         0.28205E-02
         0.29241E-02
         0.32557E-02
         0.32557E-02
         0.32106E-02
         0.29831E-02
         0.32813E-02
         0.32813E-02
         0.42440E-02
         0.35198E-02
         0.37706E-02
         0.42440E-02
         0.37706E-02
         0.37706E-02
         0.30115E-02
         0.32101E-02
         0.42440E-02
         0.32101E-02
         0.24158E-02
         0.30091E-02
         0.32568E-02
         0.26412E-02
         0.27198E-02
         0.42552E-02
         0.36362E-02
         0.42552E-02
         0.32102E-02
         0.29541E-02
         0.34583E-02
         0.32633E-02
         0.37062E-02
         0.32102E-02
         0.30665E-02
         0.35223E-02
         0.26692E-02
         0.26692E-02
         0.24563E-02
         0.27546E-02
         0.42552E-02
         0.35223E-02
         0.42552E-02
         0.34838E-02
         0.27285E-02
         0.31849E-02
         0.32568E-02
         0.27025E-02
         0.27826E-02
         0.27826E-02
         0.27020E-02
         0.31922E-02
         0.31922E-02
         0.37062E-02
         0.36226E-02
         0.28202E-02
         0.31726E-02
         0.33469E-02
         0.33469E-02
         0.32114E-02
         0.29830E-02
         0.32811E-02
         0.27285E-02
         0.30958E-02
         0.31849E-02
         0.32568E-02
         0.32568E-02
         0.30091E-02
         0.27198E-02
         0.27025E-02
         0.27826E-02
         0.27826E-02
         0.27020E-02
         0.31922E-02
         0.31922E-02
         0.32633E-02
         0.34583E-02
         0.37062E-02
         0.37062E-02
         0.36226E-02
         0.28202E-02
         0.29250E-02
         0.32568E-02
         0.32568E-02
         0.32114E-02
         0.29830E-02
         0.32811E-02
         0.32811E-02
         0.42441E-02
         0.35198E-02
         0.37711E-02
         0.42441E-02
         0.37711E-02
         0.37711E-02
         0.30117E-02
         0.32103E-02
         0.42441E-02
         0.32103E-02
         0.24156E-02
         0.30101E-02
         0.32579E-02
         0.26400E-02
         0.27198E-02
         0.42543E-02
         0.36353E-02
         0.42543E-02
         0.32104E-02
         0.29529E-02
         0.34579E-02
         0.32634E-02
         0.37058E-02
         0.32104E-02
         0.30654E-02
         0.35225E-02
         0.26677E-02
         0.26677E-02
         0.24558E-02
         0.27540E-02
         0.42543E-02
         0.35225E-02
         0.42543E-02
         0.34849E-02
         0.27286E-02
         0.31852E-02
         0.32579E-02
         0.27029E-02
         0.27826E-02
         0.27826E-02
         0.27021E-02
         0.31924E-02
         0.31924E-02
         0.37058E-02
         0.36225E-02
         0.28198E-02
         0.31731E-02
         0.33468E-02
         0.33468E-02
         0.32123E-02
         0.29829E-02
         0.32809E-02
         0.27286E-02
         0.30949E-02
         0.31852E-02
         0.32579E-02
         0.32579E-02
         0.30101E-02
         0.27198E-02
         0.27029E-02
         0.27826E-02
         0.27826E-02
         0.27021E-02
         0.31924E-02
         0.31924E-02
         0.32634E-02
         0.34579E-02
         0.37058E-02
         0.37058E-02
         0.36225E-02
         0.28198E-02
         0.29260E-02
         0.32579E-02
         0.32579E-02
         0.32123E-02
         0.29829E-02
         0.32809E-02
         0.32809E-02
         0.42443E-02
         0.35197E-02
         0.37716E-02
         0.42443E-02
         0.37716E-02
         0.37716E-02
         0.30119E-02
         0.32105E-02
         0.42443E-02
         0.32105E-02
         0.24155E-02
         0.30110E-02
         0.32590E-02
         0.26388E-02
         0.27199E-02
         0.42535E-02
         0.36343E-02
         0.42535E-02
         0.32106E-02
         0.29517E-02
         0.34575E-02
         0.32635E-02
         0.37055E-02
         0.32106E-02
         0.30643E-02
         0.35227E-02
         0.26663E-02
         0.26663E-02
         0.24553E-02
         0.27533E-02
         0.42535E-02
         0.35227E-02
         0.42535E-02
         0.34860E-02
         0.27286E-02
         0.31855E-02
         0.32590E-02
         0.27032E-02
         0.27826E-02
         0.27826E-02
         0.27022E-02
         0.31927E-02
         0.31927E-02
         0.37055E-02
         0.36224E-02
         0.28195E-02
         0.31737E-02
         0.33467E-02
         0.33467E-02
         0.32132E-02
         0.29828E-02
         0.32807E-02
         0.27286E-02
         0.30939E-02
         0.31855E-02
         0.32590E-02
         0.32590E-02
         0.30110E-02
         0.27199E-02
         0.27032E-02
         0.27826E-02
         0.27826E-02
         0.27022E-02
         0.31927E-02
         0.31927E-02
         0.32635E-02
         0.34575E-02
         0.37055E-02
         0.37055E-02
         0.36224E-02
         0.28195E-02
         0.29269E-02
         0.32591E-02
         0.32591E-02
         0.32132E-02
         0.29828E-02
         0.32807E-02
         0.32807E-02
         0.42444E-02
         0.35197E-02
         0.37721E-02
         0.42444E-02
         0.37721E-02
         0.37721E-02
         0.30121E-02
         0.32107E-02
         0.42444E-02
         0.32107E-02
         0.24154E-02
         0.30119E-02
         0.32601E-02
         0.26376E-02
         0.27199E-02
         0.42527E-02
         0.36334E-02
         0.42527E-02
         0.32108E-02
         0.29504E-02
         0.34571E-02
         0.32636E-02
         0.37051E-02
         0.32108E-02
         0.30632E-02
         0.35229E-02
         0.26648E-02
         0.26648E-02
         0.24552E-02
         0.27527E-02
         0.42527E-02
         0.35229E-02
         0.42527E-02
         0.34871E-02
         0.27287E-02
         0.31858E-02
         0.32601E-02
         0.27036E-02
         0.27825E-02
         0.27825E-02
         0.27023E-02
         0.31929E-02
         0.31929E-02
         0.37051E-02
         0.36223E-02
         0.28192E-02
         0.31742E-02
         0.33466E-02
         0.33466E-02
         0.32140E-02
         0.29827E-02
         0.32805E-02
         0.27287E-02
         0.30930E-02
         0.31858E-02
         0.32601E-02
         0.32601E-02
         0.30119E-02
         0.27199E-02
         0.27036E-02
         0.27825E-02
         0.27825E-02
         0.27023E-02
         0.31929E-02
         0.31929E-02
         0.32636E-02
         0.34571E-02
         0.37051E-02
         0.37051E-02
         0.36223E-02
         0.28192E-02
         0.29279E-02
         0.32602E-02
         0.32602E-02
         0.32140E-02
         0.29827E-02
         0.32805E-02
         0.32805E-02
         0.42445E-02
         0.35197E-02
         0.37726E-02
         0.42445E-02
         0.37726E-02
         0.37726E-02
         0.30123E-02
         0.32108E-02
         0.42445E-02
         0.32108E-02
         0.24152E-02
         0.30129E-02
         0.32611E-02
         0.26363E-02
         0.27200E-02
         0.42518E-02
         0.36325E-02
         0.42518E-02
         0.32110E-02
         0.29492E-02
         0.34566E-02
         0.32636E-02
         0.37047E-02
         0.32110E-02
         0.30621E-02
         0.35231E-02
         0.26633E-02
         0.26633E-02
         0.24554E-02
         0.27520E-02
         0.42518E-02
         0.35231E-02
         0.42518E-02
         0.34882E-02
         0.27288E-02
         0.31861E-02
         0.32611E-02
         0.27040E-02
         0.27825E-02
         0.27825E-02
         0.27024E-02
         0.31932E-02
         0.31932E-02
         0.37047E-02
         0.36222E-02
         0.28189E-02
         0.31747E-02
         0.33465E-02
         0.33465E-02
         0.32149E-02
         0.29826E-02
         0.32803E-02
         0.27288E-02
         0.30921E-02
         0.31861E-02
         0.32611E-02
         0.32611E-02
         0.30129E-02
         0.27200E-02
         0.27040E-02
         0.27825E-02
         0.27825E-02
         0.27024E-02
         0.31932E-02
         0.31932E-02
         0.32636E-02
         0.34566E-02
         0.37047E-02
         0.37047E-02
         0.36222E-02
         0.28189E-02
         0.29289E-02
         0.32613E-02
         0.32613E-02
         0.32149E-02
         0.29826E-02
         0.32803E-02
         0.32803E-02
         0.42447E-02
         0.35196E-02
         0.37732E-02
         0.42447E-02
         0.37732E-02
         0.37732E-02
         0.30125E-02
         0.32111E-02
         0.42447E-02
         0.32111E-02
         0.24151E-02
         0.30138E-02
         0.32622E-02
         0.26351E-02
         0.27200E-02
         0.42510E-02
         0.36315E-02
         0.42510E-02
         0.32112E-02
         0.29480E-02
         0.34562E-02
         0.32637E-02
         0.37043E-02
         0.32112E-02
         0.30610E-02
         0.35233E-02
         0.26619E-02
         0.26619E-02
         0.24557E-02
         0.27514E-02
         0.42510E-02
         0.35233E-02
         0.42510E-02
         0.34894E-02
         0.27289E-02
         0.31864E-02
         0.32622E-02
         0.27044E-02
         0.27825E-02
         0.27825E-02
         0.27025E-02
         0.31934E-02
         0.31934E-02
         0.37043E-02
         0.36220E-02
         0.28186E-02
         0.31753E-02
         0.33464E-02
         0.33464E-02
         0.32157E-02
         0.29824E-02
         0.32801E-02
         0.27289E-02
         0.30911E-02
         0.31864E-02
         0.32622E-02
         0.32622E-02
         0.30138E-02
         0.27200E-02
         0.27044E-02
         0.27825E-02
         0.27825E-02
         0.27025E-02
         0.31934E-02
         0.31934E-02
         0.32637E-02
         0.34562E-02
         0.37043E-02
         0.37043E-02
         0.36220E-02
         0.28186E-02
         0.29298E-02
         0.32624E-02
         0.32624E-02
         0.32157E-02
         0.29824E-02
         0.32801E-02
         0.32801E-02
         0.42448E-02
         0.35196E-02
         0.37737E-02
         0.42448E-02
         0.37737E-02
         0.37737E-02
         0.30126E-02
         0.32112E-02
         0.42448E-02
         0.32112E-02
         0.24150E-02
         0.30147E-02
         0.32633E-02
         0.26339E-02
         0.27200E-02
         0.42501E-02
         0.36306E-02
         0.42501E-02
         0.32114E-02
         0.29467E-02
         0.34558E-02
         0.32638E-02
         0.37039E-02
         0.32114E-02
         0.30598E-02
         0.35235E-02
         0.26604E-02
         0.26604E-02
         0.24559E-02
         0.27507E-02
         0.42501E-02
         0.35235E-02
         0.42501E-02
         0.34905E-02
         0.27289E-02
         0.31867E-02
         0.32633E-02
         0.27048E-02
         0.27825E-02
         0.27825E-02
         0.27026E-02
         0.31937E-02
         0.31937E-02
         0.37039E-02
         0.36219E-02
         0.28183E-02
         0.31758E-02
         0.33463E-02
         0.33463E-02
         0.32166E-02
         0.29823E-02
         0.32799E-02
         0.27289E-02
         0.30902E-02
         0.31867E-02
         0.32633E-02
         0.32633E-02
         0.30147E-02
         0.27200E-02
         0.27048E-02
         0.27825E-02
         0.27825E-02
         0.27026E-02
         0.31937E-02
         0.31937E-02
         0.32638E-02
         0.34558E-02
         0.37039E-02
         0.37039E-02
         0.36219E-02
         0.28183E-02
         0.29308E-02
         0.32635E-02
         0.32635E-02
         0.32166E-02
         0.29823E-02
         0.32799E-02
         0.32799E-02
         0.42448E-02
         0.35196E-02
         0.37737E-02
         0.42448E-02
         0.37737E-02
         0.37737E-02
         0.30126E-02
         0.32112E-02
         0.42448E-02
         0.32112E-02
         0.24148E-02
         0.30147E-02
         0.32633E-02
         0.26327E-02
         0.27200E-02
         0.42493E-02
         0.36297E-02
         0.42493E-02
         0.32114E-02
         0.29455E-02
         0.34553E-02
         0.32638E-02
         0.37036E-02
         0.32114E-02
         0.30587E-02
         0.35235E-02
         0.26590E-02
         0.26590E-02
         0.24559E-02
         0.27501E-02
         0.42493E-02
         0.35235E-02
         0.42493E-02
         0.34905E-02
         0.27289E-02
         0.31867E-02
         0.32633E-02
         0.27048E-02
         0.27825E-02
         0.27825E-02
         0.27026E-02
         0.31937E-02
         0.31937E-02
         0.37036E-02
         0.36218E-02
         0.28180E-02
         0.31758E-02
         0.33462E-02
         0.33462E-02
         0.32166E-02
         0.29822E-02
         0.32797E-02
         0.27289E-02
         0.30892E-02
         0.31867E-02
         0.32633E-02
         0.32633E-02
         0.30147E-02
         0.27200E-02
         0.27048E-02
         0.27825E-02
         0.27825E-02
         0.27026E-02
         0.31937E-02
         0.31937E-02
         0.32638E-02
         0.34553E-02
         0.37036E-02
         0.37036E-02
         0.36218E-02
         0.28180E-02
         0.29308E-02
         0.32635E-02
         0.32635E-02
         0.32166E-02
         0.29822E-02
         0.32797E-02
         0.32797E-02
  
SCALARS              physical_window_y  double 1
LOOKUP_TABLE default
         0.43155E-02
         0.43155E-02
         0.43155E-02
         0.43155E-02
         0.43155E-02
         0.43155E-02
         0.43155E-02
         0.43155E-02
         0.34883E-02
         0.34883E-02
         0.34882E-02
         0.34882E-02
         0.32826E-02
         0.32142E-02
         0.32826E-02
         0.32142E-02
         0.37863E-02
         0.31884E-02
         0.37863E-02
         0.31884E-02
         0.27172E-02
         0.33887E-02
         0.37164E-02
         0.27172E-02
         0.33887E-02
         0.37164E-02
         0.27582E-02
         0.28966E-02
         0.27582E-02
         0.28954E-02
         0.37007E-02
         0.35859E-02
         0.37863E-02
         0.37007E-02
         0.35824E-02
         0.37863E-02
         0.29875E-02
         0.29875E-02
         0.29867E-02
         0.29867E-02
         0.28561E-02
         0.26860E-02
         0.28556E-02
         0.26852E-02
         0.29518E-02
         0.28068E-02
         0.29517E-02
         0.28066E-02
         0.29975E-02
         0.29949E-02
         0.37007E-02
         0.37007E-02
         0.28693E-02
         0.28693E-02
         0.28693E-02
         0.28693E-02
         0.27602E-02
         0.26193E-02
         0.27602E-02
         0.26193E-02
         0.37007E-02
         0.37007E-02
         0.37007E-02
         0.37007E-02
         0.37685E-02
         0.37665E-02
         0.37685E-02
         0.37665E-02
         0.30230E-02
         0.37003E-02
         0.30229E-02
         0.37003E-02
         0.37164E-02
         0.37164E-02
         0.31934E-02
         0.31921E-02
         0.32777E-02
         0.32771E-02
         0.32777E-02
         0.32771E-02
         0.27006E-02
         0.25920E-02
         0.27006E-02
         0.25920E-02
         0.25916E-02
         0.25916E-02
         0.29715E-02
         0.29715E-02
         0.29715E-02
         0.29715E-02
         0.26477E-02
         0.29102E-02
         0.26477E-02
         0.29102E-02
         0.34085E-02
         0.34085E-02
         0.35350E-02
         0.35350E-02
         0.35350E-02
         0.35350E-02
         0.29766E-02
         0.32272E-02
         0.29763E-02
         0.32254E-02
         0.29087E-02
         0.29835E-02
         0.29087E-02
         0.29825E-02
         0.37003E-02
         0.37003E-02
         0.37164E-02
         0.37164E-02
         0.37164E-02
         0.37164E-02
         0.33887E-02
         0.33887E-02
         0.28966E-02
         0.28954E-02
         0.31934E-02
         0.31921E-02
         0.32777E-02
         0.32771E-02
         0.32777E-02
         0.32771E-02
         0.27006E-02
         0.27006E-02
         0.25920E-02
         0.25920E-02
         0.25916E-02
         0.25916E-02
         0.26860E-02
         0.26852E-02
         0.28561E-02
         0.28556E-02
         0.29518E-02
         0.29517E-02
         0.29715E-02
         0.29715E-02
         0.29715E-02
         0.29715E-02
         0.26477E-02
         0.26477E-02
         0.27685E-02
         0.27685E-02
         0.34085E-02
         0.34085E-02
         0.35350E-02
         0.35350E-02
         0.35350E-02
         0.35350E-02
         0.29766E-02
         0.29763E-02
         0.31381E-02
         0.31368E-02
         0.31381E-02
         0.31368E-02
         0.43153E-02
         0.43153E-02
         0.43153E-02
         0.43153E-02
         0.34883E-02
         0.34883E-02
         0.32812E-02
         0.32132E-02
         0.37858E-02
         0.31880E-02
         0.27155E-02
         0.33883E-02
         0.37163E-02
         0.27535E-02
         0.28978E-02
         0.37004E-02
         0.35894E-02
         0.37858E-02
         0.29882E-02
         0.29882E-02
         0.28566E-02
         0.26867E-02
         0.29519E-02
         0.28071E-02
         0.30001E-02
         0.37004E-02
         0.28667E-02
         0.28667E-02
         0.27589E-02
         0.26183E-02
         0.37004E-02
         0.37004E-02
         0.37706E-02
         0.37706E-02
         0.30232E-02
         0.36991E-02
         0.37163E-02
         0.31947E-02
         0.32784E-02
         0.32784E-02
         0.27006E-02
         0.25920E-02
         0.25909E-02
         0.29715E-02
         0.29715E-02
         0.26476E-02
         0.29101E-02
         0.34078E-02
         0.35344E-02
         0.35344E-02
         0.29769E-02
         0.32290E-02
         0.29059E-02
         0.29845E-02
         0.36991E-02
         0.37163E-02
         0.37163E-02
         0.33883E-02
         0.28978E-02
         0.31947E-02
         0.32784E-02
         0.32784E-02
         0.27006E-02
         0.25920E-02
         0.25909E-02
         0.26867E-02
         0.28566E-02
         0.29519E-02
         0.29715E-02
         0.29715E-02
         0.26476E-02
         0.27685E-02
         0.34078E-02
         0.35344E-02
         0.35344E-02
         0.29769E-02
         0.31395E-02
         0.31395E-02
         0.43150E-02
         0.43150E-02
         0.43150E-02
         0.43150E-02
         0.34884E-02
         0.34884E-02
         0.32798E-02
         0.32122E-02
         0.37853E-02
         0.31876E-02
         0.27137E-02
         0.33879E-02
         0.37162E-02
         0.27488E-02
         0.28990E-02
         0.37001E-02
         0.35930E-02
         0.37853E-02
         0.29889E-02
         0.29889E-02
         0.28571E-02
         0.26875E-02
         0.29521E-02
         0.28074E-02
         0.30027E-02
         0.37001E-02
         0.28641E-02
         0.28641E-02
         0.27576E-02
         0.26173E-02
         0.37001E-02
         0.37001E-02
         0.37727E-02
         0.37727E-02
         0.30234E-02
         0.36979E-02
         0.37162E-02
         0.31960E-02
         0.32790E-02
         0.32790E-02
         0.27006E-02
         0.25920E-02
         0.25902E-02
         0.29715E-02
         0.29715E-02
         0.26476E-02
         0.29100E-02
         0.34071E-02
         0.35339E-02
         0.35339E-02
         0.29772E-02
         0.32307E-02
         0.29032E-02
         0.29855E-02
         0.36979E-02
         0.37162E-02
         0.37162E-02
         0.33879E-02
         0.28990E-02
         0.31960E-02
         0.32790E-02
         0.32790E-02
         0.27006E-02
         0.25920E-02
         0.25902E-02
         0.26875E-02
         0.28571E-02
         0.29521E-02
         0.29715E-02
         0.29715E-02
         0.26476E-02
         0.27684E-02
         0.34071E-02
         0.35339E-02
         0.35339E-02
         0.29772E-02
         0.31408E-02
         0.31408E-02
         0.43148E-02
         0.43148E-02
         0.43148E-02
         0.43148E-02
         0.34885E-02
         0.34885E-02
         0.32783E-02
         0.32112E-02
         0.37849E-02
         0.31872E-02
         0.27120E-02
         0.33875E-02
         0.37161E-02
         0.27441E-02
         0.29003E-02
         0.36998E-02
         0.35965E-02
         0.37849E-02
         0.29896E-02
         0.29896E-02
         0.28575E-02
         0.26882E-02
         0.29522E-02
         0.28077E-02
         0.30053E-02
         0.36998E-02
         0.28615E-02
         0.28615E-02
         0.27563E-02
         0.26163E-02
         0.36998E-02
         0.36998E-02
         0.37747E-02
         0.37747E-02
         0.30236E-02
         0.36967E-02
         0.37161E-02
         0.31973E-02
         0.32796E-02
         0.32796E-02
         0.27006E-02
         0.25920E-02
         0.25895E-02
         0.29714E-02
         0.29714E-02
         0.26475E-02
         0.29099E-02
         0.34063E-02
         0.35333E-02
         0.35333E-02
         0.29775E-02
         0.32325E-02
         0.29004E-02
         0.29865E-02
         0.36967E-02
         0.37161E-02
         0.37161E-02
         0.33875E-02
         0.29003E-02
         0.31973E-02
         0.32796E-02
         0.32796E-02
         0.27006E-02
         0.25920E-02
         0.25895E-02
         0.26882E-02
         0.28575E-02
         0.29522E-02
         0.29714E-02
         0.29714E-02
         0.26475E-02
         0.27684E-02
         0.34063E-02
         0.35333E-02
         0.35333E-02
         0.29775E-02
         0.31422E-02
         0.31422E-02
         0.43145E-02
         0.43145E-02
         0.43145E-02
         0.43145E-02
         0.34886E-02
         0.34886E-02
         0.32769E-02
         0.32102E-02
         0.37844E-02
         0.31868E-02
         0.27103E-02
         0.33871E-02
         0.37160E-02
         0.27394E-02
         0.29015E-02
         0.36995E-02
         0.36000E-02
         0.37844E-02
         0.29903E-02
         0.29903E-02
         0.28580E-02
         0.26890E-02
         0.29523E-02
         0.28079E-02
         0.30079E-02
         0.36995E-02
         0.28589E-02
         0.28589E-02
         0.27550E-02
         0.26152E-02
         0.36995E-02
         0.36995E-02
         0.37768E-02
         0.37768E-02
         0.30238E-02
         0.36956E-02
         0.37160E-02
         0.31986E-02
         0.32802E-02
         0.32802E-02
         0.27006E-02
         0.25920E-02
         0.25887E-02
         0.29714E-02
         0.29714E-02
         0.26475E-02
         0.29098E-02
         0.34056E-02
         0.35327E-02
         0.35327E-02
         0.29778E-02
         0.32342E-02
         0.28977E-02
         0.29875E-02
         0.36956E-02
         0.37160E-02
         0.37160E-02
         0.33871E-02
         0.29015E-02
         0.31986E-02
         0.32802E-02
         0.32802E-02
         0.27006E-02
         0.25920E-02
         0.25887E-02
         0.26890E-02
         0.28580E-02
         0.29523E-02
         0.29714E-02
         0.29714E-02
         0.26475E-02
         0.27683E-02
         0.34056E-02
         0.35327E-02
         0.35327E-02
         0.29778E-02
         0.31435E-02
         0.31435E-02
         0.43143E-02
         0.43143E-02
         0.43143E-02
         0.43143E-02
         0.34887E-02
         0.34887E-02
         0.32755E-02
         0.32091E-02
         0.37839E-02
         0.31864E-02
         0.27086E-02
         0.33867E-02
         0.37159E-02
         0.27347E-02
         0.29027E-02
         0.36991E-02
         0.36036E-02
         0.37839E-02
         0.29920E-02
         0.29920E-02
         0.28585E-02
         0.26897E-02
         0.29525E-02
         0.28082E-02
         0.30105E-02
         0.36991E-02
         0.28563E-02
         0.28563E-02
         0.27537E-02
         0.26142E-02
         0.36991E-02
         0.36991E-02
         0.37789E-02
         0.37789E-02
         0.30240E-02
         0.36944E-02
         0.37159E-02
         0.31999E-02
         0.32808E-02
         0.32808E-02
         0.27006E-02
         0.25920E-02
         0.25880E-02
         0.29714E-02
         0.29714E-02
         0.26474E-02
         0.29097E-02
         0.34049E-02
         0.35322E-02
         0.35322E-02
         0.29781E-02
         0.32360E-02
         0.28949E-02
         0.29885E-02
         0.36944E-02
         0.37159E-02
         0.37159E-02
         0.33867E-02
         0.29027E-02
         0.31999E-02
         0.32808E-02
         0.32808E-02
         0.27006E-02
         0.25920E-02
         0.25880E-02
         0.26897E-02
         0.28585E-02
         0.29525E-02
         0.29714E-02
         0.29714E-02
         0.26474E-02
         0.27683E-02
         0.34049E-02
         0.35322E-02
         0.35322E-02
         0.29781E-02
         0.31449E-02
         0.31449E-02
         0.43140E-02
         0.43140E-02
         0.43140E-02
         0.43140E-02
         0.34888E-02
         0.34888E-02
         0.32740E-02
         0.32081E-02
         0.37834E-02
         0.31860E-02
         0.27069E-02
         0.33863E-02
         0.37158E-02
         0.27299E-02
         0.29039E-02
         0.36988E-02
         0.36071E-02
         0.37834E-02
         0.29946E-02
         0.29946E-02
         0.28589E-02
         0.26905E-02
         0.29526E-02
         0.28085E-02
         0.30131E-02
         0.36988E-02
         0.28538E-02
         0.28538E-02
         0.27524E-02
         0.26132E-02
         0.36988E-02
         0.36988E-02
         0.37809E-02
         0.37809E-02
         0.30241E-02
         0.36932E-02
         0.37158E-02
         0.32012E-02
         0.32814E-02
         0.32814E-02
         0.27006E-02
         0.25920E-02
         0.25873E-02
         0.29714E-02
         0.29714E-02
         0.26473E-02
         0.29097E-02
         0.34041E-02
         0.35316E-02
         0.35316E-02
         0.29784E-02
         0.32378E-02
         0.28921E-02
         0.29895E-02
         0.36932E-02
         0.37158E-02
         0.37158E-02
         0.33863E-02
         0.29039E-02
         0.32012E-02
         0.32814E-02
         0.32814E-02
         0.27006E-02
         0.25920E-02
         0.25873E-02
         0.26905E-02
         0.28589E-02
         0.29526E-02
         0.29714E-02
         0.29714E-02
         0.26473E-02
         0.27683E-02
         0.34041E-02
         0.35316E-02
         0.35316E-02
         0.29784E-02
         0.31463E-02
         0.31463E-02
         0.43138E-02
         0.43138E-02
         0.43138E-02
         0.43138E-02
         0.34888E-02
         0.34888E-02
         0.32726E-02
         0.32071E-02
         0.37830E-02
         0.31856E-02
         0.27051E-02
         0.33859E-02
         0.37157E-02
         0.27252E-02
         0.29051E-02
         0.36985E-02
         0.36106E-02
         0.37830E-02
         0.29972E-02
         0.29972E-02
         0.28594E-02
         0.26912E-02
         0.29528E-02
         0.28087E-02
         0.30156E-02
         0.36985E-02
         0.28512E-02
         0.28512E-02
         0.27512E-02
         0.26122E-02
         0.36985E-02
         0.36985E-02
         0.37830E-02
         0.37830E-02
         0.30243E-02
         0.36920E-02
         0.37157E-02
         0.32025E-02
         0.32821E-02
         0.32821E-02
         0.27006E-02
         0.25920E-02
         0.25866E-02
         0.29714E-02
         0.29714E-02
         0.26473E-02
         0.29096E-02
         0.34034E-02
         0.35310E-02
         0.35310E-02
         0.29787E-02
         0.32396E-02
         0.28894E-02
         0.29905E-02
         0.36920E-02
         0.37157E-02
         0.37157E-02
         0.33859E-02
         0.29051E-02
         0.32025E-02
         0.32821E-02
         0.32821E-02
         0.27006E-02
         0.25920E-02
         0.25866E-02
         0.26912E-02
         0.28594E-02
         0.29528E-02
         0.29714E-02
         0.29714E-02
         0.26473E-02
         0.27682E-02
         0.34034E-02
         0.35310E-02
         0.35310E-02
         0.29787E-02
         0.31476E-02
         0.31476E-02
         0.43135E-02
         0.43135E-02
         0.43135E-02
         0.43135E-02
         0.34889E-02
         0.34889E-02
         0.32712E-02
         0.32061E-02
         0.37825E-02
         0.31852E-02
         0.27034E-02
         0.33856E-02
         0.37156E-02
         0.27205E-02
         0.29063E-02
         0.36982E-02
         0.36142E-02
         0.37851E-02
         0.29998E-02
         0.29998E-02
         0.28599E-02
         0.26920E-02
         0.29529E-02
         0.28090E-02
         0.30182E-02
         0.36982E-02
         0.28486E-02
         0.28486E-02
         0.27499E-02
         0.26112E-02
         0.36982E-02
         0.36982E-02
         0.37851E-02
         0.37851E-02
         0.30245E-02
         0.36908E-02
         0.37156E-02
         0.32038E-02
         0.32827E-02
         0.32827E-02
         0.27006E-02
         0.25920E-02
         0.25859E-02
         0.29714E-02
         0.29714E-02
         0.26472E-02
         0.29095E-02
         0.34027E-02
         0.35304E-02
         0.35304E-02
         0.29790E-02
         0.32413E-02
         0.28866E-02
         0.29915E-02
         0.36908E-02
         0.37156E-02
         0.37156E-02
         0.33856E-02
         0.29063E-02
         0.32038E-02
         0.32827E-02
         0.32827E-02
         0.27006E-02
         0.25920E-02
         0.25859E-02
         0.26920E-02
         0.28599E-02
         0.29529E-02
         0.29714E-02
         0.29714E-02
         0.26472E-02
         0.27682E-02
         0.34027E-02
         0.35304E-02
         0.35304E-02
         0.29790E-02
         0.31490E-02
         0.31490E-02
         0.43133E-02
         0.43133E-02
         0.43133E-02
         0.43133E-02
         0.34890E-02
         0.34890E-02
         0.32698E-02
         0.32051E-02
         0.37820E-02
         0.31848E-02
         0.27017E-02
         0.33851E-02
         0.37155E-02
         0.27158E-02
         0.29075E-02
         0.36979E-02
         0.36177E-02
         0.37871E-02
         0.30024E-02
         0.30024E-02
         0.28603E-02
         0.26927E-02
         0.29530E-02
         0.28093E-02
         0.30208E-02
         0.36979E-02
         0.28460E-02
         0.28460E-02
         0.27486E-02
         0.26101E-02
         0.36979E-02
         0.36979E-02
         0.37871E-02
         0.37871E-02
         0.30247E-02
         0.36896E-02
         0.37155E-02
         0.32051E-02
         0.32833E-02
         0.32833E-02
         0.27006E-02
         0.25920E-02
         0.25851E-02
         0.29714E-02
         0.29714E-02
         0.26472E-02
         0.29094E-02
         0.34019E-02
         0.35299E-02
         0.35299E-02
         0.29793E-02
         0.32431E-02
         0.28838E-02
         0.29925E-02
         0.36896E-02
         0.37155E-02
         0.37155E-02
         0.33851E-02
         0.29075E-02
         0.32051E-02
         0.32833E-02
         0.32833E-02
         0.27006E-02
         0.25920E-02
         0.25851E-02
         0.26927E-02
         0.28603E-02
         0.29530E-02
         0.29714E-02
         0.29714E-02
         0.26472E-02
         0.27681E-02
         0.34019E-02
         0.35299E-02
         0.35299E-02
         0.29793E-02
         0.31503E-02
         0.31503E-02
         0.43130E-02
         0.43130E-02
         0.43130E-02
         0.43130E-02
         0.34891E-02
         0.34891E-02
         0.32683E-02
         0.32041E-02
         0.37816E-02
         0.31844E-02
         0.27000E-02
         0.33848E-02
         0.37154E-02
         0.27111E-02
         0.29087E-02
         0.36976E-02
         0.36213E-02
         0.37892E-02
         0.30050E-02
         0.30050E-02
         0.28608E-02
         0.26935E-02
         0.29532E-02
         0.28096E-02
         0.30234E-02
         0.36976E-02
         0.28434E-02
         0.28434E-02
         0.27472E-02
         0.26091E-02
         0.36976E-02
         0.36976E-02
         0.37892E-02
         0.37892E-02
         0.30249E-02
         0.36885E-02
         0.37154E-02
         0.32064E-02
         0.32839E-02
         0.32839E-02
         0.27006E-02
         0.25920E-02
         0.25844E-02
         0.29714E-02
         0.29714E-02
         0.26471E-02
         0.29094E-02
         0.34012E-02
         0.35293E-02
         0.35293E-02
         0.29797E-02
         0.32449E-02
         0.28811E-02
         0.29935E-02
         0.36885E-02
         0.37154E-02
         0.37154E-02
         0.33848E-02
         0.29087E-02
         0.32064E-02
         0.32839E-02
         0.32839E-02
         0.27006E-02
         0.25920E-02
         0.25844E-02
         0.26935E-02
         0.28608E-02
         0.29532E-02
         0.29714E-02
         0.29714E-02
         0.26471E-02
         0.27681E-02
         0.34012E-02
         0.35293E-02
         0.35293E-02
         0.29797E-02
         0.31517E-02
         0.31517E-02
         0.43128E-02
         0.43128E-02
         0.43128E-02
         0.43128E-02
         0.34892E-02
         0.34892E-02
         0.32669E-02
         0.32031E-02
         0.37811E-02
         0.31840E-02
         0.26982E-02
         0.33844E-02
         0.37152E-02
         0.27063E-02
         0.29099E-02
         0.36973E-02
         0.36248E-02
         0.37913E-02
         0.30076E-02
         0.30076E-02
         0.28613E-02
         0.26942E-02
         0.29533E-02
         0.28099E-02
         0.30260E-02
         0.36973E-02
         0.28408E-02
         0.28408E-02
         0.27460E-02
         0.26081E-02
         0.36973E-02
         0.36973E-02
         0.37913E-02
         0.37913E-02
         0.30250E-02
         0.36873E-02
         0.37152E-02
         0.32077E-02
         0.32845E-02
         0.32845E-02
         0.27006E-02
         0.25920E-02
         0.25837E-02
         0.29714E-02
         0.29714E-02
         0.26471E-02
         0.29093E-02
         0.34005E-02
         0.35287E-02
         0.35287E-02
         0.29800E-02
         0.32467E-02
         0.28783E-02
         0.29945E-02
         0.36873E-02
         0.37152E-02
         0.37152E-02
         0.33844E-02
         0.29099E-02
         0.32077E-02
         0.32845E-02
         0.32845E-02
         0.27006E-02
         0.25920E-02
         0.25837E-02
         0.26942E-02
         0.28613E-02
         0.29533E-02
         0.29714E-02
         0.29714E-02
         0.26471E-02
         0.27681E-02
         0.34005E-02
         0.35287E-02
         0.35287E-02
         0.29800E-02
         0.31530E-02
         0.31530E-02
         0.43125E-02
         0.43125E-02
         0.43125E-02
         0.43125E-02
         0.34893E-02
         0.34893E-02
         0.32655E-02
         0.32021E-02
         0.37806E-02
         0.31836E-02
         0.26965E-02
         0.33840E-02
         0.37151E-02
         0.27016E-02
         0.29111E-02
         0.36969E-02
         0.36283E-02
         0.37933E-02
         0.30102E-02
         0.30102E-02
         0.28617E-02
         0.26950E-02
         0.29535E-02
         0.28101E-02
         0.30286E-02
         0.36969E-02
         0.28382E-02
         0.28382E-02
         0.27447E-02
         0.26071E-02
         0.36969E-02
         0.36969E-02
         0.37933E-02
         0.37933E-02
         0.30252E-02
         0.36861E-02
         0.37151E-02
         0.32090E-02
         0.32852E-02
         0.32852E-02
         0.27006E-02
         0.25920E-02
         0.25830E-02
         0.29714E-02
         0.29714E-02
         0.26470E-02
         0.29092E-02
         0.33997E-02
         0.35282E-02
         0.35282E-02
         0.29803E-02
         0.32484E-02
         0.28755E-02
         0.29955E-02
         0.36861E-02
         0.37151E-02
         0.37151E-02
         0.33840E-02
         0.29111E-02
         0.32090E-02
         0.32852E-02
         0.32852E-02
         0.27006E-02
         0.25920E-02
         0.25830E-02
         0.26950E-02
         0.28617E-02
         0.29535E-02
         0.29714E-02
         0.29714E-02
         0.26470E-02
         0.27680E-02
         0.33997E-02
         0.35282E-02
         0.35282E-02
         0.29803E-02
         0.31544E-02
         0.31544E-02
         0.43123E-02
         0.43123E-02
         0.43123E-02
         0.43123E-02
         0.34893E-02
         0.34893E-02
         0.32640E-02
         0.32011E-02
         0.37801E-02
         0.31832E-02
         0.26948E-02
         0.33836E-02
         0.37150E-02
         0.26969E-02
         0.29123E-02
         0.36966E-02
         0.36319E-02
         0.37954E-02
         0.30128E-02
         0.30128E-02
         0.28622E-02
         0.26957E-02
         0.29536E-02
         0.28104E-02
         0.30312E-02
         0.36966E-02
         0.28357E-02
         0.28357E-02
         0.27434E-02
         0.26061E-02
         0.36966E-02
         0.36966E-02
         0.37954E-02
         0.37954E-02
         0.30254E-02
         0.36849E-02
         0.37150E-02
         0.32103E-02
         0.32858E-02
         0.32858E-02
         0.27006E-02
         0.25920E-02
         0.25823E-02
         0.29714E-02
         0.29714E-02
         0.26470E-02
         0.29091E-02
         0.33990E-02
         0.35276E-02
         0.35276E-02
         0.29806E-02
         0.32502E-02
         0.28728E-02
         0.29965E-02
         0.36849E-02
         0.37150E-02
         0.37150E-02
         0.33836E-02
         0.29123E-02
         0.32103E-02
         0.32858E-02
         0.32858E-02
         0.27006E-02
         0.25920E-02
         0.25823E-02
         0.26957E-02
         0.28622E-02
         0.29536E-02
         0.29714E-02
         0.29714E-02
         0.26470E-02
         0.27680E-02
         0.33990E-02
         0.35276E-02
         0.35276E-02
         0.29806E-02
         0.31557E-02
         0.31557E-02
         0.43120E-02
         0.43120E-02
         0.43120E-02
         0.43120E-02
         0.34894E-02
         0.34894E-02
         0.32626E-02
         0.32001E-02
         0.37797E-02
         0.31828E-02
         0.26931E-02
         0.33832E-02
         0.37149E-02
         0.26922E-02
         0.29135E-02
         0.36963E-02
         0.36354E-02
         0.37975E-02
         0.30154E-02
         0.30154E-02
         0.28627E-02
         0.26965E-02
         0.29537E-02
         0.28107E-02
         0.30338E-02
         0.36963E-02
         0.28331E-02
         0.28331E-02
         0.27421E-02
         0.26051E-02
         0.36963E-02
         0.36963E-02
         0.37975E-02
         0.37975E-02
         0.30256E-02
         0.36838E-02
         0.37149E-02
         0.32116E-02
         0.32864E-02
         0.32864E-02
         0.27006E-02
         0.25920E-02
         0.25815E-02
         0.29714E-02
         0.29714E-02
         0.26469E-02
         0.29090E-02
         0.33983E-02
         0.35270E-02
         0.35270E-02
         0.29809E-02
         0.32519E-02
         0.28700E-02
         0.29975E-02
         0.36838E-02
         0.37149E-02
         0.37149E-02
         0.33832E-02
         0.29135E-02
         0.32116E-02
         0.32864E-02
         0.32864E-02
         0.27006E-02
         0.25920E-02
         0.25815E-02
         0.26965E-02
         0.28627E-02
         0.29537E-02
         0.29714E-02
         0.29714E-02
         0.26469E-02
         0.27680E-02
         0.33983E-02
         0.35270E-02
         0.35270E-02
         0.29809E-02
         0.31571E-02
         0.31571E-02
         0.43118E-02
         0.43118E-02
         0.43118E-02
         0.43118E-02
         0.34895E-02
         0.34895E-02
         0.32612E-02
         0.31990E-02
         0.37792E-02
         0.31824E-02
         0.26913E-02
         0.33828E-02
         0.37148E-02
         0.26875E-02
         0.29148E-02
         0.36960E-02
         0.36390E-02
         0.37995E-02
         0.30180E-02
         0.30180E-02
         0.28631E-02
         0.26972E-02
         0.29539E-02
         0.28110E-02
         0.30364E-02
         0.36960E-02
         0.28305E-02
         0.28305E-02
         0.27408E-02
         0.26040E-02
         0.36960E-02
         0.36960E-02
         0.37995E-02
         0.37995E-02
         0.30258E-02
         0.36826E-02
         0.37148E-02
         0.32129E-02
         0.32870E-02
         0.32870E-02
         0.27006E-02
         0.25920E-02
         0.25808E-02
         0.29713E-02
         0.29713E-02
         0.26468E-02
         0.29089E-02
         0.33975E-02
         0.35264E-02
         0.35264E-02
         0.29812E-02
         0.32537E-02
         0.28672E-02
         0.29985E-02
         0.36826E-02
         0.37148E-02
         0.37148E-02
         0.33828E-02
         0.29148E-02
         0.32129E-02
         0.32870E-02
         0.32870E-02
         0.27006E-02
         0.25920E-02
         0.25808E-02
         0.26972E-02
         0.28631E-02
         0.29539E-02
         0.29713E-02
         0.29713E-02
         0.26468E-02
         0.27679E-02
         0.33975E-02
         0.35264E-02
         0.35264E-02
         0.29812E-02
         0.31585E-02
         0.31585E-02
         0.43115E-02
         0.43115E-02
         0.43115E-02
         0.43115E-02
         0.34896E-02
         0.34896E-02
         0.32597E-02
         0.31980E-02
         0.37787E-02
         0.31820E-02
         0.26896E-02
         0.33824E-02
         0.37147E-02
         0.26827E-02
         0.29160E-02
         0.36957E-02
         0.36425E-02
         0.38016E-02
         0.30206E-02
         0.30206E-02
         0.28636E-02
         0.26980E-02
         0.29540E-02
         0.28112E-02
         0.30390E-02
         0.36957E-02
         0.28279E-02
         0.28279E-02
         0.27395E-02
         0.26030E-02
         0.36957E-02
         0.36957E-02
         0.38016E-02
         0.38016E-02
         0.30260E-02
         0.36814E-02
         0.37147E-02
         0.32141E-02
         0.32876E-02
         0.32876E-02
         0.27006E-02
         0.25920E-02
         0.25801E-02
         0.29713E-02
         0.29713E-02
         0.26468E-02
         0.29089E-02
         0.33968E-02
         0.35259E-02
         0.35259E-02
         0.29815E-02
         0.32555E-02
         0.28645E-02
         0.29995E-02
         0.36814E-02
         0.37147E-02
         0.37147E-02
         0.33824E-02
         0.29160E-02
         0.32141E-02
         0.32876E-02
         0.32876E-02
         0.27006E-02
         0.25920E-02
         0.25801E-02
         0.26980E-02
         0.28636E-02
         0.29540E-02
         0.29713E-02
         0.29713E-02
         0.26468E-02
         0.27679E-02
         0.33968E-02
         0.35259E-02
         0.35259E-02
         0.29815E-02
         0.31598E-02
         0.31598E-02
         0.43113E-02
         0.43113E-02
         0.43113E-02
         0.43113E-02
         0.34897E-02
         0.34897E-02
         0.32583E-02
         0.31970E-02
         0.37783E-02
         0.31816E-02
         0.26879E-02
         0.33820E-02
         0.37146E-02
         0.26780E-02
         0.29172E-02
         0.36954E-02
         0.36460E-02
         0.38037E-02
         0.30232E-02
         0.30232E-02
         0.28641E-02
         0.26987E-02
         0.29542E-02
         0.28115E-02
         0.30416E-02
         0.36954E-02
         0.28253E-02
         0.28253E-02
         0.27382E-02
         0.26020E-02
         0.36954E-02
         0.36954E-02
         0.38037E-02
         0.38037E-02
         0.30261E-02
         0.36802E-02
         0.37146E-02
         0.32154E-02
         0.32882E-02
         0.32882E-02
         0.27006E-02
         0.25921E-02
         0.25794E-02
         0.29713E-02
         0.29713E-02
         0.26467E-02
         0.29088E-02
         0.33961E-02
         0.35253E-02
         0.35253E-02
         0.29818E-02
         0.32573E-02
         0.28617E-02
         0.30005E-02
         0.36802E-02
         0.37146E-02
         0.37146E-02
         0.33820E-02
         0.29172E-02
         0.32154E-02
         0.32882E-02
         0.32882E-02
         0.27006E-02
         0.25921E-02
         0.25794E-02
         0.26987E-02
         0.28641E-02
         0.29542E-02
         0.29713E-02
         0.29713E-02
         0.26467E-02
         0.27678E-02
         0.33961E-02
         0.35253E-02
         0.35253E-02
         0.29818E-02
         0.31612E-02
         0.31612E-02
         0.43110E-02
         0.43110E-02
         0.43110E-02
         0.43110E-02
         0.34898E-02
         0.34898E-02
         0.32569E-02
         0.31960E-02
         0.37778E-02
         0.31812E-02
         0.26862E-02
         0.33816E-02
         0.37145E-02
         0.26733E-02
         0.29184E-02
         0.36950E-02
         0.36495E-02
         0.38057E-02
         0.30258E-02
         0.30258E-02
         0.28645E-02
         0.26995E-02
         0.29543E-02
         0.28118E-02
         0.30442E-02
         0.36950E-02
         0.28227E-02
         0.28227E-02
         0.27369E-02
         0.26010E-02
         0.36950E-02
         0.36950E-02
         0.38057E-02
         0.38057E-02
         0.30263E-02
         0.36790E-02
         0.37145E-02
         0.32167E-02
         0.32889E-02
         0.32889E-02
         0.27006E-02
         0.25921E-02
         0.25787E-02
         0.29713E-02
         0.29713E-02
         0.26467E-02
         0.29087E-02
         0.33953E-02
         0.35247E-02
         0.35247E-02
         0.29821E-02
         0.32590E-02
         0.28589E-02
         0.30015E-02
         0.36790E-02
         0.37145E-02
         0.37145E-02
         0.33816E-02
         0.29184E-02
         0.32167E-02
         0.32889E-02
         0.32889E-02
         0.27006E-02
         0.25921E-02
         0.25787E-02
         0.26995E-02
         0.28645E-02
         0.29543E-02
         0.29713E-02
         0.29713E-02
         0.26467E-02
         0.27678E-02
         0.33953E-02
         0.35247E-02
         0.35247E-02
         0.29821E-02
         0.31625E-02
         0.31625E-02
         0.43108E-02
         0.43108E-02
         0.43108E-02
         0.43108E-02
         0.34898E-02
         0.34898E-02
         0.32555E-02
         0.31950E-02
         0.37773E-02
         0.31808E-02
         0.26845E-02
         0.33812E-02
         0.37144E-02
         0.26686E-02
         0.29196E-02
         0.36948E-02
         0.36531E-02
         0.38078E-02
         0.30285E-02
         0.30285E-02
         0.28650E-02
         0.27002E-02
         0.29544E-02
         0.28120E-02
         0.30467E-02
         0.36948E-02
         0.28201E-02
         0.28201E-02
         0.27356E-02
         0.26000E-02
         0.36948E-02
         0.36948E-02
         0.38078E-02
         0.38078E-02
         0.30265E-02
         0.36779E-02
         0.37144E-02
         0.32181E-02
         0.32895E-02
         0.32895E-02
         0.27006E-02
         0.25921E-02
         0.25779E-02
         0.29713E-02
         0.29713E-02
         0.26466E-02
         0.29086E-02
         0.33946E-02
         0.35242E-02
         0.35242E-02
         0.29824E-02
         0.32608E-02
         0.28562E-02
         0.30025E-02
         0.36779E-02
         0.37144E-02
         0.37144E-02
         0.33812E-02
         0.29196E-02
         0.32181E-02
         0.32895E-02
         0.32895E-02
         0.27006E-02
         0.25921E-02
         0.25779E-02
         0.27002E-02
         0.28650E-02
         0.29544E-02
         0.29713E-02
         0.29713E-02
         0.26466E-02
         0.27678E-02
         0.33946E-02
         0.35242E-02
         0.35242E-02
         0.29824E-02
         0.31639E-02
         0.31639E-02
         0.43105E-02
         0.43105E-02
         0.43105E-02
         0.43105E-02
         0.34899E-02
         0.34899E-02
         0.32540E-02
         0.31940E-02
         0.37768E-02
         0.31804E-02
         0.26827E-02
         0.33808E-02
         0.37143E-02
         0.26639E-02
         0.29208E-02
         0.36944E-02
         0.36566E-02
         0.38099E-02
         0.30311E-02
         0.30311E-02
         0.28655E-02
         0.27010E-02
         0.29546E-02
         0.28123E-02
         0.30493E-02
         0.36944E-02
         0.28175E-02
         0.28175E-02
         0.27343E-02
         0.25990E-02
         0.36944E-02
         0.36944E-02
         0.38099E-02
         0.38099E-02
         0.30267E-02
         0.36767E-02
         0.37143E-02
         0.32193E-02
         0.32901E-02
         0.32901E-02
         0.27006E-02
         0.25921E-02
         0.25772E-02
         0.29713E-02
         0.29713E-02
         0.26466E-02
         0.29085E-02
         0.33939E-02
         0.35236E-02
         0.35236E-02
         0.29827E-02
         0.32626E-02
         0.28534E-02
         0.30035E-02
         0.36767E-02
         0.37143E-02
         0.37143E-02
         0.33808E-02
         0.29208E-02
         0.32193E-02
         0.32901E-02
         0.32901E-02
         0.27006E-02
         0.25921E-02
         0.25772E-02
         0.27010E-02
         0.28655E-02
         0.29546E-02
         0.29713E-02
         0.29713E-02
         0.26466E-02
         0.27677E-02
         0.33939E-02
         0.35236E-02
         0.35236E-02
         0.29827E-02
         0.31652E-02
         0.31652E-02
         0.43103E-02
         0.43103E-02
         0.43103E-02
         0.43103E-02
         0.34900E-02
         0.34900E-02
         0.32526E-02
         0.31930E-02
         0.37764E-02
         0.31800E-02
         0.26810E-02
         0.33804E-02
         0.37142E-02
         0.26591E-02
         0.29220E-02
         0.36941E-02
         0.36602E-02
         0.38119E-02
         0.30337E-02
         0.30337E-02
         0.28660E-02
         0.27017E-02
         0.29547E-02
         0.28126E-02
         0.30519E-02
         0.36941E-02
         0.28150E-02
         0.28150E-02
         0.27330E-02
         0.25979E-02
         0.36941E-02
         0.36941E-02
         0.38119E-02
         0.38119E-02
         0.30269E-02
         0.36755E-02
         0.37142E-02
         0.32206E-02
         0.32907E-02
         0.32907E-02
         0.27006E-02
         0.25921E-02
         0.25765E-02
         0.29713E-02
         0.29713E-02
         0.26465E-02
         0.29085E-02
         0.33931E-02
         0.35230E-02
         0.35230E-02
         0.29830E-02
         0.32643E-02
         0.28507E-02
         0.30045E-02
         0.36755E-02
         0.37142E-02
         0.37142E-02
         0.33804E-02
         0.29220E-02
         0.32206E-02
         0.32907E-02
         0.32907E-02
         0.27006E-02
         0.25921E-02
         0.25765E-02
         0.27017E-02
         0.28660E-02
         0.29547E-02
         0.29713E-02
         0.29713E-02
         0.26465E-02
         0.27677E-02
         0.33931E-02
         0.35230E-02
         0.35230E-02
         0.29830E-02
         0.31666E-02
         0.31666E-02
         0.43100E-02
         0.43100E-02
         0.43100E-02
         0.43100E-02
         0.34901E-02
         0.34901E-02
         0.32512E-02
         0.31920E-02
         0.37759E-02
         0.31796E-02
         0.26793E-02
         0.33800E-02
         0.37141E-02
         0.26544E-02
         0.29232E-02
         0.36938E-02
         0.36637E-02
         0.38140E-02
         0.30363E-02
         0.30363E-02
         0.28664E-02
         0.27025E-02
         0.29548E-02
         0.28129E-02
         0.30545E-02
         0.36938E-02
         0.28124E-02
         0.28124E-02
         0.27317E-02
         0.25969E-02
         0.36938E-02
         0.36938E-02
         0.38140E-02
         0.38140E-02
         0.30271E-02
         0.36743E-02
         0.37141E-02
         0.32219E-02
         0.32913E-02
         0.32913E-02
         0.27006E-02
         0.25921E-02
         0.25758E-02
         0.29713E-02
         0.29713E-02
         0.26465E-02
         0.29084E-02
         0.33924E-02
         0.35224E-02
         0.35224E-02
         0.29833E-02
         0.32661E-02
         0.28479E-02
         0.30055E-02
         0.36743E-02
         0.37141E-02
         0.37141E-02
         0.33800E-02
         0.29232E-02
         0.32219E-02
         0.32913E-02
         0.32913E-02
         0.27006E-02
         0.25921E-02
         0.25758E-02
         0.27025E-02
         0.28664E-02
         0.29548E-02
         0.29713E-02
         0.29713E-02
         0.26465E-02
         0.27677E-02
         0.33924E-02
         0.35224E-02
         0.35224E-02
         0.29833E-02
         0.31680E-02
         0.31680E-02
         0.43098E-02
         0.43098E-02
         0.43098E-02
         0.43098E-02
         0.34901E-02
         0.34901E-02
         0.32498E-02
         0.31910E-02
         0.37754E-02
         0.31792E-02
         0.26776E-02
         0.33796E-02
         0.37140E-02
         0.26497E-02
         0.29232E-02
         0.36935E-02
         0.36637E-02
         0.38140E-02
         0.30363E-02
         0.30363E-02
         0.28664E-02
         0.27025E-02
         0.29548E-02
         0.28129E-02
         0.30545E-02
         0.36935E-02
         0.28098E-02
         0.28098E-02
         0.27304E-02
         0.25959E-02
         0.36935E-02
         0.36935E-02
         0.38140E-02
         0.38140E-02
         0.30271E-02
         0.36731E-02
         0.37140E-02
         0.32219E-02
         0.32913E-02
         0.32913E-02
         0.27006E-02
         0.25921E-02
         0.25751E-02
         0.29713E-02
         0.29713E-02
         0.26464E-02
         0.29083E-02
         0.33916E-02
         0.35219E-02
         0.35219E-02
         0.29833E-02
         0.32661E-02
         0.28451E-02
         0.30055E-02
         0.36731E-02
         0.37140E-02
         0.37140E-02
         0.33796E-02
         0.29232E-02
         0.32219E-02
         0.32913E-02
         0.32913E-02
         0.27006E-02
         0.25921E-02
         0.25751E-02
         0.27025E-02
         0.28664E-02
         0.29548E-02
         0.29713E-02
         0.29713E-02
         0.26464E-02
         0.27676E-02
         0.33916E-02
         0.35219E-02
         0.35219E-02
         0.29833E-02
         0.31680E-02
         0.31680E-02
  
SCALARS              physical_window_z  double 1
LOOKUP_TABLE default
         0.26928E-02
         0.26928E-02
         0.26928E-02
         0.26928E-02
         0.26928E-02
         0.26928E-02
         0.26928E-02
         0.26928E-02
         0.26928E-02
         0.26928E-02
         0.26928E-02
         0.26928E-02
         0.26928E-02
         0.26928E-02
         0.26928E-02
         0.26928E-02
         0.26928E-02
         0.26928E-02
         0.26928E-02
         0.26928E-02
         0.26928E-02
         0.26928E-02
         0.26928E-02
         0.26928E-02
         0.26928E-02
         0.26928E-02
         0.26928E-02
         0.26928E-02
         0.26928E-02
         0.26928E-02
         0.26928E-02
         0.26928E-02
         0.26928E-02
         0.26928E-02
         0.26928E-02
         0.26928E-02
         0.26928E-02
         0.26928E-02
         0.26928E-02
         0.26928E-02
         0.26928E-02
         0.26928E-02
         0.26928E-02
         0.26928E-02
         0.26928E-02
         0.26928E-02
         0.26928E-02
         0.26928E-02
         0.26928E-02
         0.26928E-02
         0.26928E-02
         0.26928E-02
         0.26928E-02
         0.26928E-02
         0.26928E-02
         0.26928E-02
         0.26928E-02
         0.26928E-02
         0.26928E-02
         0.26928E-02
         0.26928E-02
         0.26928E-02
         0.26928E-02
         0.26928E-02
         0.26928E-02
         0.26928E-02
         0.26928E-02
         0.26928E-02
         0.26928E-02
         0.26928E-02
         0.26928E-02
         0.26928E-02
         0.26928E-02
         0.26928E-02
         0.26928E-02
         0.26928E-02
         0.26928E-02
         0.26928E-02
         0.26928E-02
         0.26928E-02
         0.26928E-02
         0.26928E-02
         0.26928E-02
         0.26928E-02
         0.26928E-02
         0.26928E-02
         0.26928E-02
         0.26928E-02
         0.26928E-02
         0.26928E-02
         0.26928E-02
         0.26928E-02
         0.26928E-02
         0.26928E-02
         0.26928E-02
         0.26928E-02
         0.26928E-02
         0.26928E-02
         0.26928E-02
         0.26928E-02
         0.26928E-02
         0.26928E-02
         0.26928E-02
         0.26928E-02
         0.26928E-02
         0.26928E-02
         0.26928E-02
         0.26928E-02
         0.26928E-02
         0.26928E-02
         0.26928E-02
         0.26928E-02
         0.26928E-02
         0.26928E-02
         0.26928E-02
         0.26928E-02
         0.26928E-02
         0.26928E-02
         0.26928E-02
         0.26928E-02
         0.26928E-02
         0.26928E-02
         0.26928E-02
         0.26928E-02
         0.26928E-02
         0.26928E-02
         0.26928E-02
         0.26928E-02
         0.26928E-02
         0.26928E-02
         0.26928E-02
         0.26928E-02
         0.26928E-02
         0.26928E-02
         0.26928E-02
         0.26928E-02
         0.26928E-02
         0.26928E-02
         0.26928E-02
         0.26928E-02
         0.26928E-02
         0.26928E-02
         0.26928E-02
         0.26928E-02
         0.26928E-02
         0.26928E-02
         0.26928E-02
         0.26928E-02
         0.26928E-02
         0.26928E-02
         0.26928E-02
         0.26928E-02
         0.26928E-02
         0.26928E-02
         0.26928E-02
         0.26928E-02
         0.26927E-02
         0.26927E-02
         0.26927E-02
         0.26927E-02
         0.26927E-02
         0.26927E-02
         0.26927E-02
         0.26927E-02
         0.26927E-02
         0.26927E-02
         0.26927E-02
         0.26927E-02
         0.26927E-02
         0.26927E-02
         0.26927E-02
         0.26927E-02
         0.26927E-02
         0.26927E-02
         0.26927E-02
         0.26927E-02
         0.26927E-02
         0.26927E-02
         0.26927E-02
         0.26927E-02
         0.26927E-02
         0.26927E-02
         0.26927E-02
         0.26927E-02
         0.26927E-02
         0.26927E-02
         0.26927E-02
         0.26927E-02
         0.26927E-02
         0.26927E-02
         0.26927E-02
         0.26927E-02
         0.26927E-02
         0.26927E-02
         0.26927E-02
         0.26927E-02
         0.26927E-02
         0.26927E-02
         0.26927E-02
         0.26927E-02
         0.26927E-02
         0.26927E-02
         0.26927E-02
         0.26927E-02
         0.26927E-02
         0.26927E-02
         0.26927E-02
         0.26927E-02
         0.26927E-02
         0.26927E-02
         0.26927E-02
         0.26927E-02
         0.26927E-02
         0.26927E-02
         0.26927E-02
         0.26927E-02
         0.26927E-02
         0.26927E-02
         0.26927E-02
         0.26927E-02
         0.26927E-02
         0.26927E-02
         0.26927E-02
         0.26927E-02
         0.26927E-02
         0.26927E-02
         0.26927E-02
         0.26927E-02
         0.26927E-02
         0.26927E-02
         0.26927E-02
         0.26927E-02
         0.26927E-02
         0.26927E-02
         0.26927E-02
         0.26927E-02
         0.26927E-02
         0.26927E-02
         0.26927E-02
         0.26927E-02
         0.26927E-02
         0.26927E-02
         0.26927E-02
         0.26927E-02
         0.26927E-02
         0.26927E-02
         0.26927E-02
         0.26927E-02
         0.26927E-02
         0.26927E-02
         0.26927E-02
         0.26927E-02
         0.26927E-02
         0.26927E-02
         0.26927E-02
         0.26927E-02
         0.26927E-02
         0.26927E-02
         0.26927E-02
         0.26927E-02
         0.26927E-02
         0.26927E-02
         0.26927E-02
         0.26927E-02
         0.26927E-02
         0.26927E-02
         0.26927E-02
         0.26927E-02
         0.26927E-02
         0.26927E-02
         0.26927E-02
         0.26927E-02
         0.26927E-02
         0.26927E-02
         0.26927E-02
         0.26927E-02
         0.26927E-02
         0.26927E-02
         0.26927E-02
         0.26927E-02
         0.26927E-02
         0.26927E-02
         0.26927E-02
         0.26927E-02
         0.26927E-02
         0.26927E-02
         0.26927E-02
         0.26927E-02
         0.26927E-02
         0.26927E-02
         0.26927E-02
         0.26927E-02
         0.26927E-02
         0.26927E-02
         0.26927E-02
         0.26927E-02
         0.26927E-02
         0.26927E-02
         0.26927E-02
         0.26927E-02
         0.26927E-02
         0.26927E-02
         0.26927E-02
         0.26927E-02
         0.26927E-02
         0.26927E-02
         0.26927E-02
         0.26927E-02
         0.26927E-02
         0.26927E-02
         0.26927E-02
         0.26927E-02
         0.26927E-02
         0.26927E-02
         0.26927E-02
         0.26927E-02
         0.26927E-02
         0.26927E-02
         0.26927E-02
         0.26927E-02
         0.26927E-02
         0.26927E-02
         0.26927E-02
         0.26927E-02
         0.26927E-02
         0.26927E-02
         0.26927E-02
         0.26927E-02
         0.26927E-02
         0.26927E-02
         0.26927E-02
         0.26927E-02
         0.26927E-02
         0.26927E-02
         0.26927E-02
         0.26927E-02
         0.26927E-02
         0.26927E-02
         0.26927E-02
         0.26927E-02
         0.26927E-02
         0.26927E-02
         0.26927E-02
         0.26927E-02
         0.26927E-02
         0.26927E-02
         0.26927E-02
         0.26927E-02
         0.26927E-02
         0.26927E-02
         0.26927E-02
         0.26927E-02
         0.26927E-02
         0.26927E-02
         0.26927E-02
         0.26927E-02
         0.26927E-02
         0.26927E-02
         0.26927E-02
         0.26927E-02
         0.26927E-02
         0.26927E-02
         0.26927E-02
         0.26927E-02
         0.26927E-02
         0.26927E-02
         0.26927E-02
         0.26927E-02
         0.26927E-02
         0.26927E-02
         0.26927E-02
         0.26927E-02
         0.26927E-02
         0.26927E-02
         0.26927E-02
         0.26927E-02
         0.26927E-02
         0.26927E-02
         0.26927E-02
         0.26927E-02
         0.26927E-02
         0.26927E-02
         0.26927E-02
         0.26927E-02
         0.26927E-02
         0.26927E-02
         0.26927E-02
         0.26927E-02
         0.26927E-02
         0.26927E-02
         0.26927E-02
         0.26927E-02
         0.26927E-02
         0.26927E-02
         0.26927E-02
         0.26927E-02
         0.26927E-02
         0.26927E-02
         0.26927E-02
         0.26927E-02
         0.26927E-02
         0.26927E-02
         0.26927E-02
         0.26927E-02
         0.26927E-02
         0.26927E-02
         0.26927E-02
         0.26927E-02
         0.26927E-02
         0.26927E-02
         0.26927E-02
         0.26927E-02
         0.26927E-02
         0.26927E-02
         0.26927E-02
         0.26927E-02
         0.26927E-02
         0.26927E-02
         0.26927E-02
         0.26927E-02
         0.26927E-02
         0.26927E-02
         0.26927E-02
         0.26927E-02
         0.26927E-02
         0.26927E-02
         0.26927E-02
         0.26927E-02
         0.26927E-02
         0.26927E-02
         0.26927E-02
         0.26927E-02
         0.26927E-02
         0.26927E-02
         0.26927E-02
         0.26927E-02
         0.26927E-02
         0.26927E-02
         0.26927E-02
         0.26927E-02
         0.26927E-02
         0.26927E-02
         0.26927E-02
         0.26927E-02
         0.26927E-02
         0.26927E-02
         0.26927E-02
         0.26927E-02
         0.26927E-02
         0.26927E-02
         0.26927E-02
         0.26927E-02
         0.26927E-02
         0.26927E-02
         0.26927E-02
         0.26927E-02
         0.26927E-02
         0.26927E-02
         0.26927E-02
         0.26927E-02
         0.26927E-02
         0.26927E-02
         0.26927E-02
         0.26927E-02
         0.26927E-02
         0.26927E-02
         0.26927E-02
         0.26927E-02
         0.26927E-02
         0.26927E-02
         0.26927E-02
         0.26927E-02
         0.26927E-02
         0.26927E-02
         0.26927E-02
         0.26927E-02
         0.26927E-02
         0.26927E-02
         0.26927E-02
         0.26927E-02
         0.26927E-02
         0.26927E-02
         0.26927E-02
         0.26927E-02
         0.26927E-02
         0.26927E-02
         0.26927E-02
         0.26927E-02
         0.26927E-02
         0.26927E-02
         0.26927E-02
         0.26927E-02
         0.26927E-02
         0.26927E-02
         0.26927E-02
         0.26927E-02
         0.26927E-02
         0.26927E-02
         0.26927E-02
         0.26927E-02
         0.26927E-02
         0.26927E-02
         0.26927E-02
         0.26927E-02
         0.26927E-02
         0.26927E-02
         0.26927E-02
         0.26927E-02
         0.26927E-02
         0.26927E-02
         0.26927E-02
         0.26927E-02
         0.26927E-02
         0.26927E-02
         0.26927E-02
         0.26927E-02
         0.26927E-02
         0.26927E-02
         0.26927E-02
         0.26927E-02
         0.26927E-02
         0.26927E-02
         0.26927E-02
         0.26927E-02
         0.26927E-02
         0.26927E-02
         0.26927E-02
         0.26927E-02
         0.26927E-02
         0.26927E-02
         0.26927E-02
         0.26927E-02
         0.26927E-02
         0.26927E-02
         0.26927E-02
         0.26927E-02
         0.26927E-02
         0.26927E-02
         0.26927E-02
         0.26927E-02
         0.26927E-02
         0.26927E-02
         0.26927E-02
         0.26927E-02
         0.26927E-02
         0.26927E-02
         0.26927E-02
         0.26927E-02
         0.26927E-02
         0.26927E-02
         0.26927E-02
         0.26927E-02
         0.26927E-02
         0.26927E-02
         0.26927E-02
         0.26927E-02
         0.26927E-02
         0.26927E-02
         0.26927E-02
         0.26927E-02
         0.26927E-02
         0.26927E-02
         0.26927E-02
         0.26927E-02
         0.26927E-02
         0.26927E-02
         0.26927E-02
         0.26927E-02
         0.26927E-02
         0.26927E-02
         0.26927E-02
         0.26927E-02
         0.26927E-02
         0.26927E-02
         0.26927E-02
         0.26927E-02
         0.26927E-02
         0.26927E-02
         0.26927E-02
         0.26927E-02
         0.26927E-02
         0.26927E-02
         0.26927E-02
         0.26927E-02
         0.26927E-02
         0.26927E-02
         0.26927E-02
         0.26927E-02
         0.26927E-02
         0.26927E-02
         0.26927E-02
         0.26927E-02
         0.26927E-02
         0.26927E-02
         0.26927E-02
         0.26927E-02
         0.26927E-02
         0.26927E-02
         0.26927E-02
         0.26927E-02
         0.26927E-02
         0.26927E-02
         0.26927E-02
         0.26927E-02
         0.26927E-02
         0.26927E-02
         0.26927E-02
         0.26927E-02
         0.26927E-02
         0.26927E-02
         0.26927E-02
         0.26927E-02
         0.26927E-02
         0.26927E-02
         0.26927E-02
         0.26927E-02
         0.26927E-02
         0.26927E-02
         0.26927E-02
         0.26927E-02
         0.26927E-02
         0.26927E-02
         0.26927E-02
         0.26927E-02
         0.26927E-02
         0.26927E-02
         0.26927E-02
         0.26927E-02
         0.26927E-02
         0.26927E-02
         0.26927E-02
         0.26927E-02
         0.26927E-02
         0.26927E-02
         0.26927E-02
         0.26927E-02
         0.26927E-02
         0.26927E-02
         0.26927E-02
         0.26927E-02
         0.26927E-02
         0.26927E-02
         0.26927E-02
         0.26927E-02
         0.26927E-02
         0.26927E-02
         0.26927E-02
         0.26927E-02
         0.26927E-02
         0.26927E-02
         0.26927E-02
         0.26927E-02
         0.26927E-02
         0.26927E-02
         0.26927E-02
         0.26927E-02
         0.26927E-02
         0.26927E-02
         0.26927E-02
         0.26927E-02
         0.26927E-02
         0.26927E-02
         0.26927E-02
         0.26927E-02
         0.26927E-02
         0.26927E-02
         0.26927E-02
         0.26927E-02
         0.26927E-02
         0.26927E-02
         0.26927E-02
         0.26927E-02
         0.26927E-02
         0.26927E-02
         0.26927E-02
         0.26927E-02
         0.26927E-02
         0.26927E-02
         0.26927E-02
         0.26927E-02
         0.26927E-02
         0.26927E-02
         0.26927E-02
         0.26927E-02
         0.26927E-02
         0.26927E-02
         0.26927E-02
         0.26927E-02
         0.26927E-02
         0.26927E-02
         0.26927E-02
         0.26927E-02
         0.26927E-02
         0.26927E-02
         0.26927E-02
         0.26927E-02
         0.26927E-02
         0.26927E-02
         0.26927E-02
         0.26927E-02
         0.26927E-02
         0.26927E-02
         0.26927E-02
         0.26927E-02
         0.26927E-02
         0.26927E-02
         0.26927E-02
         0.26927E-02
         0.26927E-02
         0.26927E-02
         0.26927E-02
         0.26927E-02
         0.26927E-02
         0.26927E-02
         0.26927E-02
         0.26927E-02
         0.26927E-02
         0.26927E-02
         0.26927E-02
         0.26927E-02
         0.26927E-02
         0.26927E-02
         0.26927E-02
         0.26927E-02
         0.26927E-02
         0.26927E-02
         0.26927E-02
         0.26927E-02
         0.26927E-02
         0.26927E-02
         0.26927E-02
         0.26927E-02
         0.26927E-02
         0.26927E-02
         0.26927E-02
         0.26927E-02
         0.26927E-02
         0.26927E-02
         0.26927E-02
         0.26927E-02
         0.26927E-02
         0.26927E-02
         0.26927E-02
         0.26927E-02
         0.26927E-02
         0.26927E-02
         0.26927E-02
         0.26927E-02
         0.26927E-02
         0.26927E-02
         0.26927E-02
         0.26927E-02
         0.26927E-02
         0.26927E-02
         0.26927E-02
         0.26927E-02
         0.26927E-02
         0.26927E-02
         0.26927E-02
         0.26927E-02
         0.26927E-02
         0.26927E-02
         0.26927E-02
         0.26927E-02
         0.26927E-02
         0.26927E-02
         0.26927E-02
         0.26927E-02
         0.26927E-02
         0.26927E-02
         0.26927E-02
         0.26927E-02
         0.26927E-02
         0.26927E-02
         0.26927E-02
         0.26927E-02
         0.26927E-02
         0.26927E-02
         0.26927E-02
         0.26927E-02
         0.26927E-02
         0.26927E-02
         0.26927E-02
         0.26927E-02
         0.26927E-02
         0.26927E-02
         0.26927E-02
         0.26927E-02
         0.26927E-02
         0.26927E-02
         0.26927E-02
         0.26927E-02
         0.26927E-02
         0.26927E-02
         0.26927E-02
         0.26927E-02
         0.26927E-02
         0.26927E-02
         0.26927E-02
         0.26927E-02
         0.26927E-02
         0.26927E-02
         0.26927E-02
         0.26927E-02
         0.26927E-02
         0.26927E-02
         0.26927E-02
         0.26927E-02
         0.26927E-02
         0.26927E-02
         0.26927E-02
         0.26927E-02
         0.26927E-02
         0.26927E-02
         0.26927E-02
         0.26927E-02
         0.26927E-02
         0.26927E-02
         0.26927E-02
         0.26927E-02
         0.26927E-02
         0.26927E-02
         0.26927E-02
         0.26927E-02
         0.26927E-02
         0.26927E-02
         0.26927E-02
         0.26927E-02
         0.26927E-02
         0.26927E-02
         0.26927E-02
         0.26927E-02
         0.26927E-02
         0.26927E-02
         0.26927E-02
         0.26927E-02
         0.26927E-02
         0.26927E-02
         0.26927E-02
         0.26927E-02
         0.26927E-02
         0.26927E-02
         0.26927E-02
         0.26927E-02
         0.26927E-02
         0.26927E-02
         0.26927E-02
         0.26927E-02
         0.26927E-02
         0.26927E-02
         0.26927E-02
         0.26927E-02
         0.26927E-02
         0.26927E-02
         0.26927E-02
         0.26927E-02
         0.26927E-02
         0.26927E-02
         0.26927E-02
         0.26927E-02
         0.26927E-02
         0.26927E-02
         0.26927E-02
         0.26927E-02
         0.26927E-02
         0.26927E-02
         0.26927E-02
         0.26927E-02
         0.26927E-02
         0.26927E-02
         0.26927E-02
         0.26927E-02
         0.26927E-02
         0.26927E-02
         0.26927E-02
         0.26927E-02
         0.26927E-02
         0.26927E-02
         0.26927E-02
         0.26927E-02
         0.26927E-02
         0.26927E-02
         0.26927E-02
         0.26927E-02
         0.26927E-02
         0.26927E-02
         0.26927E-02
         0.26927E-02
         0.26927E-02
         0.26927E-02
         0.26927E-02
         0.26927E-02
         0.26927E-02
         0.26927E-02
         0.26927E-02
         0.26927E-02
         0.26927E-02
         0.26927E-02
         0.26927E-02
         0.26927E-02
         0.26927E-02
         0.26927E-02
         0.26927E-02
         0.26927E-02
         0.26927E-02
         0.26927E-02
         0.26927E-02
         0.26927E-02
         0.26927E-02
         0.26927E-02
         0.26927E-02
         0.26927E-02
         0.26927E-02
         0.26927E-02
         0.26927E-02
         0.26927E-02
         0.26927E-02
         0.26927E-02
         0.26927E-02
         0.26927E-02
         0.26927E-02
         0.26927E-02
         0.26927E-02
         0.26927E-02
         0.26927E-02
         0.26927E-02
         0.26927E-02
         0.26927E-02
         0.26927E-02
         0.26927E-02
         0.26927E-02
         0.26927E-02
         0.26927E-02
         0.26927E-02
         0.26927E-02
         0.26927E-02
         0.26927E-02
         0.26927E-02
         0.26927E-02
         0.26927E-02
         0.26927E-02
         0.26927E-02
         0.26927E-02
         0.26927E-02
         0.26927E-02
         0.26927E-02
         0.26927E-02
         0.26927E-02
         0.26927E-02
         0.26927E-02
         0.26927E-02
         0.26927E-02
         0.26927E-02
         0.26927E-02
         0.26927E-02
         0.26927E-02
         0.26927E-02
         0.26927E-02
         0.26927E-02
         0.26927E-02
         0.26927E-02
         0.26927E-02
         0.26927E-02
         0.26927E-02
         0.26927E-02
         0.26927E-02
         0.26927E-02
         0.26927E-02
         0.26927E-02
         0.26927E-02
         0.26927E-02
         0.26927E-02
         0.26927E-02
         0.26927E-02
         0.26927E-02
         0.26927E-02
         0.26927E-02
         0.26927E-02
         0.26927E-02
         0.26927E-02
         0.26927E-02
         0.26927E-02
         0.26927E-02
         0.26927E-02
         0.26927E-02
         0.26927E-02
         0.26927E-02
         0.26927E-02
         0.26927E-02
         0.26927E-02
         0.26927E-02
         0.26927E-02
         0.26927E-02
         0.26927E-02
         0.26927E-02
         0.26927E-02
         0.26927E-02
         0.26927E-02
         0.26927E-02
         0.26927E-02
         0.26927E-02
         0.26927E-02
         0.26927E-02
         0.26927E-02
         0.26927E-02
         0.26927E-02
         0.26927E-02
         0.26927E-02
         0.26927E-02
         0.26927E-02
         0.26927E-02
         0.26927E-02
         0.26927E-02
         0.26927E-02
         0.26927E-02
         0.26927E-02
         0.26927E-02
         0.26927E-02
         0.26927E-02
         0.26927E-02
         0.26927E-02
         0.26927E-02
         0.26927E-02
         0.26927E-02
         0.26927E-02
         0.26927E-02
         0.26927E-02
         0.26927E-02
         0.26927E-02
         0.26927E-02
         0.26927E-02
         0.26927E-02
         0.26927E-02
         0.26927E-02
         0.26927E-02
         0.26927E-02
         0.26927E-02
         0.26927E-02
         0.26927E-02
         0.26927E-02
         0.26927E-02
         0.26927E-02
         0.26927E-02
         0.26927E-02
         0.26927E-02
         0.26927E-02
         0.26927E-02
         0.26927E-02
         0.26927E-02
         0.26927E-02
         0.26927E-02
         0.26927E-02
         0.26927E-02
         0.26927E-02
         0.26927E-02
         0.26927E-02
         0.26927E-02
         0.26927E-02
         0.26927E-02
         0.26927E-02
         0.26927E-02
         0.26927E-02
         0.26927E-02
         0.26927E-02
         0.26927E-02
         0.26927E-02
         0.26927E-02
         0.26927E-02
         0.26927E-02
         0.26927E-02
         0.26927E-02
         0.26927E-02
         0.26927E-02
         0.26927E-02
         0.26927E-02
         0.26927E-02
         0.26927E-02
         0.26927E-02
         0.26927E-02
         0.26927E-02
         0.26927E-02
         0.26927E-02
         0.26927E-02
         0.26927E-02
         0.26927E-02
         0.26927E-02
         0.26927E-02
         0.26927E-02
         0.26927E-02
         0.26927E-02
         0.26927E-02
         0.26927E-02
         0.26927E-02
         0.26927E-02
         0.26927E-02
         0.26927E-02
         0.26927E-02
         0.26927E-02
         0.26927E-02
         0.26927E-02
         0.26927E-02
         0.26927E-02
         0.26927E-02
         0.26927E-02
         0.26927E-02
         0.26927E-02
         0.26927E-02
         0.26927E-02
         0.26927E-02
         0.26927E-02
         0.26927E-02
         0.26927E-02
         0.26927E-02
         0.26927E-02
         0.26927E-02
         0.26927E-02
         0.26927E-02
         0.26927E-02
         0.26927E-02
         0.26927E-02
         0.26927E-02
         0.26927E-02
         0.26927E-02
         0.26927E-02
         0.26927E-02
         0.26927E-02
         0.26927E-02
         0.26927E-02
         0.26927E-02
         0.26927E-02
         0.26927E-02
         0.26927E-02
         0.26927E-02
         0.26927E-02
         0.26927E-02
         0.26927E-02
         0.26927E-02
         0.26927E-02
         0.26927E-02
         0.26927E-02
         0.26927E-02
         0.26927E-02
         0.26927E-02
         0.26927E-02
         0.26927E-02
         0.26927E-02
         0.26927E-02
         0.26927E-02
         0.26927E-02
         0.26927E-02
         0.26927E-02
         0.26927E-02
         0.26927E-02
         0.26927E-02
         0.26927E-02
         0.26927E-02
         0.26927E-02
         0.26927E-02
         0.26927E-02
         0.26927E-02
         0.26927E-02
         0.26927E-02
         0.26927E-02
         0.26927E-02
         0.26927E-02
         0.26927E-02
         0.26927E-02
         0.26927E-02
         0.26927E-02
         0.26927E-02
         0.26927E-02
         0.26927E-02
         0.26927E-02
         0.26927E-02
         0.26927E-02
         0.26927E-02
         0.26927E-02
         0.26927E-02
         0.26927E-02
         0.26927E-02
         0.26927E-02
         0.26927E-02
         0.26927E-02
         0.26927E-02
         0.26927E-02
         0.26927E-02
         0.26927E-02
         0.26927E-02
         0.26927E-02
         0.26927E-02
         0.26927E-02
         0.26927E-02
         0.26927E-02
         0.26927E-02
         0.26927E-02
         0.26927E-02
         0.26927E-02
         0.26927E-02
         0.26927E-02
         0.26927E-02
         0.26927E-02
         0.26927E-02
         0.26927E-02
         0.26927E-02
         0.26927E-02
         0.26927E-02
         0.26927E-02
         0.26927E-02
         0.26927E-02
         0.26927E-02
         0.26927E-02
         0.26927E-02
         0.26927E-02
         0.26927E-02
         0.26927E-02
         0.26927E-02
         0.26927E-02
         0.26927E-02
         0.26927E-02
         0.26927E-02
         0.26927E-02
         0.26927E-02
         0.26927E-02
         0.26927E-02
         0.26927E-02
         0.26927E-02
         0.26927E-02
         0.26927E-02
         0.26927E-02
         0.26927E-02
         0.26927E-02
         0.26927E-02
         0.26927E-02
         0.26927E-02
         0.26927E-02
         0.26927E-02
         0.26927E-02
         0.26927E-02
         0.26927E-02
         0.26927E-02
         0.26927E-02
         0.26927E-02
         0.26927E-02
         0.26927E-02
         0.26927E-02
         0.26927E-02
         0.26927E-02
         0.26927E-02
         0.26927E-02
         0.26927E-02
         0.26927E-02
         0.26927E-02
         0.26927E-02
         0.26927E-02
         0.26927E-02
         0.26927E-02
         0.26927E-02
         0.26927E-02
         0.26927E-02
         0.26927E-02
         0.26927E-02
         0.26927E-02
         0.26927E-02
         0.26927E-02
         0.26927E-02
         0.26927E-02
         0.26927E-02
         0.26927E-02
         0.26927E-02
         0.26927E-02
         0.26927E-02
         0.26927E-02
         0.26927E-02
         0.26927E-02
         0.26927E-02
         0.26927E-02
         0.26927E-02
         0.26927E-02
         0.26927E-02
         0.26927E-02
         0.26927E-02
         0.26927E-02
         0.26927E-02
         0.26927E-02
         0.26927E-02
         0.26927E-02
         0.26927E-02
         0.26927E-02
         0.26927E-02
         0.26927E-02
         0.26927E-02
         0.26927E-02
         0.26927E-02
         0.26927E-02
         0.26927E-02
         0.26927E-02
         0.26927E-02
         0.26927E-02
         0.26927E-02
         0.26927E-02
         0.26927E-02
         0.26927E-02
         0.26927E-02
         0.26927E-02
         0.26927E-02
         0.26927E-02
         0.26927E-02
         0.26927E-02
         0.26927E-02
         0.26927E-02
         0.26927E-02
         0.26927E-02
         0.26927E-02
         0.26927E-02
         0.26927E-02
         0.26927E-02
         0.26927E-02
         0.26927E-02
         0.26927E-02
         0.26927E-02
         0.26927E-02
         0.26927E-02
         0.26927E-02
         0.26927E-02
         0.26927E-02
         0.26927E-02
         0.26927E-02
         0.26927E-02
         0.26927E-02
         0.26927E-02
         0.26927E-02
         0.26927E-02
         0.26927E-02
         0.26927E-02
         0.26927E-02
         0.26927E-02
         0.26927E-02
         0.26927E-02
         0.26927E-02
         0.26927E-02
         0.26927E-02
         0.26927E-02
         0.26927E-02
         0.26927E-02
         0.26927E-02
         0.26927E-02
         0.26927E-02
         0.26927E-02
         0.26927E-02
         0.26927E-02
         0.26927E-02
         0.26927E-02
         0.26927E-02
         0.26927E-02
         0.26927E-02
         0.26927E-02
         0.26927E-02
         0.26927E-02
         0.26927E-02
         0.26927E-02
         0.26927E-02
         0.26927E-02
         0.26927E-02
         0.26927E-02
         0.26927E-02
         0.26927E-02
         0.26927E-02
         0.26927E-02
         0.26927E-02
         0.26927E-02
         0.26927E-02
         0.26927E-02
         0.26927E-02
         0.26927E-02
         0.26927E-02
         0.26927E-02
         0.26927E-02
         0.26927E-02
         0.26927E-02
         0.26927E-02
         0.26927E-02
         0.26927E-02
         0.26927E-02
         0.26927E-02
         0.26927E-02
         0.26927E-02
         0.26927E-02
         0.26927E-02
         0.26927E-02
         0.26927E-02
         0.26927E-02
         0.26927E-02
         0.26927E-02
         0.26927E-02
         0.26927E-02
         0.26927E-02
         0.26927E-02
         0.26927E-02
         0.26927E-02
         0.26927E-02
         0.26927E-02
         0.26927E-02
         0.26927E-02
         0.26927E-02
         0.26927E-02
         0.26927E-02
         0.26927E-02
         0.26927E-02
         0.26927E-02
         0.26927E-02
         0.26927E-02
         0.26927E-02
         0.26927E-02
         0.26927E-02
         0.26927E-02
         0.26927E-02
         0.26927E-02
         0.26927E-02
         0.26927E-02
         0.26927E-02
         0.26927E-02
         0.26927E-02
         0.26927E-02
         0.26927E-02
         0.26927E-02
         0.26927E-02
         0.26927E-02
         0.26927E-02
         0.26927E-02
         0.26927E-02
         0.26927E-02
         0.26927E-02
         0.26927E-02
         0.26927E-02
         0.26927E-02
         0.26927E-02
         0.26927E-02
         0.26927E-02
         0.26927E-02
         0.26927E-02
         0.26927E-02
         0.26927E-02
         0.26927E-02
         0.26927E-02
         0.26927E-02
         0.26927E-02
         0.26927E-02
         0.26927E-02
         0.26927E-02
         0.26927E-02
         0.26927E-02
         0.26927E-02
         0.26927E-02
         0.26927E-02
         0.26927E-02
         0.26927E-02
         0.26927E-02
         0.26927E-02
         0.26927E-02
         0.26927E-02
         0.26927E-02
         0.26927E-02
         0.26927E-02
         0.26927E-02
         0.26927E-02
         0.26927E-02
         0.26927E-02
         0.26927E-02
         0.26927E-02
         0.26927E-02
         0.26927E-02
         0.26927E-02
         0.26927E-02
         0.26927E-02
         0.26927E-02
         0.26927E-02
         0.26927E-02
         0.26927E-02
         0.26927E-02
         0.26927E-02
         0.26927E-02
         0.26927E-02
         0.26927E-02
         0.26927E-02
         0.26927E-02
         0.26927E-02
         0.26927E-02
         0.26927E-02
         0.26927E-02
         0.26927E-02
         0.26927E-02
         0.26927E-02
         0.26927E-02
         0.26927E-02
         0.26927E-02
         0.26927E-02
         0.26927E-02
         0.26927E-02
         0.26927E-02
         0.26927E-02
         0.26927E-02
         0.26927E-02
         0.26927E-02
         0.26927E-02
         0.26927E-02
         0.26927E-02
         0.26927E-02
         0.26927E-02
         0.26927E-02
         0.26927E-02
         0.26927E-02
         0.26927E-02
         0.26927E-02
         0.26927E-02
         0.26927E-02
         0.26927E-02
         0.26927E-02
         0.26927E-02
         0.26927E-02
         0.26927E-02
         0.26927E-02
         0.26927E-02
         0.26927E-02
         0.26927E-02
         0.26927E-02
         0.26927E-02
         0.26927E-02
         0.26927E-02
         0.26927E-02
         0.26927E-02
         0.26927E-02
         0.26927E-02
         0.26927E-02
         0.26927E-02
         0.26927E-02
         0.26927E-02
         0.26927E-02
         0.26927E-02
         0.26927E-02
         0.26927E-02
         0.26927E-02
         0.26927E-02
         0.26927E-02
         0.26927E-02
         0.26927E-02
         0.26927E-02
         0.26927E-02
         0.26927E-02
         0.26927E-02
         0.26927E-02
         0.26927E-02
         0.26927E-02
         0.26927E-02
         0.26927E-02
         0.26927E-02
         0.26927E-02
         0.26927E-02
         0.26927E-02
         0.26927E-02
         0.26927E-02
         0.26927E-02
         0.26927E-02
         0.26927E-02
         0.26927E-02
         0.26927E-02
         0.26927E-02
         0.26927E-02
         0.26927E-02
         0.26927E-02
         0.26927E-02
         0.26927E-02
         0.26927E-02
         0.26927E-02
         0.26927E-02
         0.26927E-02
         0.26927E-02
         0.26927E-02
         0.26927E-02
         0.26927E-02
         0.26927E-02
         0.26927E-02
         0.26927E-02
         0.26927E-02
         0.26927E-02
         0.26927E-02
         0.26927E-02
         0.26927E-02
         0.26927E-02
         0.26927E-02
         0.26927E-02
         0.26927E-02
         0.26927E-02
         0.26927E-02
         0.26927E-02
         0.26927E-02
         0.26927E-02
         0.26927E-02
         0.26927E-02
         0.26927E-02
         0.26927E-02
         0.26927E-02
         0.26927E-02
         0.26927E-02
         0.26927E-02
         0.26927E-02
         0.26927E-02
         0.26927E-02
         0.26927E-02
         0.26927E-02
         0.26927E-02
         0.26927E-02
         0.26927E-02
         0.26927E-02
         0.26927E-02
         0.26927E-02
         0.26927E-02
         0.26927E-02
         0.26927E-02
         0.26927E-02
         0.26927E-02
         0.26927E-02
         0.26927E-02
         0.26927E-02
         0.26927E-02
         0.26927E-02
         0.26927E-02
         0.26927E-02
         0.26927E-02
         0.26927E-02
         0.26927E-02
         0.26927E-02
         0.26927E-02
         0.26927E-02
         0.26927E-02
         0.26927E-02
         0.26927E-02
         0.26927E-02
         0.26927E-02
         0.26927E-02
         0.26927E-02
         0.26927E-02
         0.26927E-02
         0.26927E-02
         0.26927E-02
         0.26927E-02
         0.26927E-02
         0.26927E-02
         0.26927E-02
         0.26927E-02
         0.26927E-02
         0.26927E-02
         0.26927E-02
         0.26927E-02
         0.26927E-02
         0.26927E-02
         0.26927E-02
         0.26927E-02
         0.26927E-02
         0.26927E-02
         0.26927E-02
         0.26927E-02
         0.26927E-02
         0.26927E-02
         0.26927E-02
         0.26927E-02
         0.26927E-02
         0.26927E-02
         0.26927E-02
         0.26927E-02
         0.26927E-02
         0.26927E-02
         0.26927E-02
         0.26927E-02
         0.26927E-02
         0.26927E-02
         0.26927E-02
         0.26927E-02
         0.26927E-02
         0.26927E-02
         0.26927E-02
         0.26927E-02
         0.26927E-02
         0.26927E-02
         0.26927E-02
         0.26927E-02
         0.26927E-02
         0.26927E-02
         0.26927E-02
         0.26927E-02
         0.26927E-02
         0.26927E-02
         0.26927E-02
         0.26927E-02
         0.26927E-02
         0.26927E-02
         0.26927E-02
         0.26927E-02
         0.26927E-02
         0.26927E-02
         0.26927E-02
         0.26927E-02
         0.26927E-02
         0.26927E-02
         0.26927E-02
         0.26927E-02
         0.26927E-02
         0.26927E-02
         0.26927E-02
         0.26927E-02
         0.26927E-02
         0.26927E-02
         0.26927E-02
         0.26927E-02
         0.26927E-02
         0.26927E-02
         0.26927E-02
         0.26927E-02
         0.26927E-02
         0.26927E-02
         0.26927E-02
         0.26927E-02
         0.26927E-02
         0.26927E-02
         0.26927E-02
         0.26927E-02
         0.26927E-02
         0.26927E-02
         0.26927E-02
         0.26927E-02
         0.26927E-02
         0.26927E-02
         0.26927E-02
         0.26927E-02
         0.26927E-02
         0.26927E-02
         0.26927E-02
         0.26927E-02
         0.26927E-02
         0.26927E-02
         0.26927E-02
         0.26927E-02
         0.26927E-02
         0.26927E-02
         0.26927E-02
         0.26927E-02
         0.26927E-02
         0.26927E-02
         0.26927E-02
         0.26927E-02
         0.26927E-02
         0.26927E-02
         0.26927E-02
         0.26927E-02
         0.26927E-02
         0.26927E-02
         0.26927E-02
         0.26927E-02
         0.26927E-02
         0.26927E-02
         0.26927E-02
         0.26927E-02
         0.26927E-02
         0.26927E-02
         0.26927E-02
         0.26927E-02
         0.26927E-02
         0.26927E-02
         0.26927E-02
         0.26927E-02
         0.26927E-02
         0.26927E-02
         0.26927E-02
         0.26927E-02
         0.26927E-02
         0.26927E-02
         0.26927E-02
         0.26927E-02
         0.26927E-02
         0.26927E-02
         0.26927E-02
         0.26927E-02
         0.26927E-02
         0.26927E-02
         0.26927E-02
         0.26927E-02
         0.26927E-02
         0.26927E-02
         0.26927E-02
         0.26927E-02
         0.26927E-02
         0.26927E-02
         0.26927E-02
         0.26927E-02
         0.26927E-02
         0.26928E-02
         0.26928E-02
         0.26928E-02
         0.26928E-02
         0.26928E-02
         0.26928E-02
         0.26928E-02
         0.26928E-02
         0.26928E-02
         0.26928E-02
         0.26928E-02
         0.26928E-02
         0.26928E-02
         0.26928E-02
         0.26928E-02
         0.26928E-02
         0.26928E-02
         0.26928E-02
         0.26928E-02
         0.26928E-02
         0.26928E-02
         0.26928E-02
         0.26928E-02
         0.26928E-02
         0.26928E-02
         0.26928E-02
         0.26928E-02
         0.26928E-02
         0.26928E-02
         0.26928E-02
         0.26928E-02
         0.26928E-02
         0.26928E-02
         0.26928E-02
         0.26928E-02
         0.26928E-02
         0.26928E-02
         0.26928E-02
         0.26928E-02
         0.26928E-02
         0.26928E-02
         0.26928E-02
         0.26928E-02
         0.26928E-02
         0.26928E-02
         0.26928E-02
         0.26928E-02
         0.26928E-02
         0.26928E-02
         0.26928E-02
         0.26928E-02
         0.26928E-02
         0.26928E-02
         0.26928E-02
         0.26928E-02
         0.26928E-02
         0.26928E-02
         0.26928E-02
         0.26928E-02
         0.26928E-02
         0.26928E-02
         0.26928E-02
         0.26928E-02
         0.26928E-02
         0.26928E-02
         0.26928E-02
         0.26928E-02
         0.26928E-02
         0.26928E-02
         0.26928E-02
         0.26928E-02
         0.26928E-02
         0.26928E-02
         0.26928E-02
         0.26928E-02
         0.26928E-02
         0.26928E-02
         0.26928E-02
         0.26928E-02
         0.26928E-02
         0.26928E-02
         0.26928E-02
         0.26928E-02
         0.26928E-02
         0.26928E-02
         0.26928E-02
         0.26928E-02
         0.26928E-02
         0.26928E-02
         0.26928E-02
         0.26928E-02
         0.26928E-02
         0.26928E-02
         0.26928E-02
         0.26928E-02
         0.26928E-02
         0.26928E-02
         0.26928E-02
         0.26928E-02
         0.26928E-02
         0.26928E-02
         0.26928E-02
         0.26928E-02
         0.26928E-02
         0.26928E-02
         0.26928E-02
         0.26928E-02
         0.26928E-02
         0.26928E-02
         0.26928E-02
         0.26928E-02
         0.26928E-02
         0.26928E-02
         0.26928E-02
         0.26928E-02
         0.26928E-02
         0.26928E-02
         0.26928E-02
         0.26928E-02
         0.26928E-02
         0.26928E-02
         0.26928E-02
         0.26928E-02
         0.26928E-02
         0.26928E-02
         0.26928E-02
         0.26928E-02
         0.26928E-02
         0.26928E-02
         0.26928E-02
         0.26928E-02
         0.26928E-02
         0.26928E-02
         0.26928E-02
         0.26928E-02
         0.26928E-02
         0.26928E-02
         0.26928E-02
         0.26928E-02
         0.26928E-02
         0.26928E-02
         0.26928E-02
         0.26928E-02
         0.26928E-02
         0.26928E-02
         0.26928E-02
         0.26928E-02
         0.26928E-02
         0.26928E-02
         0.26928E-02
         0.26928E-02
         0.26928E-02
         0.26928E-02
         0.26928E-02
         0.26928E-02
         0.26928E-02
  
SCALARS                   nodal_volume  double 1
LOOKUP_TABLE default
         0.91140E-09
         0.72412E-09
         0.77574E-09
         0.13316E-08
         0.45570E-09
         0.36211E-09
         0.38787E-09
         0.66566E-09
         0.71537E-09
         0.91211E-09
         0.35767E-09
         0.45600E-09
         0.51195E-09
         0.61532E-09
         0.25605E-09
         0.30776E-09
         0.10101E-08
         0.74536E-09
         0.50500E-09
         0.37281E-09
         0.30273E-09
         0.57012E-09
         0.62699E-09
         0.15144E-09
         0.28509E-09
         0.31352E-09
         0.51329E-09
         0.64933E-09
         0.25683E-09
         0.32471E-09
         0.12026E-08
         0.93909E-09
         0.11935E-08
         0.60122E-09
         0.46945E-09
         0.59663E-09
         0.70296E-09
         0.80270E-09
         0.35149E-09
         0.40134E-09
         0.75859E-09
         0.84013E-09
         0.37932E-09
         0.42007E-09
         0.64542E-09
         0.40086E-09
         0.32274E-09
         0.20045E-09
         0.76288E-09
         0.38153E-09
         0.63346E-09
         0.31675E-09
         0.66583E-09
         0.33318E-09
         0.68008E-09
         0.34022E-09
         0.58930E-09
         0.71738E-09
         0.29472E-09
         0.35874E-09
         0.90938E-09
         0.64302E-09
         0.45469E-09
         0.32154E-09
         0.10152E-08
         0.50747E-09
         0.88120E-09
         0.44042E-09
         0.40077E-09
         0.61872E-09
         0.20039E-09
         0.30940E-09
         0.70206E-09
         0.35106E-09
         0.74172E-09
         0.37089E-09
         0.71539E-09
         0.35770E-09
         0.56226E-09
         0.28113E-09
         0.35349E-09
         0.58452E-09
         0.17675E-09
         0.29229E-09
         0.77354E-09
         0.38679E-09
         0.62469E-09
         0.31238E-09
         0.54957E-09
         0.27483E-09
         0.36009E-09
         0.61365E-09
         0.18007E-09
         0.30685E-09
         0.83268E-09
         0.41635E-09
         0.87287E-09
         0.43642E-09
         0.70438E-09
         0.35217E-09
         0.43365E-09
         0.74413E-09
         0.21683E-09
         0.37198E-09
         0.27660E-09
         0.35144E-09
         0.13833E-09
         0.17573E-09
         0.32921E-09
         0.16465E-09
         0.38764E-09
         0.19382E-09
         0.37797E-09
         0.18897E-09
         0.36707E-09
         0.18352E-09
         0.39112E-09
         0.19552E-09
         0.41268E-09
         0.20627E-09
         0.38876E-09
         0.19433E-09
         0.30402E-09
         0.15200E-09
         0.24796E-09
         0.12398E-09
         0.31999E-09
         0.16000E-09
         0.42608E-09
         0.21303E-09
         0.46805E-09
         0.23401E-09
         0.44933E-09
         0.22466E-09
         0.40550E-09
         0.20276E-09
         0.36826E-09
         0.18414E-09
         0.29911E-09
         0.14956E-09
         0.25178E-09
         0.12591E-09
         0.32888E-09
         0.16445E-09
         0.43529E-09
         0.21765E-09
         0.44963E-09
         0.22482E-09
         0.36384E-09
         0.18194E-09
         0.29543E-09
         0.14774E-09
         0.36126E-09
         0.18063E-09
         0.42771E-09
         0.21386E-09
         0.91143E-09
         0.72396E-09
         0.77579E-09
         0.13322E-08
         0.71547E-09
         0.91237E-09
         0.51167E-09
         0.61494E-09
         0.10105E-08
         0.74486E-09
         0.30244E-09
         0.57001E-09
         0.62694E-09
         0.51257E-09
         0.64918E-09
         0.12029E-08
         0.93950E-09
         0.11941E-08
         0.70298E-09
         0.80279E-09
         0.75855E-09
         0.84015E-09
         0.64535E-09
         0.40081E-09
         0.76254E-09
         0.63339E-09
         0.66483E-09
         0.67941E-09
         0.58904E-09
         0.71721E-09
         0.90946E-09
         0.64293E-09
         0.10157E-08
         0.88199E-09
         0.40076E-09
         0.61859E-09
         0.70195E-09
         0.74166E-09
         0.71543E-09
         0.56228E-09
         0.35349E-09
         0.58443E-09
         0.77349E-09
         0.62459E-09
         0.54943E-09
         0.35999E-09
         0.61359E-09
         0.83268E-09
         0.87299E-09
         0.70451E-09
         0.43366E-09
         0.74449E-09
         0.27651E-09
         0.35143E-09
         0.32904E-09
         0.38765E-09
         0.37805E-09
         0.36714E-09
         0.39129E-09
         0.41297E-09
         0.38899E-09
         0.30408E-09
         0.24798E-09
         0.31999E-09
         0.42613E-09
         0.46815E-09
         0.44938E-09
         0.40548E-09
         0.36823E-09
         0.29908E-09
         0.25174E-09
         0.32885E-09
         0.43527E-09
         0.44962E-09
         0.36376E-09
         0.29536E-09
         0.36130E-09
         0.42769E-09
         0.91151E-09
         0.72383E-09
         0.77587E-09
         0.13329E-08
         0.71560E-09
         0.91267E-09
         0.51142E-09
         0.61459E-09
         0.10109E-08
         0.74439E-09
         0.30216E-09
         0.56992E-09
         0.62691E-09
         0.51187E-09
         0.64906E-09
         0.12033E-08
         0.93995E-09
         0.11947E-08
         0.70302E-09
         0.80291E-09
         0.75853E-09
         0.84020E-09
         0.64530E-09
         0.40078E-09
         0.76223E-09
         0.63335E-09
         0.66385E-09
         0.67875E-09
         0.58880E-09
         0.71706E-09
         0.90957E-09
         0.64286E-09
         0.10162E-08
         0.88281E-09
         0.40076E-09
         0.61849E-09
         0.70188E-09
         0.74162E-09
         0.71550E-09
         0.56232E-09
         0.35350E-09
         0.58436E-09
         0.77347E-09
         0.62452E-09
         0.54931E-09
         0.35990E-09
         0.61355E-09
         0.83270E-09
         0.87315E-09
         0.70467E-09
         0.43368E-09
         0.74487E-09
         0.27643E-09
         0.35143E-09
         0.32889E-09
         0.38767E-09
         0.37814E-09
         0.36723E-09
         0.39147E-09
         0.41328E-09
         0.38923E-09
         0.30416E-09
         0.24800E-09
         0.32001E-09
         0.42620E-09
         0.46826E-09
         0.44944E-09
         0.40548E-09
         0.36821E-09
         0.29906E-09
         0.25171E-09
         0.32883E-09
         0.43527E-09
         0.44963E-09
         0.36369E-09
         0.29530E-09
         0.36135E-09
         0.42769E-09
         0.91156E-09
         0.72368E-09
         0.77594E-09
         0.13335E-08
         0.71571E-09
         0.91295E-09
         0.51115E-09
         0.61422E-09
         0.10112E-08
         0.74389E-09
         0.30187E-09
         0.56982E-09
         0.62686E-09
         0.51116E-09
         0.64892E-09
         0.12036E-08
         0.94038E-09
         0.11953E-08
         0.70304E-09
         0.80300E-09
         0.75850E-09
         0.84023E-09
         0.64523E-09
         0.40073E-09
         0.76190E-09
         0.63330E-09
         0.66285E-09
         0.67809E-09
         0.58855E-09
         0.71689E-09
         0.90966E-09
         0.64278E-09
         0.10168E-08
         0.88361E-09
         0.40076E-09
         0.61837E-09
         0.70178E-09
         0.74156E-09
         0.71554E-09
         0.56234E-09
         0.35350E-09
         0.58428E-09
         0.77343E-09
         0.62442E-09
         0.54918E-09
         0.35981E-09
         0.61349E-09
         0.83271E-09
         0.87328E-09
         0.70481E-09
         0.43369E-09
         0.74524E-09
         0.27634E-09
         0.35142E-09
         0.32873E-09
         0.38768E-09
         0.37823E-09
         0.36731E-09
         0.39163E-09
         0.41358E-09
         0.38945E-09
         0.30422E-09
         0.24802E-09
         0.32001E-09
         0.42625E-09
         0.46837E-09
         0.44949E-09
         0.40546E-09
         0.36819E-09
         0.29904E-09
         0.25167E-09
         0.32881E-09
         0.43526E-09
         0.44963E-09
         0.36362E-09
         0.29523E-09
         0.36139E-09
         0.42768E-09
         0.91161E-09
         0.72353E-09
         0.77600E-09
         0.13341E-08
         0.71583E-09
         0.91323E-09
         0.51088E-09
         0.61386E-09
         0.10116E-08
         0.74341E-09
         0.30158E-09
         0.56972E-09
         0.62682E-09
         0.51045E-09
         0.64879E-09
         0.12040E-08
         0.94081E-09
         0.11959E-08
         0.70307E-09
         0.80310E-09
         0.75847E-09
         0.84027E-09
         0.64517E-09
         0.40069E-09
         0.76158E-09
         0.63325E-09
         0.66186E-09
         0.67742E-09
         0.58831E-09
         0.71673E-09
         0.90975E-09
         0.64270E-09
         0.10173E-08
         0.88441E-09
         0.40075E-09
         0.61825E-09
         0.70169E-09
         0.74151E-09
         0.71559E-09
         0.56237E-09
         0.35350E-09
         0.58420E-09
         0.77339E-09
         0.62433E-09
         0.54905E-09
         0.35972E-09
         0.61344E-09
         0.83272E-09
         0.87341E-09
         0.70496E-09
         0.43370E-09
         0.74562E-09
         0.27626E-09
         0.35142E-09
         0.32857E-09
         0.38770E-09
         0.37832E-09
         0.36739E-09
         0.39181E-09
         0.41387E-09
         0.38968E-09
         0.30429E-09
         0.24804E-09
         0.32002E-09
         0.42631E-09
         0.46847E-09
         0.44954E-09
         0.40545E-09
         0.36816E-09
         0.29901E-09
         0.25163E-09
         0.32878E-09
         0.43525E-09
         0.44963E-09
         0.36354E-09
         0.29517E-09
         0.36144E-09
         0.42766E-09
         0.91167E-09
         0.72338E-09
         0.77607E-09
         0.13348E-08
         0.71594E-09
         0.91351E-09
         0.51062E-09
         0.61349E-09
         0.10119E-08
         0.74292E-09
         0.30129E-09
         0.56962E-09
         0.62678E-09
         0.50974E-09
         0.64865E-09
         0.12044E-08
         0.94125E-09
         0.11965E-08
         0.70310E-09
         0.80321E-09
         0.75844E-09
         0.84031E-09
         0.64511E-09
         0.40065E-09
         0.76125E-09
         0.63320E-09
         0.66087E-09
         0.67676E-09
         0.58806E-09
         0.71657E-09
         0.90984E-09
         0.64263E-09
         0.10179E-08
         0.88522E-09
         0.40075E-09
         0.61813E-09
         0.70160E-09
         0.74146E-09
         0.71564E-09
         0.56240E-09
         0.35350E-09
         0.58412E-09
         0.77336E-09
         0.62425E-09
         0.54892E-09
         0.35963E-09
         0.61339E-09
         0.83274E-09
         0.87355E-09
         0.70511E-09
         0.43371E-09
         0.74599E-09
         0.27618E-09
         0.35141E-09
         0.32841E-09
         0.38771E-09
         0.37841E-09
         0.36747E-09
         0.39198E-09
         0.41417E-09
         0.38992E-09
         0.30436E-09
         0.24806E-09
         0.32003E-09
         0.42637E-09
         0.46858E-09
         0.44960E-09
         0.40544E-09
         0.36814E-09
         0.29899E-09
         0.25159E-09
         0.32876E-09
         0.43525E-09
         0.44963E-09
         0.36347E-09
         0.29511E-09
         0.36148E-09
         0.42766E-09
         0.91171E-09
         0.72323E-09
         0.77613E-09
         0.13354E-08
         0.71606E-09
         0.91379E-09
         0.51035E-09
         0.61313E-09
         0.10123E-08
         0.74243E-09
         0.30101E-09
         0.56952E-09
         0.62674E-09
         0.50903E-09
         0.64851E-09
         0.12047E-08
         0.94167E-09
         0.11971E-08
         0.70312E-09
         0.80331E-09
         0.75840E-09
         0.84034E-09
         0.64504E-09
         0.40061E-09
         0.76092E-09
         0.63314E-09
         0.65988E-09
         0.67609E-09
         0.58781E-09
         0.71641E-09
         0.90993E-09
         0.64255E-09
         0.10184E-08
         0.88601E-09
         0.40075E-09
         0.61801E-09
         0.70151E-09
         0.74140E-09
         0.71569E-09
         0.56243E-09
         0.35350E-09
         0.58404E-09
         0.77332E-09
         0.62416E-09
         0.54879E-09
         0.35953E-09
         0.61334E-09
         0.83274E-09
         0.87368E-09
         0.70525E-09
         0.43372E-09
         0.74636E-09
         0.27609E-09
         0.35141E-09
         0.32825E-09
         0.38772E-09
         0.37849E-09
         0.36754E-09
         0.39215E-09
         0.41447E-09
         0.39014E-09
         0.30443E-09
         0.24808E-09
         0.32004E-09
         0.42642E-09
         0.46868E-09
         0.44965E-09
         0.40543E-09
         0.36812E-09
         0.29897E-09
         0.25155E-09
         0.32874E-09
         0.43524E-09
         0.44963E-09
         0.36340E-09
         0.29504E-09
         0.36153E-09
         0.42764E-09
         0.91176E-09
         0.72308E-09
         0.77620E-09
         0.13360E-08
         0.71617E-09
         0.91407E-09
         0.51008E-09
         0.61276E-09
         0.10126E-08
         0.74195E-09
         0.30072E-09
         0.56942E-09
         0.62670E-09
         0.50832E-09
         0.64838E-09
         0.12051E-08
         0.94210E-09
         0.11977E-08
         0.70314E-09
         0.80341E-09
         0.75837E-09
         0.84038E-09
         0.64498E-09
         0.40056E-09
         0.76060E-09
         0.63309E-09
         0.65888E-09
         0.67542E-09
         0.58756E-09
         0.71624E-09
         0.91002E-09
         0.64247E-09
         0.10189E-08
         0.88682E-09
         0.40074E-09
         0.61790E-09
         0.70142E-09
         0.74135E-09
         0.71574E-09
         0.56245E-09
         0.35351E-09
         0.58396E-09
         0.77328E-09
         0.62407E-09
         0.54866E-09
         0.35944E-09
         0.61329E-09
         0.83275E-09
         0.87382E-09
         0.70539E-09
         0.43373E-09
         0.74673E-09
         0.27601E-09
         0.35140E-09
         0.32809E-09
         0.38774E-09
         0.37858E-09
         0.36762E-09
         0.39232E-09
         0.41477E-09
         0.39037E-09
         0.30450E-09
         0.24810E-09
         0.32005E-09
         0.42648E-09
         0.46879E-09
         0.44970E-09
         0.40541E-09
         0.36809E-09
         0.29894E-09
         0.25151E-09
         0.32871E-09
         0.43523E-09
         0.44963E-09
         0.36333E-09
         0.29497E-09
         0.36157E-09
         0.42763E-09
         0.91182E-09
         0.72293E-09
         0.77627E-09
         0.13367E-08
         0.71629E-09
         0.91436E-09
         0.50982E-09
         0.61240E-09
         0.10130E-08
         0.74146E-09
         0.30043E-09
         0.56932E-09
         0.62666E-09
         0.50762E-09
         0.64825E-09
         0.12054E-08
         0.94253E-09
         0.11983E-08
         0.70317E-09
         0.80351E-09
         0.75834E-09
         0.84041E-09
         0.64491E-09
         0.40053E-09
         0.76028E-09
         0.63304E-09
         0.65790E-09
         0.67476E-09
         0.58731E-09
         0.71609E-09
         0.91012E-09
         0.64239E-09
         0.10195E-08
         0.88762E-09
         0.40074E-09
         0.61778E-09
         0.70133E-09
         0.74130E-09
         0.71579E-09
         0.56249E-09
         0.35351E-09
         0.58388E-09
         0.77324E-09
         0.62398E-09
         0.54853E-09
         0.35935E-09
         0.61324E-09
         0.83277E-09
         0.87396E-09
         0.70554E-09
         0.43375E-09
         0.74711E-09
         0.27592E-09
         0.35140E-09
         0.32793E-09
         0.38775E-09
         0.37867E-09
         0.36770E-09
         0.39249E-09
         0.41507E-09
         0.39061E-09
         0.30457E-09
         0.24812E-09
         0.32006E-09
         0.42654E-09
         0.46890E-09
         0.44975E-09
         0.40540E-09
         0.36807E-09
         0.29892E-09
         0.25148E-09
         0.32869E-09
         0.43522E-09
         0.44963E-09
         0.36325E-09
         0.29491E-09
         0.36162E-09
         0.42762E-09
         0.91187E-09
         0.72278E-09
         0.77633E-09
         0.13373E-08
         0.71640E-09
         0.91463E-09
         0.50955E-09
         0.61204E-09
         0.10134E-08
         0.74098E-09
         0.30015E-09
         0.56922E-09
         0.62662E-09
         0.50691E-09
         0.64811E-09
         0.12058E-08
         0.94296E-09
         0.11989E-08
         0.70320E-09
         0.80361E-09
         0.75831E-09
         0.84045E-09
         0.64485E-09
         0.40048E-09
         0.75995E-09
         0.63298E-09
         0.65690E-09
         0.67409E-09
         0.58706E-09
         0.71592E-09
         0.91020E-09
         0.64231E-09
         0.10200E-08
         0.88843E-09
         0.40074E-09
         0.61766E-09
         0.70124E-09
         0.74124E-09
         0.71584E-09
         0.56251E-09
         0.35351E-09
         0.58380E-09
         0.77320E-09
         0.62389E-09
         0.54840E-09
         0.35926E-09
         0.61318E-09
         0.83277E-09
         0.87409E-09
         0.70568E-09
         0.43376E-09
         0.74748E-09
         0.27584E-09
         0.35139E-09
         0.32777E-09
         0.38777E-09
         0.37876E-09
         0.36778E-09
         0.39266E-09
         0.41536E-09
         0.39084E-09
         0.30464E-09
         0.24814E-09
         0.32006E-09
         0.42659E-09
         0.46900E-09
         0.44980E-09
         0.40539E-09
         0.36805E-09
         0.29890E-09
         0.25144E-09
         0.32867E-09
         0.43521E-09
         0.44963E-09
         0.36318E-09
         0.29485E-09
         0.36166E-09
         0.42761E-09
         0.91192E-09
         0.72263E-09
         0.77640E-09
         0.13380E-08
         0.71652E-09
         0.91491E-09
         0.50928E-09
         0.61167E-09
         0.10137E-08
         0.74049E-09
         0.29986E-09
         0.56912E-09
         0.62657E-09
         0.50620E-09
         0.64797E-09
         0.12061E-08
         0.94339E-09
         0.11995E-08
         0.70322E-09
         0.80371E-09
         0.75827E-09
         0.84048E-09
         0.64478E-09
         0.40044E-09
         0.75962E-09
         0.63293E-09
         0.65591E-09
         0.67343E-09
         0.58681E-09
         0.71576E-09
         0.91029E-09
         0.64223E-09
         0.10205E-08
         0.88923E-09
         0.40073E-09
         0.61754E-09
         0.70114E-09
         0.74119E-09
         0.71588E-09
         0.56254E-09
         0.35351E-09
         0.58372E-09
         0.77316E-09
         0.62380E-09
         0.54827E-09
         0.35917E-09
         0.61313E-09
         0.83278E-09
         0.87422E-09
         0.70582E-09
         0.43377E-09
         0.74785E-09
         0.27575E-09
         0.35138E-09
         0.32761E-09
         0.38778E-09
         0.37885E-09
         0.36786E-09
         0.39283E-09
         0.41566E-09
         0.39107E-09
         0.30470E-09
         0.24816E-09
         0.32007E-09
         0.42665E-09
         0.46911E-09
         0.44985E-09
         0.40538E-09
         0.36802E-09
         0.29887E-09
         0.25140E-09
         0.32864E-09
         0.43520E-09
         0.44963E-09
         0.36310E-09
         0.29478E-09
         0.36170E-09
         0.42760E-09
         0.91198E-09
         0.72248E-09
         0.77646E-09
         0.13386E-08
         0.71663E-09
         0.91520E-09
         0.50901E-09
         0.61131E-09
         0.10141E-08
         0.74000E-09
         0.29957E-09
         0.56902E-09
         0.62653E-09
         0.50549E-09
         0.64784E-09
         0.12065E-08
         0.94382E-09
         0.12002E-08
         0.70325E-09
         0.80381E-09
         0.75824E-09
         0.84052E-09
         0.64472E-09
         0.40040E-09
         0.75929E-09
         0.63288E-09
         0.65492E-09
         0.67276E-09
         0.58657E-09
         0.71560E-09
         0.91038E-09
         0.64216E-09
         0.10211E-08
         0.89003E-09
         0.40073E-09
         0.61742E-09
         0.70105E-09
         0.74114E-09
         0.71593E-09
         0.56257E-09
         0.35351E-09
         0.58364E-09
         0.77313E-09
         0.62371E-09
         0.54814E-09
         0.35908E-09
         0.61308E-09
         0.83280E-09
         0.87436E-09
         0.70597E-09
         0.43378E-09
         0.74823E-09
         0.27567E-09
         0.35138E-09
         0.32745E-09
         0.38779E-09
         0.37893E-09
         0.36794E-09
         0.39300E-09
         0.41596E-09
         0.39130E-09
         0.30477E-09
         0.24818E-09
         0.32008E-09
         0.42671E-09
         0.46921E-09
         0.44991E-09
         0.40537E-09
         0.36800E-09
         0.29885E-09
         0.25136E-09
         0.32862E-09
         0.43520E-09
         0.44963E-09
         0.36303E-09
         0.29472E-09
         0.36175E-09
         0.42759E-09
         0.91203E-09
         0.72233E-09
         0.77653E-09
         0.13392E-08
         0.71675E-09
         0.91547E-09
         0.50875E-09
         0.61094E-09
         0.10144E-08
         0.73952E-09
         0.29928E-09
         0.56892E-09
         0.62649E-09
         0.50478E-09
         0.64770E-09
         0.12068E-08
         0.94424E-09
         0.12008E-08
         0.70327E-09
         0.80391E-09
         0.75821E-09
         0.84055E-09
         0.64465E-09
         0.40035E-09
         0.75896E-09
         0.63282E-09
         0.65393E-09
         0.67210E-09
         0.58632E-09
         0.71543E-09
         0.91047E-09
         0.64208E-09
         0.10216E-08
         0.89084E-09
         0.40073E-09
         0.61730E-09
         0.70096E-09
         0.74108E-09
         0.71598E-09
         0.56259E-09
         0.35351E-09
         0.58356E-09
         0.77309E-09
         0.62362E-09
         0.54801E-09
         0.35898E-09
         0.61303E-09
         0.83281E-09
         0.87449E-09
         0.70611E-09
         0.43379E-09
         0.74860E-09
         0.27558E-09
         0.35137E-09
         0.32729E-09
         0.38781E-09
         0.37902E-09
         0.36802E-09
         0.39317E-09
         0.41625E-09
         0.39153E-09
         0.30484E-09
         0.24820E-09
         0.32009E-09
         0.42677E-09
         0.46932E-09
         0.44996E-09
         0.40536E-09
         0.36798E-09
         0.29883E-09
         0.25132E-09
         0.32859E-09
         0.43519E-09
         0.44963E-09
         0.36296E-09
         0.29465E-09
         0.36179E-09
         0.42758E-09
         0.91208E-09
         0.72218E-09
         0.77659E-09
         0.13399E-08
         0.71686E-09
         0.91576E-09
         0.50848E-09
         0.61058E-09
         0.10148E-08
         0.73903E-09
         0.29900E-09
         0.56882E-09
         0.62645E-09
         0.50408E-09
         0.64757E-09
         0.12072E-08
         0.94467E-09
         0.12014E-08
         0.70330E-09
         0.80401E-09
         0.75818E-09
         0.84059E-09
         0.64459E-09
         0.40031E-09
         0.75864E-09
         0.63277E-09
         0.65294E-09
         0.67143E-09
         0.58607E-09
         0.71527E-09
         0.91057E-09
         0.64200E-09
         0.10221E-08
         0.89164E-09
         0.40072E-09
         0.61719E-09
         0.70087E-09
         0.74103E-09
         0.71603E-09
         0.56262E-09
         0.35352E-09
         0.58348E-09
         0.77305E-09
         0.62354E-09
         0.54788E-09
         0.35889E-09
         0.61298E-09
         0.83282E-09
         0.87463E-09
         0.70626E-09
         0.43380E-09
         0.74897E-09
         0.27550E-09
         0.35137E-09
         0.32713E-09
         0.38782E-09
         0.37911E-09
         0.36810E-09
         0.39334E-09
         0.41655E-09
         0.39176E-09
         0.30491E-09
         0.24822E-09
         0.32010E-09
         0.42682E-09
         0.46942E-09
         0.45001E-09
         0.40534E-09
         0.36796E-09
         0.29881E-09
         0.25128E-09
         0.32857E-09
         0.43518E-09
         0.44963E-09
         0.36288E-09
         0.29459E-09
         0.36184E-09
         0.42757E-09
         0.91214E-09
         0.72204E-09
         0.77666E-09
         0.13405E-08
         0.71698E-09
         0.91604E-09
         0.50822E-09
         0.61022E-09
         0.10151E-08
         0.73855E-09
         0.29871E-09
         0.56872E-09
         0.62641E-09
         0.50337E-09
         0.64743E-09
         0.12075E-08
         0.94510E-09
         0.12020E-08
         0.70333E-09
         0.80411E-09
         0.75815E-09
         0.84063E-09
         0.64453E-09
         0.40027E-09
         0.75831E-09
         0.63272E-09
         0.65196E-09
         0.67077E-09
         0.58582E-09
         0.71511E-09
         0.91066E-09
         0.64192E-09
         0.10227E-08
         0.89245E-09
         0.40072E-09
         0.61707E-09
         0.70078E-09
         0.74098E-09
         0.71608E-09
         0.56265E-09
         0.35352E-09
         0.58340E-09
         0.77301E-09
         0.62345E-09
         0.54775E-09
         0.35880E-09
         0.61293E-09
         0.83283E-09
         0.87476E-09
         0.70641E-09
         0.43382E-09
         0.74935E-09
         0.27541E-09
         0.35136E-09
         0.32697E-09
         0.38784E-09
         0.37920E-09
         0.36818E-09
         0.39352E-09
         0.41685E-09
         0.39199E-09
         0.30498E-09
         0.24824E-09
         0.32011E-09
         0.42688E-09
         0.46953E-09
         0.45007E-09
         0.40533E-09
         0.36793E-09
         0.29878E-09
         0.25124E-09
         0.32855E-09
         0.43517E-09
         0.44963E-09
         0.36281E-09
         0.29452E-09
         0.36188E-09
         0.42756E-09
         0.91219E-09
         0.72188E-09
         0.77672E-09
         0.13412E-08
         0.71709E-09
         0.91632E-09
         0.50795E-09
         0.60986E-09
         0.10155E-08
         0.73806E-09
         0.29842E-09
         0.56862E-09
         0.62636E-09
         0.50266E-09
         0.64730E-09
         0.12079E-08
         0.94552E-09
         0.12026E-08
         0.70335E-09
         0.80421E-09
         0.75811E-09
         0.84066E-09
         0.64446E-09
         0.40023E-09
         0.75798E-09
         0.63267E-09
         0.65096E-09
         0.67010E-09
         0.58557E-09
         0.71494E-09
         0.91074E-09
         0.64184E-09
         0.10232E-08
         0.89325E-09
         0.40072E-09
         0.61695E-09
         0.70069E-09
         0.74092E-09
         0.71612E-09
         0.56268E-09
         0.35352E-09
         0.58332E-09
         0.77297E-09
         0.62336E-09
         0.54762E-09
         0.35871E-09
         0.61287E-09
         0.83284E-09
         0.87489E-09
         0.70655E-09
         0.43383E-09
         0.74972E-09
         0.27533E-09
         0.35136E-09
         0.32681E-09
         0.38785E-09
         0.37929E-09
         0.36825E-09
         0.39369E-09
         0.41715E-09
         0.39222E-09
         0.30505E-09
         0.24826E-09
         0.32011E-09
         0.42694E-09
         0.46963E-09
         0.45011E-09
         0.40532E-09
         0.36791E-09
         0.29876E-09
         0.25120E-09
         0.32853E-09
         0.43516E-09
         0.44962E-09
         0.36274E-09
         0.29445E-09
         0.36192E-09
         0.42755E-09
         0.91224E-09
         0.72173E-09
         0.77679E-09
         0.13418E-08
         0.71720E-09
         0.91660E-09
         0.50768E-09
         0.60949E-09
         0.10158E-08
         0.73758E-09
         0.29814E-09
         0.56852E-09
         0.62632E-09
         0.50195E-09
         0.64716E-09
         0.12082E-08
         0.94595E-09
         0.12032E-08
         0.70337E-09
         0.80431E-09
         0.75808E-09
         0.84069E-09
         0.64440E-09
         0.40018E-09
         0.75766E-09
         0.63262E-09
         0.64998E-09
         0.66943E-09
         0.58532E-09
         0.71478E-09
         0.91083E-09
         0.64176E-09
         0.10238E-08
         0.89406E-09
         0.40071E-09
         0.61683E-09
         0.70059E-09
         0.74087E-09
         0.71617E-09
         0.56270E-09
         0.35352E-09
         0.58324E-09
         0.77294E-09
         0.62327E-09
         0.54749E-09
         0.35861E-09
         0.61282E-09
         0.83284E-09
         0.87503E-09
         0.70669E-09
         0.43384E-09
         0.75009E-09
         0.27524E-09
         0.35135E-09
         0.32665E-09
         0.38786E-09
         0.37937E-09
         0.36833E-09
         0.39386E-09
         0.41745E-09
         0.39245E-09
         0.30512E-09
         0.24828E-09
         0.32012E-09
         0.42699E-09
         0.46974E-09
         0.45017E-09
         0.40531E-09
         0.36788E-09
         0.29873E-09
         0.25117E-09
         0.32850E-09
         0.43515E-09
         0.44962E-09
         0.36266E-09
         0.29439E-09
         0.36197E-09
         0.42754E-09
         0.91230E-09
         0.72159E-09
         0.77686E-09
         0.13425E-08
         0.71732E-09
         0.91688E-09
         0.50742E-09
         0.60913E-09
         0.10162E-08
         0.73710E-09
         0.29785E-09
         0.56842E-09
         0.62628E-09
         0.50125E-09
         0.64703E-09
         0.12086E-08
         0.94638E-09
         0.12038E-08
         0.70340E-09
         0.80441E-09
         0.75805E-09
         0.84073E-09
         0.64433E-09
         0.40014E-09
         0.75733E-09
         0.63257E-09
         0.64899E-09
         0.66877E-09
         0.58508E-09
         0.71462E-09
         0.91093E-09
         0.64169E-09
         0.10243E-08
         0.89487E-09
         0.40071E-09
         0.61671E-09
         0.70051E-09
         0.74082E-09
         0.71622E-09
         0.56273E-09
         0.35352E-09
         0.58316E-09
         0.77290E-09
         0.62318E-09
         0.54737E-09
         0.35852E-09
         0.61277E-09
         0.83286E-09
         0.87517E-09
         0.70684E-09
         0.43385E-09
         0.75047E-09
         0.27516E-09
         0.35135E-09
         0.32649E-09
         0.38788E-09
         0.37946E-09
         0.36841E-09
         0.39403E-09
         0.41775E-09
         0.39268E-09
         0.30519E-09
         0.24830E-09
         0.32013E-09
         0.42705E-09
         0.46985E-09
         0.45022E-09
         0.40530E-09
         0.36786E-09
         0.29871E-09
         0.25113E-09
         0.32848E-09
         0.43515E-09
         0.44962E-09
         0.36259E-09
         0.29433E-09
         0.36201E-09
         0.42753E-09
         0.91235E-09
         0.72143E-09
         0.77692E-09
         0.13431E-08
         0.71743E-09
         0.91716E-09
         0.50715E-09
         0.60877E-09
         0.10165E-08
         0.73661E-09
         0.29757E-09
         0.56832E-09
         0.62624E-09
         0.50054E-09
         0.64689E-09
         0.12089E-08
         0.94680E-09
         0.12044E-08
         0.70342E-09
         0.80450E-09
         0.75802E-09
         0.84076E-09
         0.64427E-09
         0.40010E-09
         0.75700E-09
         0.63251E-09
         0.64800E-09
         0.66810E-09
         0.58482E-09
         0.71445E-09
         0.91101E-09
         0.64161E-09
         0.10248E-08
         0.89567E-09
         0.40071E-09
         0.61659E-09
         0.70041E-09
         0.74077E-09
         0.71627E-09
         0.56276E-09
         0.35352E-09
         0.58308E-09
         0.77286E-09
         0.62309E-09
         0.54723E-09
         0.35843E-09
         0.61272E-09
         0.83287E-09
         0.87530E-09
         0.70698E-09
         0.43386E-09
         0.75084E-09
         0.27507E-09
         0.35134E-09
         0.32633E-09
         0.38789E-09
         0.37955E-09
         0.36849E-09
         0.39420E-09
         0.41804E-09
         0.39291E-09
         0.30525E-09
         0.24832E-09
         0.32014E-09
         0.42711E-09
         0.46995E-09
         0.45027E-09
         0.40528E-09
         0.36784E-09
         0.29869E-09
         0.25109E-09
         0.32845E-09
         0.43514E-09
         0.44962E-09
         0.36252E-09
         0.29426E-09
         0.36206E-09
         0.42751E-09
         0.91240E-09
         0.72128E-09
         0.77698E-09
         0.13437E-08
         0.71755E-09
         0.91744E-09
         0.50688E-09
         0.60841E-09
         0.10169E-08
         0.73612E-09
         0.29728E-09
         0.56822E-09
         0.62619E-09
         0.49984E-09
         0.64676E-09
         0.12093E-08
         0.94723E-09
         0.12050E-08
         0.70345E-09
         0.80460E-09
         0.75798E-09
         0.84080E-09
         0.64420E-09
         0.40006E-09
         0.75667E-09
         0.63246E-09
         0.64701E-09
         0.66744E-09
         0.58457E-09
         0.71429E-09
         0.91110E-09
         0.64153E-09
         0.10254E-08
         0.89648E-09
         0.40070E-09
         0.61647E-09
         0.70032E-09
         0.74071E-09
         0.71632E-09
         0.56279E-09
         0.35353E-09
         0.58300E-09
         0.77282E-09
         0.62300E-09
         0.54710E-09
         0.35834E-09
         0.61266E-09
         0.83288E-09
         0.87543E-09
         0.70713E-09
         0.43387E-09
         0.75122E-09
         0.27499E-09
         0.35133E-09
         0.32617E-09
         0.38790E-09
         0.37964E-09
         0.36857E-09
         0.39437E-09
         0.41834E-09
         0.39314E-09
         0.30532E-09
         0.24834E-09
         0.32014E-09
         0.42716E-09
         0.47005E-09
         0.45032E-09
         0.40527E-09
         0.36781E-09
         0.29866E-09
         0.25105E-09
         0.32843E-09
         0.43513E-09
         0.44962E-09
         0.36244E-09
         0.29419E-09
         0.36210E-09
         0.42750E-09
         0.91246E-09
         0.72114E-09
         0.77705E-09
         0.13444E-08
         0.71767E-09
         0.91773E-09
         0.50662E-09
         0.60805E-09
         0.10173E-08
         0.73564E-09
         0.29700E-09
         0.56812E-09
         0.62616E-09
         0.49914E-09
         0.64663E-09
         0.12097E-08
         0.94766E-09
         0.12056E-08
         0.70348E-09
         0.80471E-09
         0.75796E-09
         0.84084E-09
         0.64414E-09
         0.40002E-09
         0.75635E-09
         0.63241E-09
         0.64603E-09
         0.66678E-09
         0.58433E-09
         0.71413E-09
         0.91120E-09
         0.64146E-09
         0.10259E-08
         0.89729E-09
         0.40070E-09
         0.61636E-09
         0.70023E-09
         0.74067E-09
         0.71637E-09
         0.56282E-09
         0.35353E-09
         0.58293E-09
         0.77279E-09
         0.62291E-09
         0.54698E-09
         0.35825E-09
         0.61261E-09
         0.83289E-09
         0.87557E-09
         0.70728E-09
         0.43389E-09
         0.75160E-09
         0.27491E-09
         0.35133E-09
         0.32601E-09
         0.38792E-09
         0.37972E-09
         0.36865E-09
         0.39454E-09
         0.41864E-09
         0.39337E-09
         0.30539E-09
         0.24836E-09
         0.32015E-09
         0.42722E-09
         0.47016E-09
         0.45038E-09
         0.40526E-09
         0.36779E-09
         0.29864E-09
         0.25101E-09
         0.32841E-09
         0.43512E-09
         0.44962E-09
         0.36237E-09
         0.29413E-09
         0.36215E-09
         0.42750E-09
         0.91249E-09
         0.72097E-09
         0.77710E-09
         0.13450E-08
         0.71777E-09
         0.91799E-09
         0.50634E-09
         0.60767E-09
         0.10176E-08
         0.73514E-09
         0.29670E-09
         0.56801E-09
         0.62610E-09
         0.49842E-09
         0.64648E-09
         0.12100E-08
         0.94806E-09
         0.12062E-08
         0.70349E-09
         0.80479E-09
         0.75791E-09
         0.84086E-09
         0.64406E-09
         0.39997E-09
         0.75600E-09
         0.63234E-09
         0.64503E-09
         0.66610E-09
         0.58407E-09
         0.71395E-09
         0.91127E-09
         0.64136E-09
         0.10264E-08
         0.89808E-09
         0.40069E-09
         0.61622E-09
         0.70012E-09
         0.74060E-09
         0.71641E-09
         0.56283E-09
         0.35352E-09
         0.58283E-09
         0.77273E-09
         0.62281E-09
         0.54684E-09
         0.35815E-09
         0.61255E-09
         0.83288E-09
         0.87569E-09
         0.70741E-09
         0.43389E-09
         0.75195E-09
         0.27482E-09
         0.35132E-09
         0.32584E-09
         0.38793E-09
         0.37980E-09
         0.36872E-09
         0.39470E-09
         0.41893E-09
         0.39360E-09
         0.30545E-09
         0.24837E-09
         0.32016E-09
         0.42727E-09
         0.47026E-09
         0.45042E-09
         0.40524E-09
         0.36776E-09
         0.29861E-09
         0.25097E-09
         0.32838E-09
         0.43510E-09
         0.44961E-09
         0.36229E-09
         0.29406E-09
         0.36218E-09
         0.42748E-09
         0.91256E-09
         0.72083E-09
         0.77718E-09
         0.13457E-08
         0.71789E-09
         0.91829E-09
         0.50608E-09
         0.60732E-09
         0.10180E-08
         0.73467E-09
         0.29642E-09
         0.56792E-09
         0.62607E-09
         0.49772E-09
         0.64636E-09
         0.12103E-08
         0.94850E-09
         0.12068E-08
         0.70352E-09
         0.80490E-09
         0.75789E-09
         0.84091E-09
         0.64401E-09
         0.39993E-09
         0.75569E-09
         0.63230E-09
         0.64405E-09
         0.66544E-09
         0.58382E-09
         0.71379E-09
         0.91137E-09
         0.64129E-09
         0.10270E-08
         0.89890E-09
         0.40069E-09
         0.61611E-09
         0.70004E-09
         0.74056E-09
         0.71646E-09
         0.56287E-09
         0.35353E-09
         0.58276E-09
         0.77271E-09
         0.62273E-09
         0.54672E-09
         0.35806E-09
         0.61251E-09
         0.83291E-09
         0.87583E-09
         0.70756E-09
         0.43391E-09
         0.75234E-09
         0.27474E-09
         0.35132E-09
         0.32569E-09
         0.38794E-09
         0.37990E-09
         0.36881E-09
         0.39488E-09
         0.41923E-09
         0.39383E-09
         0.30553E-09
         0.24840E-09
         0.32017E-09
         0.42734E-09
         0.47037E-09
         0.45048E-09
         0.40524E-09
         0.36774E-09
         0.29859E-09
         0.25093E-09
         0.32836E-09
         0.43510E-09
         0.44962E-09
         0.36222E-09
         0.29400E-09
         0.36223E-09
         0.42747E-09
         0.45631E-09
         0.36039E-09
         0.38862E-09
         0.67302E-09
         0.35899E-09
         0.45923E-09
         0.25298E-09
         0.30358E-09
         0.50909E-09
         0.36723E-09
         0.14815E-09
         0.28394E-09
         0.31303E-09
         0.24869E-09
         0.32316E-09
         0.60528E-09
         0.47437E-09
         0.60357E-09
         0.35178E-09
         0.40249E-09
         0.37895E-09
         0.42048E-09
         0.32200E-09
         0.19996E-09
         0.37777E-09
         0.31615E-09
         0.32179E-09
         0.33257E-09
         0.29186E-09
         0.35687E-09
         0.45572E-09
         0.32064E-09
         0.51365E-09
         0.44967E-09
         0.20035E-09
         0.30804E-09
         0.35001E-09
         0.37028E-09
         0.35826E-09
         0.28145E-09
         0.17677E-09
         0.29137E-09
         0.38636E-09
         0.31135E-09
         0.27333E-09
         0.17901E-09
         0.30625E-09
         0.41647E-09
         0.43797E-09
         0.35383E-09
         0.21697E-09
         0.37628E-09
         0.13735E-09
         0.17566E-09
         0.16281E-09
         0.19398E-09
         0.18998E-09
         0.18443E-09
         0.19749E-09
         0.20970E-09
         0.19698E-09
         0.15279E-09
         0.12421E-09
         0.16009E-09
         0.21369E-09
         0.23522E-09
         0.22526E-09
         0.20262E-09
         0.18387E-09
         0.14930E-09
         0.12546E-09
         0.16418E-09
         0.21756E-09
         0.22482E-09
         0.18110E-09
         0.14699E-09
         0.18113E-09
         0.21374E-09
  
SCALARS               pre_disp_force_x  double 1
LOOKUP_TABLE default
         0.00000E+00
         0.00000E+00
         0.00000E+00
         0.00000E+00
         0.00000E+00
         0.00000E+00
         0.00000E+00
         0.00000E+00
         0.00000E+00
         0.00000E+00
         0.00000E+00
         0.00000E+00
         0.00000E+00
         0.00000E+00
         0.00000E+00
         0.00000E+00
         0.00000E+00
         0.00000E+00
         0.00000E+00
         0.00000E+00
         0.00000E+00
         0.00000E+00
         0.00000E+00
         0.00000E+00
         0.00000E+00
         0.00000E+00
         0.00000E+00
         0.00000E+00
         0.00000E+00
         0.00000E+00
         0.00000E+00
         0.00000E+00
         0.00000E+00
         0.00000E+00
         0.00000E+00
         0.00000E+00
         0.00000E+00
         0.00000E+00
         0.00000E+00
         0.00000E+00
         0.00000E+00
         0.00000E+00
         0.00000E+00
         0.00000E+00
         0.00000E+00
         0.00000E+00
         0.00000E+00
         0.00000E+00
         0.00000E+00
         0.00000E+00
         0.00000E+00
         0.00000E+00
         0.00000E+00
         0.00000E+00
         0.00000E+00
         0.00000E+00
         0.00000E+00
         0.00000E+00
         0.00000E+00
         0.00000E+00
         0.00000E+00
         0.00000E+00
         0.00000E+00
         0.00000E+00
         0.00000E+00
         0.00000E+00
         0.00000E+00
         0.00000E+00
         0.00000E+00
         0.00000E+00
         0.00000E+00
         0.00000E+00
         0.00000E+00
         0.00000E+00
         0.00000E+00
         0.00000E+00
         0.00000E+00
         0.00000E+00
         0.00000E+00
         0.00000E+00
         0.00000E+00
         0.00000E+00
         0.00000E+00
         0.00000E+00
         0.00000E+00
         0.00000E+00
         0.00000E+00
         0.00000E+00
         0.00000E+00
         0.00000E+00
         0.00000E+00
         0.00000E+00
         0.00000E+00
         0.00000E+00
         0.00000E+00
         0.00000E+00
         0.00000E+00
         0.00000E+00
         0.00000E+00
         0.00000E+00
         0.00000E+00
         0.00000E+00
         0.00000E+00
         0.00000E+00
         0.00000E+00
         0.00000E+00
         0.00000E+00
         0.00000E+00
         0.00000E+00
         0.00000E+00
         0.00000E+00
         0.00000E+00
         0.00000E+00
         0.00000E+00
         0.00000E+00
         0.00000E+00
         0.00000E+00
         0.00000E+00
         0.00000E+00
         0.00000E+00
         0.00000E+00
         0.00000E+00
         0.00000E+00
         0.00000E+00
         0.00000E+00
         0.00000E+00
         0.00000E+00
         0.00000E+00
         0.00000E+00
         0.00000E+00
         0.00000E+00
         0.00000E+00
         0.00000E+00
         0.00000E+00
         0.00000E+00
         0.00000E+00
         0.00000E+00
         0.00000E+00
         0.00000E+00
         0.00000E+00
         0.00000E+00
         0.00000E+00
         0.00000E+00
         0.00000E+00
         0.00000E+00
         0.00000E+00
         0.00000E+00
         0.00000E+00
         0.00000E+00
         0.00000E+00
         0.00000E+00
         0.00000E+00
         0.00000E+00
         0.00000E+00
         0.00000E+00
         0.00000E+00
         0.00000E+00
         0.00000E+00
         0.00000E+00
         0.00000E+00
         0.00000E+00
         0.00000E+00
         0.00000E+00
         0.00000E+00
         0.00000E+00
         0.00000E+00
         0.00000E+00
         0.00000E+00
         0.00000E+00
         0.00000E+00
         0.00000E+00
         0.00000E+00
         0.00000E+00
         0.00000E+00
         0.00000E+00
         0.00000E+00
         0.00000E+00
         0.00000E+00
         0.00000E+00
         0.00000E+00
         0.00000E+00
         0.00000E+00
         0.00000E+00
         0.00000E+00
         0.00000E+00
         0.00000E+00
         0.00000E+00
         0.00000E+00
         0.00000E+00
         0.00000E+00
         0.00000E+00
         0.00000E+00
         0.00000E+00
         0.00000E+00
         0.00000E+00
         0.00000E+00
         0.00000E+00
         0.00000E+00
         0.00000E+00
         0.00000E+00
         0.00000E+00
         0.00000E+00
         0.00000E+00
         0.00000E+00
         0.00000E+00
         0.00000E+00
         0.00000E+00
         0.00000E+00
         0.00000E+00
         0.00000E+00
         0.00000E+00
         0.00000E+00
         0.00000E+00
         0.00000E+00
         0.00000E+00
         0.00000E+00
         0.00000E+00
         0.00000E+00
         0.00000E+00
         0.00000E+00
         0.00000E+00
         0.00000E+00
         0.00000E+00
         0.00000E+00
         0.00000E+00
         0.00000E+00
         0.00000E+00
         0.00000E+00
         0.00000E+00
         0.00000E+00
         0.00000E+00
         0.00000E+00
         0.00000E+00
         0.00000E+00
         0.00000E+00
         0.00000E+00
         0.00000E+00
         0.00000E+00
         0.00000E+00
         0.00000E+00
         0.00000E+00
         0.00000E+00
         0.00000E+00
         0.00000E+00
         0.00000E+00
         0.00000E+00
         0.00000E+00
         0.00000E+00
         0.00000E+00
         0.00000E+00
         0.00000E+00
         0.00000E+00
         0.00000E+00
         0.00000E+00
         0.00000E+00
         0.00000E+00
         0.00000E+00
         0.00000E+00
         0.00000E+00
         0.00000E+00
         0.00000E+00
         0.00000E+00
         0.00000E+00
         0.00000E+00
         0.00000E+00
         0.00000E+00
         0.00000E+00
         0.00000E+00
         0.00000E+00
         0.00000E+00
         0.00000E+00
         0.00000E+00
         0.00000E+00
         0.00000E+00
         0.00000E+00
         0.00000E+00
         0.00000E+00
         0.00000E+00
         0.00000E+00
         0.00000E+00
         0.00000E+00
         0.00000E+00
         0.00000E+00
         0.00000E+00
         0.00000E+00
         0.00000E+00
         0.00000E+00
         0.00000E+00
         0.00000E+00
         0.00000E+00
         0.00000E+00
         0.00000E+00
         0.00000E+00
         0.00000E+00
         0.00000E+00
         0.00000E+00
         0.00000E+00
         0.00000E+00
         0.00000E+00
         0.00000E+00
         0.00000E+00
         0.00000E+00
         0.00000E+00
         0.00000E+00
         0.00000E+00
         0.00000E+00
         0.00000E+00
         0.00000E+00
         0.00000E+00
         0.00000E+00
         0.00000E+00
         0.00000E+00
         0.00000E+00
         0.00000E+00
         0.00000E+00
         0.00000E+00
         0.00000E+00
         0.00000E+00
         0.00000E+00
         0.00000E+00
         0.00000E+00
         0.00000E+00
         0.00000E+00
         0.00000E+00
         0.00000E+00
         0.00000E+00
         0.00000E+00
         0.00000E+00
         0.00000E+00
         0.00000E+00
         0.00000E+00
         0.00000E+00
         0.00000E+00
         0.00000E+00
         0.00000E+00
         0.00000E+00
         0.00000E+00
         0.00000E+00
         0.00000E+00
         0.00000E+00
         0.00000E+00
         0.00000E+00
         0.00000E+00
         0.00000E+00
         0.00000E+00
         0.00000E+00
         0.00000E+00
         0.00000E+00
         0.00000E+00
         0.00000E+00
         0.00000E+00
         0.00000E+00
         0.00000E+00
         0.00000E+00
         0.00000E+00
         0.00000E+00
         0.00000E+00
         0.00000E+00
         0.00000E+00
         0.00000E+00
         0.00000E+00
         0.00000E+00
         0.00000E+00
         0.00000E+00
         0.00000E+00
         0.00000E+00
         0.00000E+00
         0.00000E+00
         0.00000E+00
         0.00000E+00
         0.00000E+00
         0.00000E+00
         0.00000E+00
         0.00000E+00
         0.00000E+00
         0.00000E+00
         0.00000E+00
         0.00000E+00
         0.00000E+00
         0.00000E+00
         0.00000E+00
         0.00000E+00
         0.00000E+00
         0.00000E+00
         0.00000E+00
         0.00000E+00
         0.00000E+00
         0.00000E+00
         0.00000E+00
         0.00000E+00
         0.00000E+00
         0.00000E+00
         0.00000E+00
         0.00000E+00
         0.00000E+00
         0.00000E+00
         0.00000E+00
         0.00000E+00
         0.00000E+00
         0.00000E+00
         0.00000E+00
         0.00000E+00
         0.00000E+00
         0.00000E+00
         0.00000E+00
         0.00000E+00
         0.00000E+00
         0.00000E+00
         0.00000E+00
         0.00000E+00
         0.00000E+00
         0.00000E+00
         0.00000E+00
         0.00000E+00
         0.00000E+00
         0.00000E+00
         0.00000E+00
         0.00000E+00
         0.00000E+00
         0.00000E+00
         0.00000E+00
         0.00000E+00
         0.00000E+00
         0.00000E+00
         0.00000E+00
         0.00000E+00
         0.00000E+00
         0.00000E+00
         0.00000E+00
         0.00000E+00
         0.00000E+00
         0.00000E+00
         0.00000E+00
         0.00000E+00
         0.00000E+00
         0.00000E+00
         0.00000E+00
         0.00000E+00
         0.00000E+00
         0.00000E+00
         0.00000E+00
         0.00000E+00
         0.00000E+00
         0.00000E+00
         0.00000E+00
         0.00000E+00
         0.00000E+00
         0.00000E+00
         0.00000E+00
         0.00000E+00
         0.00000E+00
         0.00000E+00
         0.00000E+00
         0.00000E+00
         0.00000E+00
         0.00000E+00
         0.00000E+00
         0.00000E+00
         0.00000E+00
         0.00000E+00
         0.00000E+00
         0.00000E+00
         0.00000E+00
         0.00000E+00
         0.00000E+00
         0.00000E+00
         0.00000E+00
         0.00000E+00
         0.00000E+00
         0.00000E+00
         0.00000E+00
         0.00000E+00
         0.00000E+00
         0.00000E+00
         0.00000E+00
         0.00000E+00
         0.00000E+00
         0.00000E+00
         0.00000E+00
         0.00000E+00
         0.00000E+00
         0.00000E+00
         0.00000E+00
         0.00000E+00
         0.00000E+00
         0.00000E+00
         0.00000E+00
         0.00000E+00
         0.00000E+00
         0.00000E+00
         0.00000E+00
         0.00000E+00
         0.00000E+00
         0.00000E+00
         0.00000E+00
         0.00000E+00
         0.00000E+00
         0.00000E+00
         0.00000E+00
         0.00000E+00
         0.00000E+00
         0.00000E+00
         0.00000E+00
         0.00000E+00
         0.00000E+00
         0.00000E+00
         0.00000E+00
         0.00000E+00
         0.00000E+00
         0.00000E+00
         0.00000E+00
         0.00000E+00
         0.00000E+00
         0.00000E+00
         0.00000E+00
         0.00000E+00
         0.00000E+00
         0.00000E+00
         0.00000E+00
         0.00000E+00
         0.00000E+00
         0.00000E+00
         0.00000E+00
         0.00000E+00
         0.00000E+00
         0.00000E+00
         0.00000E+00
         0.00000E+00
         0.00000E+00
         0.00000E+00
         0.00000E+00
         0.00000E+00
         0.00000E+00
         0.00000E+00
         0.00000E+00
         0.00000E+00
         0.00000E+00
         0.00000E+00
         0.00000E+00
         0.00000E+00
         0.00000E+00
         0.00000E+00
         0.00000E+00
         0.00000E+00
         0.00000E+00
         0.00000E+00
         0.00000E+00
         0.00000E+00
         0.00000E+00
         0.00000E+00
         0.00000E+00
         0.00000E+00
         0.00000E+00
         0.00000E+00
         0.00000E+00
         0.00000E+00
         0.00000E+00
         0.00000E+00
         0.00000E+00
         0.00000E+00
         0.00000E+00
         0.00000E+00
         0.00000E+00
         0.00000E+00
         0.00000E+00
         0.00000E+00
         0.00000E+00
         0.00000E+00
         0.00000E+00
         0.00000E+00
         0.00000E+00
         0.00000E+00
         0.00000E+00
         0.00000E+00
         0.00000E+00
         0.00000E+00
         0.00000E+00
         0.00000E+00
         0.00000E+00
         0.00000E+00
         0.00000E+00
         0.00000E+00
         0.00000E+00
         0.00000E+00
         0.00000E+00
         0.00000E+00
         0.00000E+00
         0.00000E+00
         0.00000E+00
         0.00000E+00
         0.00000E+00
         0.00000E+00
         0.00000E+00
         0.00000E+00
         0.00000E+00
         0.00000E+00
         0.00000E+00
         0.00000E+00
         0.00000E+00
         0.00000E+00
         0.00000E+00
         0.00000E+00
         0.00000E+00
         0.00000E+00
         0.00000E+00
         0.00000E+00
         0.00000E+00
         0.00000E+00
         0.00000E+00
         0.00000E+00
         0.00000E+00
         0.00000E+00
         0.00000E+00
         0.00000E+00
         0.00000E+00
         0.00000E+00
         0.00000E+00
         0.00000E+00
         0.00000E+00
         0.00000E+00
         0.00000E+00
         0.00000E+00
         0.00000E+00
         0.00000E+00
         0.00000E+00
         0.00000E+00
         0.00000E+00
         0.00000E+00
         0.00000E+00
         0.00000E+00
         0.00000E+00
         0.00000E+00
         0.00000E+00
         0.00000E+00
         0.00000E+00
         0.00000E+00
         0.00000E+00
         0.00000E+00
         0.00000E+00
         0.00000E+00
         0.00000E+00
         0.00000E+00
         0.00000E+00
         0.00000E+00
         0.00000E+00
         0.00000E+00
         0.00000E+00
         0.00000E+00
         0.00000E+00
         0.00000E+00
         0.00000E+00
         0.00000E+00
         0.00000E+00
         0.00000E+00
         0.00000E+00
         0.00000E+00
         0.00000E+00
         0.00000E+00
         0.00000E+00
         0.00000E+00
         0.00000E+00
         0.00000E+00
         0.00000E+00
         0.00000E+00
         0.00000E+00
         0.00000E+00
         0.00000E+00
         0.00000E+00
         0.00000E+00
         0.00000E+00
         0.00000E+00
         0.00000E+00
         0.00000E+00
         0.00000E+00
         0.00000E+00
         0.00000E+00
         0.00000E+00
         0.00000E+00
         0.00000E+00
         0.00000E+00
         0.00000E+00
         0.00000E+00
         0.00000E+00
         0.00000E+00
         0.00000E+00
         0.00000E+00
         0.00000E+00
         0.00000E+00
         0.00000E+00
         0.00000E+00
         0.00000E+00
         0.00000E+00
         0.00000E+00
         0.00000E+00
         0.00000E+00
         0.00000E+00
         0.00000E+00
         0.00000E+00
         0.00000E+00
         0.00000E+00
         0.00000E+00
         0.00000E+00
         0.00000E+00
         0.00000E+00
         0.00000E+00
         0.00000E+00
         0.00000E+00
         0.00000E+00
         0.00000E+00
         0.00000E+00
         0.00000E+00
         0.00000E+00
         0.00000E+00
         0.00000E+00
         0.00000E+00
         0.00000E+00
         0.00000E+00
         0.00000E+00
         0.00000E+00
         0.00000E+00
         0.00000E+00
         0.00000E+00
         0.00000E+00
         0.00000E+00
         0.00000E+00
         0.00000E+00
         0.00000E+00
         0.00000E+00
         0.00000E+00
         0.00000E+00
         0.00000E+00
         0.00000E+00
         0.00000E+00
         0.00000E+00
         0.00000E+00
         0.00000E+00
         0.00000E+00
         0.00000E+00
         0.00000E+00
         0.00000E+00
         0.00000E+00
         0.00000E+00
         0.00000E+00
         0.00000E+00
         0.00000E+00
         0.00000E+00
         0.00000E+00
         0.00000E+00
         0.00000E+00
         0.00000E+00
         0.00000E+00
         0.00000E+00
         0.00000E+00
         0.00000E+00
         0.00000E+00
         0.00000E+00
         0.00000E+00
         0.00000E+00
         0.00000E+00
         0.00000E+00
         0.00000E+00
         0.00000E+00
         0.00000E+00
         0.00000E+00
         0.00000E+00
         0.00000E+00
         0.00000E+00
         0.00000E+00
         0.00000E+00
         0.00000E+00
         0.00000E+00
         0.00000E+00
         0.00000E+00
         0.00000E+00
         0.00000E+00
         0.00000E+00
         0.00000E+00
         0.00000E+00
         0.00000E+00
         0.00000E+00
         0.00000E+00
         0.00000E+00
         0.00000E+00
         0.00000E+00
         0.00000E+00
         0.00000E+00
         0.00000E+00
         0.00000E+00
         0.00000E+00
         0.00000E+00
         0.00000E+00
         0.00000E+00
         0.00000E+00
         0.00000E+00
         0.00000E+00
         0.00000E+00
         0.00000E+00
         0.00000E+00
         0.00000E+00
         0.00000E+00
         0.00000E+00
         0.00000E+00
         0.00000E+00
         0.00000E+00
         0.00000E+00
         0.00000E+00
         0.00000E+00
         0.00000E+00
         0.00000E+00
         0.00000E+00
         0.00000E+00
         0.00000E+00
         0.00000E+00
         0.00000E+00
         0.00000E+00
         0.00000E+00
         0.00000E+00
         0.00000E+00
         0.00000E+00
         0.00000E+00
         0.00000E+00
         0.00000E+00
         0.00000E+00
         0.00000E+00
         0.00000E+00
         0.00000E+00
         0.00000E+00
         0.00000E+00
         0.00000E+00
         0.00000E+00
         0.00000E+00
         0.00000E+00
         0.00000E+00
         0.00000E+00
         0.00000E+00
         0.00000E+00
         0.00000E+00
         0.00000E+00
         0.00000E+00
         0.00000E+00
         0.00000E+00
         0.00000E+00
         0.00000E+00
         0.00000E+00
         0.00000E+00
         0.00000E+00
         0.00000E+00
         0.00000E+00
         0.00000E+00
         0.00000E+00
         0.00000E+00
         0.00000E+00
         0.00000E+00
         0.00000E+00
         0.00000E+00
         0.00000E+00
         0.00000E+00
         0.00000E+00
         0.00000E+00
         0.00000E+00
         0.00000E+00
         0.00000E+00
         0.00000E+00
         0.00000E+00
         0.00000E+00
         0.00000E+00
         0.00000E+00
         0.00000E+00
         0.00000E+00
         0.00000E+00
         0.00000E+00
         0.00000E+00
         0.00000E+00
         0.00000E+00
         0.00000E+00
         0.00000E+00
         0.00000E+00
         0.00000E+00
         0.00000E+00
         0.00000E+00
         0.00000E+00
         0.00000E+00
         0.00000E+00
         0.00000E+00
         0.00000E+00
         0.00000E+00
         0.00000E+00
         0.00000E+00
         0.00000E+00
         0.00000E+00
         0.00000E+00
         0.00000E+00
         0.00000E+00
         0.00000E+00
         0.00000E+00
         0.00000E+00
         0.00000E+00
         0.00000E+00
         0.00000E+00
         0.00000E+00
         0.00000E+00
         0.00000E+00
         0.00000E+00
         0.00000E+00
         0.00000E+00
         0.00000E+00
         0.00000E+00
         0.00000E+00
         0.00000E+00
         0.00000E+00
         0.00000E+00
         0.00000E+00
         0.00000E+00
         0.00000E+00
         0.00000E+00
         0.00000E+00
         0.00000E+00
         0.00000E+00
         0.00000E+00
         0.00000E+00
         0.00000E+00
         0.00000E+00
         0.00000E+00
         0.00000E+00
         0.00000E+00
         0.00000E+00
         0.00000E+00
         0.00000E+00
         0.00000E+00
         0.00000E+00
         0.00000E+00
         0.00000E+00
         0.00000E+00
         0.00000E+00
         0.00000E+00
         0.00000E+00
         0.00000E+00
         0.00000E+00
         0.00000E+00
         0.00000E+00
         0.00000E+00
         0.00000E+00
         0.00000E+00
         0.00000E+00
         0.00000E+00
         0.00000E+00
         0.00000E+00
         0.00000E+00
         0.00000E+00
         0.00000E+00
         0.00000E+00
         0.00000E+00
         0.00000E+00
         0.00000E+00
         0.00000E+00
         0.00000E+00
         0.00000E+00
         0.00000E+00
         0.00000E+00
         0.00000E+00
         0.00000E+00
         0.00000E+00
         0.00000E+00
         0.00000E+00
         0.00000E+00
         0.00000E+00
         0.00000E+00
         0.00000E+00
         0.00000E+00
         0.00000E+00
         0.00000E+00
         0.00000E+00
         0.00000E+00
         0.00000E+00
         0.00000E+00
         0.00000E+00
         0.00000E+00
         0.00000E+00
         0.00000E+00
         0.00000E+00
         0.00000E+00
         0.00000E+00
         0.00000E+00
         0.00000E+00
         0.00000E+00
         0.00000E+00
         0.00000E+00
         0.00000E+00
         0.00000E+00
         0.00000E+00
         0.00000E+00
         0.00000E+00
         0.00000E+00
         0.00000E+00
         0.00000E+00
         0.00000E+00
         0.00000E+00
         0.00000E+00
         0.00000E+00
         0.00000E+00
         0.00000E+00
         0.00000E+00
         0.00000E+00
         0.00000E+00
         0.00000E+00
         0.00000E+00
         0.00000E+00
         0.00000E+00
         0.00000E+00
         0.00000E+00
         0.00000E+00
         0.00000E+00
         0.00000E+00
         0.00000E+00
         0.00000E+00
         0.00000E+00
         0.00000E+00
         0.00000E+00
         0.00000E+00
         0.00000E+00
         0.00000E+00
         0.00000E+00
         0.00000E+00
         0.00000E+00
         0.00000E+00
         0.00000E+00
         0.00000E+00
         0.00000E+00
         0.00000E+00
         0.00000E+00
         0.00000E+00
         0.00000E+00
         0.00000E+00
         0.00000E+00
         0.00000E+00
         0.00000E+00
         0.00000E+00
         0.00000E+00
         0.00000E+00
         0.00000E+00
         0.00000E+00
         0.00000E+00
         0.00000E+00
         0.00000E+00
         0.00000E+00
         0.00000E+00
         0.00000E+00
         0.00000E+00
         0.00000E+00
         0.00000E+00
         0.00000E+00
         0.00000E+00
         0.00000E+00
         0.00000E+00
         0.00000E+00
         0.00000E+00
         0.00000E+00
         0.00000E+00
         0.00000E+00
         0.00000E+00
         0.00000E+00
         0.00000E+00
         0.00000E+00
         0.00000E+00
         0.00000E+00
         0.00000E+00
         0.00000E+00
         0.00000E+00
         0.00000E+00
         0.00000E+00
         0.00000E+00
         0.00000E+00
         0.00000E+00
         0.00000E+00
         0.00000E+00
         0.00000E+00
         0.00000E+00
         0.00000E+00
         0.00000E+00
         0.00000E+00
         0.00000E+00
         0.00000E+00
         0.00000E+00
         0.00000E+00
         0.00000E+00
         0.00000E+00
         0.00000E+00
         0.00000E+00
         0.00000E+00
         0.00000E+00
         0.00000E+00
         0.00000E+00
         0.00000E+00
         0.00000E+00
         0.00000E+00
         0.00000E+00
         0.00000E+00
         0.00000E+00
         0.00000E+00
         0.00000E+00
         0.00000E+00
         0.00000E+00
         0.00000E+00
         0.00000E+00
         0.00000E+00
         0.00000E+00
         0.00000E+00
         0.00000E+00
         0.00000E+00
         0.00000E+00
         0.00000E+00
         0.00000E+00
         0.00000E+00
         0.00000E+00
         0.00000E+00
         0.00000E+00
         0.00000E+00
         0.00000E+00
         0.00000E+00
         0.00000E+00
         0.00000E+00
         0.00000E+00
         0.00000E+00
         0.00000E+00
         0.00000E+00
         0.00000E+00
         0.00000E+00
         0.00000E+00
         0.00000E+00
         0.00000E+00
         0.00000E+00
         0.00000E+00
         0.00000E+00
         0.00000E+00
         0.00000E+00
         0.00000E+00
         0.00000E+00
         0.00000E+00
         0.00000E+00
         0.00000E+00
         0.00000E+00
         0.00000E+00
         0.00000E+00
         0.00000E+00
         0.00000E+00
         0.00000E+00
         0.00000E+00
         0.00000E+00
         0.00000E+00
         0.00000E+00
         0.00000E+00
         0.00000E+00
         0.00000E+00
         0.00000E+00
         0.00000E+00
         0.00000E+00
         0.00000E+00
         0.00000E+00
         0.00000E+00
         0.00000E+00
         0.00000E+00
         0.00000E+00
         0.00000E+00
         0.00000E+00
         0.00000E+00
         0.00000E+00
         0.00000E+00
         0.00000E+00
         0.00000E+00
         0.00000E+00
         0.00000E+00
         0.00000E+00
         0.00000E+00
         0.00000E+00
         0.00000E+00
         0.00000E+00
         0.00000E+00
         0.00000E+00
         0.00000E+00
         0.00000E+00
         0.00000E+00
         0.00000E+00
         0.00000E+00
         0.00000E+00
         0.00000E+00
         0.00000E+00
         0.00000E+00
         0.00000E+00
         0.00000E+00
         0.00000E+00
         0.00000E+00
         0.00000E+00
         0.00000E+00
         0.00000E+00
         0.00000E+00
         0.00000E+00
         0.00000E+00
         0.00000E+00
         0.00000E+00
         0.00000E+00
         0.00000E+00
         0.00000E+00
         0.00000E+00
         0.00000E+00
         0.00000E+00
         0.00000E+00
         0.00000E+00
         0.00000E+00
         0.00000E+00
         0.00000E+00
         0.00000E+00
         0.00000E+00
         0.00000E+00
         0.00000E+00
         0.00000E+00
         0.00000E+00
         0.00000E+00
         0.00000E+00
         0.00000E+00
         0.00000E+00
         0.00000E+00
         0.00000E+00
         0.00000E+00
         0.00000E+00
         0.00000E+00
         0.00000E+00
         0.00000E+00
         0.00000E+00
         0.00000E+00
         0.00000E+00
         0.00000E+00
         0.00000E+00
         0.00000E+00
         0.00000E+00
         0.00000E+00
         0.00000E+00
         0.00000E+00
         0.00000E+00
         0.00000E+00
         0.00000E+00
         0.00000E+00
         0.00000E+00
         0.00000E+00
         0.00000E+00
         0.00000E+00
         0.00000E+00
         0.00000E+00
         0.00000E+00
         0.00000E+00
         0.00000E+00
         0.00000E+00
         0.00000E+00
         0.00000E+00
         0.00000E+00
         0.00000E+00
         0.00000E+00
         0.00000E+00
         0.00000E+00
         0.00000E+00
         0.00000E+00
         0.00000E+00
         0.00000E+00
         0.00000E+00
         0.00000E+00
         0.00000E+00
         0.00000E+00
         0.00000E+00
         0.00000E+00
         0.00000E+00
         0.00000E+00
         0.00000E+00
         0.00000E+00
         0.00000E+00
         0.00000E+00
         0.00000E+00
         0.00000E+00
         0.00000E+00
         0.00000E+00
         0.00000E+00
         0.00000E+00
         0.00000E+00
         0.00000E+00
         0.00000E+00
         0.00000E+00
         0.00000E+00
         0.00000E+00
         0.00000E+00
         0.00000E+00
         0.00000E+00
         0.00000E+00
         0.00000E+00
         0.00000E+00
         0.00000E+00
         0.00000E+00
         0.00000E+00
         0.00000E+00
         0.00000E+00
         0.00000E+00
         0.00000E+00
         0.00000E+00
         0.00000E+00
         0.00000E+00
         0.00000E+00
         0.00000E+00
         0.00000E+00
         0.00000E+00
         0.00000E+00
         0.00000E+00
         0.00000E+00
         0.00000E+00
         0.00000E+00
         0.00000E+00
         0.00000E+00
         0.00000E+00
         0.00000E+00
         0.00000E+00
         0.00000E+00
         0.00000E+00
         0.00000E+00
         0.00000E+00
         0.00000E+00
         0.00000E+00
         0.00000E+00
         0.00000E+00
         0.00000E+00
         0.00000E+00
         0.00000E+00
         0.00000E+00
         0.00000E+00
         0.00000E+00
         0.00000E+00
         0.00000E+00
         0.00000E+00
         0.00000E+00
         0.00000E+00
         0.00000E+00
         0.00000E+00
         0.00000E+00
         0.00000E+00
         0.00000E+00
         0.00000E+00
         0.00000E+00
         0.00000E+00
         0.00000E+00
         0.00000E+00
         0.00000E+00
         0.00000E+00
         0.00000E+00
         0.00000E+00
         0.00000E+00
         0.00000E+00
         0.00000E+00
         0.00000E+00
         0.00000E+00
         0.00000E+00
         0.00000E+00
         0.00000E+00
         0.00000E+00
         0.00000E+00
         0.00000E+00
         0.00000E+00
         0.00000E+00
         0.00000E+00
         0.00000E+00
         0.00000E+00
         0.00000E+00
         0.00000E+00
         0.00000E+00
         0.00000E+00
         0.00000E+00
         0.00000E+00
         0.00000E+00
         0.00000E+00
         0.00000E+00
         0.00000E+00
         0.00000E+00
         0.00000E+00
         0.00000E+00
         0.00000E+00
         0.00000E+00
         0.00000E+00
         0.00000E+00
         0.00000E+00
         0.00000E+00
         0.00000E+00
         0.00000E+00
         0.00000E+00
         0.00000E+00
         0.00000E+00
         0.00000E+00
         0.00000E+00
         0.00000E+00
         0.00000E+00
         0.00000E+00
         0.00000E+00
         0.00000E+00
         0.00000E+00
         0.00000E+00
         0.00000E+00
         0.00000E+00
         0.00000E+00
         0.00000E+00
         0.00000E+00
         0.00000E+00
         0.00000E+00
         0.00000E+00
         0.00000E+00
         0.00000E+00
         0.00000E+00
         0.00000E+00
         0.00000E+00
         0.00000E+00
         0.00000E+00
         0.00000E+00
         0.00000E+00
         0.00000E+00
         0.00000E+00
         0.00000E+00
         0.00000E+00
         0.00000E+00
         0.00000E+00
         0.00000E+00
         0.00000E+00
         0.00000E+00
         0.00000E+00
         0.00000E+00
         0.00000E+00
         0.00000E+00
         0.00000E+00
         0.00000E+00
         0.00000E+00
         0.00000E+00
         0.00000E+00
         0.00000E+00
         0.00000E+00
         0.00000E+00
         0.00000E+00
         0.00000E+00
         0.00000E+00
         0.00000E+00
         0.00000E+00
         0.00000E+00
         0.00000E+00
         0.00000E+00
         0.00000E+00
         0.00000E+00
         0.00000E+00
         0.00000E+00
         0.00000E+00
         0.00000E+00
         0.00000E+00
         0.00000E+00
         0.00000E+00
         0.00000E+00
         0.00000E+00
         0.00000E+00
         0.00000E+00
         0.00000E+00
         0.00000E+00
         0.00000E+00
         0.00000E+00
         0.00000E+00
         0.00000E+00
         0.00000E+00
         0.00000E+00
         0.00000E+00
         0.00000E+00
         0.00000E+00
         0.00000E+00
         0.00000E+00
         0.00000E+00
         0.00000E+00
         0.00000E+00
         0.00000E+00
         0.00000E+00
         0.00000E+00
         0.00000E+00
         0.00000E+00
         0.00000E+00
         0.00000E+00
         0.00000E+00
         0.00000E+00
         0.00000E+00
         0.00000E+00
         0.00000E+00
         0.00000E+00
         0.00000E+00
         0.00000E+00
         0.00000E+00
         0.00000E+00
         0.00000E+00
         0.00000E+00
         0.00000E+00
         0.00000E+00
         0.00000E+00
         0.00000E+00
         0.00000E+00
         0.00000E+00
         0.00000E+00
         0.00000E+00
         0.00000E+00
         0.00000E+00
         0.00000E+00
         0.00000E+00
         0.00000E+00
         0.00000E+00
         0.00000E+00
         0.00000E+00
         0.00000E+00
         0.00000E+00
         0.00000E+00
         0.00000E+00
         0.00000E+00
         0.00000E+00
         0.00000E+00
         0.00000E+00
         0.00000E+00
         0.00000E+00
         0.00000E+00
         0.00000E+00
         0.00000E+00
         0.00000E+00
         0.00000E+00
         0.00000E+00
         0.00000E+00
         0.00000E+00
         0.00000E+00
         0.00000E+00
         0.00000E+00
         0.00000E+00
         0.00000E+00
         0.00000E+00
         0.00000E+00
         0.00000E+00
         0.00000E+00
         0.00000E+00
         0.00000E+00
         0.00000E+00
         0.00000E+00
         0.00000E+00
         0.00000E+00
         0.00000E+00
         0.00000E+00
         0.00000E+00
         0.00000E+00
         0.00000E+00
         0.00000E+00
         0.00000E+00
         0.00000E+00
         0.00000E+00
         0.00000E+00
         0.00000E+00
         0.00000E+00
         0.00000E+00
         0.00000E+00
         0.00000E+00
         0.00000E+00
         0.00000E+00
         0.00000E+00
         0.00000E+00
         0.00000E+00
         0.00000E+00
         0.00000E+00
         0.00000E+00
         0.00000E+00
         0.00000E+00
         0.00000E+00
         0.00000E+00
         0.00000E+00
         0.00000E+00
         0.00000E+00
         0.00000E+00
         0.00000E+00
         0.00000E+00
         0.00000E+00
         0.00000E+00
         0.00000E+00
         0.00000E+00
         0.00000E+00
         0.00000E+00
         0.00000E+00
         0.00000E+00
         0.00000E+00
         0.00000E+00
         0.00000E+00
         0.00000E+00
         0.00000E+00
         0.00000E+00
         0.00000E+00
         0.00000E+00
         0.00000E+00
         0.00000E+00
         0.00000E+00
         0.00000E+00
         0.00000E+00
         0.00000E+00
         0.00000E+00
         0.00000E+00
         0.00000E+00
         0.00000E+00
         0.00000E+00
         0.00000E+00
         0.00000E+00
         0.00000E+00
         0.00000E+00
         0.00000E+00
         0.00000E+00
         0.00000E+00
         0.00000E+00
         0.00000E+00
         0.00000E+00
         0.00000E+00
         0.00000E+00
         0.00000E+00
         0.00000E+00
         0.00000E+00
         0.00000E+00
         0.00000E+00
         0.00000E+00
         0.00000E+00
         0.00000E+00
         0.00000E+00
         0.00000E+00
         0.00000E+00
         0.00000E+00
         0.00000E+00
         0.00000E+00
         0.00000E+00
         0.00000E+00
         0.00000E+00
         0.00000E+00
         0.00000E+00
         0.00000E+00
         0.00000E+00
         0.00000E+00
         0.00000E+00
         0.00000E+00
         0.00000E+00
         0.00000E+00
         0.00000E+00
         0.00000E+00
         0.00000E+00
         0.00000E+00
         0.00000E+00
         0.00000E+00
         0.00000E+00
         0.00000E+00
         0.00000E+00
         0.00000E+00
         0.00000E+00
         0.00000E+00
         0.00000E+00
         0.00000E+00
         0.00000E+00
         0.00000E+00
         0.00000E+00
         0.00000E+00
         0.00000E+00
         0.00000E+00
         0.00000E+00
         0.00000E+00
         0.00000E+00
         0.00000E+00
         0.00000E+00
         0.00000E+00
         0.00000E+00
         0.00000E+00
         0.00000E+00
         0.00000E+00
         0.00000E+00
         0.00000E+00
         0.00000E+00
         0.00000E+00
         0.00000E+00
         0.00000E+00
         0.00000E+00
         0.00000E+00
         0.00000E+00
         0.00000E+00
         0.00000E+00
         0.00000E+00
         0.00000E+00
         0.00000E+00
         0.00000E+00
         0.00000E+00
         0.00000E+00
         0.00000E+00
         0.00000E+00
         0.00000E+00
         0.00000E+00
         0.00000E+00
         0.00000E+00
         0.00000E+00
         0.00000E+00
         0.00000E+00
         0.00000E+00
         0.00000E+00
         0.00000E+00
         0.00000E+00
         0.00000E+00
         0.00000E+00
         0.00000E+00
         0.00000E+00
         0.00000E+00
         0.00000E+00
         0.00000E+00
         0.00000E+00
         0.00000E+00
         0.00000E+00
         0.00000E+00
         0.00000E+00
         0.00000E+00
         0.00000E+00
         0.00000E+00
         0.00000E+00
         0.00000E+00
         0.00000E+00
         0.00000E+00
         0.00000E+00
         0.00000E+00
         0.00000E+00
         0.00000E+00
         0.00000E+00
         0.00000E+00
         0.00000E+00
         0.00000E+00
         0.00000E+00
         0.00000E+00
         0.00000E+00
         0.00000E+00
         0.00000E+00
         0.00000E+00
         0.00000E+00
         0.00000E+00
         0.00000E+00
         0.00000E+00
         0.00000E+00
         0.00000E+00
         0.00000E+00
         0.00000E+00
         0.00000E+00
         0.00000E+00
         0.00000E+00
         0.00000E+00
         0.00000E+00
         0.00000E+00
         0.00000E+00
         0.00000E+00
         0.00000E+00
         0.00000E+00
         0.00000E+00
         0.00000E+00
         0.00000E+00
         0.00000E+00
         0.00000E+00
         0.00000E+00
         0.00000E+00
         0.00000E+00
         0.00000E+00
         0.00000E+00
         0.00000E+00
         0.00000E+00
         0.00000E+00
         0.00000E+00
         0.00000E+00
         0.00000E+00
         0.00000E+00
         0.00000E+00
         0.00000E+00
         0.00000E+00
         0.00000E+00
         0.00000E+00
         0.00000E+00
         0.00000E+00
         0.00000E+00
         0.00000E+00
         0.00000E+00
         0.00000E+00
         0.00000E+00
         0.00000E+00
         0.00000E+00
         0.00000E+00
         0.00000E+00
         0.00000E+00
         0.00000E+00
         0.00000E+00
         0.00000E+00
         0.00000E+00
         0.00000E+00
         0.00000E+00
         0.00000E+00
         0.00000E+00
         0.00000E+00
         0.00000E+00
         0.00000E+00
         0.00000E+00
         0.00000E+00
         0.00000E+00
         0.00000E+00
         0.00000E+00
         0.00000E+00
         0.00000E+00
         0.00000E+00
         0.00000E+00
         0.00000E+00
         0.00000E+00
         0.00000E+00
         0.00000E+00
         0.00000E+00
         0.00000E+00
         0.00000E+00
         0.00000E+00
         0.00000E+00
         0.00000E+00
         0.00000E+00
         0.00000E+00
         0.00000E+00
         0.00000E+00
         0.00000E+00
         0.00000E+00
         0.00000E+00
         0.00000E+00
         0.00000E+00
         0.00000E+00
         0.00000E+00
         0.00000E+00
         0.00000E+00
         0.00000E+00
         0.00000E+00
         0.00000E+00
         0.00000E+00
         0.00000E+00
         0.00000E+00
         0.00000E+00
         0.00000E+00
         0.00000E+00
         0.00000E+00
         0.00000E+00
         0.00000E+00
         0.00000E+00
         0.00000E+00
         0.00000E+00
         0.00000E+00
         0.00000E+00
         0.00000E+00
         0.00000E+00
         0.00000E+00
         0.00000E+00
         0.00000E+00
         0.00000E+00
         0.00000E+00
         0.00000E+00
         0.00000E+00
         0.00000E+00
         0.00000E+00
         0.00000E+00
         0.00000E+00
         0.00000E+00
         0.00000E+00
         0.00000E+00
         0.00000E+00
         0.00000E+00
         0.00000E+00
         0.00000E+00
         0.00000E+00
         0.00000E+00
         0.00000E+00
         0.00000E+00
         0.00000E+00
         0.00000E+00
         0.00000E+00
         0.00000E+00
         0.00000E+00
         0.00000E+00
         0.00000E+00
         0.00000E+00
         0.00000E+00
         0.00000E+00
         0.00000E+00
         0.00000E+00
         0.00000E+00
         0.00000E+00
         0.00000E+00
         0.00000E+00
         0.00000E+00
         0.00000E+00
         0.00000E+00
         0.00000E+00
         0.00000E+00
         0.00000E+00
         0.00000E+00
         0.00000E+00
         0.00000E+00
         0.00000E+00
         0.00000E+00
         0.00000E+00
         0.00000E+00
         0.00000E+00
         0.00000E+00
         0.00000E+00
         0.00000E+00
         0.00000E+00
         0.00000E+00
         0.00000E+00
         0.00000E+00
         0.00000E+00
         0.00000E+00
         0.00000E+00
         0.00000E+00
         0.00000E+00
         0.00000E+00
         0.00000E+00
         0.00000E+00
         0.00000E+00
         0.00000E+00
         0.00000E+00
         0.00000E+00
         0.00000E+00
         0.00000E+00
         0.00000E+00
         0.00000E+00
         0.00000E+00
         0.00000E+00
         0.00000E+00
         0.00000E+00
         0.00000E+00
         0.00000E+00
         0.00000E+00
         0.00000E+00
         0.00000E+00
         0.00000E+00
         0.00000E+00
         0.00000E+00
         0.00000E+00
         0.00000E+00
         0.00000E+00
         0.00000E+00
         0.00000E+00
         0.00000E+00
         0.00000E+00
         0.00000E+00
         0.00000E+00
         0.00000E+00
         0.00000E+00
         0.00000E+00
         0.00000E+00
         0.00000E+00
         0.00000E+00
         0.00000E+00
         0.00000E+00
  
SCALARS               pre_disp_force_y  double 1
LOOKUP_TABLE default
         0.00000E+00
         0.00000E+00
         0.00000E+00
         0.00000E+00
         0.00000E+00
         0.00000E+00
         0.00000E+00
         0.00000E+00
         0.00000E+00
         0.00000E+00
         0.00000E+00
         0.00000E+00
         0.00000E+00
         0.00000E+00
         0.00000E+00
         0.00000E+00
         0.00000E+00
         0.00000E+00
         0.00000E+00
         0.00000E+00
         0.00000E+00
         0.00000E+00
         0.00000E+00
         0.00000E+00
         0.00000E+00
         0.00000E+00
         0.00000E+00
         0.00000E+00
         0.00000E+00
         0.00000E+00
         0.00000E+00
         0.00000E+00
         0.00000E+00
         0.00000E+00
         0.00000E+00
         0.00000E+00
         0.00000E+00
         0.00000E+00
         0.00000E+00
         0.00000E+00
         0.00000E+00
         0.00000E+00
         0.00000E+00
         0.00000E+00
         0.00000E+00
         0.00000E+00
         0.00000E+00
         0.00000E+00
         0.00000E+00
         0.00000E+00
         0.00000E+00
         0.00000E+00
         0.00000E+00
         0.00000E+00
         0.00000E+00
         0.00000E+00
         0.00000E+00
         0.00000E+00
         0.00000E+00
         0.00000E+00
         0.00000E+00
         0.00000E+00
         0.00000E+00
         0.00000E+00
         0.00000E+00
         0.00000E+00
         0.00000E+00
         0.00000E+00
         0.00000E+00
         0.00000E+00
         0.00000E+00
         0.00000E+00
         0.00000E+00
         0.00000E+00
         0.00000E+00
         0.00000E+00
         0.00000E+00
         0.00000E+00
         0.00000E+00
         0.00000E+00
         0.00000E+00
         0.00000E+00
         0.00000E+00
         0.00000E+00
         0.00000E+00
         0.00000E+00
         0.00000E+00
         0.00000E+00
         0.00000E+00
         0.00000E+00
         0.00000E+00
         0.00000E+00
         0.00000E+00
         0.00000E+00
         0.00000E+00
         0.00000E+00
         0.00000E+00
         0.00000E+00
         0.00000E+00
         0.00000E+00
         0.00000E+00
         0.00000E+00
         0.00000E+00
         0.00000E+00
         0.00000E+00
         0.00000E+00
         0.00000E+00
         0.00000E+00
         0.00000E+00
         0.00000E+00
         0.00000E+00
         0.00000E+00
         0.00000E+00
         0.00000E+00
         0.00000E+00
         0.00000E+00
         0.00000E+00
         0.00000E+00
         0.00000E+00
         0.00000E+00
         0.00000E+00
         0.00000E+00
         0.00000E+00
         0.00000E+00
         0.00000E+00
         0.00000E+00
         0.00000E+00
         0.00000E+00
         0.00000E+00
         0.00000E+00
         0.00000E+00
         0.00000E+00
         0.00000E+00
         0.00000E+00
         0.00000E+00
         0.00000E+00
         0.00000E+00
         0.00000E+00
         0.00000E+00
         0.00000E+00
         0.00000E+00
         0.00000E+00
         0.00000E+00
         0.00000E+00
         0.00000E+00
         0.00000E+00
         0.00000E+00
         0.00000E+00
         0.00000E+00
         0.00000E+00
         0.00000E+00
         0.00000E+00
         0.00000E+00
         0.00000E+00
         0.00000E+00
         0.00000E+00
         0.00000E+00
         0.00000E+00
         0.00000E+00
         0.00000E+00
         0.00000E+00
         0.00000E+00
         0.00000E+00
         0.00000E+00
         0.00000E+00
         0.00000E+00
         0.00000E+00
         0.00000E+00
         0.00000E+00
         0.00000E+00
         0.00000E+00
         0.00000E+00
         0.00000E+00
         0.00000E+00
         0.00000E+00
         0.00000E+00
         0.00000E+00
         0.00000E+00
         0.00000E+00
         0.00000E+00
         0.00000E+00
         0.00000E+00
         0.00000E+00
         0.00000E+00
         0.00000E+00
         0.00000E+00
         0.00000E+00
         0.00000E+00
         0.00000E+00
         0.00000E+00
         0.00000E+00
         0.00000E+00
         0.00000E+00
         0.00000E+00
         0.00000E+00
         0.00000E+00
         0.00000E+00
         0.00000E+00
         0.00000E+00
         0.00000E+00
         0.00000E+00
         0.00000E+00
         0.00000E+00
         0.00000E+00
         0.00000E+00
         0.00000E+00
         0.00000E+00
         0.00000E+00
         0.00000E+00
         0.00000E+00
         0.00000E+00
         0.00000E+00
         0.00000E+00
         0.00000E+00
         0.00000E+00
         0.00000E+00
         0.00000E+00
         0.00000E+00
         0.00000E+00
         0.00000E+00
         0.00000E+00
         0.00000E+00
         0.00000E+00
         0.00000E+00
         0.00000E+00
         0.00000E+00
         0.00000E+00
         0.00000E+00
         0.00000E+00
         0.00000E+00
         0.00000E+00
         0.00000E+00
         0.00000E+00
         0.00000E+00
         0.00000E+00
         0.00000E+00
         0.00000E+00
         0.00000E+00
         0.00000E+00
         0.00000E+00
         0.00000E+00
         0.00000E+00
         0.00000E+00
         0.00000E+00
         0.00000E+00
         0.00000E+00
         0.00000E+00
         0.00000E+00
         0.00000E+00
         0.00000E+00
         0.00000E+00
         0.00000E+00
         0.00000E+00
         0.00000E+00
         0.00000E+00
         0.00000E+00
         0.00000E+00
         0.00000E+00
         0.00000E+00
         0.00000E+00
         0.00000E+00
         0.00000E+00
         0.00000E+00
         0.00000E+00
         0.00000E+00
         0.00000E+00
         0.00000E+00
         0.00000E+00
         0.00000E+00
         0.00000E+00
         0.00000E+00
         0.00000E+00
         0.00000E+00
         0.00000E+00
         0.00000E+00
         0.00000E+00
         0.00000E+00
         0.00000E+00
         0.00000E+00
         0.00000E+00
         0.00000E+00
         0.00000E+00
         0.00000E+00
         0.00000E+00
         0.00000E+00
         0.00000E+00
         0.00000E+00
         0.00000E+00
         0.00000E+00
         0.00000E+00
         0.00000E+00
         0.00000E+00
         0.00000E+00
         0.00000E+00
         0.00000E+00
         0.00000E+00
         0.00000E+00
         0.00000E+00
         0.00000E+00
         0.00000E+00
         0.00000E+00
         0.00000E+00
         0.00000E+00
         0.00000E+00
         0.00000E+00
         0.00000E+00
         0.00000E+00
         0.00000E+00
         0.00000E+00
         0.00000E+00
         0.00000E+00
         0.00000E+00
         0.00000E+00
         0.00000E+00
         0.00000E+00
         0.00000E+00
         0.00000E+00
         0.00000E+00
         0.00000E+00
         0.00000E+00
         0.00000E+00
         0.00000E+00
         0.00000E+00
         0.00000E+00
         0.00000E+00
         0.00000E+00
         0.00000E+00
         0.00000E+00
         0.00000E+00
         0.00000E+00
         0.00000E+00
         0.00000E+00
         0.00000E+00
         0.00000E+00
         0.00000E+00
         0.00000E+00
         0.00000E+00
         0.00000E+00
         0.00000E+00
         0.00000E+00
         0.00000E+00
         0.00000E+00
         0.00000E+00
         0.00000E+00
         0.00000E+00
         0.00000E+00
         0.00000E+00
         0.00000E+00
         0.00000E+00
         0.00000E+00
         0.00000E+00
         0.00000E+00
         0.00000E+00
         0.00000E+00
         0.00000E+00
         0.00000E+00
         0.00000E+00
         0.00000E+00
         0.00000E+00
         0.00000E+00
         0.00000E+00
         0.00000E+00
         0.00000E+00
         0.00000E+00
         0.00000E+00
         0.00000E+00
         0.00000E+00
         0.00000E+00
         0.00000E+00
         0.00000E+00
         0.00000E+00
         0.00000E+00
         0.00000E+00
         0.00000E+00
         0.00000E+00
         0.00000E+00
         0.00000E+00
         0.00000E+00
         0.00000E+00
         0.00000E+00
         0.00000E+00
         0.00000E+00
         0.00000E+00
         0.00000E+00
         0.00000E+00
         0.00000E+00
         0.00000E+00
         0.00000E+00
         0.00000E+00
         0.00000E+00
         0.00000E+00
         0.00000E+00
         0.00000E+00
         0.00000E+00
         0.00000E+00
         0.00000E+00
         0.00000E+00
         0.00000E+00
         0.00000E+00
         0.00000E+00
         0.00000E+00
         0.00000E+00
         0.00000E+00
         0.00000E+00
         0.00000E+00
         0.00000E+00
         0.00000E+00
         0.00000E+00
         0.00000E+00
         0.00000E+00
         0.00000E+00
         0.00000E+00
         0.00000E+00
         0.00000E+00
         0.00000E+00
         0.00000E+00
         0.00000E+00
         0.00000E+00
         0.00000E+00
         0.00000E+00
         0.00000E+00
         0.00000E+00
         0.00000E+00
         0.00000E+00
         0.00000E+00
         0.00000E+00
         0.00000E+00
         0.00000E+00
         0.00000E+00
         0.00000E+00
         0.00000E+00
         0.00000E+00
         0.00000E+00
         0.00000E+00
         0.00000E+00
         0.00000E+00
         0.00000E+00
         0.00000E+00
         0.00000E+00
         0.00000E+00
         0.00000E+00
         0.00000E+00
         0.00000E+00
         0.00000E+00
         0.00000E+00
         0.00000E+00
         0.00000E+00
         0.00000E+00
         0.00000E+00
         0.00000E+00
         0.00000E+00
         0.00000E+00
         0.00000E+00
         0.00000E+00
         0.00000E+00
         0.00000E+00
         0.00000E+00
         0.00000E+00
         0.00000E+00
         0.00000E+00
         0.00000E+00
         0.00000E+00
         0.00000E+00
         0.00000E+00
         0.00000E+00
         0.00000E+00
         0.00000E+00
         0.00000E+00
         0.00000E+00
         0.00000E+00
         0.00000E+00
         0.00000E+00
         0.00000E+00
         0.00000E+00
         0.00000E+00
         0.00000E+00
         0.00000E+00
         0.00000E+00
         0.00000E+00
         0.00000E+00
         0.00000E+00
         0.00000E+00
         0.00000E+00
         0.00000E+00
         0.00000E+00
         0.00000E+00
         0.00000E+00
         0.00000E+00
         0.00000E+00
         0.00000E+00
         0.00000E+00
         0.00000E+00
         0.00000E+00
         0.00000E+00
         0.00000E+00
         0.00000E+00
         0.00000E+00
         0.00000E+00
         0.00000E+00
         0.00000E+00
         0.00000E+00
         0.00000E+00
         0.00000E+00
         0.00000E+00
         0.00000E+00
         0.00000E+00
         0.00000E+00
         0.00000E+00
         0.00000E+00
         0.00000E+00
         0.00000E+00
         0.00000E+00
         0.00000E+00
         0.00000E+00
         0.00000E+00
         0.00000E+00
         0.00000E+00
         0.00000E+00
         0.00000E+00
         0.00000E+00
         0.00000E+00
         0.00000E+00
         0.00000E+00
         0.00000E+00
         0.00000E+00
         0.00000E+00
         0.00000E+00
         0.00000E+00
         0.00000E+00
         0.00000E+00
         0.00000E+00
         0.00000E+00
         0.00000E+00
         0.00000E+00
         0.00000E+00
         0.00000E+00
         0.00000E+00
         0.00000E+00
         0.00000E+00
         0.00000E+00
         0.00000E+00
         0.00000E+00
         0.00000E+00
         0.00000E+00
         0.00000E+00
         0.00000E+00
         0.00000E+00
         0.00000E+00
         0.00000E+00
         0.00000E+00
         0.00000E+00
         0.00000E+00
         0.00000E+00
         0.00000E+00
         0.00000E+00
         0.00000E+00
         0.00000E+00
         0.00000E+00
         0.00000E+00
         0.00000E+00
         0.00000E+00
         0.00000E+00
         0.00000E+00
         0.00000E+00
         0.00000E+00
         0.00000E+00
         0.00000E+00
         0.00000E+00
         0.00000E+00
         0.00000E+00
         0.00000E+00
         0.00000E+00
         0.00000E+00
         0.00000E+00
         0.00000E+00
         0.00000E+00
         0.00000E+00
         0.00000E+00
         0.00000E+00
         0.00000E+00
         0.00000E+00
         0.00000E+00
         0.00000E+00
         0.00000E+00
         0.00000E+00
         0.00000E+00
         0.00000E+00
         0.00000E+00
         0.00000E+00
         0.00000E+00
         0.00000E+00
         0.00000E+00
         0.00000E+00
         0.00000E+00
         0.00000E+00
         0.00000E+00
         0.00000E+00
         0.00000E+00
         0.00000E+00
         0.00000E+00
         0.00000E+00
         0.00000E+00
         0.00000E+00
         0.00000E+00
         0.00000E+00
         0.00000E+00
         0.00000E+00
         0.00000E+00
         0.00000E+00
         0.00000E+00
         0.00000E+00
         0.00000E+00
         0.00000E+00
         0.00000E+00
         0.00000E+00
         0.00000E+00
         0.00000E+00
         0.00000E+00
         0.00000E+00
         0.00000E+00
         0.00000E+00
         0.00000E+00
         0.00000E+00
         0.00000E+00
         0.00000E+00
         0.00000E+00
         0.00000E+00
         0.00000E+00
         0.00000E+00
         0.00000E+00
         0.00000E+00
         0.00000E+00
         0.00000E+00
         0.00000E+00
         0.00000E+00
         0.00000E+00
         0.00000E+00
         0.00000E+00
         0.00000E+00
         0.00000E+00
         0.00000E+00
         0.00000E+00
         0.00000E+00
         0.00000E+00
         0.00000E+00
         0.00000E+00
         0.00000E+00
         0.00000E+00
         0.00000E+00
         0.00000E+00
         0.00000E+00
         0.00000E+00
         0.00000E+00
         0.00000E+00
         0.00000E+00
         0.00000E+00
         0.00000E+00
         0.00000E+00
         0.00000E+00
         0.00000E+00
         0.00000E+00
         0.00000E+00
         0.00000E+00
         0.00000E+00
         0.00000E+00
         0.00000E+00
         0.00000E+00
         0.00000E+00
         0.00000E+00
         0.00000E+00
         0.00000E+00
         0.00000E+00
         0.00000E+00
         0.00000E+00
         0.00000E+00
         0.00000E+00
         0.00000E+00
         0.00000E+00
         0.00000E+00
         0.00000E+00
         0.00000E+00
         0.00000E+00
         0.00000E+00
         0.00000E+00
         0.00000E+00
         0.00000E+00
         0.00000E+00
         0.00000E+00
         0.00000E+00
         0.00000E+00
         0.00000E+00
         0.00000E+00
         0.00000E+00
         0.00000E+00
         0.00000E+00
         0.00000E+00
         0.00000E+00
         0.00000E+00
         0.00000E+00
         0.00000E+00
         0.00000E+00
         0.00000E+00
         0.00000E+00
         0.00000E+00
         0.00000E+00
         0.00000E+00
         0.00000E+00
         0.00000E+00
         0.00000E+00
         0.00000E+00
         0.00000E+00
         0.00000E+00
         0.00000E+00
         0.00000E+00
         0.00000E+00
         0.00000E+00
         0.00000E+00
         0.00000E+00
         0.00000E+00
         0.00000E+00
         0.00000E+00
         0.00000E+00
         0.00000E+00
         0.00000E+00
         0.00000E+00
         0.00000E+00
         0.00000E+00
         0.00000E+00
         0.00000E+00
         0.00000E+00
         0.00000E+00
         0.00000E+00
         0.00000E+00
         0.00000E+00
         0.00000E+00
         0.00000E+00
         0.00000E+00
         0.00000E+00
         0.00000E+00
         0.00000E+00
         0.00000E+00
         0.00000E+00
         0.00000E+00
         0.00000E+00
         0.00000E+00
         0.00000E+00
         0.00000E+00
         0.00000E+00
         0.00000E+00
         0.00000E+00
         0.00000E+00
         0.00000E+00
         0.00000E+00
         0.00000E+00
         0.00000E+00
         0.00000E+00
         0.00000E+00
         0.00000E+00
         0.00000E+00
         0.00000E+00
         0.00000E+00
         0.00000E+00
         0.00000E+00
         0.00000E+00
         0.00000E+00
         0.00000E+00
         0.00000E+00
         0.00000E+00
         0.00000E+00
         0.00000E+00
         0.00000E+00
         0.00000E+00
         0.00000E+00
         0.00000E+00
         0.00000E+00
         0.00000E+00
         0.00000E+00
         0.00000E+00
         0.00000E+00
         0.00000E+00
         0.00000E+00
         0.00000E+00
         0.00000E+00
         0.00000E+00
         0.00000E+00
         0.00000E+00
         0.00000E+00
         0.00000E+00
         0.00000E+00
         0.00000E+00
         0.00000E+00
         0.00000E+00
         0.00000E+00
         0.00000E+00
         0.00000E+00
         0.00000E+00
         0.00000E+00
         0.00000E+00
         0.00000E+00
         0.00000E+00
         0.00000E+00
         0.00000E+00
         0.00000E+00
         0.00000E+00
         0.00000E+00
         0.00000E+00
         0.00000E+00
         0.00000E+00
         0.00000E+00
         0.00000E+00
         0.00000E+00
         0.00000E+00
         0.00000E+00
         0.00000E+00
         0.00000E+00
         0.00000E+00
         0.00000E+00
         0.00000E+00
         0.00000E+00
         0.00000E+00
         0.00000E+00
         0.00000E+00
         0.00000E+00
         0.00000E+00
         0.00000E+00
         0.00000E+00
         0.00000E+00
         0.00000E+00
         0.00000E+00
         0.00000E+00
         0.00000E+00
         0.00000E+00
         0.00000E+00
         0.00000E+00
         0.00000E+00
         0.00000E+00
         0.00000E+00
         0.00000E+00
         0.00000E+00
         0.00000E+00
         0.00000E+00
         0.00000E+00
         0.00000E+00
         0.00000E+00
         0.00000E+00
         0.00000E+00
         0.00000E+00
         0.00000E+00
         0.00000E+00
         0.00000E+00
         0.00000E+00
         0.00000E+00
         0.00000E+00
         0.00000E+00
         0.00000E+00
         0.00000E+00
         0.00000E+00
         0.00000E+00
         0.00000E+00
         0.00000E+00
         0.00000E+00
         0.00000E+00
         0.00000E+00
         0.00000E+00
         0.00000E+00
         0.00000E+00
         0.00000E+00
         0.00000E+00
         0.00000E+00
         0.00000E+00
         0.00000E+00
         0.00000E+00
         0.00000E+00
         0.00000E+00
         0.00000E+00
         0.00000E+00
         0.00000E+00
         0.00000E+00
         0.00000E+00
         0.00000E+00
         0.00000E+00
         0.00000E+00
         0.00000E+00
         0.00000E+00
         0.00000E+00
         0.00000E+00
         0.00000E+00
         0.00000E+00
         0.00000E+00
         0.00000E+00
         0.00000E+00
         0.00000E+00
         0.00000E+00
         0.00000E+00
         0.00000E+00
         0.00000E+00
         0.00000E+00
         0.00000E+00
         0.00000E+00
         0.00000E+00
         0.00000E+00
         0.00000E+00
         0.00000E+00
         0.00000E+00
         0.00000E+00
         0.00000E+00
         0.00000E+00
         0.00000E+00
         0.00000E+00
         0.00000E+00
         0.00000E+00
         0.00000E+00
         0.00000E+00
         0.00000E+00
         0.00000E+00
         0.00000E+00
         0.00000E+00
         0.00000E+00
         0.00000E+00
         0.00000E+00
         0.00000E+00
         0.00000E+00
         0.00000E+00
         0.00000E+00
         0.00000E+00
         0.00000E+00
         0.00000E+00
         0.00000E+00
         0.00000E+00
         0.00000E+00
         0.00000E+00
         0.00000E+00
         0.00000E+00
         0.00000E+00
         0.00000E+00
         0.00000E+00
         0.00000E+00
         0.00000E+00
         0.00000E+00
         0.00000E+00
         0.00000E+00
         0.00000E+00
         0.00000E+00
         0.00000E+00
         0.00000E+00
         0.00000E+00
         0.00000E+00
         0.00000E+00
         0.00000E+00
         0.00000E+00
         0.00000E+00
         0.00000E+00
         0.00000E+00
         0.00000E+00
         0.00000E+00
         0.00000E+00
         0.00000E+00
         0.00000E+00
         0.00000E+00
         0.00000E+00
         0.00000E+00
         0.00000E+00
         0.00000E+00
         0.00000E+00
         0.00000E+00
         0.00000E+00
         0.00000E+00
         0.00000E+00
         0.00000E+00
         0.00000E+00
         0.00000E+00
         0.00000E+00
         0.00000E+00
         0.00000E+00
         0.00000E+00
         0.00000E+00
         0.00000E+00
         0.00000E+00
         0.00000E+00
         0.00000E+00
         0.00000E+00
         0.00000E+00
         0.00000E+00
         0.00000E+00
         0.00000E+00
         0.00000E+00
         0.00000E+00
         0.00000E+00
         0.00000E+00
         0.00000E+00
         0.00000E+00
         0.00000E+00
         0.00000E+00
         0.00000E+00
         0.00000E+00
         0.00000E+00
         0.00000E+00
         0.00000E+00
         0.00000E+00
         0.00000E+00
         0.00000E+00
         0.00000E+00
         0.00000E+00
         0.00000E+00
         0.00000E+00
         0.00000E+00
         0.00000E+00
         0.00000E+00
         0.00000E+00
         0.00000E+00
         0.00000E+00
         0.00000E+00
         0.00000E+00
         0.00000E+00
         0.00000E+00
         0.00000E+00
         0.00000E+00
         0.00000E+00
         0.00000E+00
         0.00000E+00
         0.00000E+00
         0.00000E+00
         0.00000E+00
         0.00000E+00
         0.00000E+00
         0.00000E+00
         0.00000E+00
         0.00000E+00
         0.00000E+00
         0.00000E+00
         0.00000E+00
         0.00000E+00
         0.00000E+00
         0.00000E+00
         0.00000E+00
         0.00000E+00
         0.00000E+00
         0.00000E+00
         0.00000E+00
         0.00000E+00
         0.00000E+00
         0.00000E+00
         0.00000E+00
         0.00000E+00
         0.00000E+00
         0.00000E+00
         0.00000E+00
         0.00000E+00
         0.00000E+00
         0.00000E+00
         0.00000E+00
         0.00000E+00
         0.00000E+00
         0.00000E+00
         0.00000E+00
         0.00000E+00
         0.00000E+00
         0.00000E+00
         0.00000E+00
         0.00000E+00
         0.00000E+00
         0.00000E+00
         0.00000E+00
         0.00000E+00
         0.00000E+00
         0.00000E+00
         0.00000E+00
         0.00000E+00
         0.00000E+00
         0.00000E+00
         0.00000E+00
         0.00000E+00
         0.00000E+00
         0.00000E+00
         0.00000E+00
         0.00000E+00
         0.00000E+00
         0.00000E+00
         0.00000E+00
         0.00000E+00
         0.00000E+00
         0.00000E+00
         0.00000E+00
         0.00000E+00
         0.00000E+00
         0.00000E+00
         0.00000E+00
         0.00000E+00
         0.00000E+00
         0.00000E+00
         0.00000E+00
         0.00000E+00
         0.00000E+00
         0.00000E+00
         0.00000E+00
         0.00000E+00
         0.00000E+00
         0.00000E+00
         0.00000E+00
         0.00000E+00
         0.00000E+00
         0.00000E+00
         0.00000E+00
         0.00000E+00
         0.00000E+00
         0.00000E+00
         0.00000E+00
         0.00000E+00
         0.00000E+00
         0.00000E+00
         0.00000E+00
         0.00000E+00
         0.00000E+00
         0.00000E+00
         0.00000E+00
         0.00000E+00
         0.00000E+00
         0.00000E+00
         0.00000E+00
         0.00000E+00
         0.00000E+00
         0.00000E+00
         0.00000E+00
         0.00000E+00
         0.00000E+00
         0.00000E+00
         0.00000E+00
         0.00000E+00
         0.00000E+00
         0.00000E+00
         0.00000E+00
         0.00000E+00
         0.00000E+00
         0.00000E+00
         0.00000E+00
         0.00000E+00
         0.00000E+00
         0.00000E+00
         0.00000E+00
         0.00000E+00
         0.00000E+00
         0.00000E+00
         0.00000E+00
         0.00000E+00
         0.00000E+00
         0.00000E+00
         0.00000E+00
         0.00000E+00
         0.00000E+00
         0.00000E+00
         0.00000E+00
         0.00000E+00
         0.00000E+00
         0.00000E+00
         0.00000E+00
         0.00000E+00
         0.00000E+00
         0.00000E+00
         0.00000E+00
         0.00000E+00
         0.00000E+00
         0.00000E+00
         0.00000E+00
         0.00000E+00
         0.00000E+00
         0.00000E+00
         0.00000E+00
         0.00000E+00
         0.00000E+00
         0.00000E+00
         0.00000E+00
         0.00000E+00
         0.00000E+00
         0.00000E+00
         0.00000E+00
         0.00000E+00
         0.00000E+00
         0.00000E+00
         0.00000E+00
         0.00000E+00
         0.00000E+00
         0.00000E+00
         0.00000E+00
         0.00000E+00
         0.00000E+00
         0.00000E+00
         0.00000E+00
         0.00000E+00
         0.00000E+00
         0.00000E+00
         0.00000E+00
         0.00000E+00
         0.00000E+00
         0.00000E+00
         0.00000E+00
         0.00000E+00
         0.00000E+00
         0.00000E+00
         0.00000E+00
         0.00000E+00
         0.00000E+00
         0.00000E+00
         0.00000E+00
         0.00000E+00
         0.00000E+00
         0.00000E+00
         0.00000E+00
         0.00000E+00
         0.00000E+00
         0.00000E+00
         0.00000E+00
         0.00000E+00
         0.00000E+00
         0.00000E+00
         0.00000E+00
         0.00000E+00
         0.00000E+00
         0.00000E+00
         0.00000E+00
         0.00000E+00
         0.00000E+00
         0.00000E+00
         0.00000E+00
         0.00000E+00
         0.00000E+00
         0.00000E+00
         0.00000E+00
         0.00000E+00
         0.00000E+00
         0.00000E+00
         0.00000E+00
         0.00000E+00
         0.00000E+00
         0.00000E+00
         0.00000E+00
         0.00000E+00
         0.00000E+00
         0.00000E+00
         0.00000E+00
         0.00000E+00
         0.00000E+00
         0.00000E+00
         0.00000E+00
         0.00000E+00
         0.00000E+00
         0.00000E+00
         0.00000E+00
         0.00000E+00
         0.00000E+00
         0.00000E+00
         0.00000E+00
         0.00000E+00
         0.00000E+00
         0.00000E+00
         0.00000E+00
         0.00000E+00
         0.00000E+00
         0.00000E+00
         0.00000E+00
         0.00000E+00
         0.00000E+00
         0.00000E+00
         0.00000E+00
         0.00000E+00
         0.00000E+00
         0.00000E+00
         0.00000E+00
         0.00000E+00
         0.00000E+00
         0.00000E+00
         0.00000E+00
         0.00000E+00
         0.00000E+00
         0.00000E+00
         0.00000E+00
         0.00000E+00
         0.00000E+00
         0.00000E+00
         0.00000E+00
         0.00000E+00
         0.00000E+00
         0.00000E+00
         0.00000E+00
         0.00000E+00
         0.00000E+00
         0.00000E+00
         0.00000E+00
         0.00000E+00
         0.00000E+00
         0.00000E+00
         0.00000E+00
         0.00000E+00
         0.00000E+00
         0.00000E+00
         0.00000E+00
         0.00000E+00
         0.00000E+00
         0.00000E+00
         0.00000E+00
         0.00000E+00
         0.00000E+00
         0.00000E+00
         0.00000E+00
         0.00000E+00
         0.00000E+00
         0.00000E+00
         0.00000E+00
         0.00000E+00
         0.00000E+00
         0.00000E+00
         0.00000E+00
         0.00000E+00
         0.00000E+00
         0.00000E+00
         0.00000E+00
         0.00000E+00
         0.00000E+00
         0.00000E+00
         0.00000E+00
         0.00000E+00
         0.00000E+00
         0.00000E+00
         0.00000E+00
         0.00000E+00
         0.00000E+00
         0.00000E+00
         0.00000E+00
         0.00000E+00
         0.00000E+00
         0.00000E+00
         0.00000E+00
         0.00000E+00
         0.00000E+00
         0.00000E+00
         0.00000E+00
         0.00000E+00
         0.00000E+00
         0.00000E+00
         0.00000E+00
         0.00000E+00
         0.00000E+00
         0.00000E+00
         0.00000E+00
         0.00000E+00
         0.00000E+00
         0.00000E+00
         0.00000E+00
         0.00000E+00
         0.00000E+00
         0.00000E+00
         0.00000E+00
         0.00000E+00
         0.00000E+00
         0.00000E+00
         0.00000E+00
         0.00000E+00
         0.00000E+00
         0.00000E+00
         0.00000E+00
         0.00000E+00
         0.00000E+00
         0.00000E+00
         0.00000E+00
         0.00000E+00
         0.00000E+00
         0.00000E+00
         0.00000E+00
         0.00000E+00
         0.00000E+00
         0.00000E+00
         0.00000E+00
         0.00000E+00
         0.00000E+00
         0.00000E+00
         0.00000E+00
         0.00000E+00
         0.00000E+00
         0.00000E+00
         0.00000E+00
         0.00000E+00
         0.00000E+00
         0.00000E+00
         0.00000E+00
         0.00000E+00
         0.00000E+00
         0.00000E+00
         0.00000E+00
         0.00000E+00
         0.00000E+00
         0.00000E+00
         0.00000E+00
         0.00000E+00
         0.00000E+00
         0.00000E+00
         0.00000E+00
         0.00000E+00
         0.00000E+00
         0.00000E+00
         0.00000E+00
         0.00000E+00
         0.00000E+00
         0.00000E+00
         0.00000E+00
         0.00000E+00
         0.00000E+00
         0.00000E+00
         0.00000E+00
         0.00000E+00
         0.00000E+00
         0.00000E+00
         0.00000E+00
         0.00000E+00
         0.00000E+00
         0.00000E+00
         0.00000E+00
         0.00000E+00
         0.00000E+00
         0.00000E+00
         0.00000E+00
         0.00000E+00
         0.00000E+00
         0.00000E+00
         0.00000E+00
         0.00000E+00
         0.00000E+00
         0.00000E+00
         0.00000E+00
         0.00000E+00
         0.00000E+00
         0.00000E+00
         0.00000E+00
         0.00000E+00
         0.00000E+00
         0.00000E+00
         0.00000E+00
         0.00000E+00
         0.00000E+00
         0.00000E+00
         0.00000E+00
         0.00000E+00
         0.00000E+00
         0.00000E+00
         0.00000E+00
         0.00000E+00
         0.00000E+00
         0.00000E+00
         0.00000E+00
         0.00000E+00
         0.00000E+00
         0.00000E+00
         0.00000E+00
         0.00000E+00
         0.00000E+00
         0.00000E+00
         0.00000E+00
         0.00000E+00
         0.00000E+00
         0.00000E+00
         0.00000E+00
         0.00000E+00
         0.00000E+00
         0.00000E+00
         0.00000E+00
         0.00000E+00
         0.00000E+00
         0.00000E+00
         0.00000E+00
         0.00000E+00
         0.00000E+00
         0.00000E+00
         0.00000E+00
         0.00000E+00
         0.00000E+00
         0.00000E+00
         0.00000E+00
         0.00000E+00
         0.00000E+00
         0.00000E+00
         0.00000E+00
         0.00000E+00
         0.00000E+00
         0.00000E+00
         0.00000E+00
         0.00000E+00
         0.00000E+00
         0.00000E+00
         0.00000E+00
         0.00000E+00
         0.00000E+00
         0.00000E+00
         0.00000E+00
         0.00000E+00
         0.00000E+00
         0.00000E+00
         0.00000E+00
         0.00000E+00
         0.00000E+00
         0.00000E+00
         0.00000E+00
         0.00000E+00
         0.00000E+00
         0.00000E+00
         0.00000E+00
         0.00000E+00
         0.00000E+00
         0.00000E+00
         0.00000E+00
         0.00000E+00
         0.00000E+00
         0.00000E+00
         0.00000E+00
         0.00000E+00
         0.00000E+00
         0.00000E+00
         0.00000E+00
         0.00000E+00
         0.00000E+00
         0.00000E+00
         0.00000E+00
         0.00000E+00
         0.00000E+00
         0.00000E+00
         0.00000E+00
         0.00000E+00
         0.00000E+00
         0.00000E+00
         0.00000E+00
         0.00000E+00
         0.00000E+00
         0.00000E+00
         0.00000E+00
         0.00000E+00
         0.00000E+00
         0.00000E+00
         0.00000E+00
         0.00000E+00
         0.00000E+00
         0.00000E+00
         0.00000E+00
         0.00000E+00
         0.00000E+00
         0.00000E+00
         0.00000E+00
         0.00000E+00
         0.00000E+00
         0.00000E+00
         0.00000E+00
         0.00000E+00
         0.00000E+00
         0.00000E+00
         0.00000E+00
         0.00000E+00
         0.00000E+00
         0.00000E+00
         0.00000E+00
         0.00000E+00
         0.00000E+00
         0.00000E+00
         0.00000E+00
         0.00000E+00
         0.00000E+00
         0.00000E+00
         0.00000E+00
         0.00000E+00
         0.00000E+00
         0.00000E+00
         0.00000E+00
         0.00000E+00
         0.00000E+00
         0.00000E+00
         0.00000E+00
         0.00000E+00
         0.00000E+00
         0.00000E+00
         0.00000E+00
         0.00000E+00
         0.00000E+00
         0.00000E+00
         0.00000E+00
         0.00000E+00
         0.00000E+00
         0.00000E+00
         0.00000E+00
         0.00000E+00
         0.00000E+00
         0.00000E+00
         0.00000E+00
         0.00000E+00
         0.00000E+00
         0.00000E+00
         0.00000E+00
         0.00000E+00
         0.00000E+00
         0.00000E+00
         0.00000E+00
         0.00000E+00
         0.00000E+00
         0.00000E+00
         0.00000E+00
         0.00000E+00
         0.00000E+00
         0.00000E+00
         0.00000E+00
         0.00000E+00
         0.00000E+00
         0.00000E+00
         0.00000E+00
         0.00000E+00
         0.00000E+00
         0.00000E+00
         0.00000E+00
         0.00000E+00
         0.00000E+00
         0.00000E+00
         0.00000E+00
         0.00000E+00
         0.00000E+00
         0.00000E+00
         0.00000E+00
         0.00000E+00
         0.00000E+00
         0.00000E+00
         0.00000E+00
         0.00000E+00
         0.00000E+00
         0.00000E+00
         0.00000E+00
         0.00000E+00
         0.00000E+00
         0.00000E+00
         0.00000E+00
         0.00000E+00
         0.00000E+00
         0.00000E+00
         0.00000E+00
         0.00000E+00
         0.00000E+00
         0.00000E+00
         0.00000E+00
         0.00000E+00
         0.00000E+00
         0.00000E+00
         0.00000E+00
         0.00000E+00
         0.00000E+00
         0.00000E+00
         0.00000E+00
         0.00000E+00
         0.00000E+00
         0.00000E+00
         0.00000E+00
         0.00000E+00
         0.00000E+00
         0.00000E+00
         0.00000E+00
         0.00000E+00
         0.00000E+00
         0.00000E+00
         0.00000E+00
         0.00000E+00
         0.00000E+00
         0.00000E+00
         0.00000E+00
         0.00000E+00
         0.00000E+00
         0.00000E+00
         0.00000E+00
         0.00000E+00
         0.00000E+00
         0.00000E+00
         0.00000E+00
         0.00000E+00
         0.00000E+00
         0.00000E+00
         0.00000E+00
         0.00000E+00
         0.00000E+00
         0.00000E+00
         0.00000E+00
         0.00000E+00
         0.00000E+00
         0.00000E+00
         0.00000E+00
         0.00000E+00
         0.00000E+00
         0.00000E+00
         0.00000E+00
         0.00000E+00
         0.00000E+00
         0.00000E+00
         0.00000E+00
         0.00000E+00
         0.00000E+00
         0.00000E+00
         0.00000E+00
         0.00000E+00
         0.00000E+00
         0.00000E+00
         0.00000E+00
         0.00000E+00
         0.00000E+00
         0.00000E+00
         0.00000E+00
         0.00000E+00
         0.00000E+00
         0.00000E+00
         0.00000E+00
         0.00000E+00
         0.00000E+00
         0.00000E+00
         0.00000E+00
         0.00000E+00
         0.00000E+00
         0.00000E+00
         0.00000E+00
         0.00000E+00
         0.00000E+00
         0.00000E+00
         0.00000E+00
         0.00000E+00
         0.00000E+00
         0.00000E+00
         0.00000E+00
         0.00000E+00
         0.00000E+00
         0.00000E+00
         0.00000E+00
         0.00000E+00
         0.00000E+00
         0.00000E+00
         0.00000E+00
         0.00000E+00
         0.00000E+00
         0.00000E+00
         0.00000E+00
         0.00000E+00
         0.00000E+00
         0.00000E+00
         0.00000E+00
         0.00000E+00
         0.00000E+00
         0.00000E+00
         0.00000E+00
         0.00000E+00
         0.00000E+00
         0.00000E+00
         0.00000E+00
         0.00000E+00
         0.00000E+00
         0.00000E+00
         0.00000E+00
         0.00000E+00
         0.00000E+00
         0.00000E+00
         0.00000E+00
         0.00000E+00
         0.00000E+00
         0.00000E+00
         0.00000E+00
         0.00000E+00
         0.00000E+00
         0.00000E+00
         0.00000E+00
         0.00000E+00
         0.00000E+00
         0.00000E+00
         0.00000E+00
         0.00000E+00
         0.00000E+00
         0.00000E+00
         0.00000E+00
         0.00000E+00
         0.00000E+00
         0.00000E+00
         0.00000E+00
         0.00000E+00
         0.00000E+00
         0.00000E+00
         0.00000E+00
         0.00000E+00
         0.00000E+00
         0.00000E+00
         0.00000E+00
         0.00000E+00
         0.00000E+00
         0.00000E+00
         0.00000E+00
         0.00000E+00
         0.00000E+00
         0.00000E+00
         0.00000E+00
         0.00000E+00
         0.00000E+00
         0.00000E+00
         0.00000E+00
         0.00000E+00
         0.00000E+00
         0.00000E+00
         0.00000E+00
         0.00000E+00
         0.00000E+00
         0.00000E+00
         0.00000E+00
         0.00000E+00
         0.00000E+00
         0.00000E+00
         0.00000E+00
         0.00000E+00
         0.00000E+00
         0.00000E+00
         0.00000E+00
         0.00000E+00
         0.00000E+00
         0.00000E+00
         0.00000E+00
         0.00000E+00
         0.00000E+00
         0.00000E+00
         0.00000E+00
         0.00000E+00
         0.00000E+00
         0.00000E+00
         0.00000E+00
         0.00000E+00
         0.00000E+00
         0.00000E+00
         0.00000E+00
         0.00000E+00
         0.00000E+00
         0.00000E+00
         0.00000E+00
         0.00000E+00
         0.00000E+00
         0.00000E+00
         0.00000E+00
         0.00000E+00
         0.00000E+00
         0.00000E+00
         0.00000E+00
         0.00000E+00
         0.00000E+00
         0.00000E+00
         0.00000E+00
         0.00000E+00
         0.00000E+00
         0.00000E+00
         0.00000E+00
         0.00000E+00
         0.00000E+00
         0.00000E+00
         0.00000E+00
         0.00000E+00
         0.00000E+00
         0.00000E+00
         0.00000E+00
         0.00000E+00
         0.00000E+00
         0.00000E+00
         0.00000E+00
         0.00000E+00
         0.00000E+00
         0.00000E+00
         0.00000E+00
         0.00000E+00
         0.00000E+00
         0.00000E+00
         0.00000E+00
         0.00000E+00
         0.00000E+00
         0.00000E+00
         0.00000E+00
         0.00000E+00
         0.00000E+00
         0.00000E+00
         0.00000E+00
         0.00000E+00
         0.00000E+00
         0.00000E+00
         0.00000E+00
         0.00000E+00
         0.00000E+00
         0.00000E+00
         0.00000E+00
         0.00000E+00
         0.00000E+00
         0.00000E+00
         0.00000E+00
         0.00000E+00
         0.00000E+00
         0.00000E+00
         0.00000E+00
         0.00000E+00
         0.00000E+00
         0.00000E+00
         0.00000E+00
         0.00000E+00
         0.00000E+00
         0.00000E+00
         0.00000E+00
         0.00000E+00
         0.00000E+00
         0.00000E+00
         0.00000E+00
         0.00000E+00
         0.00000E+00
         0.00000E+00
         0.00000E+00
         0.00000E+00
         0.00000E+00
         0.00000E+00
         0.00000E+00
         0.00000E+00
         0.00000E+00
         0.00000E+00
         0.00000E+00
         0.00000E+00
         0.00000E+00
         0.00000E+00
         0.00000E+00
         0.00000E+00
         0.00000E+00
         0.00000E+00
         0.00000E+00
         0.00000E+00
         0.00000E+00
         0.00000E+00
         0.00000E+00
         0.00000E+00
         0.00000E+00
         0.00000E+00
         0.00000E+00
         0.00000E+00
         0.00000E+00
         0.00000E+00
         0.00000E+00
         0.00000E+00
         0.00000E+00
         0.00000E+00
         0.00000E+00
         0.00000E+00
         0.00000E+00
         0.00000E+00
         0.00000E+00
         0.00000E+00
         0.00000E+00
         0.00000E+00
         0.00000E+00
         0.00000E+00
         0.00000E+00
         0.00000E+00
  
SCALARS               pre_disp_force_z  double 1
LOOKUP_TABLE default
         0.00000E+00
         0.00000E+00
         0.00000E+00
         0.00000E+00
        -0.00000E+00
        -0.00000E+00
        -0.00000E+00
        -0.00000E+00
         0.00000E+00
         0.00000E+00
        -0.00000E+00
        -0.00000E+00
         0.00000E+00
         0.00000E+00
        -0.00000E+00
        -0.00000E+00
         0.00000E+00
         0.00000E+00
        -0.00000E+00
        -0.00000E+00
         0.00000E+00
         0.00000E+00
         0.00000E+00
        -0.00000E+00
        -0.00000E+00
        -0.00000E+00
         0.00000E+00
         0.00000E+00
        -0.00000E+00
        -0.00000E+00
         0.00000E+00
         0.00000E+00
         0.00000E+00
        -0.00000E+00
        -0.00000E+00
        -0.00000E+00
         0.00000E+00
         0.00000E+00
        -0.00000E+00
        -0.00000E+00
         0.00000E+00
         0.00000E+00
        -0.00000E+00
        -0.00000E+00
         0.00000E+00
         0.00000E+00
        -0.00000E+00
        -0.00000E+00
         0.00000E+00
        -0.00000E+00
         0.00000E+00
        -0.00000E+00
         0.00000E+00
        -0.00000E+00
         0.00000E+00
        -0.00000E+00
         0.00000E+00
         0.00000E+00
        -0.00000E+00
        -0.00000E+00
         0.00000E+00
         0.00000E+00
        -0.00000E+00
        -0.00000E+00
         0.00000E+00
        -0.00000E+00
         0.00000E+00
        -0.00000E+00
         0.00000E+00
         0.00000E+00
        -0.00000E+00
        -0.00000E+00
         0.00000E+00
        -0.00000E+00
         0.00000E+00
        -0.00000E+00
         0.00000E+00
        -0.00000E+00
         0.00000E+00
        -0.00000E+00
         0.00000E+00
         0.00000E+00
        -0.00000E+00
        -0.00000E+00
         0.00000E+00
        -0.00000E+00
         0.00000E+00
        -0.00000E+00
         0.00000E+00
        -0.00000E+00
         0.00000E+00
         0.00000E+00
        -0.00000E+00
        -0.00000E+00
         0.00000E+00
        -0.00000E+00
         0.00000E+00
        -0.00000E+00
         0.00000E+00
        -0.00000E+00
         0.00000E+00
         0.00000E+00
        -0.00000E+00
        -0.00000E+00
         0.00000E+00
         0.00000E+00
        -0.00000E+00
        -0.00000E+00
         0.00000E+00
        -0.00000E+00
         0.00000E+00
        -0.00000E+00
         0.00000E+00
        -0.00000E+00
         0.00000E+00
        -0.00000E+00
         0.00000E+00
        -0.00000E+00
         0.00000E+00
        -0.00000E+00
         0.00000E+00
        -0.00000E+00
         0.00000E+00
        -0.00000E+00
         0.00000E+00
        -0.00000E+00
         0.00000E+00
        -0.00000E+00
         0.00000E+00
        -0.00000E+00
         0.00000E+00
        -0.00000E+00
         0.00000E+00
        -0.00000E+00
         0.00000E+00
        -0.00000E+00
         0.00000E+00
        -0.00000E+00
         0.00000E+00
        -0.00000E+00
         0.00000E+00
        -0.00000E+00
         0.00000E+00
        -0.00000E+00
         0.00000E+00
        -0.00000E+00
         0.00000E+00
        -0.00000E+00
         0.00000E+00
        -0.00000E+00
         0.00000E+00
        -0.00000E+00
         0.00000E+00
        -0.00000E+00
         0.00000E+00
        -0.00000E+00
         0.00000E+00
         0.00000E+00
         0.00000E+00
         0.00000E+00
         0.00000E+00
         0.00000E+00
         0.00000E+00
         0.00000E+00
         0.00000E+00
         0.00000E+00
         0.00000E+00
         0.00000E+00
         0.00000E+00
         0.00000E+00
         0.00000E+00
         0.00000E+00
         0.00000E+00
         0.00000E+00
         0.00000E+00
         0.00000E+00
         0.00000E+00
         0.00000E+00
         0.00000E+00
         0.00000E+00
         0.00000E+00
         0.00000E+00
         0.00000E+00
         0.00000E+00
         0.00000E+00
         0.00000E+00
         0.00000E+00
         0.00000E+00
         0.00000E+00
         0.00000E+00
         0.00000E+00
         0.00000E+00
         0.00000E+00
         0.00000E+00
         0.00000E+00
         0.00000E+00
         0.00000E+00
         0.00000E+00
         0.00000E+00
         0.00000E+00
         0.00000E+00
         0.00000E+00
         0.00000E+00
         0.00000E+00
         0.00000E+00
         0.00000E+00
         0.00000E+00
         0.00000E+00
         0.00000E+00
         0.00000E+00
         0.00000E+00
         0.00000E+00
         0.00000E+00
         0.00000E+00
         0.00000E+00
         0.00000E+00
         0.00000E+00
         0.00000E+00
         0.00000E+00
         0.00000E+00
         0.00000E+00
         0.00000E+00
         0.00000E+00
         0.00000E+00
         0.00000E+00
         0.00000E+00
         0.00000E+00
         0.00000E+00
         0.00000E+00
         0.00000E+00
         0.00000E+00
         0.00000E+00
         0.00000E+00
         0.00000E+00
         0.00000E+00
         0.00000E+00
         0.00000E+00
         0.00000E+00
         0.00000E+00
         0.00000E+00
         0.00000E+00
         0.00000E+00
         0.00000E+00
         0.00000E+00
         0.00000E+00
         0.00000E+00
         0.00000E+00
         0.00000E+00
         0.00000E+00
         0.00000E+00
         0.00000E+00
         0.00000E+00
         0.00000E+00
         0.00000E+00
         0.00000E+00
         0.00000E+00
         0.00000E+00
         0.00000E+00
         0.00000E+00
         0.00000E+00
         0.00000E+00
         0.00000E+00
         0.00000E+00
         0.00000E+00
         0.00000E+00
         0.00000E+00
         0.00000E+00
         0.00000E+00
         0.00000E+00
         0.00000E+00
         0.00000E+00
         0.00000E+00
         0.00000E+00
         0.00000E+00
         0.00000E+00
         0.00000E+00
         0.00000E+00
         0.00000E+00
         0.00000E+00
         0.00000E+00
         0.00000E+00
         0.00000E+00
         0.00000E+00
         0.00000E+00
         0.00000E+00
         0.00000E+00
         0.00000E+00
         0.00000E+00
         0.00000E+00
         0.00000E+00
         0.00000E+00
         0.00000E+00
         0.00000E+00
         0.00000E+00
         0.00000E+00
         0.00000E+00
         0.00000E+00
         0.00000E+00
         0.00000E+00
         0.00000E+00
         0.00000E+00
         0.00000E+00
         0.00000E+00
         0.00000E+00
         0.00000E+00
         0.00000E+00
         0.00000E+00
         0.00000E+00
         0.00000E+00
         0.00000E+00
         0.00000E+00
         0.00000E+00
         0.00000E+00
         0.00000E+00
         0.00000E+00
         0.00000E+00
         0.00000E+00
         0.00000E+00
         0.00000E+00
         0.00000E+00
         0.00000E+00
         0.00000E+00
         0.00000E+00
         0.00000E+00
         0.00000E+00
         0.00000E+00
         0.00000E+00
         0.00000E+00
         0.00000E+00
         0.00000E+00
         0.00000E+00
         0.00000E+00
         0.00000E+00
         0.00000E+00
         0.00000E+00
         0.00000E+00
         0.00000E+00
         0.00000E+00
         0.00000E+00
         0.00000E+00
         0.00000E+00
         0.00000E+00
         0.00000E+00
         0.00000E+00
         0.00000E+00
         0.00000E+00
         0.00000E+00
         0.00000E+00
         0.00000E+00
         0.00000E+00
         0.00000E+00
         0.00000E+00
         0.00000E+00
         0.00000E+00
         0.00000E+00
         0.00000E+00
         0.00000E+00
         0.00000E+00
         0.00000E+00
         0.00000E+00
         0.00000E+00
         0.00000E+00
         0.00000E+00
         0.00000E+00
         0.00000E+00
         0.00000E+00
         0.00000E+00
         0.00000E+00
         0.00000E+00
         0.00000E+00
         0.00000E+00
         0.00000E+00
         0.00000E+00
         0.00000E+00
         0.00000E+00
         0.00000E+00
         0.00000E+00
         0.00000E+00
         0.00000E+00
         0.00000E+00
         0.00000E+00
         0.00000E+00
         0.00000E+00
         0.00000E+00
         0.00000E+00
         0.00000E+00
         0.00000E+00
         0.00000E+00
         0.00000E+00
         0.00000E+00
         0.00000E+00
         0.00000E+00
         0.00000E+00
         0.00000E+00
         0.00000E+00
         0.00000E+00
         0.00000E+00
         0.00000E+00
         0.00000E+00
         0.00000E+00
         0.00000E+00
         0.00000E+00
         0.00000E+00
         0.00000E+00
         0.00000E+00
         0.00000E+00
         0.00000E+00
         0.00000E+00
         0.00000E+00
         0.00000E+00
         0.00000E+00
         0.00000E+00
         0.00000E+00
         0.00000E+00
         0.00000E+00
         0.00000E+00
         0.00000E+00
         0.00000E+00
         0.00000E+00
         0.00000E+00
         0.00000E+00
         0.00000E+00
         0.00000E+00
         0.00000E+00
         0.00000E+00
         0.00000E+00
         0.00000E+00
         0.00000E+00
         0.00000E+00
         0.00000E+00
         0.00000E+00
         0.00000E+00
         0.00000E+00
         0.00000E+00
         0.00000E+00
         0.00000E+00
         0.00000E+00
         0.00000E+00
         0.00000E+00
         0.00000E+00
         0.00000E+00
         0.00000E+00
         0.00000E+00
         0.00000E+00
         0.00000E+00
         0.00000E+00
         0.00000E+00
         0.00000E+00
         0.00000E+00
         0.00000E+00
         0.00000E+00
         0.00000E+00
         0.00000E+00
         0.00000E+00
         0.00000E+00
         0.00000E+00
         0.00000E+00
         0.00000E+00
         0.00000E+00
         0.00000E+00
         0.00000E+00
         0.00000E+00
         0.00000E+00
         0.00000E+00
         0.00000E+00
         0.00000E+00
         0.00000E+00
         0.00000E+00
         0.00000E+00
         0.00000E+00
         0.00000E+00
         0.00000E+00
         0.00000E+00
         0.00000E+00
         0.00000E+00
         0.00000E+00
         0.00000E+00
         0.00000E+00
         0.00000E+00
         0.00000E+00
         0.00000E+00
         0.00000E+00
         0.00000E+00
         0.00000E+00
         0.00000E+00
         0.00000E+00
         0.00000E+00
         0.00000E+00
         0.00000E+00
         0.00000E+00
         0.00000E+00
         0.00000E+00
         0.00000E+00
         0.00000E+00
         0.00000E+00
         0.00000E+00
         0.00000E+00
         0.00000E+00
         0.00000E+00
         0.00000E+00
         0.00000E+00
         0.00000E+00
         0.00000E+00
         0.00000E+00
         0.00000E+00
         0.00000E+00
         0.00000E+00
         0.00000E+00
         0.00000E+00
         0.00000E+00
         0.00000E+00
         0.00000E+00
         0.00000E+00
         0.00000E+00
         0.00000E+00
         0.00000E+00
         0.00000E+00
         0.00000E+00
         0.00000E+00
         0.00000E+00
         0.00000E+00
         0.00000E+00
         0.00000E+00
         0.00000E+00
         0.00000E+00
         0.00000E+00
         0.00000E+00
         0.00000E+00
         0.00000E+00
         0.00000E+00
         0.00000E+00
         0.00000E+00
         0.00000E+00
         0.00000E+00
         0.00000E+00
         0.00000E+00
         0.00000E+00
         0.00000E+00
         0.00000E+00
         0.00000E+00
         0.00000E+00
         0.00000E+00
         0.00000E+00
         0.00000E+00
         0.00000E+00
         0.00000E+00
         0.00000E+00
         0.00000E+00
         0.00000E+00
         0.00000E+00
         0.00000E+00
         0.00000E+00
         0.00000E+00
         0.00000E+00
         0.00000E+00
         0.00000E+00
         0.00000E+00
         0.00000E+00
         0.00000E+00
         0.00000E+00
         0.00000E+00
         0.00000E+00
         0.00000E+00
         0.00000E+00
         0.00000E+00
         0.00000E+00
         0.00000E+00
         0.00000E+00
         0.00000E+00
         0.00000E+00
         0.00000E+00
         0.00000E+00
         0.00000E+00
         0.00000E+00
         0.00000E+00
         0.00000E+00
         0.00000E+00
         0.00000E+00
         0.00000E+00
         0.00000E+00
         0.00000E+00
         0.00000E+00
         0.00000E+00
         0.00000E+00
         0.00000E+00
         0.00000E+00
         0.00000E+00
         0.00000E+00
         0.00000E+00
         0.00000E+00
         0.00000E+00
         0.00000E+00
         0.00000E+00
         0.00000E+00
         0.00000E+00
         0.00000E+00
         0.00000E+00
         0.00000E+00
         0.00000E+00
         0.00000E+00
         0.00000E+00
         0.00000E+00
         0.00000E+00
         0.00000E+00
         0.00000E+00
         0.00000E+00
         0.00000E+00
         0.00000E+00
         0.00000E+00
         0.00000E+00
         0.00000E+00
         0.00000E+00
         0.00000E+00
         0.00000E+00
         0.00000E+00
         0.00000E+00
         0.00000E+00
         0.00000E+00
         0.00000E+00
         0.00000E+00
         0.00000E+00
         0.00000E+00
         0.00000E+00
         0.00000E+00
         0.00000E+00
         0.00000E+00
         0.00000E+00
         0.00000E+00
         0.00000E+00
         0.00000E+00
         0.00000E+00
         0.00000E+00
         0.00000E+00
         0.00000E+00
         0.00000E+00
         0.00000E+00
         0.00000E+00
         0.00000E+00
         0.00000E+00
         0.00000E+00
         0.00000E+00
         0.00000E+00
         0.00000E+00
         0.00000E+00
         0.00000E+00
         0.00000E+00
         0.00000E+00
         0.00000E+00
         0.00000E+00
         0.00000E+00
         0.00000E+00
         0.00000E+00
         0.00000E+00
         0.00000E+00
         0.00000E+00
         0.00000E+00
         0.00000E+00
         0.00000E+00
         0.00000E+00
         0.00000E+00
         0.00000E+00
         0.00000E+00
         0.00000E+00
         0.00000E+00
         0.00000E+00
         0.00000E+00
         0.00000E+00
         0.00000E+00
         0.00000E+00
         0.00000E+00
         0.00000E+00
         0.00000E+00
         0.00000E+00
         0.00000E+00
         0.00000E+00
         0.00000E+00
         0.00000E+00
         0.00000E+00
         0.00000E+00
         0.00000E+00
         0.00000E+00
         0.00000E+00
         0.00000E+00
         0.00000E+00
         0.00000E+00
         0.00000E+00
         0.00000E+00
         0.00000E+00
         0.00000E+00
         0.00000E+00
         0.00000E+00
         0.00000E+00
         0.00000E+00
         0.00000E+00
         0.00000E+00
         0.00000E+00
         0.00000E+00
         0.00000E+00
         0.00000E+00
         0.00000E+00
         0.00000E+00
         0.00000E+00
         0.00000E+00
         0.00000E+00
         0.00000E+00
         0.00000E+00
         0.00000E+00
         0.00000E+00
         0.00000E+00
         0.00000E+00
         0.00000E+00
         0.00000E+00
         0.00000E+00
         0.00000E+00
         0.00000E+00
         0.00000E+00
         0.00000E+00
         0.00000E+00
         0.00000E+00
         0.00000E+00
         0.00000E+00
         0.00000E+00
         0.00000E+00
         0.00000E+00
         0.00000E+00
         0.00000E+00
         0.00000E+00
         0.00000E+00
         0.00000E+00
         0.00000E+00
         0.00000E+00
         0.00000E+00
         0.00000E+00
         0.00000E+00
         0.00000E+00
         0.00000E+00
         0.00000E+00
         0.00000E+00
         0.00000E+00
         0.00000E+00
         0.00000E+00
         0.00000E+00
         0.00000E+00
         0.00000E+00
         0.00000E+00
         0.00000E+00
         0.00000E+00
         0.00000E+00
         0.00000E+00
         0.00000E+00
         0.00000E+00
         0.00000E+00
         0.00000E+00
         0.00000E+00
         0.00000E+00
         0.00000E+00
         0.00000E+00
         0.00000E+00
         0.00000E+00
         0.00000E+00
         0.00000E+00
         0.00000E+00
         0.00000E+00
         0.00000E+00
         0.00000E+00
         0.00000E+00
         0.00000E+00
         0.00000E+00
         0.00000E+00
         0.00000E+00
         0.00000E+00
         0.00000E+00
         0.00000E+00
         0.00000E+00
         0.00000E+00
         0.00000E+00
         0.00000E+00
         0.00000E+00
         0.00000E+00
         0.00000E+00
         0.00000E+00
         0.00000E+00
         0.00000E+00
         0.00000E+00
         0.00000E+00
         0.00000E+00
         0.00000E+00
         0.00000E+00
         0.00000E+00
         0.00000E+00
         0.00000E+00
         0.00000E+00
         0.00000E+00
         0.00000E+00
         0.00000E+00
         0.00000E+00
         0.00000E+00
         0.00000E+00
         0.00000E+00
         0.00000E+00
         0.00000E+00
         0.00000E+00
         0.00000E+00
         0.00000E+00
         0.00000E+00
         0.00000E+00
         0.00000E+00
         0.00000E+00
         0.00000E+00
         0.00000E+00
         0.00000E+00
         0.00000E+00
         0.00000E+00
         0.00000E+00
         0.00000E+00
         0.00000E+00
         0.00000E+00
         0.00000E+00
         0.00000E+00
         0.00000E+00
         0.00000E+00
         0.00000E+00
         0.00000E+00
         0.00000E+00
         0.00000E+00
         0.00000E+00
         0.00000E+00
         0.00000E+00
         0.00000E+00
         0.00000E+00
         0.00000E+00
         0.00000E+00
         0.00000E+00
         0.00000E+00
         0.00000E+00
         0.00000E+00
         0.00000E+00
         0.00000E+00
         0.00000E+00
         0.00000E+00
         0.00000E+00
         0.00000E+00
         0.00000E+00
         0.00000E+00
         0.00000E+00
         0.00000E+00
         0.00000E+00
         0.00000E+00
         0.00000E+00
         0.00000E+00
         0.00000E+00
         0.00000E+00
         0.00000E+00
         0.00000E+00
         0.00000E+00
         0.00000E+00
         0.00000E+00
         0.00000E+00
         0.00000E+00
         0.00000E+00
         0.00000E+00
         0.00000E+00
         0.00000E+00
         0.00000E+00
         0.00000E+00
         0.00000E+00
         0.00000E+00
         0.00000E+00
         0.00000E+00
         0.00000E+00
         0.00000E+00
         0.00000E+00
         0.00000E+00
         0.00000E+00
         0.00000E+00
         0.00000E+00
         0.00000E+00
         0.00000E+00
         0.00000E+00
         0.00000E+00
         0.00000E+00
         0.00000E+00
         0.00000E+00
         0.00000E+00
         0.00000E+00
         0.00000E+00
         0.00000E+00
         0.00000E+00
         0.00000E+00
         0.00000E+00
         0.00000E+00
         0.00000E+00
         0.00000E+00
         0.00000E+00
         0.00000E+00
         0.00000E+00
         0.00000E+00
         0.00000E+00
         0.00000E+00
         0.00000E+00
         0.00000E+00
         0.00000E+00
         0.00000E+00
         0.00000E+00
         0.00000E+00
         0.00000E+00
         0.00000E+00
         0.00000E+00
         0.00000E+00
         0.00000E+00
         0.00000E+00
         0.00000E+00
         0.00000E+00
         0.00000E+00
         0.00000E+00
         0.00000E+00
         0.00000E+00
         0.00000E+00
         0.00000E+00
         0.00000E+00
         0.00000E+00
         0.00000E+00
         0.00000E+00
         0.00000E+00
         0.00000E+00
         0.00000E+00
         0.00000E+00
         0.00000E+00
         0.00000E+00
         0.00000E+00
         0.00000E+00
         0.00000E+00
         0.00000E+00
         0.00000E+00
         0.00000E+00
         0.00000E+00
         0.00000E+00
         0.00000E+00
         0.00000E+00
         0.00000E+00
         0.00000E+00
         0.00000E+00
         0.00000E+00
         0.00000E+00
         0.00000E+00
         0.00000E+00
         0.00000E+00
         0.00000E+00
         0.00000E+00
         0.00000E+00
         0.00000E+00
         0.00000E+00
         0.00000E+00
         0.00000E+00
         0.00000E+00
         0.00000E+00
         0.00000E+00
         0.00000E+00
         0.00000E+00
         0.00000E+00
         0.00000E+00
         0.00000E+00
         0.00000E+00
         0.00000E+00
         0.00000E+00
         0.00000E+00
         0.00000E+00
         0.00000E+00
         0.00000E+00
         0.00000E+00
         0.00000E+00
         0.00000E+00
         0.00000E+00
         0.00000E+00
         0.00000E+00
         0.00000E+00
         0.00000E+00
         0.00000E+00
         0.00000E+00
         0.00000E+00
         0.00000E+00
         0.00000E+00
         0.00000E+00
         0.00000E+00
         0.00000E+00
         0.00000E+00
         0.00000E+00
         0.00000E+00
         0.00000E+00
         0.00000E+00
         0.00000E+00
         0.00000E+00
         0.00000E+00
         0.00000E+00
         0.00000E+00
         0.00000E+00
         0.00000E+00
         0.00000E+00
         0.00000E+00
         0.00000E+00
         0.00000E+00
         0.00000E+00
         0.00000E+00
         0.00000E+00
         0.00000E+00
         0.00000E+00
         0.00000E+00
         0.00000E+00
         0.00000E+00
         0.00000E+00
         0.00000E+00
         0.00000E+00
         0.00000E+00
         0.00000E+00
         0.00000E+00
         0.00000E+00
         0.00000E+00
         0.00000E+00
         0.00000E+00
         0.00000E+00
         0.00000E+00
         0.00000E+00
         0.00000E+00
         0.00000E+00
         0.00000E+00
         0.00000E+00
         0.00000E+00
         0.00000E+00
         0.00000E+00
         0.00000E+00
         0.00000E+00
         0.00000E+00
         0.00000E+00
         0.00000E+00
         0.00000E+00
         0.00000E+00
         0.00000E+00
         0.00000E+00
         0.00000E+00
         0.00000E+00
         0.00000E+00
         0.00000E+00
         0.00000E+00
         0.00000E+00
         0.00000E+00
         0.00000E+00
         0.00000E+00
         0.00000E+00
         0.00000E+00
         0.00000E+00
         0.00000E+00
         0.00000E+00
         0.00000E+00
         0.00000E+00
         0.00000E+00
         0.00000E+00
         0.00000E+00
         0.00000E+00
         0.00000E+00
         0.00000E+00
         0.00000E+00
         0.00000E+00
         0.00000E+00
         0.00000E+00
         0.00000E+00
         0.00000E+00
         0.00000E+00
         0.00000E+00
         0.00000E+00
         0.00000E+00
         0.00000E+00
         0.00000E+00
         0.00000E+00
         0.00000E+00
         0.00000E+00
         0.00000E+00
         0.00000E+00
         0.00000E+00
         0.00000E+00
         0.00000E+00
         0.00000E+00
         0.00000E+00
         0.00000E+00
         0.00000E+00
         0.00000E+00
         0.00000E+00
         0.00000E+00
         0.00000E+00
         0.00000E+00
         0.00000E+00
         0.00000E+00
         0.00000E+00
         0.00000E+00
         0.00000E+00
         0.00000E+00
         0.00000E+00
         0.00000E+00
         0.00000E+00
         0.00000E+00
         0.00000E+00
         0.00000E+00
         0.00000E+00
         0.00000E+00
         0.00000E+00
         0.00000E+00
         0.00000E+00
         0.00000E+00
         0.00000E+00
         0.00000E+00
         0.00000E+00
         0.00000E+00
         0.00000E+00
         0.00000E+00
         0.00000E+00
         0.00000E+00
         0.00000E+00
         0.00000E+00
         0.00000E+00
         0.00000E+00
         0.00000E+00
         0.00000E+00
         0.00000E+00
         0.00000E+00
         0.00000E+00
         0.00000E+00
         0.00000E+00
         0.00000E+00
         0.00000E+00
         0.00000E+00
         0.00000E+00
         0.00000E+00
         0.00000E+00
         0.00000E+00
         0.00000E+00
         0.00000E+00
         0.00000E+00
         0.00000E+00
         0.00000E+00
         0.00000E+00
         0.00000E+00
         0.00000E+00
         0.00000E+00
         0.00000E+00
         0.00000E+00
         0.00000E+00
         0.00000E+00
         0.00000E+00
         0.00000E+00
         0.00000E+00
         0.00000E+00
         0.00000E+00
         0.00000E+00
         0.00000E+00
         0.00000E+00
         0.00000E+00
         0.00000E+00
         0.00000E+00
         0.00000E+00
         0.00000E+00
         0.00000E+00
         0.00000E+00
         0.00000E+00
         0.00000E+00
         0.00000E+00
         0.00000E+00
         0.00000E+00
         0.00000E+00
         0.00000E+00
         0.00000E+00
         0.00000E+00
         0.00000E+00
         0.00000E+00
         0.00000E+00
         0.00000E+00
         0.00000E+00
         0.00000E+00
         0.00000E+00
         0.00000E+00
         0.00000E+00
         0.00000E+00
         0.00000E+00
         0.00000E+00
         0.00000E+00
         0.00000E+00
         0.00000E+00
         0.00000E+00
         0.00000E+00
         0.00000E+00
         0.00000E+00
         0.00000E+00
         0.00000E+00
         0.00000E+00
         0.00000E+00
         0.00000E+00
         0.00000E+00
         0.00000E+00
         0.00000E+00
         0.00000E+00
         0.00000E+00
         0.00000E+00
         0.00000E+00
         0.00000E+00
         0.00000E+00
         0.00000E+00
         0.00000E+00
         0.00000E+00
         0.00000E+00
         0.00000E+00
         0.00000E+00
         0.00000E+00
         0.00000E+00
         0.00000E+00
         0.00000E+00
         0.00000E+00
         0.00000E+00
         0.00000E+00
         0.00000E+00
         0.00000E+00
         0.00000E+00
         0.00000E+00
         0.00000E+00
         0.00000E+00
         0.00000E+00
         0.00000E+00
         0.00000E+00
         0.00000E+00
         0.00000E+00
         0.00000E+00
         0.00000E+00
         0.00000E+00
         0.00000E+00
         0.00000E+00
         0.00000E+00
         0.00000E+00
         0.00000E+00
         0.00000E+00
         0.00000E+00
         0.00000E+00
         0.00000E+00
         0.00000E+00
         0.00000E+00
         0.00000E+00
         0.00000E+00
         0.00000E+00
         0.00000E+00
         0.00000E+00
         0.00000E+00
         0.00000E+00
         0.00000E+00
         0.00000E+00
         0.00000E+00
         0.00000E+00
         0.00000E+00
         0.00000E+00
         0.00000E+00
         0.00000E+00
         0.00000E+00
         0.00000E+00
         0.00000E+00
         0.00000E+00
         0.00000E+00
         0.00000E+00
         0.00000E+00
         0.00000E+00
         0.00000E+00
         0.00000E+00
         0.00000E+00
         0.00000E+00
         0.00000E+00
         0.00000E+00
         0.00000E+00
         0.00000E+00
         0.00000E+00
         0.00000E+00
         0.00000E+00
         0.00000E+00
         0.00000E+00
         0.00000E+00
         0.00000E+00
         0.00000E+00
         0.00000E+00
         0.00000E+00
         0.00000E+00
         0.00000E+00
         0.00000E+00
         0.00000E+00
         0.00000E+00
         0.00000E+00
         0.00000E+00
         0.00000E+00
         0.00000E+00
         0.00000E+00
         0.00000E+00
         0.00000E+00
         0.00000E+00
         0.00000E+00
         0.00000E+00
         0.00000E+00
         0.00000E+00
         0.00000E+00
         0.00000E+00
         0.00000E+00
         0.00000E+00
         0.00000E+00
         0.00000E+00
         0.00000E+00
         0.00000E+00
         0.00000E+00
         0.00000E+00
         0.00000E+00
         0.00000E+00
         0.00000E+00
         0.00000E+00
         0.00000E+00
         0.00000E+00
         0.00000E+00
         0.00000E+00
         0.00000E+00
         0.00000E+00
         0.00000E+00
         0.00000E+00
         0.00000E+00
         0.00000E+00
         0.00000E+00
         0.00000E+00
         0.00000E+00
         0.00000E+00
         0.00000E+00
         0.00000E+00
         0.00000E+00
         0.00000E+00
         0.00000E+00
         0.00000E+00
         0.00000E+00
         0.00000E+00
         0.00000E+00
         0.00000E+00
         0.00000E+00
         0.00000E+00
         0.00000E+00
         0.00000E+00
         0.00000E+00
         0.00000E+00
         0.00000E+00
         0.00000E+00
         0.00000E+00
         0.00000E+00
         0.00000E+00
         0.00000E+00
         0.00000E+00
         0.00000E+00
         0.00000E+00
         0.00000E+00
         0.00000E+00
         0.00000E+00
         0.00000E+00
         0.00000E+00
         0.00000E+00
         0.00000E+00
         0.00000E+00
         0.00000E+00
         0.00000E+00
         0.00000E+00
         0.00000E+00
         0.00000E+00
         0.00000E+00
         0.00000E+00
         0.00000E+00
         0.00000E+00
         0.00000E+00
         0.00000E+00
         0.00000E+00
         0.00000E+00
         0.00000E+00
         0.00000E+00
         0.00000E+00
         0.00000E+00
         0.00000E+00
         0.00000E+00
         0.00000E+00
         0.00000E+00
         0.00000E+00
         0.00000E+00
         0.00000E+00
         0.00000E+00
         0.00000E+00
         0.00000E+00
         0.00000E+00
         0.00000E+00
         0.00000E+00
         0.00000E+00
         0.00000E+00
         0.00000E+00
         0.00000E+00
         0.00000E+00
         0.00000E+00
         0.00000E+00
         0.00000E+00
         0.00000E+00
         0.00000E+00
         0.00000E+00
         0.00000E+00
         0.00000E+00
         0.00000E+00
         0.00000E+00
         0.00000E+00
         0.00000E+00
         0.00000E+00
         0.00000E+00
         0.00000E+00
         0.00000E+00
         0.00000E+00
         0.00000E+00
         0.00000E+00
         0.00000E+00
         0.00000E+00
         0.00000E+00
         0.00000E+00
         0.00000E+00
         0.00000E+00
         0.00000E+00
         0.00000E+00
         0.00000E+00
         0.00000E+00
         0.00000E+00
         0.00000E+00
         0.00000E+00
         0.00000E+00
         0.00000E+00
         0.00000E+00
         0.00000E+00
         0.00000E+00
         0.00000E+00
         0.00000E+00
         0.00000E+00
         0.00000E+00
         0.00000E+00
         0.00000E+00
         0.00000E+00
         0.00000E+00
         0.00000E+00
         0.00000E+00
         0.00000E+00
         0.00000E+00
         0.00000E+00
         0.00000E+00
         0.00000E+00
         0.00000E+00
         0.00000E+00
         0.00000E+00
         0.00000E+00
         0.00000E+00
         0.00000E+00
         0.00000E+00
         0.00000E+00
         0.00000E+00
         0.00000E+00
         0.00000E+00
         0.00000E+00
         0.00000E+00
         0.00000E+00
         0.00000E+00
         0.00000E+00
         0.00000E+00
         0.00000E+00
         0.00000E+00
         0.00000E+00
         0.00000E+00
         0.00000E+00
         0.00000E+00
         0.00000E+00
         0.00000E+00
         0.00000E+00
         0.00000E+00
         0.00000E+00
         0.00000E+00
         0.00000E+00
         0.00000E+00
         0.00000E+00
         0.00000E+00
         0.00000E+00
         0.00000E+00
         0.00000E+00
         0.00000E+00
         0.00000E+00
         0.00000E+00
         0.00000E+00
         0.00000E+00
         0.00000E+00
         0.00000E+00
         0.00000E+00
         0.00000E+00
         0.00000E+00
         0.00000E+00
         0.00000E+00
         0.00000E+00
         0.00000E+00
         0.00000E+00
         0.00000E+00
         0.00000E+00
         0.00000E+00
         0.00000E+00
         0.00000E+00
         0.00000E+00
         0.00000E+00
         0.00000E+00
         0.00000E+00
         0.00000E+00
         0.00000E+00
         0.00000E+00
         0.00000E+00
         0.00000E+00
         0.00000E+00
         0.00000E+00
         0.00000E+00
         0.00000E+00
         0.00000E+00
         0.00000E+00
         0.00000E+00
         0.00000E+00
         0.00000E+00
         0.00000E+00
         0.00000E+00
         0.00000E+00
         0.00000E+00
         0.00000E+00
         0.00000E+00
         0.00000E+00
         0.00000E+00
         0.00000E+00
         0.00000E+00
         0.00000E+00
         0.00000E+00
         0.00000E+00
         0.00000E+00
         0.00000E+00
         0.00000E+00
         0.00000E+00
         0.00000E+00
         0.00000E+00
         0.00000E+00
         0.00000E+00
         0.00000E+00
         0.00000E+00
         0.00000E+00
         0.00000E+00
         0.00000E+00
         0.00000E+00
         0.00000E+00
         0.00000E+00
         0.00000E+00
         0.00000E+00
         0.00000E+00
         0.00000E+00
         0.00000E+00
         0.00000E+00
         0.00000E+00
         0.00000E+00
         0.00000E+00
         0.00000E+00
         0.00000E+00
         0.00000E+00
         0.00000E+00
         0.00000E+00
         0.00000E+00
         0.00000E+00
         0.00000E+00
         0.00000E+00
         0.00000E+00
         0.00000E+00
         0.00000E+00
         0.00000E+00
         0.00000E+00
         0.00000E+00
         0.00000E+00
         0.00000E+00
         0.00000E+00
         0.00000E+00
         0.00000E+00
         0.00000E+00
         0.00000E+00
         0.00000E+00
         0.00000E+00
         0.00000E+00
         0.00000E+00
         0.00000E+00
         0.00000E+00
         0.00000E+00
         0.00000E+00
         0.00000E+00
         0.00000E+00
         0.00000E+00
         0.00000E+00
         0.00000E+00
         0.00000E+00
         0.00000E+00
         0.00000E+00
         0.00000E+00
         0.00000E+00
         0.00000E+00
         0.00000E+00
         0.00000E+00
         0.00000E+00
         0.00000E+00
         0.00000E+00
         0.00000E+00
         0.00000E+00
         0.00000E+00
         0.00000E+00
         0.00000E+00
         0.00000E+00
         0.00000E+00
         0.00000E+00
         0.00000E+00
         0.00000E+00
         0.00000E+00
         0.00000E+00
         0.00000E+00
         0.00000E+00
         0.00000E+00
         0.00000E+00
         0.00000E+00
         0.00000E+00
         0.00000E+00
         0.00000E+00
         0.00000E+00
         0.00000E+00
         0.00000E+00
         0.00000E+00
         0.00000E+00
         0.00000E+00
         0.00000E+00
         0.00000E+00
         0.00000E+00
         0.00000E+00
         0.00000E+00
         0.00000E+00
         0.00000E+00
         0.00000E+00
         0.00000E+00
         0.00000E+00
         0.00000E+00
         0.00000E+00
         0.00000E+00
         0.00000E+00
         0.00000E+00
         0.00000E+00
         0.00000E+00
         0.00000E+00
         0.00000E+00
         0.00000E+00
         0.00000E+00
         0.00000E+00
         0.00000E+00
         0.00000E+00
         0.00000E+00
         0.00000E+00
         0.00000E+00
         0.00000E+00
         0.00000E+00
         0.00000E+00
         0.00000E+00
         0.00000E+00
         0.00000E+00
         0.00000E+00
         0.00000E+00
         0.00000E+00
         0.00000E+00
         0.00000E+00
         0.00000E+00
         0.00000E+00
         0.00000E+00
         0.00000E+00
         0.00000E+00
         0.00000E+00
         0.00000E+00
         0.00000E+00
         0.00000E+00
         0.00000E+00
         0.00000E+00
         0.00000E+00
         0.00000E+00
         0.00000E+00
         0.00000E+00
         0.00000E+00
         0.00000E+00
         0.00000E+00
         0.00000E+00
         0.00000E+00
         0.00000E+00
         0.00000E+00
         0.00000E+00
         0.00000E+00
         0.00000E+00
         0.00000E+00
         0.00000E+00
         0.00000E+00
         0.00000E+00
         0.00000E+00
         0.00000E+00
         0.00000E+00
         0.00000E+00
         0.00000E+00
         0.00000E+00
         0.00000E+00
         0.00000E+00
         0.00000E+00
         0.00000E+00
         0.00000E+00
         0.00000E+00
         0.00000E+00
         0.00000E+00
         0.00000E+00
         0.00000E+00
         0.00000E+00
         0.00000E+00
         0.00000E+00
         0.00000E+00
         0.00000E+00
         0.00000E+00
         0.00000E+00
         0.00000E+00
         0.00000E+00
         0.00000E+00
         0.00000E+00
         0.00000E+00
         0.00000E+00
         0.00000E+00
         0.00000E+00
         0.00000E+00
         0.00000E+00
         0.00000E+00
         0.00000E+00
         0.00000E+00
         0.00000E+00
         0.00000E+00
         0.00000E+00
         0.00000E+00
         0.00000E+00
         0.00000E+00
         0.00000E+00
         0.00000E+00
         0.00000E+00
         0.00000E+00
         0.00000E+00
         0.00000E+00
         0.00000E+00
         0.00000E+00
         0.00000E+00
         0.00000E+00
         0.00000E+00
         0.00000E+00
         0.00000E+00
         0.00000E+00
         0.00000E+00
         0.00000E+00
         0.00000E+00
         0.00000E+00
         0.00000E+00
         0.00000E+00
         0.00000E+00
         0.00000E+00
         0.00000E+00
         0.00000E+00
         0.00000E+00
         0.00000E+00
         0.00000E+00
         0.00000E+00
         0.00000E+00
         0.00000E+00
         0.00000E+00
         0.00000E+00
         0.00000E+00
         0.00000E+00
         0.00000E+00
         0.00000E+00
         0.00000E+00
         0.00000E+00
         0.00000E+00
         0.00000E+00
         0.00000E+00
         0.00000E+00
         0.00000E+00
         0.00000E+00
         0.00000E+00
         0.00000E+00
         0.00000E+00
         0.00000E+00
         0.00000E+00
         0.00000E+00
         0.00000E+00
         0.00000E+00
         0.00000E+00
         0.00000E+00
         0.00000E+00
         0.00000E+00
         0.00000E+00
         0.00000E+00
         0.00000E+00
         0.00000E+00
         0.00000E+00
         0.00000E+00
         0.00000E+00
         0.00000E+00
         0.00000E+00
         0.00000E+00
         0.00000E+00
         0.00000E+00
         0.00000E+00
         0.00000E+00
         0.00000E+00
         0.00000E+00
         0.00000E+00
         0.00000E+00
         0.00000E+00
         0.00000E+00
         0.00000E+00
         0.00000E+00
         0.00000E+00
         0.00000E+00
         0.00000E+00
         0.00000E+00
         0.00000E+00
         0.00000E+00
         0.00000E+00
         0.00000E+00
         0.00000E+00
         0.00000E+00
         0.00000E+00
         0.00000E+00
         0.00000E+00
         0.00000E+00
         0.00000E+00
         0.00000E+00
         0.00000E+00
         0.00000E+00
         0.00000E+00
         0.00000E+00
         0.00000E+00
         0.00000E+00
         0.00000E+00
         0.00000E+00
         0.00000E+00
         0.00000E+00
         0.00000E+00
         0.00000E+00
         0.00000E+00
         0.00000E+00
         0.00000E+00
         0.00000E+00
         0.00000E+00
         0.00000E+00
         0.00000E+00
         0.00000E+00
         0.00000E+00
         0.00000E+00
         0.00000E+00
         0.00000E+00
         0.00000E+00
         0.00000E+00
         0.00000E+00
         0.00000E+00
         0.00000E+00
         0.00000E+00
         0.00000E+00
         0.00000E+00
         0.00000E+00
         0.00000E+00
         0.00000E+00
         0.00000E+00
         0.00000E+00
         0.00000E+00
         0.00000E+00
         0.00000E+00
         0.00000E+00
         0.00000E+00
         0.00000E+00
         0.00000E+00
         0.00000E+00
         0.00000E+00
         0.00000E+00
         0.00000E+00
         0.00000E+00
         0.00000E+00
         0.00000E+00
         0.00000E+00
         0.00000E+00
         0.00000E+00
         0.00000E+00
         0.00000E+00
         0.00000E+00
         0.00000E+00
         0.00000E+00
         0.00000E+00
         0.00000E+00
         0.00000E+00
         0.00000E+00
         0.00000E+00
         0.00000E+00
         0.00000E+00
         0.00000E+00
         0.00000E+00
         0.00000E+00
         0.00000E+00
         0.00000E+00
         0.00000E+00
         0.00000E+00
         0.00000E+00
         0.00000E+00
         0.00000E+00
         0.00000E+00
         0.00000E+00
         0.00000E+00
         0.00000E+00
         0.00000E+00
         0.00000E+00
         0.00000E+00
         0.00000E+00
         0.00000E+00
         0.00000E+00
         0.00000E+00
         0.00000E+00
         0.00000E+00
         0.00000E+00
         0.00000E+00
         0.00000E+00
         0.00000E+00
         0.00000E+00
         0.00000E+00
         0.00000E+00
         0.00000E+00
         0.00000E+00
         0.00000E+00
         0.00000E+00
         0.00000E+00
         0.00000E+00
         0.00000E+00
         0.00000E+00
         0.00000E+00
         0.00000E+00
         0.00000E+00
         0.00000E+00
         0.00000E+00
         0.00000E+00
         0.00000E+00
         0.00000E+00
         0.00000E+00
         0.00000E+00
         0.00000E+00
         0.00000E+00
  
SCALARS                      stress_xx  double 1
LOOKUP_TABLE default
         0.42996E+12
         0.42374E+12
         0.42768E+12
         0.43475E+12
        -0.12240E+03
        -0.13725E+03
        -0.13142E+03
        -0.11939E+03
         0.42353E+12
         0.42563E+12
        -0.12342E+03
        -0.11944E+03
         0.41474E+12
         0.41441E+12
        -0.14665E+03
        -0.13789E+03
         0.43371E+12
         0.41489E+12
        -0.10836E+03
        -0.12019E+03
         0.40797E+12
         0.40260E+12
         0.41115E+12
        -0.14535E+03
        -0.12693E+03
        -0.13107E+03
         0.40280E+12
         0.39495E+12
        -0.13944E+03
        -0.11759E+03
         0.43337E+12
         0.42519E+12
         0.44130E+12
        -0.11899E+03
        -0.11062E+03
        -0.10755E+03
         0.42864E+12
         0.41821E+12
        -0.12589E+03
        -0.11487E+03
         0.42451E+12
         0.41646E+12
        -0.10880E+03
        -0.96321E+02
         0.43132E+12
         0.43434E+12
        -0.11923E+03
        -0.13323E+03
         0.41000E+12
        -0.11648E+03
         0.43375E+12
        -0.13687E+03
         0.40054E+12
        -0.12301E+03
         0.39807E+12
        -0.11799E+03
         0.39811E+12
         0.40688E+12
        -0.12022E+03
        -0.11708E+03
         0.43321E+12
         0.43006E+12
        -0.12055E+03
        -0.13628E+03
         0.43517E+12
        -0.11632E+03
         0.43143E+12
        -0.12695E+03
         0.42159E+12
         0.42060E+12
        -0.12220E+03
        -0.12804E+03
         0.41838E+12
        -0.12912E+03
         0.39216E+12
        -0.10201E+03
         0.39078E+12
        -0.99019E+02
         0.39147E+12
        -0.10441E+03
         0.39527E+12
         0.39922E+12
        -0.99475E+02
        -0.10371E+03
         0.40717E+12
        -0.96590E+02
         0.43116E+12
        -0.12666E+03
         0.42742E+12
        -0.12964E+03
         0.42435E+12
         0.42267E+12
        -0.12450E+03
        -0.12595E+03
         0.42474E+12
        -0.11440E+03
         0.42622E+12
        -0.11277E+03
         0.42488E+12
        -0.12072E+03
         0.42441E+12
         0.42576E+12
        -0.11838E+03
        -0.12185E+03
         0.41700E+12
         0.42055E+12
        -0.91911E+02
        -0.86447E+02
         0.41633E+12
        -0.87763E+02
         0.42043E+12
        -0.84150E+02
         0.41638E+12
        -0.82978E+02
         0.40741E+12
        -0.78415E+02
         0.39871E+12
        -0.69663E+02
         0.39350E+12
        -0.62728E+02
         0.39297E+12
        -0.62292E+02
         0.39313E+12
        -0.67552E+02
         0.39879E+12
        -0.70995E+02
         0.40935E+12
        -0.64826E+02
         0.42093E+12
        -0.58434E+02
         0.42771E+12
        -0.58367E+02
         0.43441E+12
        -0.65240E+02
         0.43883E+12
        -0.74389E+02
         0.43867E+12
        -0.79916E+02
         0.42792E+12
        -0.86309E+02
         0.42043E+12
        -0.92467E+02
         0.41785E+12
        -0.84706E+02
         0.42187E+12
        -0.74310E+02
         0.42397E+12
        -0.74081E+02
         0.42046E+12
        -0.81053E+02
         0.42051E+12
        -0.86408E+02
         0.42316E+12
        -0.82001E+02
         0.42661E+12
        -0.79275E+02
        -0.31941E+11
        -0.32053E+11
        -0.32039E+11
        -0.31887E+11
        -0.32141E+11
        -0.32027E+11
        -0.32164E+11
        -0.32098E+11
        -0.31913E+11
        -0.32036E+11
        -0.32220E+11
        -0.32234E+11
        -0.32193E+11
        -0.32190E+11
        -0.32218E+11
        -0.31895E+11
        -0.31926E+11
        -0.31836E+11
        -0.32064E+11
        -0.32028E+11
        -0.32078E+11
        -0.32046E+11
        -0.32104E+11
        -0.32090E+11
        -0.32031E+11
        -0.32036E+11
        -0.32130E+11
        -0.32123E+11
        -0.32181E+11
        -0.32088E+11
        -0.31910E+11
        -0.32054E+11
        -0.31911E+11
        -0.32010E+11
        -0.32243E+11
        -0.32188E+11
        -0.32155E+11
        -0.32193E+11
        -0.32197E+11
        -0.32247E+11
        -0.32273E+11
        -0.32195E+11
        -0.32076E+11
        -0.32095E+11
        -0.32158E+11
        -0.32242E+11
        -0.32173E+11
        -0.32070E+11
        -0.32078E+11
        -0.32159E+11
        -0.32222E+11
        -0.32132E+11
        -0.32307E+11
        -0.32286E+11
        -0.32291E+11
        -0.32284E+11
        -0.32286E+11
        -0.32300E+11
        -0.32308E+11
        -0.32308E+11
        -0.32308E+11
        -0.32308E+11
        -0.32308E+11
        -0.32287E+11
        -0.32266E+11
        -0.32256E+11
        -0.32237E+11
        -0.32220E+11
        -0.32221E+11
        -0.32248E+11
        -0.32303E+11
        -0.32295E+11
        -0.32278E+11
        -0.32278E+11
        -0.32282E+11
        -0.32297E+11
        -0.32272E+11
        -0.32260E+11
         0.86910E+06
         0.38408E+06
         0.48119E+06
         0.45450E+06
         0.22499E+06
         0.50060E+06
        -0.31356E+06
        -0.71668E+06
         0.10818E+07
        -0.78406E+06
        -0.82669E+06
        -0.37686E+05
        -0.12210E+06
        -0.26836E+07
        -0.85629E+06
        -0.25494E+06
         0.18418E+06
         0.57573E+06
        -0.18478E+05
        -0.68330E+05
        -0.10822E+07
        -0.59223E+06
        -0.14781E+07
        -0.47749E+06
        -0.83867E+06
        -0.11907E+06
        -0.33902E+07
        -0.18387E+07
        -0.10805E+07
        -0.83795E+06
        -0.14620E+06
        -0.29807E+06
         0.42526E+06
         0.88178E+06
        -0.92379E+06
        -0.60639E+06
        -0.32970E+06
        -0.10910E+07
        -0.68336E+06
        -0.44265E+06
        -0.73078E+06
        -0.12094E+07
        -0.10404E+07
        -0.11912E+07
        -0.88645E+06
        -0.37451E+06
        -0.19365E+06
        -0.23844E+06
         0.46515E+06
         0.77614E+06
         0.21255E+06
         0.28786E+06
        -0.24555E+07
        -0.64604E+06
        -0.14563E+07
         0.21496E+06
         0.16502E+07
         0.26794E+07
         0.22223E+07
         0.24081E+07
         0.19045E+07
         0.97722E+06
         0.10870E+06
        -0.55553E+06
        -0.11049E+07
        -0.38298E+06
        -0.16294E+07
        -0.24201E+07
        -0.20109E+07
        -0.17479E+07
        -0.90497E+06
         0.47201E+06
         0.45733E+06
         0.28260E+05
        -0.75955E+06
        -0.12771E+07
        -0.94189E+06
        -0.24324E+06
         0.81480E+06
         0.33303E+06
         0.43150E+06
         0.41426E+06
         0.16072E+06
         0.44420E+06
        -0.36370E+06
        -0.77800E+06
         0.10296E+07
        -0.85081E+06
        -0.88347E+06
        -0.12401E+06
        -0.19624E+06
        -0.27465E+07
        -0.94178E+06
        -0.31118E+06
         0.13127E+06
         0.53688E+06
        -0.74701E+05
        -0.12253E+06
        -0.11554E+07
        -0.66354E+06
        -0.15534E+07
        -0.53091E+06
        -0.90727E+06
        -0.17012E+06
        -0.34527E+07
        -0.18929E+07
        -0.11415E+07
        -0.90932E+06
        -0.19891E+06
        -0.34620E+06
         0.38666E+06
         0.84110E+06
        -0.99868E+06
        -0.66736E+06
        -0.39343E+06
        -0.11771E+07
        -0.76273E+06
        -0.52055E+06
        -0.81564E+06
        -0.12921E+07
        -0.11188E+07
        -0.12627E+07
        -0.95351E+06
        -0.45003E+06
        -0.26048E+06
        -0.30053E+06
         0.41068E+06
         0.71966E+06
         0.14392E+06
         0.22764E+06
        -0.25963E+07
        -0.78334E+06
        -0.15914E+07
         0.85417E+05
         0.15132E+07
         0.25267E+07
         0.20698E+07
         0.22539E+07
         0.17488E+07
         0.81799E+06
        -0.49802E+05
        -0.70202E+06
        -0.12271E+07
        -0.49705E+06
        -0.17491E+07
        -0.25479E+07
        -0.21414E+07
        -0.18845E+07
        -0.10420E+07
         0.32703E+06
         0.32068E+06
        -0.95168E+05
        -0.88310E+06
        -0.14037E+07
        -0.10699E+07
        -0.37364E+06
         0.82737E+06
         0.34303E+06
         0.44205E+06
         0.42446E+06
         0.17830E+06
         0.46008E+06
        -0.35496E+06
        -0.76312E+06
         0.10388E+07
        -0.84762E+06
        -0.87120E+06
        -0.10763E+06
        -0.18239E+06
        -0.27283E+07
        -0.92043E+06
        -0.32295E+06
         0.12698E+06
         0.54825E+06
        -0.88505E+05
        -0.13234E+06
        -0.11673E+07
        -0.66806E+06
        -0.16027E+07
        -0.56947E+06
        -0.93732E+06
        -0.20595E+06
        -0.34407E+07
        -0.18992E+07
        -0.11674E+07
        -0.95928E+06
        -0.19953E+06
        -0.35709E+06
         0.40004E+06
         0.85425E+06
        -0.97951E+06
        -0.65155E+06
        -0.37909E+06
        -0.11627E+07
        -0.75052E+06
        -0.51682E+06
        -0.81787E+06
        -0.13224E+07
        -0.11610E+07
        -0.13106E+07
        -0.96478E+06
        -0.43953E+06
        -0.24825E+06
        -0.28694E+06
         0.42564E+06
         0.73699E+06
         0.16365E+06
         0.24510E+06
        -0.25543E+07
        -0.74561E+06
        -0.15496E+07
         0.11752E+06
         0.15371E+07
         0.25504E+07
         0.21000E+07
         0.22842E+07
         0.17796E+07
         0.84993E+06
        -0.31049E+05
        -0.70270E+06
        -0.12251E+07
        -0.47600E+06
        -0.17352E+07
        -0.25738E+07
        -0.21695E+07
        -0.18772E+07
        -0.10043E+07
         0.37063E+06
         0.35973E+06
        -0.55755E+05
        -0.83871E+06
        -0.13665E+07
        -0.10397E+07
        -0.34450E+06
         0.81954E+06
         0.33868E+06
         0.43789E+06
         0.41771E+06
         0.17277E+06
         0.45578E+06
        -0.36042E+06
        -0.77042E+06
         0.10241E+07
        -0.87601E+06
        -0.87652E+06
        -0.11666E+06
        -0.18853E+06
        -0.27338E+07
        -0.93080E+06
        -0.36789E+06
         0.95062E+05
         0.54186E+06
        -0.13766E+06
        -0.17786E+06
        -0.12228E+07
        -0.71732E+06
        -0.17176E+07
        -0.65566E+06
        -0.10189E+07
        -0.28738E+06
        -0.34578E+07
        -0.19430E+07
        -0.12420E+07
        -0.10789E+07
        -0.22559E+06
        -0.40056E+06
         0.39609E+06
         0.84751E+06
        -0.98941E+06
        -0.65737E+06
        -0.38402E+06
        -0.11789E+07
        -0.77040E+06
        -0.55252E+06
        -0.86596E+06
        -0.14161E+07
        -0.12756E+07
        -0.14236E+07
        -0.10201E+07
        -0.46987E+06
        -0.26967E+06
        -0.29875E+06
         0.41642E+06
         0.72628E+06
         0.15348E+06
         0.23882E+06
        -0.25739E+07
        -0.75906E+06
        -0.15708E+07
         0.98828E+05
         0.15246E+07
         0.25359E+07
         0.20757E+07
         0.22578E+07
         0.17543E+07
         0.81914E+06
        -0.79873E+05
        -0.78149E+06
        -0.12991E+07
        -0.51109E+06
        -0.17748E+07
        -0.26825E+07
        -0.22846E+07
        -0.19312E+07
        -0.10298E+07
         0.34619E+06
         0.34120E+06
        -0.77689E+05
        -0.86148E+06
        -0.13820E+07
        -0.10515E+07
        -0.35634E+06
         0.80539E+06
         0.32987E+06
         0.43064E+06
         0.41077E+06
         0.16631E+06
         0.44957E+06
        -0.36825E+06
        -0.78305E+06
         0.10063E+07
        -0.90559E+06
        -0.88226E+06
        -0.12233E+06
        -0.19536E+06
        -0.27400E+07
        -0.93561E+06
        -0.39854E+06
         0.69371E+05
         0.53598E+06
        -0.17001E+06
        -0.21047E+06
        -0.12584E+07
        -0.75269E+06
        -0.17882E+07
        -0.70907E+06
        -0.10781E+07
        -0.33960E+06
        -0.34728E+07
        -0.19743E+07
        -0.12941E+07
        -0.11585E+07
        -0.25285E+06
        -0.43223E+06
         0.38610E+06
         0.83817E+06
        -0.99964E+06
        -0.66490E+06
        -0.39151E+06
        -0.11911E+07
        -0.78697E+06
        -0.57973E+06
        -0.89987E+06
        -0.14793E+07
        -0.13508E+07
        -0.14952E+07
        -0.10564E+07
        -0.48984E+06
        -0.28867E+06
        -0.31748E+06
         0.40035E+06
         0.71046E+06
         0.13748E+06
         0.22842E+06
        -0.25915E+07
        -0.77079E+06
        -0.15889E+07
         0.84288E+05
         0.15188E+07
         0.25317E+07
         0.20653E+07
         0.22403E+07
         0.17328E+07
         0.80010E+06
        -0.10959E+06
        -0.83599E+06
        -0.13496E+07
        -0.53820E+06
        -0.18027E+07
        -0.27530E+07
        -0.23653E+07
        -0.19697E+07
        -0.10414E+07
         0.32399E+06
         0.31662E+06
        -0.10286E+06
        -0.89085E+06
        -0.14073E+07
        -0.10672E+07
        -0.36814E+06
         0.77131E+06
         0.31300E+06
         0.42349E+06
         0.41584E+06
         0.17567E+06
         0.46081E+06
        -0.37411E+06
        -0.80577E+06
         0.98117E+06
        -0.94572E+06
        -0.87682E+06
        -0.10318E+06
        -0.18820E+06
        -0.27350E+07
        -0.91115E+06
        -0.39378E+06
         0.62023E+05
         0.54761E+06
        -0.16333E+06
        -0.20502E+06
        -0.12477E+07
        -0.74017E+06
        -0.17866E+07
        -0.71015E+06
        -0.11041E+07
        -0.34707E+06
        -0.34763E+07
        -0.19770E+07
        -0.12935E+07
        -0.11615E+07
        -0.28527E+06
        -0.44894E+06
         0.36780E+06
         0.83578E+06
        -0.99136E+06
        -0.66373E+06
        -0.39274E+06
        -0.11764E+07
        -0.77454E+06
        -0.56598E+06
        -0.88340E+06
        -0.14698E+07
        -0.13428E+07
        -0.14995E+07
        -0.10607E+07
        -0.49307E+06
        -0.30508E+06
        -0.35485E+06
         0.36089E+06
         0.68897E+06
         0.13236E+06
         0.23384E+06
        -0.25570E+07
        -0.73506E+06
        -0.15597E+07
         0.10374E+06
         0.15393E+07
         0.25594E+07
         0.20967E+07
         0.22704E+07
         0.17675E+07
         0.84597E+06
        -0.69527E+05
        -0.81181E+06
        -0.13229E+07
        -0.51041E+06
        -0.17760E+07
        -0.27316E+07
        -0.23497E+07
        -0.19542E+07
        -0.10227E+07
         0.33684E+06
         0.31389E+06
        -0.12036E+06
        -0.90225E+06
        -0.14014E+07
        -0.10499E+07
        -0.34338E+06
         0.71948E+06
         0.28315E+06
         0.40637E+06
         0.41148E+06
         0.16929E+06
         0.46076E+06
        -0.39519E+06
        -0.85089E+06
         0.93839E+06
        -0.10052E+07
        -0.89010E+06
        -0.11066E+06
        -0.20037E+06
        -0.27535E+07
        -0.91608E+06
        -0.40346E+06
         0.40668E+05
         0.54632E+06
        -0.16898E+06
        -0.21213E+06
        -0.12525E+07
        -0.74360E+06
        -0.17922E+07
        -0.71668E+06
        -0.11403E+07
        -0.36036E+06
        -0.35017E+07
        -0.19926E+07
        -0.13011E+07
        -0.11713E+07
        -0.33026E+06
        -0.47619E+06
         0.33865E+06
         0.82339E+06
        -0.10033E+07
        -0.67621E+06
        -0.40761E+06
        -0.11891E+07
        -0.78669E+06
        -0.57282E+06
        -0.88635E+06
        -0.14716E+07
        -0.13436E+07
        -0.15102E+07
        -0.10807E+07
        -0.52139E+06
        -0.34300E+06
        -0.41081E+06
         0.30462E+06
         0.65146E+06
         0.11089E+06
         0.22689E+06
        -0.25714E+07
        -0.74618E+06
        -0.15682E+07
         0.93930E+05
         0.15252E+07
         0.25424E+07
         0.20826E+07
         0.22583E+07
         0.17555E+07
         0.83694E+06
        -0.76742E+05
        -0.82057E+06
        -0.13244E+07
        -0.51256E+06
        -0.17819E+07
        -0.27350E+07
        -0.23564E+07
        -0.19786E+07
        -0.10590E+07
         0.29681E+06
         0.26901E+06
        -0.17583E+06
        -0.95084E+06
        -0.14271E+07
        -0.10638E+07
        -0.35435E+06
         0.70428E+06
         0.27203E+06
         0.39934E+06
         0.40575E+06
         0.16235E+06
         0.45476E+06
        -0.40660E+06
        -0.86592E+06
         0.92613E+06
        -0.10228E+07
        -0.89947E+06
        -0.12114E+06
        -0.21235E+06
        -0.27626E+07
        -0.92467E+06
        -0.41224E+06
         0.31037E+05
         0.54191E+06
        -0.17415E+06
        -0.21759E+06
        -0.12601E+07
        -0.75171E+06
        -0.17996E+07
        -0.72166E+06
        -0.11539E+07
        -0.36797E+06
        -0.35126E+07
        -0.20004E+07
        -0.13126E+07
        -0.11807E+07
        -0.34550E+06
        -0.48691E+06
         0.33094E+06
         0.81643E+06
        -0.10134E+07
        -0.68284E+06
        -0.41662E+06
        -0.12051E+07
        -0.80065E+06
        -0.58680E+06
        -0.90063E+06
        -0.14833E+07
        -0.13509E+07
        -0.15197E+07
        -0.10924E+07
        -0.53461E+06
        -0.35539E+06
        -0.42485E+06
         0.29077E+06
         0.63842E+06
         0.97671E+05
         0.21811E+06
        -0.25911E+07
        -0.76555E+06
        -0.15813E+07
         0.80370E+05
         0.15088E+07
         0.25280E+07
         0.20678E+07
         0.22377E+07
         0.17285E+07
         0.80853E+06
        -0.10250E+06
        -0.83220E+06
        -0.13337E+07
        -0.53228E+06
        -0.18027E+07
        -0.27548E+07
        -0.23820E+07
        -0.20032E+07
        -0.10795E+07
         0.28007E+06
         0.25539E+06
        -0.19430E+06
        -0.97518E+06
        -0.14499E+07
        -0.10830E+07
        -0.37343E+06
         0.71372E+06
         0.27942E+06
         0.40475E+06
         0.40707E+06
         0.17104E+06
         0.45735E+06
        -0.40122E+06
        -0.85343E+06
         0.93485E+06
        -0.10112E+07
        -0.89214E+06
        -0.11081E+06
        -0.20499E+06
        -0.27485E+07
        -0.90785E+06
        -0.40240E+06
         0.36906E+05
         0.54763E+06
        -0.16435E+06
        -0.20913E+06
        -0.12492E+07
        -0.74167E+06
        -0.17888E+07
        -0.71291E+06
        -0.11460E+07
        -0.35984E+06
        -0.34973E+07
        -0.19892E+07
        -0.13074E+07
        -0.11723E+07
        -0.33791E+06
        -0.48061E+06
         0.33847E+06
         0.81876E+06
        -0.10026E+07
        -0.67455E+06
        -0.40933E+06
        -0.11943E+07
        -0.79236E+06
        -0.57954E+06
        -0.89094E+06
        -0.14731E+07
        -0.13402E+07
        -0.15099E+07
        -0.10842E+07
        -0.52603E+06
        -0.34701E+06
        -0.41543E+06
         0.30009E+06
         0.64568E+06
         0.10350E+06
         0.22067E+06
        -0.25616E+07
        -0.73649E+06
        -0.15639E+07
         0.87471E+05
         0.15233E+07
         0.25505E+07
         0.20928E+07
         0.22555E+07
         0.17355E+07
         0.81914E+06
        -0.83466E+05
        -0.80518E+06
        -0.13101E+07
        -0.51698E+06
        -0.17884E+07
        -0.27382E+07
        -0.23650E+07
        -0.19823E+07
        -0.10596E+07
         0.30337E+06
         0.27949E+06
        -0.17282E+06
        -0.95708E+06
        -0.14339E+07
        -0.10670E+07
        -0.35621E+06
         0.71112E+06
         0.27870E+06
         0.40334E+06
         0.40313E+06
         0.17005E+06
         0.45439E+06
        -0.40389E+06
        -0.85681E+06
         0.92898E+06
        -0.10178E+07
        -0.89593E+06
        -0.11720E+06
        -0.20700E+06
        -0.27518E+07
        -0.91689E+06
        -0.40808E+06
         0.30072E+05
         0.54285E+06
        -0.16862E+06
        -0.21326E+06
        -0.12530E+07
        -0.74682E+06
        -0.17926E+07
        -0.71622E+06
        -0.11508E+07
        -0.36306E+06
        -0.35009E+07
        -0.19893E+07
        -0.13122E+07
        -0.11769E+07
        -0.34323E+06
        -0.48382E+06
         0.33537E+06
         0.81362E+06
        -0.10065E+07
        -0.67736E+06
        -0.41130E+06
        -0.12081E+07
        -0.80041E+06
        -0.58688E+06
        -0.89791E+06
        -0.14779E+07
        -0.13464E+07
        -0.15124E+07
        -0.10866E+07
        -0.53018E+06
        -0.35268E+06
        -0.42195E+06
         0.29471E+06
         0.64055E+06
         0.98400E+05
         0.21577E+06
        -0.25700E+07
        -0.74316E+06
        -0.15776E+07
         0.75721E+05
         0.15218E+07
         0.25422E+07
         0.20735E+07
         0.22339E+07
         0.17230E+07
         0.80025E+06
        -0.10411E+06
        -0.81545E+06
        -0.13222E+07
        -0.52363E+06
        -0.17947E+07
        -0.27441E+07
        -0.23659E+07
        -0.19864E+07
        -0.10655E+07
         0.28760E+06
         0.26006E+06
        -0.18782E+06
        -0.96455E+06
        -0.14375E+07
        -0.10756E+07
        -0.36842E+06
         0.70407E+06
         0.27298E+06
         0.39931E+06
         0.40072E+06
         0.16535E+06
         0.45271E+06
        -0.40942E+06
        -0.86224E+06
         0.92370E+06
        -0.10245E+07
        -0.90025E+06
        -0.12566E+06
        -0.21257E+06
        -0.27539E+07
        -0.92615E+06
        -0.41573E+06
         0.24310E+05
         0.54040E+06
        -0.17387E+06
        -0.21621E+06
        -0.12580E+07
        -0.75206E+06
        -0.17984E+07
        -0.72136E+06
        -0.11555E+07
        -0.36902E+06
        -0.35035E+07
        -0.19906E+07
        -0.13173E+07
        -0.11803E+07
        -0.35051E+06
        -0.48914E+06
         0.33467E+06
         0.81268E+06
        -0.10155E+07
        -0.68249E+06
        -0.41606E+06
        -0.12215E+07
        -0.80936E+06
        -0.59336E+06
        -0.90192E+06
        -0.14820E+07
        -0.13521E+07
        -0.15173E+07
        -0.10913E+07
        -0.53581E+06
        -0.35795E+06
        -0.42762E+06
         0.28958E+06
         0.63606E+06
         0.93564E+05
         0.21378E+06
        -0.25871E+07
        -0.75731E+06
        -0.15880E+07
         0.72155E+05
         0.15172E+07
         0.25254E+07
         0.20493E+07
         0.22144E+07
         0.17100E+07
         0.78667E+06
        -0.11255E+06
        -0.82558E+06
        -0.13368E+07
        -0.53353E+06
        -0.18052E+07
        -0.27563E+07
        -0.23738E+07
        -0.19959E+07
        -0.10771E+07
         0.27459E+06
         0.24532E+06
        -0.20317E+06
        -0.97543E+06
        -0.14479E+07
        -0.10888E+07
        -0.38232E+06
         0.70848E+06
         0.27524E+06
         0.40131E+06
         0.40342E+06
         0.17140E+06
         0.45822E+06
        -0.40650E+06
        -0.85329E+06
         0.92797E+06
        -0.10194E+07
        -0.89338E+06
        -0.11862E+06
        -0.21047E+06
        -0.27407E+07
        -0.91054E+06
        -0.41051E+06
         0.25620E+05
         0.54609E+06
        -0.16796E+06
        -0.20934E+06
        -0.12493E+07
        -0.74308E+06
        -0.17911E+07
        -0.71600E+06
        -0.11523E+07
        -0.36392E+06
        -0.34938E+07
        -0.19832E+07
        -0.13112E+07
        -0.11711E+07
        -0.34469E+06
        -0.48482E+06
         0.34323E+06
         0.81843E+06
        -0.10089E+07
        -0.67706E+06
        -0.41291E+06
        -0.12129E+07
        -0.80110E+06
        -0.58246E+06
        -0.89111E+06
        -0.14744E+07
        -0.13434E+07
        -0.15112E+07
        -0.10861E+07
        -0.53101E+06
        -0.35278E+06
        -0.42199E+06
         0.29576E+06
         0.64223E+06
         0.99672E+05
         0.22030E+06
        -0.25655E+07
        -0.73388E+06
        -0.15659E+07
         0.82921E+05
         0.15138E+07
         0.25266E+07
         0.20667E+07
         0.22335E+07
         0.17231E+07
         0.80638E+06
        -0.93850E+05
        -0.81669E+06
        -0.13211E+07
        -0.51750E+06
        -0.17908E+07
        -0.27451E+07
        -0.23662E+07
        -0.19863E+07
        -0.10680E+07
         0.28861E+06
         0.26197E+06
        -0.18720E+06
        -0.96144E+06
        -0.14361E+07
        -0.10714E+07
        -0.36211E+06
         0.70513E+06
         0.27065E+06
         0.39741E+06
         0.39903E+06
         0.16661E+06
         0.45377E+06
        -0.41312E+06
        -0.85813E+06
         0.92381E+06
        -0.10276E+07
        -0.89980E+06
        -0.12911E+06
        -0.22150E+06
        -0.27457E+07
        -0.91703E+06
        -0.41682E+06
         0.18687E+05
         0.54095E+06
        -0.17441E+06
        -0.21429E+06
        -0.12585E+07
        -0.75259E+06
        -0.18010E+07
        -0.72194E+06
        -0.11608E+07
        -0.36917E+06
        -0.35032E+07
        -0.19907E+07
        -0.13205E+07
        -0.11769E+07
        -0.35154E+06
        -0.48984E+06
         0.33895E+06
         0.81378E+06
        -0.10175E+07
        -0.68311E+06
        -0.42088E+06
        -0.12275E+07
        -0.81517E+06
        -0.59461E+06
        -0.90445E+06
        -0.14871E+07
        -0.13531E+07
        -0.15217E+07
        -0.10950E+07
        -0.53923E+06
        -0.36039E+06
        -0.43078E+06
         0.28910E+06
         0.63717E+06
         0.93179E+05
         0.21467E+06
        -0.25823E+07
        -0.74837E+06
        -0.15824E+07
         0.63726E+05
         0.14915E+07
         0.25051E+07
         0.20535E+07
         0.22166E+07
         0.17011E+07
         0.78454E+06
        -0.12049E+06
        -0.84299E+06
        -0.13385E+07
        -0.53557E+06
        -0.18064E+07
        -0.27630E+07
        -0.23937E+07
        -0.20111E+07
        -0.10803E+07
         0.27143E+06
         0.24438E+06
        -0.19623E+06
        -0.96746E+06
        -0.14490E+07
        -0.10891E+07
        -0.37980E+06
         0.70444E+06
         0.26907E+06
         0.39623E+06
         0.39744E+06
         0.16653E+06
         0.45292E+06
        -0.41547E+06
        -0.85767E+06
         0.92457E+06
        -0.10276E+07
        -0.90053E+06
        -0.13063E+06
        -0.22345E+06
        -0.27425E+07
        -0.91624E+06
        -0.41856E+06
         0.17199E+05
         0.54042E+06
        -0.17500E+06
        -0.21418E+06
        -0.12603E+07
        -0.75400E+06
        -0.18032E+07
        -0.72310E+06
        -0.11625E+07
        -0.37077E+06
        -0.35013E+07
        -0.19910E+07
        -0.13247E+07
        -0.11784E+07
        -0.35556E+06
        -0.49177E+06
         0.33867E+06
         0.81281E+06
        -0.10197E+07
        -0.68481E+06
        -0.42315E+06
        -0.12346E+07
        -0.82342E+06
        -0.59983E+06
        -0.90597E+06
        -0.14886E+07
        -0.13544E+07
        -0.15232E+07
        -0.10964E+07
        -0.54112E+06
        -0.36271E+06
        -0.43434E+06
         0.28658E+06
         0.63610E+06
         0.92087E+05
         0.21358E+06
        -0.25827E+07
        -0.74797E+06
        -0.15868E+07
         0.56326E+05
         0.14911E+07
         0.25048E+07
         0.20482E+07
         0.22025E+07
         0.16852E+07
         0.77580E+06
        -0.12135E+06
        -0.84556E+06
        -0.13429E+07
        -0.54258E+06
        -0.18146E+07
        -0.27688E+07
        -0.23973E+07
        -0.20143E+07
        -0.10837E+07
         0.26523E+06
         0.23666E+06
        -0.20118E+06
        -0.96781E+06
        -0.14506E+07
        -0.10970E+07
        -0.38701E+06
         0.71859E+06
         0.28322E+06
         0.40800E+06
         0.40504E+06
         0.18319E+06
         0.46488E+06
        -0.40237E+06
        -0.83984E+06
         0.93491E+06
        -0.10142E+07
        -0.88460E+06
        -0.10816E+06
        -0.20423E+06
        -0.27217E+07
        -0.89312E+06
        -0.40648E+06
         0.25826E+05
         0.55042E+06
        -0.16209E+06
        -0.20062E+06
        -0.12412E+07
        -0.73629E+06
        -0.17854E+07
        -0.71143E+06
        -0.11487E+07
        -0.35926E+06
        -0.34820E+07
        -0.19727E+07
        -0.13106E+07
        -0.11612E+07
        -0.34297E+06
        -0.47979E+06
         0.35054E+06
         0.82049E+06
        -0.10016E+07
        -0.66971E+06
        -0.40732E+06
        -0.12208E+07
        -0.80656E+06
        -0.58171E+06
        -0.88786E+06
        -0.14708E+07
        -0.13384E+07
        -0.15048E+07
        -0.10780E+07
        -0.52235E+06
        -0.34655E+06
        -0.41974E+06
         0.29893E+06
         0.64724E+06
         0.10466E+06
         0.22466E+06
        -0.25435E+07
        -0.70888E+06
        -0.15538E+07
         0.80128E+05
         0.15202E+07
         0.25416E+07
         0.20790E+07
         0.22258E+07
         0.17116E+07
         0.80466E+06
        -0.95351E+05
        -0.81508E+06
        -0.13188E+07
        -0.51578E+06
        -0.17841E+07
        -0.27370E+07
        -0.23614E+07
        -0.19756E+07
        -0.10504E+07
         0.29989E+06
         0.26628E+06
        -0.17918E+06
        -0.94338E+06
        -0.14216E+07
        -0.10657E+07
        -0.35543E+06
         0.71251E+06
         0.27908E+06
         0.40437E+06
         0.39971E+06
         0.17702E+06
         0.46028E+06
        -0.40845E+06
        -0.84638E+06
         0.92876E+06
        -0.10245E+07
        -0.89095E+06
        -0.11624E+06
        -0.20922E+06
        -0.27272E+07
        -0.90259E+06
        -0.41441E+06
         0.17522E+05
         0.54634E+06
        -0.17062E+06
        -0.20685E+06
        -0.12473E+07
        -0.74496E+06
        -0.17915E+07
        -0.71858E+06
        -0.11585E+07
        -0.36664E+06
        -0.34904E+07
        -0.19777E+07
        -0.13144E+07
        -0.11654E+07
        -0.34819E+06
        -0.48551E+06
         0.34832E+06
         0.81484E+06
        -0.10125E+07
        -0.67515E+06
        -0.41110E+06
        -0.12372E+07
        -0.81812E+06
        -0.58736E+06
        -0.89628E+06
        -0.14807E+07
        -0.13494E+07
        -0.15125E+07
        -0.10857E+07
        -0.53008E+06
        -0.35285E+06
        -0.42475E+06
         0.29337E+06
         0.63966E+06
         0.96846E+05
         0.21888E+06
        -0.25683E+07
        -0.72982E+06
        -0.15729E+07
         0.69988E+05
         0.15168E+07
         0.25321E+07
         0.20580E+07
         0.22004E+07
         0.16873E+07
         0.78291E+06
        -0.12103E+06
        -0.84447E+06
        -0.13396E+07
        -0.52608E+06
        -0.17890E+07
        -0.27402E+07
        -0.23713E+07
        -0.19931E+07
        -0.10633E+07
         0.28444E+06
         0.25220E+06
        -0.19506E+06
        -0.96026E+06
        -0.14323E+07
        -0.10758E+07
        -0.37216E+06
         0.70242E+06
         0.26861E+06
         0.39440E+06
         0.39269E+06
         0.16679E+06
         0.45107E+06
        -0.41760E+06
        -0.85432E+06
         0.91974E+06
        -0.10431E+07
        -0.89876E+06
        -0.12927E+06
        -0.22001E+06
        -0.27328E+07
        -0.91469E+06
        -0.42399E+06
         0.57746E+04
         0.54150E+06
        -0.17761E+06
        -0.20952E+06
        -0.12549E+07
        -0.75511E+06
        -0.17989E+07
        -0.72474E+06
        -0.11751E+07
        -0.37388E+06
        -0.35095E+07
        -0.19862E+07
        -0.12974E+07
        -0.11533E+07
        -0.35697E+06
        -0.49360E+06
         0.34612E+06
         0.81093E+06
        -0.10248E+07
        -0.68437E+06
        -0.42048E+06
        -0.12614E+07
        -0.82952E+06
        -0.57067E+06
        -0.89704E+06
        -0.14914E+07
        -0.13642E+07
        -0.15209E+07
        -0.10956E+07
        -0.54253E+06
        -0.36396E+06
        -0.43355E+06
         0.28692E+06
         0.63357E+06
         0.89953E+05
         0.21169E+06
        -0.25849E+07
        -0.74503E+06
        -0.15859E+07
         0.58574E+05
         0.15010E+07
         0.25061E+07
         0.20283E+07
         0.21721E+07
         0.16627E+07
         0.77723E+06
        -0.16586E+06
        -0.91495E+06
        -0.13688E+07
        -0.54227E+06
        -0.18036E+07
        -0.27532E+07
        -0.23873E+07
        -0.20114E+07
        -0.10846E+07
         0.26029E+06
         0.23604E+06
        -0.21022E+06
        -0.97747E+06
        -0.14451E+07
        -0.10956E+07
        -0.39444E+06
         0.71588E+06
         0.28161E+06
         0.40718E+06
         0.40202E+06
         0.18444E+06
         0.46394E+06
        -0.40630E+06
        -0.83675E+06
         0.92702E+06
        -0.10459E+07
        -0.88446E+06
        -0.11250E+06
        -0.20582E+06
        -0.27129E+07
        -0.89398E+06
        -0.41176E+06
         0.11149E+05
         0.55092E+06
        -0.16270E+06
        -0.18766E+06
        -0.12389E+07
        -0.73963E+06
        -0.17846E+07
        -0.71215E+06
        -0.11724E+07
        -0.36134E+06
        -0.35127E+07
        -0.19745E+07
        -0.12393E+07
        -0.10996E+07
        -0.34635E+06
        -0.48142E+06
         0.35775E+06
         0.82112E+06
        -0.10053E+07
        -0.66757E+06
        -0.40552E+06
        -0.12604E+07
        -0.81010E+06
        -0.50631E+06
        -0.86216E+06
        -0.14734E+07
        -0.13548E+07
        -0.15051E+07
        -0.10777E+07
        -0.52167E+06
        -0.34712E+06
        -0.42022E+06
         0.30044E+06
         0.64874E+06
         0.10664E+06
         0.22476E+06
        -0.25445E+07
        -0.70532E+06
        -0.15452E+07
         0.86928E+05
         0.15192E+07
         0.25270E+07
         0.20572E+07
         0.22013E+07
         0.16950E+07
         0.84003E+06
        -0.18038E+06
        -0.97167E+06
        -0.13666E+07
        -0.52004E+06
        -0.17851E+07
        -0.27377E+07
        -0.23678E+07
        -0.19790E+07
        -0.10448E+07
         0.29738E+06
         0.26816E+06
        -0.17718E+06
        -0.94006E+06
        -0.14106E+07
        -0.10677E+07
        -0.36519E+06
         0.66511E+06
         0.23351E+06
         0.36118E+06
         0.36253E+06
         0.12424E+06
         0.41039E+06
        -0.45398E+06
        -0.89508E+06
         0.87625E+06
        -0.11188E+07
        -0.93854E+06
        -0.19275E+06
        -0.27984E+06
        -0.27743E+07
        -0.97547E+06
        -0.46094E+06
        -0.37918E+05
         0.51220E+06
        -0.21265E+06
        -0.23087E+06
        -0.13077E+07
        -0.80711E+06
        -0.18512E+07
        -0.75683E+06
        -0.12378E+07
        -0.40379E+06
        -0.35882E+07
        -0.20268E+07
        -0.12657E+07
        -0.11364E+07
        -0.39388E+06
        -0.52524E+06
         0.31885E+06
         0.77758E+06
        -0.10783E+07
        -0.72769E+06
        -0.47078E+06
        -0.13542E+07
        -0.88314E+06
        -0.54926E+06
        -0.93054E+06
        -0.15472E+07
        -0.14286E+07
        -0.15689E+07
        -0.11437E+07
        -0.59955E+06
        -0.41172E+06
        -0.47771E+06
         0.24660E+06
         0.58843E+06
         0.32834E+05
         0.16317E+06
        -0.26850E+07
        -0.84161E+06
        -0.16870E+07
        -0.57522E+05
         0.13752E+07
         0.23882E+07
         0.19161E+07
         0.20499E+07
         0.15531E+07
         0.71076E+06
        -0.36048E+06
        -0.11676E+07
        -0.15053E+07
        -0.63499E+06
        -0.19057E+07
        -0.28631E+07
        -0.24973E+07
        -0.21240E+07
        -0.11937E+07
         0.15452E+06
         0.13584E+06
        -0.30385E+06
        -0.10697E+07
        -0.15438E+07
        -0.11957E+07
        -0.49243E+06
         0.69399E+06
         0.23676E+06
         0.36978E+06
         0.37704E+06
         0.14517E+06
         0.42860E+06
        -0.44884E+06
        -0.85818E+06
         0.91012E+06
        -0.10657E+07
        -0.92345E+06
        -0.19133E+06
        -0.29889E+06
        -0.27307E+07
        -0.93822E+06
        -0.42382E+06
        -0.88180E+04
         0.53425E+06
        -0.18565E+06
        -0.20431E+06
        -0.12761E+07
        -0.78385E+06
        -0.18034E+07
        -0.72346E+06
        -0.11824E+07
        -0.37278E+06
        -0.35236E+07
        -0.19650E+07
        -0.12177E+07
        -0.10822E+07
        -0.36590E+06
        -0.50579E+06
         0.33283E+06
         0.77119E+06
        -0.10676E+07
        -0.73196E+06
        -0.48917E+06
        -0.13113E+07
        -0.83194E+06
        -0.50479E+06
        -0.89967E+06
        -0.15058E+07
        -0.13845E+07
        -0.15250E+07
        -0.11192E+07
        -0.58752E+06
        -0.40180E+06
        -0.45342E+06
         0.26480E+06
         0.58945E+06
         0.37736E+05
         0.16472E+06
        -0.26309E+07
        -0.77123E+06
        -0.16691E+07
        -0.88693E+05
         0.13106E+07
         0.23487E+07
         0.19806E+07
         0.21161E+07
         0.16060E+07
         0.74213E+06
        -0.35169E+06
        -0.11408E+07
        -0.14528E+07
        -0.60904E+06
        -0.18511E+07
        -0.27849E+07
        -0.24305E+07
        -0.20729E+07
        -0.11715E+07
         0.15195E+06
         0.16534E+06
        -0.26174E+06
        -0.10027E+07
        -0.14626E+07
        -0.11318E+07
        -0.42631E+06
         0.19969E+09
         0.19251E+09
         0.18946E+09
         0.15988E+09
         0.23941E+09
         0.21274E+09
         0.18774E+09
         0.22660E+09
         0.18357E+09
         0.22642E+09
         0.22282E+09
         0.30705E+09
         0.26988E+09
         0.24490E+09
         0.31657E+09
         0.18252E+09
         0.17536E+09
         0.14245E+09
         0.19196E+09
         0.17914E+09
         0.24767E+09
         0.24875E+09
         0.23523E+09
         0.17143E+09
         0.21415E+09
         0.15483E+09
         0.24133E+09
         0.19389E+09
         0.20466E+09
         0.22318E+09
         0.17974E+09
         0.16616E+09
         0.15991E+09
         0.16493E+09
         0.27285E+09
         0.23041E+09
         0.23858E+09
         0.29623E+09
         0.27990E+09
         0.27359E+09
         0.28938E+09
         0.27069E+09
         0.25656E+09
         0.22517E+09
         0.23255E+09
         0.27677E+09
         0.23998E+09
         0.21844E+09
         0.20690E+09
         0.22099E+09
         0.25967E+09
         0.22597E+09
         0.51220E+09
         0.50192E+09
         0.51147E+09
         0.49547E+09
         0.51169E+09
         0.53729E+09
         0.53946E+09
         0.53312E+09
         0.53714E+09
         0.55207E+09
         0.53468E+09
         0.50361E+09
         0.44593E+09
         0.42077E+09
         0.42726E+09
         0.43749E+09
         0.44356E+09
         0.48384E+09
         0.51859E+09
         0.52123E+09
         0.47765E+09
         0.46048E+09
         0.47696E+09
         0.47136E+09
         0.46793E+09
         0.46887E+09
         0.23507E+10
         0.24614E+10
         0.24256E+10
         0.22118E+10
         0.27271E+10
         0.25601E+10
         0.26631E+10
         0.26856E+10
         0.22971E+10
         0.26841E+10
         0.29255E+10
         0.32821E+10
         0.29743E+10
         0.30110E+10
         0.33970E+10
         0.22510E+10
         0.24192E+10
         0.21092E+10
         0.24991E+10
         0.26296E+10
         0.27239E+10
         0.27832E+10
         0.26141E+10
         0.24028E+10
         0.27146E+10
         0.23179E+10
         0.30001E+10
         0.29486E+10
         0.29620E+10
         0.28109E+10
         0.22750E+10
         0.23923E+10
         0.22295E+10
         0.23322E+10
         0.29869E+10
         0.27391E+10
         0.27487E+10
         0.32887E+10
         0.32037E+10
         0.31650E+10
         0.32219E+10
         0.30592E+10
         0.28930E+10
         0.25514E+10
         0.26566E+10
         0.29862E+10
         0.27600E+10
         0.25945E+10
         0.25425E+10
         0.26367E+10
         0.28645E+10
         0.26447E+10
         0.47392E+10
         0.46179E+10
         0.47144E+10
         0.45672E+10
         0.47031E+10
         0.49441E+10
         0.50236E+10
         0.50126E+10
         0.50478E+10
         0.51629E+10
         0.50136E+10
         0.47141E+10
         0.42265E+10
         0.39949E+10
         0.40060E+10
         0.40573E+10
         0.40969E+10
         0.44423E+10
         0.47597E+10
         0.47791E+10
         0.44237E+10
         0.42871E+10
         0.44286E+10
         0.43967E+10
         0.43467E+10
         0.43345E+10
  
SCALARS                      stress_yy  double 1
LOOKUP_TABLE default
         0.42996E+12
         0.42374E+12
         0.42768E+12
         0.43475E+12
        -0.12240E+03
        -0.13725E+03
        -0.13142E+03
        -0.11939E+03
         0.42353E+12
         0.42563E+12
        -0.12342E+03
        -0.11944E+03
         0.41474E+12
         0.41441E+12
        -0.14665E+03
        -0.13789E+03
         0.43371E+12
         0.41489E+12
        -0.10836E+03
        -0.12019E+03
         0.40797E+12
         0.40260E+12
         0.41115E+12
        -0.14535E+03
        -0.12693E+03
        -0.13107E+03
         0.40280E+12
         0.39495E+12
        -0.13944E+03
        -0.11759E+03
         0.43337E+12
         0.42519E+12
         0.44130E+12
        -0.11899E+03
        -0.11062E+03
        -0.10755E+03
         0.42864E+12
         0.41821E+12
        -0.12589E+03
        -0.11487E+03
         0.42451E+12
         0.41646E+12
        -0.10880E+03
        -0.96321E+02
         0.43132E+12
         0.43434E+12
        -0.11923E+03
        -0.13323E+03
         0.41000E+12
        -0.11648E+03
         0.43375E+12
        -0.13687E+03
         0.40054E+12
        -0.12301E+03
         0.39807E+12
        -0.11799E+03
         0.39811E+12
         0.40688E+12
        -0.12022E+03
        -0.11708E+03
         0.43321E+12
         0.43006E+12
        -0.12055E+03
        -0.13628E+03
         0.43517E+12
        -0.11632E+03
         0.43143E+12
        -0.12695E+03
         0.42159E+12
         0.42060E+12
        -0.12220E+03
        -0.12804E+03
         0.41838E+12
        -0.12912E+03
         0.39216E+12
        -0.10201E+03
         0.39078E+12
        -0.99019E+02
         0.39147E+12
        -0.10441E+03
         0.39527E+12
         0.39922E+12
        -0.99475E+02
        -0.10371E+03
         0.40717E+12
        -0.96590E+02
         0.43116E+12
        -0.12666E+03
         0.42742E+12
        -0.12964E+03
         0.42435E+12
         0.42267E+12
        -0.12450E+03
        -0.12595E+03
         0.42474E+12
        -0.11440E+03
         0.42622E+12
        -0.11277E+03
         0.42488E+12
        -0.12072E+03
         0.42441E+12
         0.42576E+12
        -0.11838E+03
        -0.12185E+03
         0.41700E+12
         0.42055E+12
        -0.91911E+02
        -0.86447E+02
         0.41633E+12
        -0.87763E+02
         0.42043E+12
        -0.84150E+02
         0.41638E+12
        -0.82978E+02
         0.40741E+12
        -0.78415E+02
         0.39871E+12
        -0.69663E+02
         0.39350E+12
        -0.62728E+02
         0.39297E+12
        -0.62292E+02
         0.39313E+12
        -0.67552E+02
         0.39879E+12
        -0.70995E+02
         0.40935E+12
        -0.64826E+02
         0.42093E+12
        -0.58434E+02
         0.42771E+12
        -0.58367E+02
         0.43441E+12
        -0.65240E+02
         0.43883E+12
        -0.74389E+02
         0.43867E+12
        -0.79916E+02
         0.42792E+12
        -0.86309E+02
         0.42043E+12
        -0.92467E+02
         0.41785E+12
        -0.84706E+02
         0.42187E+12
        -0.74310E+02
         0.42397E+12
        -0.74081E+02
         0.42046E+12
        -0.81053E+02
         0.42051E+12
        -0.86408E+02
         0.42316E+12
        -0.82001E+02
         0.42661E+12
        -0.79275E+02
        -0.31941E+11
        -0.32053E+11
        -0.32039E+11
        -0.31887E+11
        -0.32141E+11
        -0.32027E+11
        -0.32164E+11
        -0.32098E+11
        -0.31913E+11
        -0.32036E+11
        -0.32220E+11
        -0.32234E+11
        -0.32193E+11
        -0.32190E+11
        -0.32218E+11
        -0.31895E+11
        -0.31926E+11
        -0.31836E+11
        -0.32064E+11
        -0.32028E+11
        -0.32078E+11
        -0.32046E+11
        -0.32104E+11
        -0.32090E+11
        -0.32031E+11
        -0.32036E+11
        -0.32130E+11
        -0.32123E+11
        -0.32181E+11
        -0.32088E+11
        -0.31910E+11
        -0.32054E+11
        -0.31911E+11
        -0.32010E+11
        -0.32243E+11
        -0.32188E+11
        -0.32155E+11
        -0.32193E+11
        -0.32197E+11
        -0.32247E+11
        -0.32273E+11
        -0.32195E+11
        -0.32076E+11
        -0.32095E+11
        -0.32158E+11
        -0.32242E+11
        -0.32173E+11
        -0.32070E+11
        -0.32078E+11
        -0.32159E+11
        -0.32222E+11
        -0.32132E+11
        -0.32307E+11
        -0.32286E+11
        -0.32291E+11
        -0.32284E+11
        -0.32286E+11
        -0.32300E+11
        -0.32308E+11
        -0.32308E+11
        -0.32308E+11
        -0.32308E+11
        -0.32308E+11
        -0.32287E+11
        -0.32266E+11
        -0.32256E+11
        -0.32237E+11
        -0.32220E+11
        -0.32221E+11
        -0.32248E+11
        -0.32303E+11
        -0.32295E+11
        -0.32278E+11
        -0.32278E+11
        -0.32282E+11
        -0.32297E+11
        -0.32272E+11
        -0.32260E+11
         0.17037E+06
        -0.25823E+06
        -0.86966E+05
         0.78748E+06
         0.26483E+06
         0.94227E+06
        -0.40094E+06
        -0.12903E+07
         0.53575E+06
        -0.13371E+07
        -0.13151E+07
        -0.10740E+07
        -0.31533E+06
        -0.20030E+07
        -0.16568E+07
         0.12709E+06
         0.50331E+06
         0.67153E+06
        -0.48325E+06
         0.85119E+05
        -0.20305E+06
         0.33077E+06
        -0.51122E+06
        -0.21147E+06
        -0.13611E+07
        -0.12805E+06
        -0.26656E+07
        -0.18265E+07
        -0.95641E+06
        -0.11987E+07
         0.37411E+04
        -0.46285E+05
         0.52944E+06
         0.95777E+06
         0.46974E+05
        -0.59461E+05
        -0.35903E+05
        -0.16168E+07
        -0.16280E+07
        -0.11712E+07
        -0.17972E+06
        -0.22400E+06
        -0.16811E+06
        -0.60909E+06
        -0.70391E+06
        -0.11605E+07
        -0.54128E+06
        -0.11752E+06
        -0.22406E+06
         0.15020E+05
         0.41572E+06
         0.11143E+07
        -0.12102E+07
         0.52384E+06
        -0.93991E+06
         0.15411E+06
         0.92532E+06
         0.14176E+07
         0.86032E+06
         0.11711E+07
         0.75788E+06
         0.18080E+06
         0.57587E+06
         0.68834E+06
         0.16747E+06
         0.88144E+06
        -0.32775E+06
        -0.13009E+07
        -0.14405E+07
        -0.16508E+07
        -0.18446E+07
        -0.85250E+06
        -0.71278E+06
        -0.11094E+07
        -0.15988E+07
        -0.10747E+07
         0.99956E+05
         0.82217E+06
         0.11625E+06
        -0.30928E+06
        -0.13674E+06
         0.74703E+06
         0.19959E+06
         0.88490E+06
        -0.45028E+06
        -0.13540E+07
         0.48269E+06
        -0.14068E+07
        -0.13731E+07
        -0.11601E+07
        -0.38914E+06
        -0.20673E+07
        -0.17434E+07
         0.71575E+05
         0.45133E+06
         0.63208E+06
        -0.53991E+06
         0.30554E+05
        -0.27693E+06
         0.25927E+06
        -0.58650E+06
        -0.26481E+06
        -0.14319E+07
        -0.17874E+06
        -0.27280E+07
        -0.18817E+07
        -0.10149E+07
        -0.12712E+07
        -0.48042E+05
        -0.94353E+05
         0.48771E+06
         0.91683E+06
        -0.27550E+05
        -0.12097E+06
        -0.99883E+05
        -0.17031E+07
        -0.17077E+07
        -0.12487E+07
        -0.26459E+06
        -0.30636E+06
        -0.24674E+06
        -0.68105E+06
        -0.77132E+06
        -0.12362E+07
        -0.60834E+06
        -0.17889E+06
        -0.27812E+06
        -0.40981E+05
         0.34686E+06
         0.10536E+07
        -0.13509E+07
         0.38640E+06
        -0.10754E+07
         0.24563E+05
         0.78816E+06
         0.12650E+07
         0.70796E+06
         0.10171E+07
         0.60204E+06
         0.21506E+05
         0.41743E+06
         0.54177E+06
         0.45281E+05
         0.76729E+06
        -0.44735E+06
        -0.14288E+07
        -0.15713E+07
        -0.17874E+07
        -0.19818E+07
        -0.99743E+06
        -0.84960E+06
        -0.12329E+07
        -0.17226E+07
        -0.12012E+07
        -0.27881E+05
         0.69208E+06
         0.12901E+06
        -0.29927E+06
        -0.12628E+06
         0.75700E+06
         0.21617E+06
         0.89981E+06
        -0.44072E+06
        -0.13414E+07
         0.49108E+06
        -0.14066E+07
        -0.13621E+07
        -0.11435E+07
        -0.37497E+06
        -0.20503E+07
        -0.17231E+07
         0.60548E+05
         0.44799E+06
         0.64283E+06
        -0.55416E+06
         0.20407E+05
        -0.28945E+06
         0.25457E+06
        -0.63587E+06
        -0.30326E+06
        -0.14640E+07
        -0.21416E+06
        -0.27160E+07
        -0.18891E+07
        -0.10381E+07
        -0.13223E+07
        -0.47702E+05
        -0.10513E+06
         0.49793E+06
         0.92974E+06
        -0.80197E+04
        -0.10570E+06
        -0.85779E+05
        -0.16888E+07
        -0.16958E+07
        -0.12445E+07
        -0.26687E+06
        -0.33624E+06
        -0.28915E+06
        -0.72934E+06
        -0.78301E+06
        -0.12259E+07
        -0.59630E+06
        -0.16456E+06
        -0.26278E+06
        -0.23174E+05
         0.36635E+06
         0.10707E+07
        -0.13089E+07
         0.42397E+06
        -0.10338E+07
         0.56659E+05
         0.81191E+06
         0.12888E+07
         0.73833E+06
         0.10476E+07
         0.63269E+06
         0.53380E+05
         0.43623E+06
         0.54102E+06
         0.47262E+05
         0.78825E+06
        -0.43339E+06
        -0.14548E+07
        -0.15996E+07
        -0.17802E+07
        -0.19442E+07
        -0.95379E+06
        -0.81072E+06
        -0.11936E+07
        -0.16786E+07
        -0.11639E+07
         0.25601E+04
         0.72151E+06
         0.12136E+06
        -0.30362E+06
        -0.13053E+06
         0.75002E+06
         0.20966E+06
         0.89452E+06
        -0.44540E+06
        -0.13510E+07
         0.47545E+06
        -0.14380E+07
        -0.13686E+07
        -0.11523E+07
        -0.38080E+06
        -0.20571E+07
        -0.17346E+07
         0.16410E+05
         0.41709E+06
         0.63583E+06
        -0.60378E+06
        -0.25460E+05
        -0.34561E+06
         0.20516E+06
        -0.75080E+06
        -0.38931E+06
        -0.15475E+07
        -0.29508E+06
        -0.27331E+07
        -0.19339E+07
        -0.11099E+07
        -0.14429E+07
        -0.72671E+05
        -0.14834E+06
         0.49083E+06
         0.92275E+06
        -0.17565E+05
        -0.11206E+06
        -0.90939E+05
        -0.17052E+07
        -0.17161E+07
        -0.12799E+07
        -0.31507E+06
        -0.42950E+06
        -0.40388E+06
        -0.84295E+06
        -0.83897E+06
        -0.12564E+07
        -0.61797E+06
        -0.17563E+06
        -0.27161E+06
        -0.33400E+05
         0.35595E+06
         0.10640E+07
        -0.13285E+07
         0.41037E+06
        -0.10554E+07
         0.37970E+05
         0.79924E+06
         0.12744E+07
         0.71415E+06
         0.10215E+07
         0.60719E+06
         0.22532E+05
         0.38743E+06
         0.46213E+06
        -0.26803E+05
         0.75309E+06
        -0.47285E+06
        -0.15636E+07
        -0.17151E+07
        -0.18343E+07
        -0.19700E+07
        -0.97819E+06
        -0.82942E+06
        -0.12156E+07
        -0.17017E+07
        -0.11793E+07
        -0.90798E+04
         0.70998E+06
         0.10740E+06
        -0.31242E+06
        -0.13786E+06
         0.74283E+06
         0.20222E+06
         0.88733E+06
        -0.45240E+06
        -0.13660E+07
         0.45678E+06
        -0.14706E+07
        -0.13755E+07
        -0.11577E+07
        -0.38730E+06
        -0.20647E+07
        -0.17405E+07
        -0.13388E+05
         0.39247E+06
         0.62935E+06
        -0.63662E+06
        -0.58404E+05
        -0.38190E+06
         0.16966E+06
        -0.82144E+06
        -0.44252E+06
        -0.16085E+07
        -0.34667E+06
        -0.27480E+07
        -0.19662E+07
        -0.11592E+07
        -0.15234E+07
        -0.98720E+05
        -0.17959E+06
         0.47770E+06
         0.91315E+06
        -0.27429E+05
        -0.12014E+06
        -0.98672E+05
        -0.17176E+07
        -0.17331E+07
        -0.13068E+07
        -0.34916E+06
        -0.49215E+06
        -0.47915E+06
        -0.91539E+06
        -0.87605E+06
        -0.12767E+07
        -0.63723E+06
        -0.19366E+06
        -0.28730E+06
        -0.48731E+05
         0.33973E+06
         0.10532E+07
        -0.13461E+07
         0.39849E+06
        -0.10738E+07
         0.23426E+05
         0.79329E+06
         0.12702E+07
         0.70388E+06
         0.10042E+07
         0.58553E+06
         0.34350E+04
         0.35771E+06
         0.40752E+06
        -0.77297E+05
         0.72590E+06
        -0.50071E+06
        -0.16341E+07
        -0.17962E+07
        -0.18730E+07
        -0.19817E+07
        -0.10004E+07
        -0.85416E+06
        -0.12409E+07
        -0.17314E+07
        -0.12045E+07
        -0.24546E+05
         0.69848E+06
         0.73502E+05
        -0.32924E+06
        -0.14512E+06
         0.74763E+06
         0.21060E+06
         0.89759E+06
        -0.45736E+06
        -0.13910E+07
         0.43075E+06
        -0.15136E+07
        -0.13713E+07
        -0.11383E+07
        -0.37984E+06
        -0.20610E+07
        -0.17171E+07
        -0.77714E+04
         0.38617E+06
         0.64036E+06
        -0.63044E+06
        -0.53261E+05
        -0.37187E+06
         0.18206E+06
        -0.81993E+06
        -0.44338E+06
        -0.16361E+07
        -0.35349E+06
        -0.27516E+07
        -0.19700E+07
        -0.11556E+07
        -0.15273E+07
        -0.12991E+06
        -0.19588E+06
         0.45621E+06
         0.91047E+06
        -0.18790E+05
        -0.11950E+06
        -0.10016E+06
        -0.17031E+07
        -0.17210E+07
        -0.12927E+07
        -0.33291E+06
        -0.48213E+06
        -0.47120E+06
        -0.92048E+06
        -0.88119E+06
        -0.12802E+07
        -0.65395E+06
        -0.23040E+06
        -0.32641E+06
        -0.69735E+05
         0.33439E+06
         0.10582E+07
        -0.13115E+07
         0.43408E+06
        -0.10449E+07
         0.42873E+05
         0.81363E+06
         0.12981E+07
         0.73544E+06
         0.10346E+07
         0.62007E+06
         0.49242E+05
         0.39775E+06
         0.43159E+06
        -0.50638E+05
         0.75362E+06
        -0.47385E+06
        -0.16127E+07
        -0.17810E+07
        -0.18576E+07
        -0.19632E+07
        -0.98746E+06
        -0.85707E+06
        -0.12585E+07
        -0.17431E+07
        -0.11984E+07
        -0.70531E+04
         0.72354E+06
         0.21842E+05
        -0.35894E+06
        -0.16237E+06
         0.74297E+06
         0.20324E+06
         0.89655E+06
        -0.47743E+06
        -0.14383E+07
         0.38706E+06
        -0.15759E+07
        -0.13858E+07
        -0.11456E+07
        -0.39175E+06
        -0.20810E+07
        -0.17231E+07
        -0.16623E+05
         0.36579E+06
         0.63846E+06
        -0.63656E+06
        -0.60661E+05
        -0.37729E+06
         0.17852E+06
        -0.82557E+06
        -0.44966E+06
        -0.16740E+07
        -0.36616E+06
        -0.27769E+07
        -0.19866E+07
        -0.11602E+07
        -0.15377E+07
        -0.17371E+06
        -0.22278E+06
         0.42382E+06
         0.89772E+06
        -0.30360E+05
        -0.13251E+06
        -0.11529E+06
        -0.17160E+07
        -0.17336E+07
        -0.12993E+07
        -0.33608E+06
        -0.48337E+06
        -0.47202E+06
        -0.93198E+06
        -0.90197E+06
        -0.13088E+07
        -0.69236E+06
        -0.28596E+06
        -0.38245E+06
        -0.10675E+06
         0.31278E+06
         0.10508E+07
        -0.13259E+07
         0.42280E+06
        -0.10538E+07
         0.33055E+05
         0.79934E+06
         0.12811E+07
         0.72147E+06
         0.10227E+07
         0.60788E+06
         0.40164E+05
         0.39052E+06
         0.42271E+06
        -0.52191E+05
         0.75138E+06
        -0.47973E+06
        -0.16162E+07
        -0.17882E+07
        -0.18822E+07
        -0.19996E+07
        -0.10275E+07
        -0.90214E+06
        -0.13141E+07
        -0.17920E+07
        -0.12240E+07
        -0.20747E+05
         0.71288E+06
         0.67977E+04
        -0.36990E+06
        -0.16955E+06
         0.73689E+06
         0.19536E+06
         0.88956E+06
        -0.48773E+06
        -0.14555E+07
         0.37388E+06
        -0.15963E+07
        -0.13965E+07
        -0.11558E+07
        -0.40346E+06
        -0.20915E+07
        -0.17328E+07
        -0.24586E+05
         0.35708E+06
         0.63344E+06
        -0.64223E+06
        -0.66387E+05
        -0.38558E+06
         0.17029E+06
        -0.83296E+06
        -0.45442E+06
        -0.16893E+07
        -0.37315E+06
        -0.27879E+07
        -0.19955E+07
        -0.11687E+07
        -0.15478E+07
        -0.18778E+06
        -0.23320E+06
         0.41283E+06
         0.89036E+06
        -0.40126E+05
        -0.13966E+06
        -0.12457E+06
        -0.17322E+07
        -0.17479E+07
        -0.13130E+07
        -0.35057E+06
        -0.49446E+06
        -0.47927E+06
        -0.94233E+06
        -0.91458E+06
        -0.13223E+07
        -0.70531E+06
        -0.29969E+06
        -0.39612E+06
        -0.11929E+06
         0.29942E+06
         0.10416E+07
        -0.13456E+07
         0.40328E+06
        -0.10672E+07
         0.19490E+05
         0.78282E+06
         0.12668E+07
         0.70677E+06
         0.10023E+07
         0.58071E+06
         0.11698E+05
         0.36474E+06
         0.41096E+06
        -0.61445E+05
         0.73159E+06
        -0.50046E+06
        -0.16361E+07
        -0.18142E+07
        -0.19070E+07
        -0.20204E+07
        -0.10442E+07
        -0.91594E+06
        -0.13326E+07
        -0.18166E+07
        -0.12467E+07
        -0.39759E+05
         0.69410E+06
         0.16403E+05
        -0.36233E+06
        -0.16430E+06
         0.73788E+06
         0.20309E+06
         0.89116E+06
        -0.48123E+06
        -0.14451E+07
         0.38168E+06
        -0.15873E+07
        -0.13904E+07
        -0.11453E+07
        -0.39584E+06
        -0.20788E+07
        -0.17171E+07
        -0.13937E+05
         0.36386E+06
         0.63855E+06
        -0.63292E+06
        -0.58205E+05
        -0.37533E+06
         0.18021E+06
        -0.82227E+06
        -0.44541E+06
        -0.16831E+07
        -0.36442E+06
        -0.27726E+07
        -0.19854E+07
        -0.11605E+07
        -0.15401E+07
        -0.17902E+06
        -0.22661E+06
         0.41709E+06
         0.89229E+06
        -0.28920E+05
        -0.13189E+06
        -0.11753E+06
        -0.17216E+07
        -0.17400E+07
        -0.13054E+07
        -0.34111E+06
        -0.48379E+06
        -0.46857E+06
        -0.93328E+06
        -0.90717E+06
        -0.13140E+07
        -0.69747E+06
        -0.28996E+06
        -0.38663E+06
        -0.11154E+06
         0.30512E+06
         0.10438E+07
        -0.13161E+07
         0.43219E+06
        -0.10501E+07
         0.26587E+05
         0.79716E+06
         0.12894E+07
         0.73195E+06
         0.10204E+07
         0.58751E+06
         0.22258E+05
         0.38376E+06
         0.43786E+06
        -0.37881E+05
         0.74681E+06
        -0.48603E+06
        -0.16195E+07
        -0.17976E+07
        -0.18862E+07
        -0.20006E+07
        -0.10208E+07
        -0.89203E+06
        -0.13113E+07
        -0.17988E+07
        -0.12306E+07
        -0.23602E+05
         0.71162E+06
         0.13974E+05
        -0.36288E+06
        -0.16585E+06
         0.73359E+06
         0.20114E+06
         0.88722E+06
        -0.48278E+06
        -0.14506E+07
         0.37491E+06
        -0.15966E+07
        -0.13954E+07
        -0.11514E+07
        -0.39760E+06
        -0.20836E+07
        -0.17273E+07
        -0.18811E+05
         0.35794E+06
         0.63317E+06
        -0.63767E+06
        -0.62593E+05
        -0.37981E+06
         0.17493E+06
        -0.82611E+06
        -0.44847E+06
        -0.16895E+07
        -0.36704E+06
        -0.27762E+07
        -0.19865E+07
        -0.11622E+07
        -0.15453E+07
        -0.18317E+06
        -0.22952E+06
         0.41076E+06
         0.88675E+06
        -0.32458E+05
        -0.13522E+06
        -0.11976E+06
        -0.17357E+07
        -0.17484E+07
        -0.13124E+07
        -0.34829E+06
        -0.48799E+06
        -0.47478E+06
        -0.93659E+06
        -0.91047E+06
        -0.13184E+07
        -0.70370E+06
        -0.29620E+06
        -0.39182E+06
        -0.11617E+06
         0.29988E+06
         0.10384E+07
        -0.13246E+07
         0.42538E+06
        -0.10641E+07
         0.14827E+05
         0.79544E+06
         0.12812E+07
         0.71279E+06
         0.99905E+06
         0.57484E+06
         0.33177E+04
         0.36310E+06
         0.42748E+06
        -0.50045E+05
         0.74008E+06
        -0.49228E+06
        -0.16255E+07
        -0.17988E+07
        -0.18905E+07
        -0.20066E+07
        -0.10366E+07
        -0.91166E+06
        -0.13264E+07
        -0.18066E+07
        -0.12341E+07
        -0.32027E+05
         0.69971E+06
         0.70880E+04
        -0.36841E+06
        -0.17002E+06
         0.73083E+06
         0.19550E+06
         0.88456E+06
        -0.48722E+06
        -0.14582E+07
         0.36871E+06
        -0.16059E+07
        -0.14009E+07
        -0.11597E+07
        -0.40290E+06
        -0.20871E+07
        -0.17376E+07
        -0.25660E+05
         0.35307E+06
         0.63012E+06
        -0.64340E+06
        -0.65831E+05
        -0.38547E+06
         0.16958E+06
        -0.83194E+06
        -0.45337E+06
        -0.16959E+07
        -0.37240E+06
        -0.27789E+07
        -0.19889E+07
        -0.11643E+07
        -0.15494E+07
        -0.18930E+06
        -0.23456E+06
         0.40681E+06
         0.88540E+06
        -0.41067E+05
        -0.14088E+06
        -0.12480E+06
        -0.17494E+07
        -0.17578E+07
        -0.13186E+07
        -0.35251E+06
        -0.49155E+06
        -0.48046E+06
        -0.94238E+06
        -0.91599E+06
        -0.13243E+07
        -0.70954E+06
        -0.30156E+06
        -0.39677E+06
        -0.12017E+06
         0.29491E+06
         0.10360E+07
        -0.13416E+07
         0.41108E+06
        -0.10748E+07
         0.11248E+05
         0.79071E+06
         0.12645E+07
         0.68871E+06
         0.97980E+06
         0.56173E+06
        -0.10310E+05
         0.35465E+06
         0.41723E+06
        -0.64654E+05
         0.73010E+06
        -0.50270E+06
        -0.16377E+07
        -0.18072E+07
        -0.19002E+07
        -0.20184E+07
        -0.10495E+07
        -0.92659E+06
        -0.13418E+07
        -0.18178E+07
        -0.12444E+07
        -0.44964E+05
         0.68612E+06
         0.11659E+05
        -0.36597E+06
        -0.16818E+06
         0.73316E+06
         0.20059E+06
         0.88909E+06
        -0.48315E+06
        -0.14514E+07
         0.37206E+06
        -0.16034E+07
        -0.13953E+07
        -0.11524E+07
        -0.40054E+06
        -0.20754E+07
        -0.17231E+07
        -0.19636E+05
         0.35528E+06
         0.63521E+06
        -0.63798E+06
        -0.59224E+05
        -0.37736E+06
         0.17844E+06
        -0.82473E+06
        -0.44776E+06
        -0.16943E+07
        -0.36670E+06
        -0.27692E+07
        -0.19824E+07
        -0.11552E+07
        -0.15409E+07
        -0.18230E+06
        -0.22995E+06
         0.41213E+06
         0.89075E+06
        -0.34130E+05
        -0.13597E+06
        -0.12191E+06
        -0.17410E+07
        -0.17499E+07
        -0.13074E+07
        -0.34193E+06
        -0.48340E+06
        -0.47186E+06
        -0.93704E+06
        -0.91168E+06
        -0.13198E+07
        -0.70491E+06
        -0.29564E+06
        -0.39041E+06
        -0.11350E+06
         0.30087E+06
         0.10421E+07
        -0.13200E+07
         0.43437E+06
        -0.10530E+07
         0.22003E+05
         0.78711E+06
         0.12657E+07
         0.70619E+06
         0.99915E+06
         0.57462E+06
         0.93556E+04
         0.37334E+06
         0.42601E+06
        -0.48900E+05
         0.74605E+06
        -0.48812E+06
        -0.16266E+07
        -0.17999E+07
        -0.18908E+07
        -0.20095E+07
        -0.10355E+07
        -0.91014E+06
        -0.13260E+07
        -0.18041E+07
        -0.12325E+07
        -0.27447E+05
         0.70663E+06
         0.84847E+04
        -0.37039E+06
        -0.17223E+06
         0.72839E+06
         0.19484E+06
         0.88365E+06
        -0.48863E+06
        -0.14583E+07
         0.36699E+06
        -0.16143E+07
        -0.14029E+07
        -0.11626E+07
        -0.41132E+06
        -0.20818E+07
        -0.17307E+07
        -0.25142E+05
         0.34923E+06
         0.62947E+06
        -0.64490E+06
        -0.64458E+05
        -0.38729E+06
         0.16882E+06
        -0.83467E+06
        -0.45344E+06
        -0.17045E+07
        -0.37135E+06
        -0.27786E+07
        -0.19909E+07
        -0.11614E+07
        -0.15474E+07
        -0.18799E+06
        -0.23470E+06
         0.40463E+06
         0.88570E+06
        -0.42351E+05
        -0.14255E+06
        -0.13013E+06
        -0.17558E+07
        -0.17643E+07
        -0.13192E+07
        -0.35548E+06
        -0.49555E+06
        -0.48148E+06
        -0.94832E+06
        -0.92141E+06
        -0.13283E+07
        -0.71308E+06
        -0.30413E+06
        -0.39689E+06
        -0.11806E+06
         0.29424E+06
         0.10360E+07
        -0.13368E+07
         0.41973E+06
        -0.10698E+07
         0.28015E+04
         0.76465E+06
         0.12444E+07
         0.69320E+06
         0.98250E+06
         0.55246E+06
        -0.12533E+05
         0.34668E+06
         0.39959E+06
        -0.66364E+05
         0.72791E+06
        -0.50368E+06
        -0.16446E+07
        -0.18278E+07
        -0.19157E+07
        -0.20220E+07
        -0.10526E+07
        -0.92792E+06
        -0.13351E+07
        -0.18104E+07
        -0.12452E+07
        -0.44969E+05
         0.68925E+06
         0.79681E+04
        -0.37179E+06
        -0.17356E+06
         0.72641E+06
         0.19382E+06
         0.88180E+06
        -0.48988E+06
        -0.14599E+07
         0.36683E+06
        -0.16168E+07
        -0.14047E+07
        -0.11639E+07
        -0.41300E+06
        -0.20801E+07
        -0.17310E+07
        -0.26087E+05
         0.34862E+06
         0.62835E+06
        -0.64597E+06
        -0.64615E+05
        -0.38970E+06
         0.16729E+06
        -0.83691E+06
        -0.45435E+06
        -0.17079E+07
        -0.37235E+06
        -0.27768E+07
        -0.19922E+07
        -0.11626E+07
        -0.15496E+07
        -0.19085E+06
        -0.23634E+06
         0.40112E+06
         0.88431E+06
        -0.44244E+05
        -0.14477E+06
        -0.13265E+06
        -0.17633E+07
        -0.17730E+07
        -0.13241E+07
        -0.35722E+06
        -0.49651E+06
        -0.48286E+06
        -0.95065E+06
        -0.92359E+06
        -0.13305E+07
        -0.71598E+06
        -0.30739E+06
        -0.39922E+06
        -0.11863E+06
         0.29301E+06
         0.10345E+07
        -0.13371E+07
         0.41998E+06
        -0.10745E+07
        -0.46079E+04
         0.76412E+06
         0.12441E+07
         0.68801E+06
         0.96860E+06
         0.53645E+06
        -0.21313E+05
         0.34581E+06
         0.39692E+06
        -0.70752E+05
         0.72082E+06
        -0.51180E+06
        -0.16504E+07
        -0.18319E+07
        -0.19191E+07
        -0.20255E+07
        -0.10588E+07
        -0.93583E+06
        -0.13402E+07
        -0.18111E+07
        -0.12467E+07
        -0.52674E+05
         0.68234E+06
         0.22288E+05
        -0.35746E+06
        -0.16194E+06
         0.73363E+06
         0.20952E+06
         0.89277E+06
        -0.47562E+06
        -0.14442E+07
         0.37625E+06
        -0.16060E+07
        -0.13899E+07
        -0.11412E+07
        -0.39352E+06
        -0.20608E+07
        -0.17090E+07
        -0.13211E+05
         0.35812E+06
         0.63775E+06
        -0.63353E+06
        -0.51340E+05
        -0.37127E+06
         0.18489E+06
        -0.81916E+06
        -0.44244E+06
        -0.16957E+07
        -0.36024E+06
        -0.27575E+07
        -0.19749E+07
        -0.11454E+07
        -0.15331E+07
        -0.17710E+06
        -0.22409E+06
         0.40977E+06
         0.89158E+06
        -0.25737E+05
        -0.13018E+06
        -0.11707E+06
        -0.17497E+07
        -0.17565E+07
        -0.13057E+07
        -0.33933E+06
        -0.47822E+06
        -0.46679E+06
        -0.93304E+06
        -0.90613E+06
        -0.13119E+07
        -0.70037E+06
        -0.29252E+06
        -0.38668E+06
        -0.10698E+06
         0.30543E+06
         0.10452E+07
        -0.12979E+07
         0.45893E+06
        -0.10418E+07
         0.19185E+05
         0.79308E+06
         0.12810E+07
         0.71899E+06
         0.99216E+06
         0.56270E+06
         0.74993E+04
         0.37180E+06
         0.42727E+06
        -0.46678E+05
         0.74754E+06
        -0.48125E+06
        -0.16187E+07
        -0.17964E+07
        -0.18806E+07
        -0.19924E+07
        -0.10241E+07
        -0.90640E+06
        -0.13183E+07
        -0.17869E+07
        -0.12176E+07
        -0.21167E+05
         0.71423E+06
         0.16387E+05
        -0.36142E+06
        -0.16572E+06
         0.72790E+06
         0.20239E+06
         0.88720E+06
        -0.48056E+06
        -0.14528E+07
         0.36919E+06
        -0.16189E+07
        -0.13974E+07
        -0.11491E+07
        -0.39827E+06
        -0.20677E+07
        -0.17195E+07
        -0.20339E+05
         0.35068E+06
         0.63309E+06
        -0.64254E+06
        -0.57844E+05
        -0.37803E+06
         0.17611E+06
        -0.82530E+06
        -0.44935E+06
        -0.17071E+07
        -0.36702E+06
        -0.27660E+07
        -0.19807E+07
        -0.11461E+07
        -0.15379E+07
        -0.18116E+06
        -0.22953E+06
         0.40436E+06
         0.88551E+06
        -0.36340E+05
        -0.13614E+06
        -0.12112E+06
        -0.17665E+07
        -0.17684E+07
        -0.13110E+07
        -0.34797E+06
        -0.48762E+06
        -0.47787E+06
        -0.94157E+06
        -0.91467E+06
        -0.13200E+07
        -0.70723E+06
        -0.29723E+06
        -0.39206E+06
        -0.11406E+06
         0.29749E+06
         0.10389E+07
        -0.13227E+07
         0.43784E+06
        -0.10612E+07
         0.90347E+04
         0.78954E+06
         0.12716E+07
         0.69808E+06
         0.96703E+06
         0.53816E+06
        -0.14296E+05
         0.34610E+06
         0.39777E+06
        -0.67466E+05
         0.73716E+06
        -0.48607E+06
        -0.16219E+07
        -0.18067E+07
        -0.18982E+07
        -0.20055E+07
        -0.10395E+07
        -0.92067E+06
        -0.13342E+07
        -0.18041E+07
        -0.12282E+07
        -0.31053E+05
         0.69779E+06
         0.64737E+04
        -0.37170E+06
        -0.17584E+06
         0.72047E+06
         0.19122E+06
         0.87700E+06
        -0.48856E+06
        -0.14628E+07
         0.35924E+06
        -0.16401E+07
        -0.14063E+07
        -0.11619E+07
        -0.40879E+06
        -0.20747E+07
        -0.17327E+07
        -0.29121E+05
         0.33979E+06
         0.62767E+06
        -0.65000E+06
        -0.60804E+05
        -0.38630E+06
         0.16585E+06
        -0.83271E+06
        -0.45525E+06
        -0.17254E+07
        -0.37367E+06
        -0.27852E+07
        -0.19902E+07
        -0.11261E+07
        -0.15264E+07
        -0.18878E+06
        -0.23734E+06
         0.39898E+06
         0.88120E+06
        -0.48280E+05
        -0.14588E+06
        -0.13074E+06
        -0.17909E+07
        -0.17801E+07
        -0.12939E+07
        -0.34896E+06
        -0.49782E+06
        -0.49266E+06
        -0.95078E+06
        -0.92541E+06
        -0.13327E+07
        -0.71891E+06
        -0.30574E+06
        -0.39832E+06
        -0.11965E+06
         0.29045E+06
         0.10313E+07
        -0.13393E+07
         0.42249E+06
        -0.10745E+07
        -0.23926E+04
         0.77351E+06
         0.12457E+07
         0.66857E+06
         0.93896E+06
         0.51343E+06
        -0.20008E+05
         0.30125E+06
         0.32718E+06
        -0.96685E+05
         0.72090E+06
        -0.50057E+06
        -0.16350E+07
        -0.18231E+07
        -0.19167E+07
        -0.20269E+07
        -0.10636E+07
        -0.93703E+06
        -0.13495E+07
        -0.18216E+07
        -0.12408E+07
        -0.50686E+05
         0.67582E+06
         0.20116E+05
        -0.35852E+06
        -0.16321E+06
         0.72938E+06
         0.20792E+06
         0.88888E+06
        -0.47610E+06
        -0.14473E+07
         0.36558E+06
        -0.16455E+07
        -0.13931E+07
        -0.11449E+07
        -0.39434E+06
        -0.20564E+07
        -0.17131E+07
        -0.16101E+05
         0.34600E+06
         0.63651E+06
        -0.63556E+06
        -0.39220E+05
        -0.37103E+06
         0.18122E+06
        -0.81845E+06
        -0.44241E+06
        -0.17244E+07
        -0.36054E+06
        -0.27884E+07
        -0.19794E+07
        -0.10650E+07
        -0.14734E+07
        -0.17699E+06
        -0.22489E+06
         0.40743E+06
         0.89098E+06
        -0.28453E+05
        -0.12961E+06
        -0.11603E+06
        -0.17903E+07
        -0.17610E+07
        -0.12292E+07
        -0.31435E+06
        -0.47929E+06
        -0.48333E+06
        -0.93574E+06
        -0.90835E+06
        -0.13121E+07
        -0.70261E+06
        -0.29210E+06
        -0.38459E+06
        -0.10397E+06
         0.30699E+06
         0.10439E+07
        -0.12989E+07
         0.46206E+06
        -0.10341E+07
         0.25952E+05
         0.79156E+06
         0.12667E+07
         0.69760E+06
         0.96840E+06
         0.54555E+06
         0.42757E+05
         0.28669E+06
         0.27036E+06
        -0.94566E+05
         0.74304E+06
        -0.48192E+06
        -0.16195E+07
        -0.18040E+07
        -0.18845E+07
        -0.19874E+07
        -0.10265E+07
        -0.90510E+06
        -0.13166E+07
        -0.17845E+07
        -0.12062E+07
        -0.22552E+05
         0.70538E+06
        -0.30477E+05
        -0.40644E+06
        -0.20936E+06
         0.68947E+06
         0.14677E+06
         0.83434E+06
        -0.52260E+06
        -0.15077E+07
         0.31383E+06
        -0.17210E+07
        -0.14482E+07
        -0.12249E+07
        -0.46811E+06
        -0.21193E+07
        -0.17957E+07
        -0.64491E+05
         0.29773E+06
         0.59721E+06
        -0.68598E+06
        -0.82744E+05
        -0.44050E+06
         0.11364E+06
        -0.88511E+06
        -0.48685E+06
        -0.17915E+07
        -0.40239E+06
        -0.28641E+07
        -0.20326E+07
        -0.10883E+07
        -0.15107E+07
        -0.22336E+06
        -0.26845E+06
         0.36536E+06
         0.84702E+06
        -0.10108E+06
        -0.19024E+06
        -0.18155E+06
        -0.18845E+07
        -0.18344E+07
        -0.12718E+07
        -0.38301E+06
        -0.55257E+06
        -0.55713E+06
        -0.10004E+07
        -0.97516E+06
        -0.13903E+07
        -0.76778E+06
        -0.34930E+06
        -0.43824E+06
        -0.16378E+06
         0.23304E+06
         0.98185E+06
        -0.14394E+07
         0.32563E+06
        -0.11762E+07
        -0.11850E+06
         0.64744E+06
         0.11280E+07
         0.55662E+06
         0.81723E+06
         0.40354E+06
        -0.86541E+05
         0.10652E+06
         0.74300E+05
        -0.23318E+06
         0.62802E+06
        -0.60251E+06
        -0.17450E+07
        -0.19339E+07
        -0.20296E+07
        -0.21364E+07
        -0.11693E+07
        -0.10376E+07
        -0.14434E+07
        -0.19144E+07
        -0.13393E+07
        -0.15045E+06
         0.57844E+06
        -0.14229E+04
        -0.40301E+06
        -0.20093E+06
         0.70356E+06
         0.16674E+06
         0.85157E+06
        -0.51632E+06
        -0.14728E+07
         0.34672E+06
        -0.16706E+07
        -0.14342E+07
        -0.12232E+07
        -0.48691E+06
        -0.20771E+07
        -0.17595E+07
        -0.26583E+05
         0.32762E+06
         0.61869E+06
        -0.65946E+06
        -0.56476E+05
        -0.40961E+06
         0.13678E+06
        -0.83733E+06
        -0.45325E+06
        -0.17378E+07
        -0.37081E+06
        -0.27997E+07
        -0.19717E+07
        -0.10372E+07
        -0.14570E+07
        -0.19422E+06
        -0.24873E+06
         0.37619E+06
         0.84021E+06
        -0.90011E+05
        -0.19501E+06
        -0.20017E+06
        -0.18419E+07
        -0.17835E+07
        -0.12269E+07
        -0.35244E+06
        -0.51077E+06
        -0.51314E+06
        -0.95726E+06
        -0.95151E+06
        -0.13785E+07
        -0.75839E+06
        -0.32470E+06
        -0.41984E+06
        -0.16226E+06
         0.23781E+06
         0.98295E+06
        -0.13853E+07
         0.39585E+06
        -0.11586E+07
        -0.14968E+06
         0.58265E+06
         0.10886E+07
         0.62128E+06
         0.88369E+06
         0.45624E+06
        -0.55192E+05
         0.11523E+06
         0.10107E+06
        -0.18076E+06
         0.65389E+06
        -0.54775E+06
        -0.16668E+07
        -0.18675E+07
        -0.19786E+07
        -0.21144E+07
        -0.11719E+07
        -0.10083E+07
        -0.14014E+07
        -0.18477E+07
        -0.12580E+07
        -0.86349E+05
         0.64487E+06
         0.19904E+09
         0.19196E+09
         0.18897E+09
         0.16015E+09
         0.23943E+09
         0.21311E+09
         0.18768E+09
         0.22603E+09
         0.18307E+09
         0.22586E+09
         0.22243E+09
         0.30606E+09
         0.26970E+09
         0.24545E+09
         0.31578E+09
         0.18288E+09
         0.17563E+09
         0.14253E+09
         0.19157E+09
         0.17929E+09
         0.24850E+09
         0.24962E+09
         0.23615E+09
         0.17166E+09
         0.21367E+09
         0.15483E+09
         0.24194E+09
         0.19388E+09
         0.20482E+09
         0.22286E+09
         0.17989E+09
         0.16640E+09
         0.15994E+09
         0.16499E+09
         0.27377E+09
         0.23089E+09
         0.23885E+09
         0.29572E+09
         0.27902E+09
         0.27293E+09
         0.28990E+09
         0.27164E+09
         0.25739E+09
         0.22570E+09
         0.23271E+09
         0.27602E+09
         0.23966E+09
         0.21856E+09
         0.20630E+09
         0.22032E+09
         0.25986E+09
         0.22671E+09
         0.51343E+09
         0.50307E+09
         0.51198E+09
         0.49541E+09
         0.51097E+09
         0.53604E+09
         0.53811E+09
         0.53190E+09
         0.53601E+09
         0.55129E+09
         0.53514E+09
         0.50484E+09
         0.44719E+09
         0.42201E+09
         0.42855E+09
         0.43859E+09
         0.44411E+09
         0.48393E+09
         0.51766E+09
         0.51992E+09
         0.47649E+09
         0.45935E+09
         0.47612E+09
         0.47157E+09
         0.46896E+09
         0.46993E+09
         0.23505E+10
         0.24613E+10
         0.24256E+10
         0.22119E+10
         0.27271E+10
         0.25602E+10
         0.26631E+10
         0.26854E+10
         0.22970E+10
         0.26840E+10
         0.29255E+10
         0.32817E+10
         0.29743E+10
         0.30111E+10
         0.33967E+10
         0.22511E+10
         0.24193E+10
         0.21092E+10
         0.24991E+10
         0.26296E+10
         0.27242E+10
         0.27835E+10
         0.26144E+10
         0.24029E+10
         0.27146E+10
         0.23179E+10
         0.30002E+10
         0.29486E+10
         0.29621E+10
         0.28109E+10
         0.22750E+10
         0.23923E+10
         0.22295E+10
         0.23322E+10
         0.29872E+10
         0.27391E+10
         0.27488E+10
         0.32885E+10
         0.32034E+10
         0.31648E+10
         0.32220E+10
         0.30595E+10
         0.28933E+10
         0.25515E+10
         0.26566E+10
         0.29860E+10
         0.27600E+10
         0.25945E+10
         0.25424E+10
         0.26366E+10
         0.28645E+10
         0.26448E+10
         0.47400E+10
         0.46187E+10
         0.47147E+10
         0.45672E+10
         0.47026E+10
         0.49432E+10
         0.50226E+10
         0.50118E+10
         0.50471E+10
         0.51624E+10
         0.50139E+10
         0.47149E+10
         0.42273E+10
         0.39957E+10
         0.40068E+10
         0.40581E+10
         0.40973E+10
         0.44424E+10
         0.47590E+10
         0.47782E+10
         0.44229E+10
         0.42864E+10
         0.44280E+10
         0.43968E+10
         0.43474E+10
         0.43352E+10
  
SCALARS                      stress_zz  double 1
LOOKUP_TABLE default
         0.43051E+12
         0.42430E+12
         0.42824E+12
         0.43530E+12
        -0.28559E+03
        -0.32025E+03
        -0.30665E+03
        -0.27858E+03
         0.42408E+12
         0.42618E+12
        -0.28798E+03
        -0.27869E+03
         0.41529E+12
         0.41496E+12
        -0.34218E+03
        -0.32174E+03
         0.43427E+12
         0.41545E+12
        -0.25284E+03
        -0.28044E+03
         0.40852E+12
         0.40315E+12
         0.41170E+12
        -0.33914E+03
        -0.29618E+03
        -0.30584E+03
         0.40335E+12
         0.39550E+12
        -0.32536E+03
        -0.27438E+03
         0.43393E+12
         0.42574E+12
         0.44186E+12
        -0.27765E+03
        -0.25811E+03
        -0.25095E+03
         0.42919E+12
         0.41876E+12
        -0.29374E+03
        -0.26804E+03
         0.42506E+12
         0.41701E+12
        -0.25387E+03
        -0.22475E+03
         0.43187E+12
         0.43489E+12
        -0.27821E+03
        -0.31086E+03
         0.41055E+12
        -0.27179E+03
         0.43430E+12
        -0.31936E+03
         0.40109E+12
        -0.28702E+03
         0.39862E+12
        -0.27531E+03
         0.39866E+12
         0.40743E+12
        -0.28051E+03
        -0.27318E+03
         0.43376E+12
         0.43061E+12
        -0.28128E+03
        -0.31798E+03
         0.43572E+12
        -0.27141E+03
         0.43198E+12
        -0.29621E+03
         0.42214E+12
         0.42116E+12
        -0.28513E+03
        -0.29877E+03
         0.41893E+12
        -0.30128E+03
         0.39271E+12
        -0.23803E+03
         0.39133E+12
        -0.23104E+03
         0.39202E+12
        -0.24361E+03
         0.39581E+12
         0.39976E+12
        -0.23211E+03
        -0.24199E+03
         0.40772E+12
        -0.22538E+03
         0.43171E+12
        -0.29555E+03
         0.42797E+12
        -0.30249E+03
         0.42490E+12
         0.42322E+12
        -0.29049E+03
        -0.29388E+03
         0.42529E+12
        -0.26693E+03
         0.42677E+12
        -0.26312E+03
         0.42544E+12
        -0.28167E+03
         0.42496E+12
         0.42631E+12
        -0.27622E+03
        -0.28433E+03
         0.41755E+12
         0.42111E+12
        -0.21446E+03
        -0.20171E+03
         0.41688E+12
        -0.20478E+03
         0.42098E+12
        -0.19635E+03
         0.41693E+12
        -0.19361E+03
         0.40796E+12
        -0.18297E+03
         0.39926E+12
        -0.16255E+03
         0.39405E+12
        -0.14636E+03
         0.39352E+12
        -0.14535E+03
         0.39368E+12
        -0.15762E+03
         0.39934E+12
        -0.16566E+03
         0.40990E+12
        -0.15126E+03
         0.42148E+12
        -0.13635E+03
         0.42826E+12
        -0.13619E+03
         0.43496E+12
        -0.15223E+03
         0.43938E+12
        -0.17357E+03
         0.43922E+12
        -0.18647E+03
         0.42848E+12
        -0.20139E+03
         0.42098E+12
        -0.21576E+03
         0.41841E+12
        -0.19765E+03
         0.42242E+12
        -0.17339E+03
         0.42452E+12
        -0.17286E+03
         0.42101E+12
        -0.18912E+03
         0.42106E+12
        -0.20162E+03
         0.42371E+12
        -0.19134E+03
         0.42717E+12
        -0.18498E+03
        -0.32362E+11
        -0.32474E+11
        -0.32460E+11
        -0.32308E+11
        -0.32562E+11
        -0.32448E+11
        -0.32585E+11
        -0.32519E+11
        -0.32334E+11
        -0.32456E+11
        -0.32641E+11
        -0.32655E+11
        -0.32614E+11
        -0.32611E+11
        -0.32639E+11
        -0.32316E+11
        -0.32347E+11
        -0.32257E+11
        -0.32485E+11
        -0.32449E+11
        -0.32499E+11
        -0.32467E+11
        -0.32525E+11
        -0.32511E+11
        -0.32452E+11
        -0.32457E+11
        -0.32552E+11
        -0.32544E+11
        -0.32602E+11
        -0.32510E+11
        -0.32331E+11
        -0.32475E+11
        -0.32332E+11
        -0.32431E+11
        -0.32664E+11
        -0.32609E+11
        -0.32576E+11
        -0.32614E+11
        -0.32619E+11
        -0.32668E+11
        -0.32694E+11
        -0.32616E+11
        -0.32497E+11
        -0.32516E+11
        -0.32579E+11
        -0.32663E+11
        -0.32594E+11
        -0.32491E+11
        -0.32499E+11
        -0.32580E+11
        -0.32643E+11
        -0.32553E+11
        -0.32727E+11
        -0.32706E+11
        -0.32711E+11
        -0.32704E+11
        -0.32705E+11
        -0.32720E+11
        -0.32727E+11
        -0.32728E+11
        -0.32728E+11
        -0.32728E+11
        -0.32728E+11
        -0.32707E+11
        -0.32687E+11
        -0.32677E+11
        -0.32657E+11
        -0.32640E+11
        -0.32640E+11
        -0.32668E+11
        -0.32723E+11
        -0.32715E+11
        -0.32698E+11
        -0.32698E+11
        -0.32702E+11
        -0.32717E+11
        -0.32692E+11
        -0.32680E+11
         0.22711E+07
         0.13633E+07
         0.15813E+07
         0.23829E+07
         0.18854E+07
         0.25408E+07
        -0.21246E+06
         0.49961E+05
         0.27004E+07
        -0.92949E+05
        -0.12189E+07
         0.10655E+07
         0.13833E+07
        -0.24418E+07
         0.23176E+06
         0.12541E+07
         0.16400E+07
         0.17962E+07
         0.61621E+06
         0.45343E+06
         0.85106E+06
         0.14870E+07
         0.34134E+06
         0.15762E+05
        -0.73578E+06
        -0.64691E+05
        -0.37185E+07
        -0.41966E+07
        -0.19726E+07
        -0.46562E+06
         0.11433E+07
         0.27231E+06
         0.21133E+07
         0.28942E+07
         0.10526E+07
         0.88984E+06
         0.12744E+07
        -0.82380E+04
         0.63389E+05
         0.48404E+06
         0.11343E+07
         0.75635E+06
         0.90421E+06
         0.35860E+06
         0.41927E+06
         0.66418E+06
         0.95835E+06
         0.11411E+07
         0.15191E+07
         0.20298E+07
         0.20436E+07
         0.25217E+07
         0.68263E+05
         0.19910E+07
         0.78339E+06
         0.22683E+07
         0.34722E+07
         0.43037E+07
         0.37515E+07
         0.39906E+07
         0.34902E+07
         0.26984E+07
         0.24375E+07
         0.21359E+07
         0.14892E+07
         0.22586E+07
         0.94979E+06
         0.22527E+05
         0.18591E+06
         0.25540E+06
         0.58676E+06
         0.18718E+07
         0.19023E+07
         0.14360E+07
         0.76935E+06
         0.76319E+06
         0.15916E+07
         0.23570E+07
         0.21928E+07
         0.12716E+07
         0.14892E+07
         0.22915E+07
         0.17927E+07
         0.24471E+07
        -0.32477E+06
        -0.40092E+05
         0.26067E+07
        -0.19125E+06
        -0.13420E+07
         0.95982E+06
         0.12875E+07
        -0.25506E+07
         0.12777E+06
         0.11630E+07
         0.15223E+07
         0.17031E+07
         0.50218E+06
         0.32462E+06
         0.75644E+06
         0.13937E+07
         0.24236E+06
        -0.10883E+06
        -0.85406E+06
        -0.18349E+06
        -0.38218E+07
        -0.43260E+07
        -0.21082E+07
        -0.58736E+06
         0.10516E+07
         0.15965E+06
         0.20163E+07
         0.28003E+07
         0.95362E+06
         0.79348E+06
         0.11830E+07
        -0.11622E+06
        -0.41814E+05
         0.37843E+06
         0.10277E+07
         0.65042E+06
         0.80342E+06
         0.26021E+06
         0.32378E+06
         0.56574E+06
         0.85996E+06
         0.10446E+07
         0.14261E+07
         0.19406E+07
         0.19513E+07
         0.24303E+07
        -0.84046E+05
         0.18428E+07
         0.63783E+06
         0.21288E+07
         0.33253E+07
         0.41406E+07
         0.35884E+07
         0.38244E+07
         0.33219E+07
         0.25271E+07
         0.22668E+07
         0.19780E+07
         0.13557E+07
         0.21334E+07
         0.81958E+06
        -0.11585E+06
         0.44837E+05
         0.10880E+06
         0.43911E+06
         0.17160E+07
         0.17542E+07
         0.13018E+07
         0.63540E+06
         0.62581E+06
         0.14531E+07
         0.22160E+07
         0.22113E+07
         0.12897E+07
         0.15090E+07
         0.23177E+07
         0.18169E+07
         0.24724E+07
        -0.29960E+06
        -0.19193E+05
         0.26222E+07
        -0.18561E+06
        -0.13171E+07
         0.98001E+06
         0.13058E+07
        -0.25273E+07
         0.15360E+06
         0.11449E+07
         0.15182E+07
         0.17272E+07
         0.47432E+06
         0.29947E+06
         0.74081E+06
         0.13876E+07
         0.17743E+06
        -0.19876E+06
        -0.90260E+06
        -0.26674E+06
        -0.38007E+07
        -0.43436E+07
        -0.21616E+07
        -0.67199E+06
         0.10521E+07
         0.13394E+06
         0.20404E+07
         0.28321E+07
         0.97955E+06
         0.81769E+06
         0.12032E+07
        -0.97016E+05
        -0.23858E+05
         0.38484E+06
         0.10252E+07
         0.61202E+06
         0.74915E+06
         0.19435E+06
         0.30737E+06
         0.57926E+06
         0.87780E+06
         0.10664E+07
         0.14512E+07
         0.19680E+07
         0.19774E+07
         0.24562E+07
        -0.38804E+05
         0.18833E+07
         0.68268E+06
         0.21634E+07
         0.33508E+07
         0.41659E+07
         0.36207E+07
         0.38571E+07
         0.33550E+07
         0.25613E+07
         0.22870E+07
         0.19773E+07
         0.13578E+07
         0.21564E+07
         0.83478E+06
        -0.14382E+06
         0.14521E+05
         0.11667E+06
         0.47962E+06
         0.17629E+07
         0.17963E+07
         0.13445E+07
         0.68308E+06
         0.66592E+06
         0.14857E+07
         0.22475E+07
         0.22002E+07
         0.12820E+07
         0.15014E+07
         0.23044E+07
         0.18082E+07
         0.24645E+07
        -0.30759E+06
        -0.30570E+05
         0.25951E+07
        -0.22687E+06
        -0.13298E+07
         0.96908E+06
         0.12982E+07
        -0.25426E+07
         0.14091E+06
         0.10725E+07
         0.14499E+07
         0.17099E+07
         0.37480E+06
         0.19090E+06
         0.66904E+06
         0.13232E+07
         0.26379E+05
        -0.39986E+06
        -0.10433E+07
        -0.45634E+06
        -0.38285E+07
        -0.44483E+07
        -0.23288E+07
        -0.87676E+06
         0.10077E+07
         0.32468E+05
         0.20242E+07
         0.28174E+07
         0.96686E+06
         0.80792E+06
         0.11959E+07
        -0.11657E+06
        -0.48990E+05
         0.33723E+06
         0.96487E+06
         0.49210E+06
         0.60196E+06
         0.39123E+05
         0.22835E+06
         0.53962E+06
         0.84619E+06
         0.10485E+07
         0.14351E+07
         0.19510E+07
         0.19635E+07
         0.24462E+07
        -0.60171E+05
         0.18686E+07
         0.65965E+06
         0.21433E+07
         0.33372E+07
         0.41504E+07
         0.35946E+07
         0.38287E+07
         0.33275E+07
         0.25281E+07
         0.22344E+07
         0.18923E+07
         0.12769E+07
         0.21179E+07
         0.79183E+06
        -0.26146E+06
        -0.10986E+06
         0.58782E+05
         0.45197E+06
         0.17366E+07
         0.17762E+07
         0.13206E+07
         0.65813E+06
         0.64886E+06
         0.14728E+07
         0.22347E+07
         0.21801E+07
         0.12663E+07
         0.14882E+07
         0.22906E+07
         0.17981E+07
         0.24534E+07
        -0.32107E+06
        -0.49708E+05
         0.25627E+07
        -0.26991E+06
        -0.13433E+07
         0.96228E+06
         0.12898E+07
        -0.25592E+07
         0.13497E+06
         0.10237E+07
         0.13964E+07
         0.16937E+07
         0.30944E+06
         0.11243E+06
         0.62284E+06
         0.12769E+07
        -0.66411E+05
        -0.52449E+06
        -0.11434E+07
        -0.57777E+06
        -0.38527E+07
        -0.45237E+07
        -0.24437E+07
        -0.10124E+07
         0.96145E+06
        -0.41226E+05
         0.19938E+07
         0.27967E+07
         0.95375E+06
         0.79544E+06
         0.11849E+07
        -0.13100E+06
        -0.69635E+05
         0.30130E+06
         0.92241E+06
         0.41153E+06
         0.50544E+06
        -0.59456E+05
         0.17627E+06
         0.51348E+06
         0.81816E+06
         0.10198E+07
         0.14073E+07
         0.19259E+07
         0.19417E+07
         0.24299E+07
        -0.79403E+05
         0.18558E+07
         0.64004E+06
         0.21276E+07
         0.33309E+07
         0.41458E+07
         0.35834E+07
         0.38100E+07
         0.33042E+07
         0.25075E+07
         0.22024E+07
         0.18336E+07
         0.12217E+07
         0.20881E+07
         0.76151E+06
        -0.33766E+06
        -0.19716E+06
         0.17420E+05
         0.43938E+06
         0.17127E+07
         0.17494E+07
         0.12932E+07
         0.62603E+06
         0.62124E+06
         0.14557E+07
         0.22219E+07
         0.21311E+07
         0.12361E+07
         0.14750E+07
         0.23048E+07
         0.18106E+07
         0.24711E+07
        -0.32994E+06
        -0.83543E+05
         0.25173E+07
        -0.32852E+06
        -0.13326E+07
         0.98588E+06
         0.12994E+07
        -0.25576E+07
         0.16456E+06
         0.10329E+07
         0.13857E+07
         0.17184E+07
         0.32322E+06
         0.12285E+06
         0.63626E+06
         0.12932E+07
        -0.64321E+05
        -0.52702E+06
        -0.11839E+07
        -0.59478E+06
        -0.38579E+07
        -0.45324E+07
        -0.24354E+07
        -0.10161E+07
         0.90612E+06
        -0.80115E+05
         0.19440E+07
         0.27921E+07
         0.96522E+06
         0.79669E+06
         0.11828E+07
        -0.11155E+06
        -0.51351E+05
         0.32150E+06
         0.94335E+06
         0.42442E+06
         0.51581E+06
        -0.65649E+05
         0.16961E+06
         0.50915E+06
         0.79390E+06
         0.96188E+06
         0.13396E+07
         0.18919E+07
         0.19345E+07
         0.24376E+07
        -0.42220E+05
         0.18942E+07
         0.67125E+06
         0.21486E+07
         0.33527E+07
         0.41754E+07
         0.36170E+07
         0.38425E+07
         0.33415E+07
         0.25567E+07
         0.22454E+07
         0.18596E+07
         0.12509E+07
         0.21186E+07
         0.79077E+06
        -0.31434E+06
        -0.18032E+06
         0.34085E+05
         0.45938E+06
         0.17265E+07
         0.17463E+07
         0.12741E+07
         0.61337E+06
         0.62747E+06
         0.14743E+07
         0.22487E+07
         0.20564E+07
         0.11826E+07
         0.14434E+07
         0.22971E+07
         0.18006E+07
         0.24702E+07
        -0.37434E+06
        -0.14998E+06
         0.24409E+07
        -0.41564E+06
        -0.13619E+07
         0.97685E+06
         0.12840E+07
        -0.25944E+07
         0.15847E+06
         0.10184E+07
         0.13422E+07
         0.17129E+07
         0.31206E+06
         0.10401E+06
         0.62981E+06
         0.12886E+07
        -0.71611E+05
        -0.54216E+06
        -0.12428E+07
        -0.62546E+06
        -0.38995E+07
        -0.45710E+07
        -0.24461E+07
        -0.10312E+07
         0.82862E+06
        -0.14396E+06
         0.18688E+07
         0.27641E+07
         0.94986E+06
         0.77651E+06
         0.11613E+07
        -0.12670E+06
        -0.66014E+05
         0.31351E+06
         0.93985E+06
         0.42281E+06
         0.51491E+06
        -0.80635E+05
         0.14081E+06
         0.47218E+06
         0.73798E+06
         0.87488E+06
         0.12430E+07
         0.18324E+07
         0.19055E+07
         0.24266E+07
        -0.57912E+05
         0.18820E+07
         0.66193E+06
         0.21380E+07
         0.33375E+07
         0.41572E+07
         0.36019E+07
         0.38295E+07
         0.33284E+07
         0.25469E+07
         0.22376E+07
         0.18501E+07
         0.12492E+07
         0.21161E+07
         0.78438E+06
        -0.31787E+06
        -0.18767E+06
         0.79038E+04
         0.42026E+06
         0.16835E+07
         0.16976E+07
         0.12137E+07
         0.56049E+06
         0.59936E+06
         0.14592E+07
         0.22368E+07
         0.20347E+07
         0.11628E+07
         0.14305E+07
         0.22860E+07
         0.17899E+07
         0.24595E+07
        -0.39615E+06
        -0.17268E+06
         0.24184E+07
        -0.44084E+06
        -0.13825E+07
         0.96415E+06
         0.12688E+07
        -0.26159E+07
         0.14794E+06
         0.10055E+07
         0.13259E+07
         0.17002E+07
         0.30185E+06
         0.89135E+05
         0.61965E+06
         0.12779E+07
        -0.81221E+05
        -0.55374E+06
        -0.12614E+07
        -0.64292E+06
        -0.39168E+07
        -0.45916E+07
        -0.24658E+07
        -0.10456E+07
         0.80354E+06
        -0.16941E+06
         0.18436E+07
         0.27487E+07
         0.93691E+06
         0.76557E+06
         0.11481E+07
        -0.14592E+06
        -0.83094E+05
         0.29577E+06
         0.92211E+06
         0.40857E+06
         0.50575E+06
        -0.94024E+05
         0.12361E+06
         0.45491E+06
         0.71953E+06
         0.85330E+06
         0.12189E+07
         0.18117E+07
         0.18875E+07
         0.24128E+07
        -0.79415E+05
         0.18609E+07
         0.64768E+06
         0.21234E+07
         0.33198E+07
         0.41418E+07
         0.35860E+07
         0.38074E+07
         0.32990E+07
         0.25162E+07
         0.22098E+07
         0.18376E+07
         0.12391E+07
         0.20945E+07
         0.76184E+06
        -0.33919E+06
        -0.21536E+06
        -0.18503E+05
         0.39796E+06
         0.16655E+07
         0.16827E+07
         0.11936E+07
         0.53385E+06
         0.57449E+06
         0.14383E+07
         0.22161E+07
         0.20487E+07
         0.11762E+07
         0.14406E+07
         0.22915E+07
         0.18015E+07
         0.24629E+07
        -0.37877E+06
        -0.15540E+06
         0.24330E+07
        -0.42275E+06
        -0.13674E+07
         0.97696E+06
         0.12787E+07
        -0.25993E+07
         0.16825E+06
         0.10229E+07
         0.13458E+07
         0.17111E+07
         0.32195E+06
         0.10669E+06
         0.63336E+06
         0.12910E+07
        -0.67048E+05
        -0.53318E+06
        -0.12419E+07
        -0.62368E+06
        -0.38906E+07
        -0.45677E+07
        -0.24465E+07
        -0.10296E+07
         0.81870E+06
        -0.15517E+06
         0.18540E+07
         0.27550E+07
         0.95180E+06
         0.77805E+06
         0.11583E+07
        -0.13132E+06
        -0.70353E+05
         0.30708E+06
         0.93451E+06
         0.42230E+06
         0.51965E+06
        -0.80813E+05
         0.13481E+06
         0.46599E+06
         0.73162E+06
         0.86837E+06
         0.12343E+07
         0.18232E+07
         0.18951E+07
         0.24162E+07
        -0.47679E+05
         0.18921E+07
         0.66624E+06
         0.21311E+07
         0.33352E+07
         0.41658E+07
         0.36127E+07
         0.38266E+07
         0.33064E+07
         0.25275E+07
         0.22302E+07
         0.18666E+07
         0.12648E+07
         0.21112E+07
         0.77756E+06
        -0.32107E+06
        -0.19705E+06
         0.39883E+04
         0.41929E+06
         0.16906E+07
         0.17087E+07
         0.12168E+07
         0.55311E+06
         0.59159E+06
         0.14555E+07
         0.22348E+07
         0.20452E+07
         0.11751E+07
         0.14381E+07
         0.22846E+07
         0.17992E+07
         0.24572E+07
        -0.38015E+06
        -0.16115E+06
         0.24218E+07
        -0.43168E+06
        -0.13759E+07
         0.96927E+06
         0.12764E+07
        -0.26114E+07
         0.15717E+06
         0.10150E+07
         0.13361E+07
         0.16975E+07
         0.31357E+06
         0.94922E+05
         0.62812E+06
         0.12842E+07
        -0.72003E+05
        -0.54077E+06
        -0.12448E+07
        -0.63089E+06
        -0.38957E+07
        -0.45700E+07
        -0.24504E+07
        -0.10356E+07
         0.81111E+06
        -0.16311E+06
         0.18396E+07
         0.27438E+07
         0.94711E+06
         0.77312E+06
         0.11552E+07
        -0.14787E+06
        -0.79505E+05
         0.29842E+06
         0.92596E+06
         0.41691E+06
         0.51182E+06
        -0.84557E+05
         0.13081E+06
         0.46050E+06
         0.72307E+06
         0.85854E+06
         0.12246E+07
         0.18150E+07
         0.18880E+07
         0.24082E+07
        -0.57014E+05
         0.18848E+07
         0.65134E+06
         0.21184E+07
         0.33334E+07
         0.41569E+07
         0.35921E+07
         0.38034E+07
         0.32928E+07
         0.25070E+07
         0.22079E+07
         0.18555E+07
         0.12515E+07
         0.21039E+07
         0.77077E+06
        -0.32737E+06
        -0.19801E+06
        -0.42017E+03
         0.41288E+06
         0.16736E+07
         0.16875E+07
         0.12004E+07
         0.54472E+06
         0.58743E+06
         0.14461E+07
         0.22215E+07
         0.20353E+07
         0.11650E+07
         0.14308E+07
         0.22814E+07
         0.17917E+07
         0.24535E+07
        -0.38817E+06
        -0.16989E+06
         0.24117E+07
        -0.44058E+06
        -0.13856E+07
         0.95905E+06
         0.12696E+07
        -0.26214E+07
         0.14584E+06
         0.10038E+07
         0.13289E+07
         0.16894E+07
         0.30322E+06
         0.85825E+05
         0.62136E+06
         0.12773E+07
        -0.79551E+05
        -0.55262E+06
        -0.12477E+07
        -0.64453E+06
        -0.38993E+07
        -0.45753E+07
        -0.24551E+07
        -0.10398E+07
         0.80006E+06
        -0.17600E+06
         0.18309E+07
         0.27425E+07
         0.93570E+06
         0.76452E+06
         0.11482E+07
        -0.16386E+06
        -0.89844E+05
         0.29094E+06
         0.92114E+06
         0.41234E+06
         0.50469E+06
        -0.91708E+05
         0.12367E+06
         0.45310E+06
         0.71508E+06
         0.85004E+06
         0.12154E+07
         0.18078E+07
         0.18813E+07
         0.24047E+07
        -0.75584E+05
         0.18694E+07
         0.63998E+06
         0.21146E+07
         0.33284E+07
         0.41389E+07
         0.35661E+07
         0.37825E+07
         0.32786E+07
         0.24923E+07
         0.21988E+07
         0.18446E+07
         0.12355E+07
         0.20930E+07
         0.75944E+06
        -0.34040E+06
        -0.20666E+06
        -0.10576E+05
         0.40028E+06
         0.16596E+07
         0.16714E+07
         0.11837E+07
         0.53263E+06
         0.57593E+06
         0.14317E+07
         0.22065E+07
         0.20420E+07
         0.11692E+07
         0.14346E+07
         0.22900E+07
         0.17995E+07
         0.24618E+07
        -0.37643E+06
        -0.15775E+06
         0.24184E+07
        -0.43222E+06
        -0.13712E+07
         0.96782E+06
         0.12727E+07
        -0.26064E+07
         0.16467E+06
         0.10137E+07
         0.13383E+07
         0.17002E+07
         0.31544E+06
         0.99735E+05
         0.63231E+06
         0.12889E+07
        -0.69957E+05
        -0.53996E+06
        -0.12367E+07
        -0.63231E+06
        -0.38822E+07
        -0.45599E+07
        -0.24336E+07
        -0.10224E+07
         0.81209E+06
        -0.16637E+06
         0.18437E+07
         0.27568E+07
         0.94492E+06
         0.77251E+06
         0.11524E+07
        -0.15205E+06
        -0.77189E+05
         0.30721E+06
         0.93495E+06
         0.42282E+06
         0.51588E+06
        -0.83597E+05
         0.13047E+06
         0.45928E+06
         0.72245E+06
         0.85919E+06
         0.12254E+07
         0.18175E+07
         0.18893E+07
         0.24140E+07
        -0.52406E+05
         0.18945E+07
         0.66358E+06
         0.21261E+07
         0.33246E+07
         0.41401E+07
         0.35846E+07
         0.38031E+07
         0.32926E+07
         0.25134E+07
         0.22189E+07
         0.18541E+07
         0.12527E+07
         0.21105E+07
         0.77533E+06
        -0.32815E+06
        -0.19842E+06
        -0.28242E+03
         0.40994E+06
         0.16747E+07
         0.16893E+07
         0.12010E+07
         0.54745E+06
         0.58849E+06
         0.14504E+07
         0.22284E+07
         0.20374E+07
         0.11611E+07
         0.14274E+07
         0.22821E+07
         0.17918E+07
         0.24536E+07
        -0.38697E+06
        -0.16561E+06
         0.24103E+07
        -0.44344E+06
        -0.13852E+07
         0.95511E+06
         0.12587E+07
        -0.26213E+07
         0.15669E+06
         0.10047E+07
         0.13284E+07
         0.16858E+07
         0.30267E+06
         0.86013E+05
         0.62006E+06
         0.12764E+07
        -0.82904E+05
        -0.55365E+06
        -0.12463E+07
        -0.64427E+06
        -0.38970E+07
        -0.45795E+07
        -0.24479E+07
        -0.10307E+07
         0.80182E+06
        -0.17857E+06
         0.18267E+07
         0.27468E+07
         0.93403E+06
         0.76248E+06
         0.11407E+07
        -0.16951E+06
        -0.94350E+05
         0.29199E+06
         0.91840E+06
         0.40722E+06
         0.50368E+06
        -0.98259E+05
         0.11737E+06
         0.44848E+06
         0.71105E+06
         0.84582E+06
         0.12136E+07
         0.18094E+07
         0.18803E+07
         0.24050E+07
        -0.70754E+05
         0.18787E+07
         0.64563E+06
         0.21055E+07
         0.33005E+07
         0.41172E+07
         0.35705E+07
         0.37850E+07
         0.32687E+07
         0.24898E+07
         0.21901E+07
         0.18257E+07
         0.12337E+07
         0.20906E+07
         0.75841E+06
        -0.34741E+06
        -0.22818E+06
        -0.26820E+05
         0.39657E+06
         0.16562E+07
         0.16701E+07
         0.11911E+07
         0.54062E+06
         0.57431E+06
         0.14311E+07
         0.22092E+07
         0.20367E+07
         0.11584E+07
         0.14254E+07
         0.22808E+07
         0.17909E+07
         0.24513E+07
        -0.38751E+06
        -0.16578E+06
         0.24108E+07
        -0.44253E+06
        -0.13870E+07
         0.95339E+06
         0.12566E+07
        -0.26228E+07
         0.15756E+06
         0.10032E+07
         0.13312E+07
         0.16822E+07
         0.30176E+06
         0.84164E+05
         0.61748E+06
         0.12745E+07
        -0.85732E+05
        -0.55619E+06
        -0.12441E+07
        -0.64769E+06
        -0.38931E+07
        -0.45821E+07
        -0.24503E+07
        -0.10316E+07
         0.79653E+06
        -0.18351E+06
         0.18190E+07
         0.27453E+07
         0.93154E+06
         0.75928E+06
         0.11372E+07
        -0.17766E+06
        -0.10374E+06
         0.28624E+06
         0.91671E+06
         0.40600E+06
         0.50205E+06
        -0.10065E+06
         0.11498E+06
         0.44594E+06
         0.70740E+06
         0.84061E+06
         0.12087E+07
         0.18077E+07
         0.18787E+07
         0.24028E+07
        -0.71330E+05
         0.18789E+07
         0.64075E+06
         0.20975E+07
         0.33000E+07
         0.41168E+07
         0.35648E+07
         0.37698E+07
         0.32514E+07
         0.24803E+07
         0.21891E+07
         0.18229E+07
         0.12289E+07
         0.20829E+07
         0.74959E+06
        -0.35356E+06
        -0.23219E+06
        -0.30289E+05
         0.39276E+06
         0.16495E+07
         0.16616E+07
         0.11856E+07
         0.53993E+06
         0.57238E+06
         0.14225E+07
         0.22014E+07
         0.20574E+07
         0.11840E+07
         0.14472E+07
         0.23009E+07
         0.18139E+07
         0.24703E+07
        -0.35195E+06
        -0.14074E+06
         0.24282E+07
        -0.42200E+06
        -0.13531E+07
         0.98108E+06
         0.12818E+07
        -0.25952E+07
         0.18548E+06
         0.10243E+07
         0.13576E+07
         0.17031E+07
         0.32810E+06
         0.11363E+06
         0.64172E+06
         0.12975E+07
        -0.62303E+05
        -0.52881E+06
        -0.12146E+07
        -0.62054E+06
        -0.38602E+07
        -0.45413E+07
        -0.24097E+07
        -0.10006E+07
         0.82040E+06
        -0.15605E+06
         0.18397E+07
         0.27641E+07
         0.95610E+06
         0.78251E+06
         0.11596E+07
        -0.15932E+06
        -0.79625E+05
         0.31233E+06
         0.93967E+06
         0.42951E+06
         0.52284E+06
        -0.75751E+05
         0.14042E+06
         0.47030E+06
         0.73090E+06
         0.86375E+06
         0.12294E+07
         0.18254E+07
         0.18953E+07
         0.24191E+07
        -0.29117E+05
         0.19210E+07
         0.67606E+06
         0.21231E+07
         0.33311E+07
         0.41561E+07
         0.35978E+07
         0.37950E+07
         0.32798E+07
         0.25112E+07
         0.22171E+07
         0.18557E+07
         0.12551E+07
         0.21122E+07
         0.78286E+06
        -0.31902E+06
        -0.19338E+06
         0.11282E+05
         0.42847E+06
         0.16868E+07
         0.16936E+07
         0.12095E+07
         0.56604E+06
         0.60354E+06
         0.14562E+07
         0.22356E+07
         0.20489E+07
         0.11767E+07
         0.14406E+07
         0.22908E+07
         0.18042E+07
         0.24618E+07
        -0.36116E+06
        -0.15105E+06
         0.24166E+07
        -0.43630E+06
        -0.13669E+07
         0.97132E+06
         0.12757E+07
        -0.26109E+07
         0.17389E+06
         0.10127E+07
         0.13446E+07
         0.16912E+07
         0.31115E+06
         0.96980E+05
         0.63354E+06
         0.12861E+07
        -0.70260E+05
        -0.54532E+06
        -0.12265E+07
        -0.63745E+06
        -0.38733E+07
        -0.45546E+07
        -0.24111E+07
        -0.10061E+07
         0.81299E+06
        -0.16984E+06
         0.18276E+07
         0.27518E+07
         0.94207E+06
         0.77342E+06
         0.11540E+07
        -0.17913E+06
        -0.93428E+05
         0.30598E+06
         0.92931E+06
         0.41746E+06
         0.50877E+06
        -0.86657E+05
         0.12902E+06
         0.46014E+06
         0.72143E+06
         0.85628E+06
         0.12194E+07
         0.18132E+07
         0.18846E+07
         0.24098E+07
        -0.56161E+05
         0.18982E+07
         0.65532E+06
         0.21122E+07
         0.33273E+07
         0.41459E+07
         0.35752E+07
         0.37677E+07
         0.32533E+07
         0.24876E+07
         0.21893E+07
         0.18240E+07
         0.12324E+07
         0.21009E+07
         0.77763E+06
        -0.32230E+06
        -0.20419E+06
        -0.74506E+04
         0.41446E+06
         0.16702E+07
         0.16782E+07
         0.11921E+07
         0.54746E+06
         0.59170E+06
         0.14452E+07
         0.22175E+07
         0.20347E+07
         0.11580E+07
         0.14223E+07
         0.22768E+07
         0.17888E+07
         0.24458E+07
        -0.37747E+06
        -0.16340E+06
         0.24000E+07
        -0.46269E+06
        -0.13836E+07
         0.95551E+06
         0.12621E+07
        -0.26269E+07
         0.15912E+06
         0.99844E+06
         0.13236E+07
         0.16776E+07
         0.29732E+06
         0.88602E+05
         0.62342E+06
         0.12728E+07
        -0.79883E+05
        -0.55948E+06
        -0.12505E+07
        -0.65406E+06
        -0.39045E+07
        -0.45764E+07
        -0.23638E+07
        -0.98371E+06
         0.79936E+06
        -0.18915E+06
         0.18155E+07
         0.27435E+07
         0.92626E+06
         0.75840E+06
         0.11403E+07
        -0.20862E+06
        -0.10699E+06
         0.33009E+06
         0.92855E+06
         0.40438E+06
         0.48994E+06
        -0.98460E+05
         0.11449E+06
         0.44388E+06
         0.70487E+06
         0.84290E+06
         0.12078E+07
         0.18035E+07
         0.18751E+07
         0.23983E+07
        -0.74220E+05
         0.18816E+07
         0.64121E+06
         0.20999E+07
         0.33102E+07
         0.41181E+07
         0.35434E+07
         0.37373E+07
         0.32266E+07
         0.24814E+07
         0.21410E+07
         0.17481E+07
         0.12005E+07
         0.20831E+07
         0.76187E+06
        -0.33630E+06
        -0.22148E+06
        -0.27103E+05
         0.39145E+06
         0.16442E+07
         0.16606E+07
         0.11756E+07
         0.52853E+06
         0.57763E+06
         0.14237E+07
         0.21933E+07
         0.20544E+07
         0.11816E+07
         0.14460E+07
         0.23009E+07
         0.18132E+07
         0.24662E+07
        -0.34608E+06
        -0.13874E+06
         0.24119E+07
        -0.46598E+06
        -0.13531E+07
         0.97620E+06
         0.12808E+07
        -0.26010E+07
         0.18409E+06
         0.10197E+07
         0.13425E+07
         0.16972E+07
         0.32768E+06
         0.13756E+06
         0.64360E+06
         0.12930E+07
        -0.61027E+05
        -0.52996E+06
        -0.12407E+07
        -0.62447E+06
        -0.39093E+07
        -0.45508E+07
        -0.22207E+07
        -0.89053E+06
         0.81976E+06
        -0.16123E+06
         0.18358E+07
         0.27682E+07
         0.95257E+06
         0.78429E+06
         0.11614E+07
        -0.20658E+06
        -0.79513E+05
         0.41907E+06
         0.97252E+06
         0.42816E+06
         0.50207E+06
        -0.77080E+05
         0.13938E+06
         0.47094E+06
         0.72937E+06
         0.86408E+06
         0.12306E+07
         0.18276E+07
         0.18973E+07
         0.24176E+07
        -0.30767E+05
         0.19243E+07
         0.68478E+06
         0.21304E+07
         0.33296E+07
         0.41404E+07
         0.35743E+07
         0.37688E+07
         0.32613E+07
         0.25488E+07
         0.21253E+07
         0.16870E+07
         0.12028E+07
         0.21074E+07
         0.78218E+06
        -0.31932E+06
        -0.20049E+06
         0.76989E+04
         0.43414E+06
         0.16841E+07
         0.16952E+07
         0.12114E+07
         0.56869E+06
         0.61488E+06
         0.14538E+07
         0.22250E+07
         0.19815E+07
         0.10953E+07
         0.13611E+07
         0.22111E+07
         0.17261E+07
         0.23767E+07
        -0.45225E+06
        -0.22411E+06
         0.23224E+07
        -0.57182E+06
        -0.14686E+07
         0.87802E+06
         0.11853E+07
        -0.27096E+07
         0.85274E+05
         0.94101E+06
         0.12343E+07
         0.16045E+07
         0.22728E+06
         0.34634E+05
         0.55477E+06
         0.12047E+07
        -0.14851E+06
        -0.63403E+06
        -0.13496E+07
        -0.72321E+06
        -0.40349E+07
        -0.46746E+07
        -0.22745E+07
        -0.95195E+06
         0.73820E+06
        -0.26394E+06
         0.17381E+07
         0.26675E+07
         0.85634E+06
         0.68926E+06
         0.10678E+07
        -0.32358E+06
        -0.17508E+06
         0.36187E+06
         0.88677E+06
         0.33408E+06
         0.40751E+06
        -0.16476E+06
         0.45385E+05
         0.36956E+06
         0.63430E+06
         0.77470E+06
         0.11376E+07
         0.17314E+07
         0.17978E+07
         0.23232E+07
        -0.18280E+06
         0.17771E+07
         0.53209E+06
         0.19750E+07
         0.31751E+07
         0.39922E+07
         0.34232E+07
         0.36056E+07
         0.31079E+07
         0.24097E+07
         0.19313E+07
         0.14759E+07
         0.10514E+07
         0.19813E+07
         0.65094E+06
        -0.45502E+06
        -0.34039E+06
        -0.14799E+06
         0.27367E+06
         0.15305E+07
         0.15518E+07
         0.10737E+07
         0.42814E+06
         0.47016E+06
         0.13151E+07
         0.20872E+07
         0.20234E+07
         0.11013E+07
         0.13771E+07
         0.22474E+07
         0.17553E+07
         0.24060E+07
        -0.43518E+06
        -0.17142E+06
         0.23807E+07
        -0.49350E+06
        -0.14362E+07
         0.87990E+06
         0.11610E+07
        -0.26442E+07
         0.13029E+06
         0.10027E+07
         0.13086E+07
         0.16536E+07
         0.28200E+06
         0.94596E+05
         0.59504E+06
         0.12350E+07
        -0.85618E+05
        -0.55597E+06
        -0.12481E+07
        -0.65055E+06
        -0.39272E+07
        -0.45323E+07
        -0.21547E+07
        -0.85798E+06
         0.78902E+06
        -0.21900E+06
         0.17640E+07
         0.26535E+07
         0.87105E+06
         0.68205E+06
         0.10412E+07
        -0.26879E+06
        -0.10535E+06
         0.42364E+06
         0.92564E+06
         0.38770E+06
         0.46413E+06
        -0.10498E+06
         0.79591E+05
         0.38514E+06
         0.64867E+06
         0.81299E+06
         0.11683E+07
         0.17329E+07
         0.18042E+07
         0.23250E+07
        -0.12449E+06
         0.18529E+07
         0.55119E+06
         0.19414E+07
         0.31057E+07
         0.39500E+07
         0.34922E+07
         0.36771E+07
         0.31649E+07
         0.24433E+07
         0.19407E+07
         0.15048E+07
         0.11087E+07
         0.20097E+07
         0.71057E+06
        -0.37016E+06
        -0.26826E+06
        -0.93028E+05
         0.29746E+06
         0.15277E+07
         0.15836E+07
         0.11194E+07
         0.50030E+06
         0.55799E+06
         0.13842E+07
         0.21588E+07
         0.28477E+09
         0.32662E+09
         0.32781E+09
         0.32633E+09
         0.33841E+09
         0.33869E+09
         0.39190E+09
         0.32327E+09
         0.30614E+09
         0.32518E+09
         0.40710E+09
         0.37545E+09
         0.34802E+09
         0.38622E+09
         0.38286E+09
         0.28928E+09
         0.35448E+09
         0.33279E+09
         0.34964E+09
         0.40897E+09
         0.31855E+09
         0.32452E+09
         0.30892E+09
         0.35724E+09
         0.35128E+09
         0.36148E+09
         0.38187E+09
         0.45246E+09
         0.43553E+09
         0.36080E+09
         0.30171E+09
         0.36209E+09
         0.32992E+09
         0.35008E+09
         0.35978E+09
         0.35123E+09
         0.33685E+09
         0.37083E+09
         0.36861E+09
         0.36796E+09
         0.36299E+09
         0.34698E+09
         0.32914E+09
         0.30675E+09
         0.32595E+09
         0.35783E+09
         0.34550E+09
         0.33189E+09
         0.33835E+09
         0.34077E+09
         0.34666E+09
         0.33726E+09
         0.55600E+09
         0.54392E+09
         0.55212E+09
         0.53486E+09
         0.54987E+09
         0.57471E+09
         0.57840E+09
         0.57576E+09
         0.58111E+09
         0.59482E+09
         0.57745E+09
         0.54479E+09
         0.48936E+09
         0.46375E+09
         0.46738E+09
         0.47594E+09
         0.48099E+09
         0.52128E+09
         0.55955E+09
         0.56124E+09
         0.51813E+09
         0.50139E+09
         0.51729E+09
         0.51283E+09
         0.50848E+09
         0.50980E+09
         0.26508E+10
         0.27821E+10
         0.27468E+10
         0.25347E+10
         0.30387E+10
         0.28798E+10
         0.29939E+10
         0.29960E+10
         0.26133E+10
         0.29955E+10
         0.32574E+10
         0.35727E+10
         0.32735E+10
         0.33385E+10
         0.36854E+10
         0.25617E+10
         0.27456E+10
         0.24347E+10
         0.28241E+10
         0.29613E+10
         0.30134E+10
         0.30785E+10
         0.29061E+10
         0.27297E+10
         0.30385E+10
         0.26467E+10
         0.33273E+10
         0.32850E+10
         0.32971E+10
         0.31358E+10
         0.25909E+10
         0.27197E+10
         0.25530E+10
         0.26581E+10
         0.32931E+10
         0.30592E+10
         0.30602E+10
         0.35867E+10
         0.35133E+10
         0.34779E+10
         0.35179E+10
         0.33569E+10
         0.31858E+10
         0.28504E+10
         0.29647E+10
         0.32882E+10
         0.30750E+10
         0.29110E+10
         0.28635E+10
         0.29556E+10
         0.31699E+10
         0.29607E+10
         0.49788E+10
         0.48507E+10
         0.49437E+10
         0.47923E+10
         0.49245E+10
         0.51636E+10
         0.52494E+10
         0.52516E+10
         0.52913E+10
         0.54022E+10
         0.52510E+10
         0.49443E+10
         0.44639E+10
         0.42301E+10
         0.42311E+10
         0.42766E+10
         0.43130E+10
         0.46596E+10
         0.49923E+10
         0.50086E+10
         0.46543E+10
         0.45190E+10
         0.46583E+10
         0.46290E+10
         0.45742E+10
         0.45631E+10
  
SCALARS                      stress_yz  double 1
LOOKUP_TABLE default
         0.34730E+06
        -0.11552E+06
        -0.30015E+06
        -0.15437E+06
        -0.63121E+01
        -0.17398E+01
        -0.78226E+01
        -0.59666E+01
        -0.11250E+07
         0.73993E+06
        -0.11642E+02
        -0.10249E+02
        -0.98687E+06
        -0.50181E+05
         0.83314E+01
        -0.53416E+00
         0.33930E+06
         0.12646E+07
         0.12258E+00
         0.12542E+01
        -0.65621E+06
        -0.24700E+07
        -0.25678E+07
         0.19098E+02
         0.32983E+02
         0.27569E+02
        -0.24346E+06
        -0.25041E+07
         0.13738E+02
         0.26651E+02
         0.38777E+06
         0.33800E+06
        -0.28709E+06
         0.71219E+01
         0.72703E+01
        -0.15094E+00
         0.11524E+07
         0.11105E+07
         0.13106E+02
         0.10197E+02
         0.11328E+07
         0.72108E+06
         0.99045E+01
         0.90514E+01
         0.10274E+07
         0.35421E+06
        -0.32855E+00
         0.50820E+01
         0.95392E+06
         0.23927E+01
         0.94017E+05
        -0.19380E+00
         0.56199E+05
         0.92555E+01
        -0.37245E+06
         0.53841E+01
        -0.12147E+07
         0.21570E+06
         0.14607E+00
        -0.29646E+00
         0.47025E+06
         0.17158E+07
        -0.19901E+01
        -0.74440E+01
         0.28396E+06
        -0.40171E+01
         0.12191E+07
        -0.48938E+01
        -0.99008E+06
        -0.52443E+06
        -0.60478E+00
         0.79852E+01
        -0.18336E+07
         0.17534E+02
        -0.31786E+07
         0.16978E+02
        -0.32078E+07
         0.12888E+02
        -0.26424E+07
         0.10802E+02
        -0.38756E+07
        -0.29745E+07
         0.69297E+01
        -0.15364E+01
        -0.41602E+06
        -0.17192E+00
         0.16056E+07
        -0.10769E+02
         0.37947E+07
        -0.18853E+02
         0.53026E+07
         0.32869E+07
        -0.27963E+02
        -0.22633E+02
         0.23117E+07
        -0.17569E+02
         0.20743E+07
        -0.17975E+02
         0.20185E+07
        -0.19327E+02
         0.33589E+07
         0.27914E+07
        -0.17973E+02
        -0.86117E+01
        -0.22532E+07
         0.85289E+06
         0.63196E+01
        -0.78532E+01
        -0.55393E+07
         0.21024E+02
        -0.79299E+07
         0.30752E+02
        -0.97087E+07
         0.37979E+02
        -0.11386E+08
         0.37673E+02
        -0.13404E+08
         0.29813E+02
        -0.13701E+08
         0.23072E+02
        -0.12901E+08
         0.21459E+02
        -0.11480E+08
         0.20416E+02
        -0.83725E+07
         0.13048E+02
        -0.56545E+07
         0.43077E+01
        -0.28368E+07
         0.27835E+01
         0.20406E+06
         0.41838E+01
         0.27068E+07
         0.21609E+01
         0.48559E+07
        -0.65349E+01
         0.75150E+07
        -0.18446E+02
         0.84557E+07
        -0.28803E+02
         0.92490E+07
        -0.37761E+02
         0.11816E+08
        -0.37728E+02
         0.12239E+08
        -0.32935E+02
         0.11310E+08
        -0.32098E+02
         0.91985E+07
        -0.32298E+02
         0.62538E+07
        -0.25540E+02
         0.44296E+07
        -0.15103E+02
         0.31854E+07
        -0.11678E+02
        -0.28785E+07
        -0.14877E+07
        -0.12989E+07
        -0.40379E+06
        -0.13291E+07
        -0.14152E+07
        -0.14895E+06
        -0.22915E+07
        -0.19697E+07
        -0.28866E+07
         0.15033E+07
         0.64109E+07
         0.43843E+07
         0.50855E+06
         0.64790E+07
         0.76275E+06
        -0.67561E+06
         0.43528E+06
         0.56703E+06
        -0.42879E+06
         0.39348E+06
         0.32458E+06
        -0.10898E+07
         0.91871E+05
        -0.19709E+07
         0.29136E+06
         0.15067E+05
         0.26347E+06
         0.31938E+06
        -0.15439E+07
         0.74443E+06
        -0.80636E+06
         0.54137E+06
        -0.13173E+06
         0.21653E+06
         0.11755E+07
         0.26377E+07
         0.56972E+07
         0.52052E+07
         0.43922E+07
         0.41313E+07
         0.10288E+07
        -0.84361E+06
        -0.23133E+07
        -0.38176E+07
        -0.62216E+07
        -0.40904E+07
        -0.29392E+07
        -0.31355E+07
        -0.33260E+07
        -0.38949E+07
        -0.17839E+07
         0.33371E+07
        -0.40191E+07
         0.10881E+08
         0.15040E+08
         0.19169E+08
         0.22737E+08
         0.22838E+08
         0.20670E+08
         0.19672E+08
         0.18590E+08
         0.12005E+08
         0.52848E+07
         0.23280E+07
         0.10267E+07
        -0.15734E+07
        -0.62227E+07
        -0.11436E+08
        -0.14911E+08
        -0.17997E+08
        -0.20649E+08
        -0.19470E+08
        -0.18406E+08
        -0.17121E+08
        -0.11897E+08
        -0.69583E+07
        -0.61124E+07
        -0.16591E+09
        -0.16933E+09
        -0.16566E+09
        -0.54397E+08
        -0.12139E+09
        -0.77294E+08
        -0.10623E+09
        -0.15927E+09
        -0.16248E+09
        -0.15841E+09
         0.16564E+09
         0.18150E+09
         0.13876E+09
         0.38179E+08
         0.17134E+09
         0.85014E+08
        -0.45159E+08
         0.43114E+08
         0.16152E+09
         0.37571E+08
         0.47516E+08
         0.35797E+08
        -0.21271E+08
         0.58192E+08
        -0.16142E+09
         0.58180E+08
         0.86556E+07
         0.27140E+08
        -0.43352E+08
        -0.14905E+09
         0.10638E+09
         0.42304E+08
         0.10380E+09
         0.90130E+08
        -0.13778E+08
         0.67973E+08
         0.10181E+09
         0.15725E+09
         0.17697E+09
         0.16677E+09
         0.88396E+08
        -0.23924E+08
        -0.48976E+08
        -0.77647E+08
        -0.11115E+09
        -0.16948E+09
        -0.14633E+09
        -0.11273E+09
        -0.17003E+09
        -0.17150E+09
        -0.11204E+09
        -0.11956E+08
         0.35869E+08
        -0.50217E+08
         0.11225E+09
         0.14603E+09
         0.17784E+09
         0.20007E+09
         0.20345E+09
         0.19767E+09
         0.19393E+09
         0.18040E+09
         0.11538E+09
         0.38503E+08
         0.18242E+08
         0.16369E+08
        -0.69593E+07
        -0.55460E+08
        -0.10742E+09
        -0.13801E+09
        -0.18607E+09
        -0.20138E+09
        -0.19452E+09
        -0.19278E+09
        -0.18128E+09
        -0.13030E+09
        -0.65948E+08
        -0.62926E+08
        -0.16590E+09
        -0.16932E+09
        -0.16565E+09
        -0.54796E+08
        -0.12145E+09
        -0.77397E+08
        -0.10637E+09
        -0.15940E+09
        -0.16251E+09
        -0.15856E+09
         0.16575E+09
         0.18149E+09
         0.13875E+09
         0.38265E+08
         0.17140E+09
         0.84955E+08
        -0.45570E+08
         0.43050E+08
         0.16154E+09
         0.37361E+08
         0.47630E+08
         0.35834E+08
        -0.21278E+08
         0.58164E+08
        -0.16149E+09
         0.58074E+08
         0.87548E+07
         0.27292E+08
        -0.43066E+08
        -0.14912E+09
         0.10631E+09
         0.42212E+08
         0.10403E+09
         0.90278E+08
        -0.13643E+08
         0.68035E+08
         0.10182E+09
         0.15726E+09
         0.17698E+09
         0.16674E+09
         0.88410E+08
        -0.23849E+08
        -0.49021E+08
        -0.77688E+08
        -0.11117E+09
        -0.16949E+09
        -0.14634E+09
        -0.11267E+09
        -0.17003E+09
        -0.17149E+09
        -0.11205E+09
        -0.11792E+08
         0.35847E+08
        -0.50231E+08
         0.11227E+09
         0.14603E+09
         0.17785E+09
         0.20007E+09
         0.20344E+09
         0.19766E+09
         0.19393E+09
         0.18040E+09
         0.11537E+09
         0.38520E+08
         0.18242E+08
         0.16403E+08
        -0.69019E+07
        -0.55477E+08
        -0.10745E+09
        -0.13802E+09
        -0.18607E+09
        -0.20137E+09
        -0.19452E+09
        -0.19278E+09
        -0.18129E+09
        -0.13028E+09
        -0.65909E+08
        -0.62873E+08
        -0.16588E+09
        -0.16932E+09
        -0.16564E+09
        -0.55200E+08
        -0.12152E+09
        -0.77501E+08
        -0.10650E+09
        -0.15952E+09
        -0.16253E+09
        -0.15871E+09
         0.16585E+09
         0.18148E+09
         0.13873E+09
         0.38346E+08
         0.17145E+09
         0.84895E+08
        -0.45985E+08
         0.42984E+08
         0.16156E+09
         0.37148E+08
         0.47745E+08
         0.35870E+08
        -0.21287E+08
         0.58128E+08
        -0.16156E+09
         0.57953E+08
         0.88611E+07
         0.27453E+08
        -0.42754E+08
        -0.14918E+09
         0.10622E+09
         0.42100E+08
         0.10426E+09
         0.90423E+08
        -0.13508E+08
         0.68099E+08
         0.10184E+09
         0.15728E+09
         0.17699E+09
         0.16672E+09
         0.88426E+08
        -0.23766E+08
        -0.49062E+08
        -0.77736E+08
        -0.11120E+09
        -0.16950E+09
        -0.14635E+09
        -0.11260E+09
        -0.17004E+09
        -0.17149E+09
        -0.11206E+09
        -0.11628E+08
         0.35826E+08
        -0.50245E+08
         0.11229E+09
         0.14603E+09
         0.17785E+09
         0.20006E+09
         0.20343E+09
         0.19764E+09
         0.19394E+09
         0.18040E+09
         0.11536E+09
         0.38538E+08
         0.18243E+08
         0.16437E+08
        -0.68441E+07
        -0.55495E+08
        -0.10747E+09
        -0.13802E+09
        -0.18608E+09
        -0.20137E+09
        -0.19453E+09
        -0.19279E+09
        -0.18130E+09
        -0.13027E+09
        -0.65870E+08
        -0.62821E+08
        -0.16587E+09
        -0.16931E+09
        -0.16564E+09
        -0.55605E+08
        -0.12159E+09
        -0.77606E+08
        -0.10664E+09
        -0.15964E+09
        -0.16256E+09
        -0.15886E+09
         0.16595E+09
         0.18147E+09
         0.13871E+09
         0.38433E+08
         0.17151E+09
         0.84830E+08
        -0.46408E+08
         0.42917E+08
         0.16158E+09
         0.36922E+08
         0.47860E+08
         0.35901E+08
        -0.21305E+08
         0.58071E+08
        -0.16162E+09
         0.57795E+08
         0.89713E+07
         0.27667E+08
        -0.42366E+08
        -0.14924E+09
         0.10613E+09
         0.41949E+08
         0.10449E+09
         0.90570E+08
        -0.13373E+08
         0.68161E+08
         0.10186E+09
         0.15729E+09
         0.17701E+09
         0.16670E+09
         0.88449E+08
        -0.23663E+08
        -0.49093E+08
        -0.77804E+08
        -0.11125E+09
        -0.16951E+09
        -0.14637E+09
        -0.11254E+09
        -0.17004E+09
        -0.17148E+09
        -0.11207E+09
        -0.11465E+08
         0.35804E+08
        -0.50259E+08
         0.11232E+09
         0.14603E+09
         0.17786E+09
         0.20005E+09
         0.20343E+09
         0.19763E+09
         0.19394E+09
         0.18040E+09
         0.11536E+09
         0.38559E+08
         0.18244E+08
         0.16471E+08
        -0.67859E+07
        -0.55513E+08
        -0.10750E+09
        -0.13803E+09
        -0.18609E+09
        -0.20137E+09
        -0.19454E+09
        -0.19279E+09
        -0.18131E+09
        -0.13025E+09
        -0.65832E+08
        -0.62768E+08
        -0.16585E+09
        -0.16931E+09
        -0.16563E+09
        -0.56007E+08
        -0.12165E+09
        -0.77710E+08
        -0.10677E+09
        -0.15977E+09
        -0.16259E+09
        -0.15902E+09
         0.16604E+09
         0.18146E+09
         0.13870E+09
         0.38521E+08
         0.17156E+09
         0.84760E+08
        -0.46837E+08
         0.42850E+08
         0.16160E+09
         0.36684E+08
         0.47976E+08
         0.35929E+08
        -0.21332E+08
         0.57990E+08
        -0.16166E+09
         0.57595E+08
         0.90945E+07
         0.27928E+08
        -0.41902E+08
        -0.14929E+09
         0.10602E+09
         0.41751E+08
         0.10472E+09
         0.90716E+08
        -0.13237E+08
         0.68224E+08
         0.10187E+09
         0.15731E+09
         0.17702E+09
         0.16668E+09
         0.88480E+08
        -0.23540E+08
        -0.49112E+08
        -0.77893E+08
        -0.11131E+09
        -0.16953E+09
        -0.14638E+09
        -0.11248E+09
        -0.17004E+09
        -0.17147E+09
        -0.11208E+09
        -0.11299E+08
         0.35782E+08
        -0.50273E+08
         0.11234E+09
         0.14603E+09
         0.17786E+09
         0.20005E+09
         0.20342E+09
         0.19762E+09
         0.19395E+09
         0.18040E+09
         0.11536E+09
         0.38583E+08
         0.18247E+08
         0.16504E+08
        -0.67275E+07
        -0.55532E+08
        -0.10754E+09
        -0.13804E+09
        -0.18609E+09
        -0.20137E+09
        -0.19454E+09
        -0.19279E+09
        -0.18132E+09
        -0.13024E+09
        -0.65793E+08
        -0.62716E+08
        -0.16584E+09
        -0.16930E+09
        -0.16562E+09
        -0.56415E+08
        -0.12172E+09
        -0.77814E+08
        -0.10689E+09
        -0.15989E+09
        -0.16262E+09
        -0.15917E+09
         0.16614E+09
         0.18144E+09
         0.13868E+09
         0.38614E+08
         0.17162E+09
         0.84692E+08
        -0.47275E+08
         0.42784E+08
         0.16163E+09
         0.36441E+08
         0.48092E+08
         0.35955E+08
        -0.21362E+08
         0.57900E+08
        -0.16170E+09
         0.57383E+08
         0.92271E+07
         0.28217E+08
        -0.41404E+08
        -0.14933E+09
         0.10592E+09
         0.41531E+08
         0.10496E+09
         0.90870E+08
        -0.13100E+08
         0.68288E+08
         0.10189E+09
         0.15733E+09
         0.17703E+09
         0.16666E+09
         0.88513E+08
        -0.23410E+08
        -0.49126E+08
        -0.77988E+08
        -0.11137E+09
        -0.16954E+09
        -0.14640E+09
        -0.11243E+09
        -0.17005E+09
        -0.17146E+09
        -0.11208E+09
        -0.11133E+08
         0.35760E+08
        -0.50286E+08
         0.11236E+09
         0.14603E+09
         0.17787E+09
         0.20004E+09
         0.20341E+09
         0.19761E+09
         0.19395E+09
         0.18040E+09
         0.11536E+09
         0.38610E+08
         0.18250E+08
         0.16537E+08
        -0.66691E+07
        -0.55552E+08
        -0.10757E+09
        -0.13806E+09
        -0.18610E+09
        -0.20137E+09
        -0.19455E+09
        -0.19280E+09
        -0.18133E+09
        -0.13022E+09
        -0.65754E+08
        -0.62663E+08
        -0.16583E+09
        -0.16929E+09
        -0.16562E+09
        -0.56834E+08
        -0.12178E+09
        -0.77918E+08
        -0.10698E+09
        -0.16000E+09
        -0.16265E+09
        -0.15931E+09
         0.16623E+09
         0.18143E+09
         0.13867E+09
         0.38729E+08
         0.17167E+09
         0.84627E+08
        -0.47723E+08
         0.42718E+08
         0.16165E+09
         0.36197E+08
         0.48208E+08
         0.35981E+08
        -0.21392E+08
         0.57813E+08
        -0.16175E+09
         0.57168E+08
         0.93834E+07
         0.28525E+08
        -0.40898E+08
        -0.14937E+09
         0.10581E+09
         0.41295E+08
         0.10520E+09
         0.91031E+08
        -0.12963E+08
         0.68352E+08
         0.10191E+09
         0.15735E+09
         0.17704E+09
         0.16665E+09
         0.88548E+08
        -0.23277E+08
        -0.49139E+08
        -0.78083E+08
        -0.11144E+09
        -0.16955E+09
        -0.14643E+09
        -0.11240E+09
        -0.17005E+09
        -0.17145E+09
        -0.11209E+09
        -0.10964E+08
         0.35738E+08
        -0.50300E+08
         0.11238E+09
         0.14603E+09
         0.17787E+09
         0.20003E+09
         0.20340E+09
         0.19760E+09
         0.19396E+09
         0.18040E+09
         0.11535E+09
         0.38636E+08
         0.18253E+08
         0.16570E+08
        -0.66106E+07
        -0.55571E+08
        -0.10761E+09
        -0.13807E+09
        -0.18611E+09
        -0.20136E+09
        -0.19455E+09
        -0.19280E+09
        -0.18134E+09
        -0.13020E+09
        -0.65716E+08
        -0.62611E+08
        -0.16582E+09
        -0.16928E+09
        -0.16562E+09
        -0.57258E+08
        -0.12185E+09
        -0.78023E+08
        -0.10705E+09
        -0.16012E+09
        -0.16268E+09
        -0.15945E+09
         0.16633E+09
         0.18142E+09
         0.13866E+09
         0.38850E+08
         0.17173E+09
         0.84563E+08
        -0.48177E+08
         0.42650E+08
         0.16167E+09
         0.35954E+08
         0.48324E+08
         0.36008E+08
        -0.21422E+08
         0.57728E+08
        -0.16180E+09
         0.56955E+08
         0.95458E+07
         0.28840E+08
        -0.40389E+08
        -0.14940E+09
         0.10571E+09
         0.41049E+08
         0.10544E+09
         0.91198E+08
        -0.12825E+08
         0.68418E+08
         0.10193E+09
         0.15737E+09
         0.17706E+09
         0.16663E+09
         0.88582E+08
        -0.23144E+08
        -0.49150E+08
        -0.78176E+08
        -0.11150E+09
        -0.16957E+09
        -0.14647E+09
        -0.11237E+09
        -0.17006E+09
        -0.17144E+09
        -0.11209E+09
        -0.10795E+08
         0.35716E+08
        -0.50313E+08
         0.11240E+09
         0.14603E+09
         0.17788E+09
         0.20003E+09
         0.20339E+09
         0.19758E+09
         0.19396E+09
         0.18039E+09
         0.11535E+09
         0.38662E+08
         0.18256E+08
         0.16603E+08
        -0.65521E+07
        -0.55590E+08
        -0.10764E+09
        -0.13808E+09
        -0.18611E+09
        -0.20136E+09
        -0.19456E+09
        -0.19280E+09
        -0.18135E+09
        -0.13019E+09
        -0.65677E+08
        -0.62558E+08
        -0.16580E+09
        -0.16927E+09
        -0.16562E+09
        -0.57682E+08
        -0.12191E+09
        -0.78127E+08
        -0.10713E+09
        -0.16023E+09
        -0.16271E+09
        -0.15959E+09
         0.16642E+09
         0.18142E+09
         0.13865E+09
         0.38975E+08
         0.17178E+09
         0.84500E+08
        -0.48634E+08
         0.42582E+08
         0.16169E+09
         0.35709E+08
         0.48440E+08
         0.36035E+08
        -0.21452E+08
         0.57644E+08
        -0.16185E+09
         0.56744E+08
         0.97121E+07
         0.29152E+08
        -0.39882E+08
        -0.14944E+09
         0.10560E+09
         0.40805E+08
         0.10569E+09
         0.91363E+08
        -0.12686E+08
         0.68482E+08
         0.10195E+09
         0.15739E+09
         0.17707E+09
         0.16661E+09
         0.88617E+08
        -0.23012E+08
        -0.49162E+08
        -0.78269E+08
        -0.11157E+09
        -0.16958E+09
        -0.14650E+09
        -0.11235E+09
        -0.17007E+09
        -0.17143E+09
        -0.11210E+09
        -0.10624E+08
         0.35695E+08
        -0.50327E+08
         0.11242E+09
         0.14603E+09
         0.17788E+09
         0.20002E+09
         0.20338E+09
         0.19757E+09
         0.19396E+09
         0.18039E+09
         0.11535E+09
         0.38688E+08
         0.18260E+08
         0.16637E+08
        -0.64937E+07
        -0.55610E+08
        -0.10767E+09
        -0.13809E+09
        -0.18612E+09
        -0.20136E+09
        -0.19457E+09
        -0.19281E+09
        -0.18136E+09
        -0.13017E+09
        -0.65638E+08
        -0.62505E+08
        -0.16579E+09
        -0.16926E+09
        -0.16562E+09
        -0.58103E+08
        -0.12198E+09
        -0.78231E+08
        -0.10720E+09
        -0.16035E+09
        -0.16274E+09
        -0.15972E+09
         0.16651E+09
         0.18141E+09
         0.13864E+09
         0.39095E+08
         0.17184E+09
         0.84437E+08
        -0.49093E+08
         0.42514E+08
         0.16171E+09
         0.35462E+08
         0.48555E+08
         0.36061E+08
        -0.21480E+08
         0.57560E+08
        -0.16189E+09
         0.56532E+08
         0.98737E+07
         0.29460E+08
        -0.39376E+08
        -0.14947E+09
         0.10550E+09
         0.40561E+08
         0.10593E+09
         0.91529E+08
        -0.12548E+08
         0.68547E+08
         0.10197E+09
         0.15741E+09
         0.17708E+09
         0.16659E+09
         0.88651E+08
        -0.22881E+08
        -0.49175E+08
        -0.78362E+08
        -0.11164E+09
        -0.16959E+09
        -0.14653E+09
        -0.11233E+09
        -0.17008E+09
        -0.17142E+09
        -0.11210E+09
        -0.10454E+08
         0.35672E+08
        -0.50340E+08
         0.11244E+09
         0.14603E+09
         0.17789E+09
         0.20001E+09
         0.20337E+09
         0.19756E+09
         0.19397E+09
         0.18039E+09
         0.11535E+09
         0.38713E+08
         0.18263E+08
         0.16671E+08
        -0.64355E+07
        -0.55629E+08
        -0.10771E+09
        -0.13811E+09
        -0.18612E+09
        -0.20136E+09
        -0.19457E+09
        -0.19281E+09
        -0.18137E+09
        -0.13016E+09
        -0.65600E+08
        -0.62452E+08
        -0.16578E+09
        -0.16925E+09
        -0.16562E+09
        -0.58525E+08
        -0.12204E+09
        -0.78334E+08
        -0.10728E+09
        -0.16046E+09
        -0.16277E+09
        -0.15985E+09
         0.16659E+09
         0.18140E+09
         0.13862E+09
         0.39220E+08
         0.17189E+09
         0.84375E+08
        -0.49552E+08
         0.42446E+08
         0.16174E+09
         0.35214E+08
         0.48671E+08
         0.36087E+08
        -0.21510E+08
         0.57477E+08
        -0.16194E+09
         0.56321E+08
         0.10038E+08
         0.29764E+08
        -0.38871E+08
        -0.14951E+09
         0.10540E+09
         0.40318E+08
         0.10617E+09
         0.91695E+08
        -0.12408E+08
         0.68613E+08
         0.10199E+09
         0.15743E+09
         0.17710E+09
         0.16657E+09
         0.88684E+08
        -0.22749E+08
        -0.49187E+08
        -0.78454E+08
        -0.11170E+09
        -0.16961E+09
        -0.14657E+09
        -0.11230E+09
        -0.17009E+09
        -0.17142E+09
        -0.11211E+09
        -0.10282E+08
         0.35650E+08
        -0.50353E+08
         0.11246E+09
         0.14603E+09
         0.17789E+09
         0.20001E+09
         0.20336E+09
         0.19755E+09
         0.19397E+09
         0.18039E+09
         0.11535E+09
         0.38739E+08
         0.18267E+08
         0.16704E+08
        -0.63771E+07
        -0.55648E+08
        -0.10774E+09
        -0.13812E+09
        -0.18613E+09
        -0.20136E+09
        -0.19458E+09
        -0.19282E+09
        -0.18138E+09
        -0.13014E+09
        -0.65562E+08
        -0.62399E+08
        -0.16577E+09
        -0.16924E+09
        -0.16562E+09
        -0.58950E+08
        -0.12210E+09
        -0.78439E+08
        -0.10735E+09
        -0.16057E+09
        -0.16280E+09
        -0.15999E+09
         0.16668E+09
         0.18139E+09
         0.13861E+09
         0.39344E+08
         0.17195E+09
         0.84313E+08
        -0.50012E+08
         0.42377E+08
         0.16176E+09
         0.34968E+08
         0.48787E+08
         0.36112E+08
        -0.21540E+08
         0.57395E+08
        -0.16199E+09
         0.56111E+08
         0.10199E+08
         0.30067E+08
        -0.38366E+08
        -0.14954E+09
         0.10529E+09
         0.40074E+08
         0.10641E+09
         0.91864E+08
        -0.12269E+08
         0.68678E+08
         0.10201E+09
         0.15745E+09
         0.17711E+09
         0.16656E+09
         0.88718E+08
        -0.22619E+08
        -0.49199E+08
        -0.78547E+08
        -0.11177E+09
        -0.16962E+09
        -0.14660E+09
        -0.11228E+09
        -0.17010E+09
        -0.17141E+09
        -0.11211E+09
        -0.10110E+08
         0.35628E+08
        -0.50366E+08
         0.11248E+09
         0.14603E+09
         0.17790E+09
         0.20000E+09
         0.20335E+09
         0.19754E+09
         0.19398E+09
         0.18039E+09
         0.11535E+09
         0.38765E+08
         0.18270E+08
         0.16737E+08
        -0.63184E+07
        -0.55668E+08
        -0.10778E+09
        -0.13813E+09
        -0.18614E+09
        -0.20136E+09
        -0.19459E+09
        -0.19282E+09
        -0.18139E+09
        -0.13012E+09
        -0.65523E+08
        -0.62346E+08
        -0.16575E+09
        -0.16922E+09
        -0.16562E+09
        -0.59377E+08
        -0.12217E+09
        -0.78543E+08
        -0.10742E+09
        -0.16068E+09
        -0.16283E+09
        -0.16012E+09
         0.16676E+09
         0.18138E+09
         0.13860E+09
         0.39465E+08
         0.17200E+09
         0.84251E+08
        -0.50473E+08
         0.42307E+08
         0.16178E+09
         0.34723E+08
         0.48902E+08
         0.36138E+08
        -0.21569E+08
         0.57313E+08
        -0.16204E+09
         0.55899E+08
         0.10364E+08
         0.30366E+08
        -0.37862E+08
        -0.14958E+09
         0.10519E+09
         0.39827E+08
         0.10665E+09
         0.92029E+08
        -0.12129E+08
         0.68743E+08
         0.10203E+09
         0.15747E+09
         0.17712E+09
         0.16654E+09
         0.88752E+08
        -0.22488E+08
        -0.49211E+08
        -0.78640E+08
        -0.11183E+09
        -0.16963E+09
        -0.14663E+09
        -0.11226E+09
        -0.17011E+09
        -0.17140E+09
        -0.11211E+09
        -0.99386E+07
         0.35606E+08
        -0.50379E+08
         0.11250E+09
         0.14603E+09
         0.17790E+09
         0.19999E+09
         0.20335E+09
         0.19753E+09
         0.19398E+09
         0.18039E+09
         0.11534E+09
         0.38790E+08
         0.18274E+08
         0.16771E+08
        -0.62600E+07
        -0.55687E+08
        -0.10781E+09
        -0.13814E+09
        -0.18614E+09
        -0.20135E+09
        -0.19459E+09
        -0.19282E+09
        -0.18139E+09
        -0.13011E+09
        -0.65485E+08
        -0.62293E+08
        -0.16574E+09
        -0.16921E+09
        -0.16562E+09
        -0.59802E+08
        -0.12223E+09
        -0.78648E+08
        -0.10750E+09
        -0.16079E+09
        -0.16286E+09
        -0.16025E+09
         0.16684E+09
         0.18137E+09
         0.13859E+09
         0.39590E+08
         0.17206E+09
         0.84188E+08
        -0.50935E+08
         0.42238E+08
         0.16180E+09
         0.34478E+08
         0.49018E+08
         0.36163E+08
        -0.21599E+08
         0.57232E+08
        -0.16208E+09
         0.55687E+08
         0.10525E+08
         0.30662E+08
        -0.37360E+08
        -0.14961E+09
         0.10509E+09
         0.39583E+08
         0.10690E+09
         0.92197E+08
        -0.11989E+08
         0.68808E+08
         0.10205E+09
         0.15749E+09
         0.17713E+09
         0.16652E+09
         0.88786E+08
        -0.22358E+08
        -0.49223E+08
        -0.78732E+08
        -0.11190E+09
        -0.16964E+09
        -0.14667E+09
        -0.11224E+09
        -0.17012E+09
        -0.17139E+09
        -0.11212E+09
        -0.97673E+07
         0.35583E+08
        -0.50392E+08
         0.11252E+09
         0.14603E+09
         0.17791E+09
         0.19999E+09
         0.20334E+09
         0.19751E+09
         0.19398E+09
         0.18039E+09
         0.11534E+09
         0.38816E+08
         0.18277E+08
         0.16805E+08
        -0.62018E+07
        -0.55706E+08
        -0.10785E+09
        -0.13815E+09
        -0.18615E+09
        -0.20135E+09
        -0.19460E+09
        -0.19283E+09
        -0.18140E+09
        -0.13009E+09
        -0.65448E+08
        -0.62240E+08
        -0.16573E+09
        -0.16920E+09
        -0.16562E+09
        -0.60227E+08
        -0.12229E+09
        -0.78752E+08
        -0.10758E+09
        -0.16090E+09
        -0.16289E+09
        -0.16038E+09
         0.16692E+09
         0.18136E+09
         0.13858E+09
         0.39711E+08
         0.17211E+09
         0.84127E+08
        -0.51400E+08
         0.42170E+08
         0.16182E+09
         0.34231E+08
         0.49133E+08
         0.36189E+08
        -0.21627E+08
         0.57152E+08
        -0.16213E+09
         0.55476E+08
         0.10688E+08
         0.30952E+08
        -0.36860E+08
        -0.14965E+09
         0.10498E+09
         0.39337E+08
         0.10714E+09
         0.92364E+08
        -0.11849E+08
         0.68873E+08
         0.10207E+09
         0.15751E+09
         0.17715E+09
         0.16650E+09
         0.88820E+08
        -0.22227E+08
        -0.49235E+08
        -0.78823E+08
        -0.11197E+09
        -0.16966E+09
        -0.14670E+09
        -0.11222E+09
        -0.17013E+09
        -0.17138E+09
        -0.11212E+09
        -0.95946E+07
         0.35561E+08
        -0.50405E+08
         0.11254E+09
         0.14603E+09
         0.17791E+09
         0.19998E+09
         0.20333E+09
         0.19750E+09
         0.19399E+09
         0.18039E+09
         0.11534E+09
         0.38842E+08
         0.18281E+08
         0.16838E+08
        -0.61435E+07
        -0.55725E+08
        -0.10788E+09
        -0.13817E+09
        -0.18616E+09
        -0.20135E+09
        -0.19461E+09
        -0.19283E+09
        -0.18141E+09
        -0.13008E+09
        -0.65410E+08
        -0.62187E+08
        -0.16572E+09
        -0.16919E+09
        -0.16562E+09
        -0.60651E+08
        -0.12236E+09
        -0.78855E+08
        -0.10765E+09
        -0.16101E+09
        -0.16292E+09
        -0.16051E+09
         0.16700E+09
         0.18135E+09
         0.13856E+09
         0.39836E+08
         0.17217E+09
         0.84065E+08
        -0.51867E+08
         0.42100E+08
         0.16184E+09
         0.33985E+08
         0.49249E+08
         0.36213E+08
        -0.21656E+08
         0.57073E+08
        -0.16218E+09
         0.55264E+08
         0.10847E+08
         0.31238E+08
        -0.36362E+08
        -0.14968E+09
         0.10488E+09
         0.39093E+08
         0.10738E+09
         0.92534E+08
        -0.11709E+08
         0.68937E+08
         0.10209E+09
         0.15753E+09
         0.17716E+09
         0.16648E+09
         0.88854E+08
        -0.22097E+08
        -0.49248E+08
        -0.78915E+08
        -0.11203E+09
        -0.16967E+09
        -0.14673E+09
        -0.11219E+09
        -0.17014E+09
        -0.17137E+09
        -0.11213E+09
        -0.94212E+07
         0.35539E+08
        -0.50418E+08
         0.11256E+09
         0.14603E+09
         0.17792E+09
         0.19997E+09
         0.20332E+09
         0.19749E+09
         0.19399E+09
         0.18038E+09
         0.11534E+09
         0.38868E+08
         0.18284E+08
         0.16871E+08
        -0.60851E+07
        -0.55744E+08
        -0.10792E+09
        -0.13818E+09
        -0.18616E+09
        -0.20135E+09
        -0.19461E+09
        -0.19283E+09
        -0.18142E+09
        -0.13006E+09
        -0.65372E+08
        -0.62133E+08
        -0.16570E+09
        -0.16918E+09
        -0.16561E+09
        -0.61076E+08
        -0.12242E+09
        -0.78960E+08
        -0.10773E+09
        -0.16112E+09
        -0.16295E+09
        -0.16064E+09
         0.16707E+09
         0.18133E+09
         0.13855E+09
         0.39957E+08
         0.17222E+09
         0.84003E+08
        -0.52336E+08
         0.42029E+08
         0.16186E+09
         0.33742E+08
         0.49364E+08
         0.36237E+08
        -0.21686E+08
         0.56994E+08
        -0.16223E+09
         0.55051E+08
         0.11011E+08
         0.31522E+08
        -0.35863E+08
        -0.14971E+09
         0.10478E+09
         0.38848E+08
         0.10762E+09
         0.92702E+08
        -0.11567E+08
         0.69002E+08
         0.10211E+09
         0.15756E+09
         0.17717E+09
         0.16646E+09
         0.88889E+08
        -0.21969E+08
        -0.49261E+08
        -0.79007E+08
        -0.11210E+09
        -0.16968E+09
        -0.14677E+09
        -0.11217E+09
        -0.17015E+09
        -0.17136E+09
        -0.11213E+09
        -0.92487E+07
         0.35516E+08
        -0.50431E+08
         0.11258E+09
         0.14603E+09
         0.17792E+09
         0.19997E+09
         0.20331E+09
         0.19748E+09
         0.19400E+09
         0.18038E+09
         0.11534E+09
         0.38893E+08
         0.18286E+08
         0.16904E+08
        -0.60271E+07
        -0.55762E+08
        -0.10795E+09
        -0.13819E+09
        -0.18617E+09
        -0.20135E+09
        -0.19462E+09
        -0.19284E+09
        -0.18143E+09
        -0.13004E+09
        -0.65335E+08
        -0.62080E+08
        -0.16569E+09
        -0.16917E+09
        -0.16561E+09
        -0.61504E+08
        -0.12248E+09
        -0.79064E+08
        -0.10781E+09
        -0.16123E+09
        -0.16298E+09
        -0.16077E+09
         0.16714E+09
         0.18132E+09
         0.13854E+09
         0.40082E+08
         0.17228E+09
         0.83941E+08
        -0.52810E+08
         0.41958E+08
         0.16188E+09
         0.33510E+08
         0.49479E+08
         0.36260E+08
        -0.21715E+08
         0.56913E+08
        -0.16228E+09
         0.54840E+08
         0.11174E+08
         0.31803E+08
        -0.35366E+08
        -0.14974E+09
         0.10467E+09
         0.38599E+08
         0.10786E+09
         0.92871E+08
        -0.11427E+08
         0.69068E+08
         0.10213E+09
         0.15758E+09
         0.17718E+09
         0.16644E+09
         0.88926E+08
        -0.21840E+08
        -0.49276E+08
        -0.79098E+08
        -0.11217E+09
        -0.16970E+09
        -0.14680E+09
        -0.11215E+09
        -0.17015E+09
        -0.17135E+09
        -0.11214E+09
        -0.90757E+07
         0.35494E+08
        -0.50443E+08
         0.11260E+09
         0.14604E+09
         0.17793E+09
         0.19996E+09
         0.20330E+09
         0.19747E+09
         0.19400E+09
         0.18038E+09
         0.11534E+09
         0.38918E+08
         0.18287E+08
         0.16937E+08
        -0.59691E+07
        -0.55781E+08
        -0.10799E+09
        -0.13820E+09
        -0.18617E+09
        -0.20134E+09
        -0.19463E+09
        -0.19284E+09
        -0.18144E+09
        -0.13003E+09
        -0.65298E+08
        -0.62027E+08
        -0.16568E+09
        -0.16915E+09
        -0.16561E+09
        -0.61931E+08
        -0.12255E+09
        -0.79167E+08
        -0.10788E+09
        -0.16134E+09
        -0.16301E+09
        -0.16090E+09
         0.16721E+09
         0.18131E+09
         0.13853E+09
         0.40209E+08
         0.17233E+09
         0.83880E+08
        -0.53292E+08
         0.41887E+08
         0.16190E+09
         0.33287E+08
         0.49594E+08
         0.36283E+08
        -0.21744E+08
         0.56836E+08
        -0.16233E+09
         0.54627E+08
         0.11344E+08
         0.32082E+08
        -0.34870E+08
        -0.14977E+09
         0.10457E+09
         0.38354E+08
         0.10810E+09
         0.93039E+08
        -0.11285E+08
         0.69132E+08
         0.10214E+09
         0.15761E+09
         0.17719E+09
         0.16642E+09
         0.88964E+08
        -0.21712E+08
        -0.49293E+08
        -0.79190E+08
        -0.11223E+09
        -0.16971E+09
        -0.14683E+09
        -0.11212E+09
        -0.17016E+09
        -0.17134E+09
        -0.11214E+09
        -0.89009E+07
         0.35471E+08
        -0.50456E+08
         0.11262E+09
         0.14604E+09
         0.17793E+09
         0.19995E+09
         0.20329E+09
         0.19746E+09
         0.19400E+09
         0.18038E+09
         0.11534E+09
         0.38943E+08
         0.18287E+08
         0.16970E+08
        -0.59109E+07
        -0.55800E+08
        -0.10802E+09
        -0.13822E+09
        -0.18618E+09
        -0.20134E+09
        -0.19463E+09
        -0.19285E+09
        -0.18145E+09
        -0.13001E+09
        -0.65262E+08
        -0.61973E+08
        -0.16567E+09
        -0.16914E+09
        -0.16561E+09
        -0.62356E+08
        -0.12261E+09
        -0.79270E+08
        -0.10796E+09
        -0.16144E+09
        -0.16304E+09
        -0.16104E+09
         0.16728E+09
         0.18130E+09
         0.13852E+09
         0.40331E+08
         0.17239E+09
         0.83819E+08
        -0.53777E+08
         0.41816E+08
         0.16192E+09
         0.33071E+08
         0.49710E+08
         0.36305E+08
        -0.21771E+08
         0.56763E+08
        -0.16239E+09
         0.54422E+08
         0.11511E+08
         0.32348E+08
        -0.34380E+08
        -0.14979E+09
         0.10447E+09
         0.38114E+08
         0.10834E+09
         0.93211E+08
        -0.11145E+08
         0.69195E+08
         0.10216E+09
         0.15764E+09
         0.17720E+09
         0.16640E+09
         0.89002E+08
        -0.21588E+08
        -0.49313E+08
        -0.79279E+08
        -0.11230E+09
        -0.16972E+09
        -0.14687E+09
        -0.11210E+09
        -0.17017E+09
        -0.17133E+09
        -0.11215E+09
        -0.87266E+07
         0.35448E+08
        -0.50469E+08
         0.11264E+09
         0.14604E+09
         0.17794E+09
         0.19995E+09
         0.20328E+09
         0.19744E+09
         0.19401E+09
         0.18038E+09
         0.11534E+09
         0.38966E+08
         0.18285E+08
         0.17003E+08
        -0.58526E+07
        -0.55818E+08
        -0.10805E+09
        -0.13823E+09
        -0.18619E+09
        -0.20134E+09
        -0.19464E+09
        -0.19285E+09
        -0.18146E+09
        -0.12999E+09
        -0.65225E+08
        -0.61920E+08
        -0.15945E+09
        -0.15170E+09
        -0.14729E+09
        -0.52467E+08
        -0.11649E+09
        -0.72416E+08
        -0.93529E+08
        -0.15368E+09
        -0.14926E+09
        -0.15293E+09
         0.13197E+09
         0.17738E+09
         0.13444E+09
         0.35931E+08
         0.16900E+09
         0.78595E+08
        -0.44716E+08
         0.41873E+08
         0.13785E+09
         0.32043E+08
         0.48646E+08
         0.35335E+08
        -0.21219E+08
         0.48898E+08
        -0.14507E+09
         0.54444E+08
         0.10374E+08
         0.32638E+08
        -0.30208E+08
        -0.13378E+09
         0.95672E+08
         0.34788E+08
         0.92289E+08
         0.82648E+08
        -0.10615E+08
         0.63770E+08
         0.97101E+08
         0.15353E+09
         0.17029E+09
         0.15891E+09
         0.86798E+08
        -0.20903E+08
        -0.48125E+08
        -0.76727E+08
        -0.10734E+09
        -0.16430E+09
        -0.13830E+09
        -0.10428E+09
        -0.15355E+09
        -0.15783E+09
        -0.10796E+09
        -0.79926E+07
         0.35186E+08
        -0.50186E+08
         0.11203E+09
         0.14526E+09
         0.17706E+09
         0.19899E+09
         0.20220E+09
         0.19615E+09
         0.19266E+09
         0.17922E+09
         0.11462E+09
         0.38760E+08
         0.18156E+08
         0.16920E+08
        -0.57652E+07
        -0.55550E+08
        -0.10757E+09
        -0.13759E+09
        -0.18509E+09
        -0.20020E+09
        -0.19349E+09
        -0.19167E+09
        -0.18040E+09
        -0.12919E+09
        -0.64824E+08
        -0.61515E+08
        -0.78983E+08
        -0.50501E+08
        -0.47654E+08
        -0.14287E+08
        -0.51498E+08
        -0.25809E+08
        -0.21005E+08
        -0.68821E+08
        -0.53931E+08
        -0.67270E+08
         0.32898E+08
         0.10577E+09
         0.72434E+08
         0.11553E+08
         0.10336E+09
         0.32064E+08
        -0.11425E+08
         0.99511E+07
         0.39474E+08
         0.63917E+07
         0.28221E+08
         0.19525E+08
        -0.11888E+08
         0.11934E+08
        -0.47584E+08
         0.11983E+08
         0.33759E+07
         0.58479E+07
        -0.60248E+07
        -0.43877E+08
         0.34609E+08
         0.80515E+07
         0.24509E+08
         0.20319E+08
        -0.52132E+07
         0.23630E+08
         0.43165E+08
         0.86068E+08
         0.83018E+08
         0.73624E+08
         0.49424E+08
        -0.11534E+08
        -0.27531E+08
        -0.39585E+08
        -0.49607E+08
        -0.85670E+08
        -0.57658E+08
        -0.40647E+08
        -0.52173E+08
        -0.58586E+08
        -0.53418E+08
        -0.31446E+07
         0.28052E+08
        -0.40790E+08
         0.91978E+08
         0.12036E+09
         0.14826E+09
         0.16786E+09
         0.16816E+09
         0.15734E+09
         0.15251E+09
         0.14394E+09
         0.92481E+08
         0.31812E+08
         0.14490E+08
         0.13563E+08
        -0.47190E+07
        -0.46469E+08
        -0.90687E+08
        -0.11605E+09
        -0.15039E+09
        -0.16407E+09
        -0.15752E+09
        -0.15516E+09
        -0.14725E+09
        -0.10477E+09
        -0.53263E+08
        -0.50363E+08
  
SCALARS                      stress_xz  double 1
LOOKUP_TABLE default
         0.57311E+05
        -0.40418E+06
        -0.13343E+07
         0.91664E+05
        -0.65333E+01
         0.23165E+01
         0.77460E+01
         0.15470E+01
        -0.37543E+07
        -0.25083E+07
         0.23169E+02
         0.20869E+02
         0.16007E+06
        -0.65317E+06
        -0.28575E+01
        -0.13386E+02
        -0.13402E+06
        -0.62682E+06
        -0.96693E+01
        -0.14401E+02
        -0.91860E+06
        -0.15478E+07
        -0.14658E+07
        -0.96161E+01
        -0.44342E+01
         0.77469E+01
        -0.16349E+07
        -0.13275E+07
        -0.18000E+02
        -0.14279E+02
         0.31358E+06
        -0.69657E+06
         0.66664E+05
         0.18326E+01
        -0.70821E+01
        -0.43631E+01
         0.93036E+06
         0.44842E+06
        -0.10515E+02
        -0.11195E+02
         0.18543E+07
         0.26274E+07
        -0.23718E+02
        -0.17491E+02
         0.19840E+07
         0.10566E+07
        -0.26046E+02
        -0.12537E+02
        -0.56948E+06
        -0.78693E+01
         0.13563E+07
        -0.21905E+01
        -0.59402E+06
        -0.15377E+02
         0.44375E+06
        -0.40675E+01
         0.19415E+07
         0.53263E+06
        -0.34844E+01
        -0.84223E+01
        -0.33484E+05
         0.92372E+06
         0.69692E+01
         0.47791E+01
        -0.23991E+06
        -0.70101E+00
        -0.80307E+06
         0.46109E+01
        -0.52833E+07
        -0.36205E+07
         0.28820E+02
         0.20902E+02
        -0.23285E+07
         0.15219E+02
         0.54874E+06
        -0.10528E+02
         0.17172E+07
        -0.20663E+01
         0.36404E+07
        -0.32057E+01
         0.48168E+07
         0.34205E+07
        -0.11748E+02
        -0.13436E+02
         0.30214E+07
        -0.14450E+02
         0.24060E+07
        -0.20804E+02
         0.14983E+07
        -0.13269E+02
         0.23587E+07
         0.17347E+07
        -0.56633E+01
         0.77664E+01
        -0.39654E+06
         0.91098E+01
        -0.10885E+07
         0.38250E+01
        -0.26136E+07
         0.94457E+01
        -0.38635E+07
        -0.26515E+07
         0.21779E+02
         0.22727E+02
        -0.94621E+07
        -0.10477E+08
         0.40243E+02
         0.39659E+02
        -0.93714E+07
         0.34380E+02
        -0.85412E+07
         0.25692E+02
        -0.61276E+07
         0.14119E+02
        -0.44521E+07
         0.15098E+01
        -0.16519E+07
        -0.53774E+01
         0.21282E+07
        -0.43023E+01
         0.50787E+07
        -0.42286E+01
         0.75461E+07
        -0.95359E+01
         0.10151E+08
        -0.18142E+02
         0.12336E+08
        -0.21649E+02
         0.13114E+08
        -0.20427E+02
         0.12491E+08
        -0.22212E+02
         0.11447E+08
        -0.28828E+02
         0.10295E+08
        -0.33995E+02
         0.90803E+07
        -0.31601E+02
         0.72208E+07
        -0.25683E+02
         0.42366E+07
        -0.12124E+02
         0.36319E+06
         0.23152E+01
        -0.23693E+07
         0.56209E+01
        -0.37083E+07
         0.91914E+01
        -0.55771E+07
         0.17988E+02
        -0.73533E+07
         0.29517E+02
        -0.96649E+07
         0.35463E+02
        -0.11104E+08
         0.36273E+02
        -0.89141E+06
         0.46376E+06
         0.54413E+06
        -0.10967E+07
         0.42376E+07
         0.32812E+07
         0.49479E+06
        -0.72729E+06
        -0.37569E+06
        -0.66797E+06
         0.36594E+06
         0.15840E+07
         0.33108E+07
        -0.10591E+07
        -0.12736E+07
         0.14595E+07
         0.12245E+07
        -0.56805E+06
        -0.88247E+06
        -0.94954E+06
        -0.51886E+07
        -0.55258E+07
        -0.49884E+07
        -0.15505E+07
         0.62198E+06
        -0.46348E+06
        -0.14878E+07
        -0.16684E+06
        -0.17060E+07
        -0.11741E+07
         0.13029E+07
         0.25544E+06
        -0.61393E+06
        -0.19839E+06
         0.62586E+07
         0.39911E+07
         0.36133E+07
        -0.25281E+07
        -0.14400E+07
        -0.30779E+07
        -0.63295E+07
        -0.59081E+07
        -0.58408E+07
        -0.42928E+07
        -0.30773E+07
        -0.24046E+07
         0.45208E+06
         0.18902E+07
         0.54658E+06
         0.17313E+07
         0.46207E+07
         0.38966E+07
         0.18232E+08
         0.19163E+08
         0.17124E+08
         0.14573E+08
         0.10850E+08
         0.55224E+07
        -0.32743E+06
        -0.39303E+07
        -0.59892E+07
        -0.10281E+08
        -0.16754E+08
        -0.20425E+08
        -0.18725E+08
        -0.17963E+08
        -0.18983E+08
        -0.18984E+08
        -0.17245E+08
        -0.15091E+08
        -0.76309E+07
         0.12068E+07
         0.46413E+07
         0.51740E+07
         0.87605E+07
         0.13981E+08
         0.18153E+08
         0.19086E+08
        -0.56336E+08
         0.18714E+08
        -0.37665E+08
        -0.15183E+09
         0.12692E+09
         0.15355E+09
         0.77541E+08
        -0.72595E+08
        -0.51890E+08
        -0.72980E+08
        -0.29160E+08
         0.26935E+08
         0.11435E+09
        -0.16790E+09
        -0.67443E+08
         0.14955E+09
         0.14593E+09
        -0.87405E+08
        -0.48891E+08
        -0.10330E+09
        -0.17388E+09
        -0.17584E+09
        -0.17785E+09
        -0.13942E+09
         0.54345E+08
         0.53320E+08
        -0.17144E+09
         0.38394E+08
        -0.96773E+08
        -0.83832E+08
         0.13341E+09
         0.13032E+09
        -0.13062E+09
        -0.11273E+09
         0.17807E+09
         0.15906E+09
         0.14312E+09
        -0.90314E+08
        -0.19298E+08
        -0.59826E+08
        -0.15859E+09
        -0.17868E+09
        -0.17358E+09
        -0.15929E+09
        -0.13637E+09
        -0.59560E+08
         0.95511E+08
         0.13136E+09
        -0.20838E+08
         0.21437E+08
         0.13854E+09
         0.17357E+09
         0.19766E+09
         0.19495E+09
         0.16810E+09
         0.13957E+09
         0.98267E+08
         0.42431E+08
        -0.10937E+08
        -0.39424E+08
        -0.53168E+08
        -0.91633E+08
        -0.16577E+09
        -0.19800E+09
        -0.19743E+09
        -0.19669E+09
        -0.19892E+09
        -0.19245E+09
        -0.16983E+09
        -0.14829E+09
        -0.78270E+08
         0.19856E+08
         0.48306E+08
         0.51302E+08
         0.86028E+08
         0.15205E+09
         0.18962E+09
         0.19048E+09
        -0.56402E+08
         0.18779E+08
        -0.37715E+08
        -0.15193E+09
         0.12685E+09
         0.15350E+09
         0.78034E+08
        -0.72345E+08
        -0.51862E+08
        -0.72721E+08
        -0.28571E+08
         0.27002E+08
         0.11438E+09
        -0.16786E+09
        -0.67342E+08
         0.14959E+09
         0.14625E+09
        -0.87163E+08
        -0.48840E+08
        -0.10312E+09
        -0.17385E+09
        -0.17583E+09
        -0.17784E+09
        -0.13943E+09
         0.54245E+08
         0.53409E+08
        -0.17143E+09
         0.37673E+08
        -0.97453E+08
        -0.83746E+08
         0.13348E+09
         0.13030E+09
        -0.13008E+09
        -0.11278E+09
         0.17809E+09
         0.15903E+09
         0.14311E+09
        -0.90329E+08
        -0.19442E+08
        -0.59937E+08
        -0.15859E+09
        -0.17869E+09
        -0.17357E+09
        -0.15927E+09
        -0.13634E+09
        -0.59532E+08
         0.95491E+08
         0.13141E+09
        -0.20714E+08
         0.21391E+08
         0.13852E+09
         0.17357E+09
         0.19765E+09
         0.19494E+09
         0.16808E+09
         0.13957E+09
         0.98251E+08
         0.42431E+08
        -0.10953E+08
        -0.39458E+08
        -0.53136E+08
        -0.91621E+08
        -0.16577E+09
        -0.19800E+09
        -0.19742E+09
        -0.19669E+09
        -0.19892E+09
        -0.19245E+09
        -0.16982E+09
        -0.14829E+09
        -0.78253E+08
         0.19866E+08
         0.48275E+08
         0.51285E+08
         0.85991E+08
         0.15205E+09
         0.18963E+09
         0.19049E+09
        -0.56469E+08
         0.18843E+08
        -0.37766E+08
        -0.15203E+09
         0.12678E+09
         0.15344E+09
         0.78530E+08
        -0.72096E+08
        -0.51830E+08
        -0.72461E+08
        -0.27982E+08
         0.27068E+08
         0.11441E+09
        -0.16782E+09
        -0.67243E+08
         0.14963E+09
         0.14658E+09
        -0.86919E+08
        -0.48788E+08
        -0.10294E+09
        -0.17382E+09
        -0.17582E+09
        -0.17784E+09
        -0.13944E+09
         0.54157E+08
         0.53505E+08
        -0.17143E+09
         0.36960E+08
        -0.98138E+08
        -0.83663E+08
         0.13356E+09
         0.13029E+09
        -0.12953E+09
        -0.11283E+09
         0.17810E+09
         0.15900E+09
         0.14309E+09
        -0.90342E+08
        -0.19585E+08
        -0.60049E+08
        -0.15859E+09
        -0.17871E+09
        -0.17356E+09
        -0.15925E+09
        -0.13632E+09
        -0.59505E+08
         0.95473E+08
         0.13146E+09
        -0.20586E+08
         0.21344E+08
         0.13850E+09
         0.17356E+09
         0.19765E+09
         0.19494E+09
         0.16807E+09
         0.13957E+09
         0.98236E+08
         0.42431E+08
        -0.10970E+08
        -0.39492E+08
        -0.53103E+08
        -0.91610E+08
        -0.16577E+09
        -0.19800E+09
        -0.19742E+09
        -0.19668E+09
        -0.19893E+09
        -0.19245E+09
        -0.16981E+09
        -0.14829E+09
        -0.78235E+08
         0.19876E+08
         0.48245E+08
         0.51268E+08
         0.85954E+08
         0.15205E+09
         0.18963E+09
         0.19050E+09
        -0.56535E+08
         0.18910E+08
        -0.37814E+08
        -0.15213E+09
         0.12671E+09
         0.15338E+09
         0.79019E+08
        -0.71848E+08
        -0.51792E+08
        -0.72197E+08
        -0.27394E+08
         0.27135E+08
         0.11443E+09
        -0.16778E+09
        -0.67143E+08
         0.14968E+09
         0.14692E+09
        -0.86674E+08
        -0.48737E+08
        -0.10276E+09
        -0.17379E+09
        -0.17581E+09
        -0.17784E+09
        -0.13944E+09
         0.54098E+08
         0.53624E+08
        -0.17143E+09
         0.36269E+08
        -0.98820E+08
        -0.83590E+08
         0.13364E+09
         0.13030E+09
        -0.12898E+09
        -0.11288E+09
         0.17812E+09
         0.15897E+09
         0.14308E+09
        -0.90356E+08
        -0.19727E+08
        -0.60154E+08
        -0.15859E+09
        -0.17873E+09
        -0.17355E+09
        -0.15922E+09
        -0.13628E+09
        -0.59474E+08
         0.95452E+08
         0.13151E+09
        -0.20457E+08
         0.21296E+08
         0.13849E+09
         0.17356E+09
         0.19765E+09
         0.19493E+09
         0.16806E+09
         0.13957E+09
         0.98220E+08
         0.42431E+08
        -0.10987E+08
        -0.39526E+08
        -0.53070E+08
        -0.91599E+08
        -0.16577E+09
        -0.19799E+09
        -0.19742E+09
        -0.19668E+09
        -0.19893E+09
        -0.19245E+09
        -0.16980E+09
        -0.14829E+09
        -0.78217E+08
         0.19886E+08
         0.48214E+08
         0.51251E+08
         0.85918E+08
         0.15204E+09
         0.18963E+09
         0.19051E+09
        -0.56601E+08
         0.18976E+08
        -0.37864E+08
        -0.15223E+09
         0.12664E+09
         0.15332E+09
         0.79515E+08
        -0.71599E+08
        -0.51748E+08
        -0.71927E+08
        -0.26805E+08
         0.27202E+08
         0.11446E+09
        -0.16773E+09
        -0.67042E+08
         0.14973E+09
         0.14727E+09
        -0.86428E+08
        -0.48680E+08
        -0.10257E+09
        -0.17376E+09
        -0.17581E+09
        -0.17784E+09
        -0.13945E+09
         0.54069E+08
         0.53759E+08
        -0.17142E+09
         0.35600E+08
        -0.99499E+08
        -0.83527E+08
         0.13374E+09
         0.13034E+09
        -0.12843E+09
        -0.11293E+09
         0.17814E+09
         0.15894E+09
         0.14306E+09
        -0.90368E+08
        -0.19867E+08
        -0.60259E+08
        -0.15858E+09
        -0.17876E+09
        -0.17355E+09
        -0.15918E+09
        -0.13623E+09
        -0.59437E+08
         0.95431E+08
         0.13156E+09
        -0.20328E+08
         0.21249E+08
         0.13847E+09
         0.17355E+09
         0.19764E+09
         0.19492E+09
         0.16804E+09
         0.13957E+09
         0.98205E+08
         0.42431E+08
        -0.11003E+08
        -0.39560E+08
        -0.53038E+08
        -0.91587E+08
        -0.16576E+09
        -0.19799E+09
        -0.19742E+09
        -0.19668E+09
        -0.19894E+09
        -0.19245E+09
        -0.16979E+09
        -0.14829E+09
        -0.78198E+08
         0.19896E+08
         0.48184E+08
         0.51234E+08
         0.85881E+08
         0.15204E+09
         0.18963E+09
         0.19051E+09
        -0.56665E+08
         0.19050E+08
        -0.37906E+08
        -0.15233E+09
         0.12657E+09
         0.15326E+09
         0.80010E+08
        -0.71352E+08
        -0.51702E+08
        -0.71661E+08
        -0.26213E+08
         0.27268E+08
         0.11449E+09
        -0.16769E+09
        -0.66943E+08
         0.14978E+09
         0.14763E+09
        -0.86181E+08
        -0.48622E+08
        -0.10240E+09
        -0.17373E+09
        -0.17580E+09
        -0.17784E+09
        -0.13946E+09
         0.54043E+08
         0.53899E+08
        -0.17142E+09
         0.34935E+08
        -0.10018E+09
        -0.83475E+08
         0.13384E+09
         0.13037E+09
        -0.12787E+09
        -0.11298E+09
         0.17815E+09
         0.15891E+09
         0.14305E+09
        -0.90379E+08
        -0.20005E+08
        -0.60360E+08
        -0.15858E+09
        -0.17878E+09
        -0.17355E+09
        -0.15914E+09
        -0.13617E+09
        -0.59402E+08
         0.95405E+08
         0.13161E+09
        -0.20193E+08
         0.21207E+08
         0.13845E+09
         0.17355E+09
         0.19764E+09
         0.19491E+09
         0.16803E+09
         0.13957E+09
         0.98189E+08
         0.42432E+08
        -0.11019E+08
        -0.39594E+08
        -0.53005E+08
        -0.91576E+08
        -0.16576E+09
        -0.19799E+09
        -0.19742E+09
        -0.19668E+09
        -0.19894E+09
        -0.19245E+09
        -0.16977E+09
        -0.14828E+09
        -0.78180E+08
         0.19905E+08
         0.48152E+08
         0.51216E+08
         0.85845E+08
         0.15204E+09
         0.18964E+09
         0.19052E+09
        -0.56723E+08
         0.19141E+08
        -0.37935E+08
        -0.15242E+09
         0.12650E+09
         0.15320E+09
         0.80515E+08
        -0.71109E+08
        -0.51657E+08
        -0.71409E+08
        -0.25615E+08
         0.27334E+08
         0.11451E+09
        -0.16764E+09
        -0.66841E+08
         0.14982E+09
         0.14797E+09
        -0.85933E+08
        -0.48569E+08
        -0.10222E+09
        -0.17370E+09
        -0.17580E+09
        -0.17783E+09
        -0.13948E+09
         0.54004E+08
         0.54022E+08
        -0.17141E+09
         0.34255E+08
        -0.10087E+09
        -0.83431E+08
         0.13393E+09
         0.13037E+09
        -0.12730E+09
        -0.11301E+09
         0.17817E+09
         0.15888E+09
         0.14303E+09
        -0.90388E+08
        -0.20144E+08
        -0.60464E+08
        -0.15857E+09
        -0.17881E+09
        -0.17355E+09
        -0.15909E+09
        -0.13612E+09
        -0.59368E+08
         0.95363E+08
         0.13164E+09
        -0.20040E+08
         0.21180E+08
         0.13844E+09
         0.17354E+09
         0.19764E+09
         0.19490E+09
         0.16801E+09
         0.13957E+09
         0.98173E+08
         0.42432E+08
        -0.11036E+08
        -0.39628E+08
        -0.52973E+08
        -0.91565E+08
        -0.16576E+09
        -0.19798E+09
        -0.19742E+09
        -0.19667E+09
        -0.19895E+09
        -0.19245E+09
        -0.16976E+09
        -0.14828E+09
        -0.78162E+08
         0.19913E+08
         0.48119E+08
         0.51199E+08
         0.85811E+08
         0.15204E+09
         0.18964E+09
         0.19053E+09
        -0.56779E+08
         0.19238E+08
        -0.37958E+08
        -0.15251E+09
         0.12643E+09
         0.15315E+09
         0.81025E+08
        -0.70869E+08
        -0.51613E+08
        -0.71165E+08
        -0.25013E+08
         0.27400E+08
         0.11453E+09
        -0.16759E+09
        -0.66740E+08
         0.14987E+09
         0.14831E+09
        -0.85683E+08
        -0.48512E+08
        -0.10206E+09
        -0.17367E+09
        -0.17579E+09
        -0.17783E+09
        -0.13949E+09
         0.53958E+08
         0.54138E+08
        -0.17141E+09
         0.33571E+08
        -0.10157E+09
        -0.83393E+08
         0.13402E+09
         0.13036E+09
        -0.12672E+09
        -0.11304E+09
         0.17818E+09
         0.15885E+09
         0.14302E+09
        -0.90396E+08
        -0.20282E+08
        -0.60567E+08
        -0.15856E+09
        -0.17883E+09
        -0.17355E+09
        -0.15905E+09
        -0.13607E+09
        -0.59337E+08
         0.95316E+08
         0.13166E+09
        -0.19880E+08
         0.21159E+08
         0.13843E+09
         0.17354E+09
         0.19764E+09
         0.19490E+09
         0.16800E+09
         0.13957E+09
         0.98158E+08
         0.42432E+08
        -0.11052E+08
        -0.39662E+08
        -0.52940E+08
        -0.91555E+08
        -0.16576E+09
        -0.19798E+09
        -0.19742E+09
        -0.19667E+09
        -0.19895E+09
        -0.19245E+09
        -0.16974E+09
        -0.14827E+09
        -0.78144E+08
         0.19921E+08
         0.48086E+08
         0.51181E+08
         0.85777E+08
         0.15204E+09
         0.18964E+09
         0.19053E+09
        -0.56835E+08
         0.19336E+08
        -0.37980E+08
        -0.15260E+09
         0.12636E+09
         0.15309E+09
         0.81533E+08
        -0.70630E+08
        -0.51569E+08
        -0.70924E+08
        -0.24415E+08
         0.27466E+08
         0.11456E+09
        -0.16754E+09
        -0.66638E+08
         0.14992E+09
         0.14864E+09
        -0.85434E+08
        -0.48456E+08
        -0.10189E+09
        -0.17364E+09
        -0.17579E+09
        -0.17783E+09
        -0.13951E+09
         0.53913E+08
         0.54252E+08
        -0.17140E+09
         0.32888E+08
        -0.10227E+09
        -0.83354E+08
         0.13411E+09
         0.13035E+09
        -0.12615E+09
        -0.11307E+09
         0.17820E+09
         0.15882E+09
         0.14300E+09
        -0.90404E+08
        -0.20420E+08
        -0.60670E+08
        -0.15855E+09
        -0.17886E+09
        -0.17355E+09
        -0.15901E+09
        -0.13602E+09
        -0.59306E+08
         0.95272E+08
         0.13168E+09
        -0.19719E+08
         0.21139E+08
         0.13842E+09
         0.17353E+09
         0.19763E+09
         0.19489E+09
         0.16798E+09
         0.13957E+09
         0.98142E+08
         0.42432E+08
        -0.11069E+08
        -0.39695E+08
        -0.52907E+08
        -0.91544E+08
        -0.16575E+09
        -0.19798E+09
        -0.19742E+09
        -0.19667E+09
        -0.19895E+09
        -0.19245E+09
        -0.16973E+09
        -0.14827E+09
        -0.78126E+08
         0.19928E+08
         0.48052E+08
         0.51163E+08
         0.85742E+08
         0.15203E+09
         0.18964E+09
         0.19054E+09
        -0.56891E+08
         0.19435E+08
        -0.38002E+08
        -0.15270E+09
         0.12630E+09
         0.15303E+09
         0.82043E+08
        -0.70391E+08
        -0.51526E+08
        -0.70683E+08
        -0.23815E+08
         0.27531E+08
         0.11458E+09
        -0.16749E+09
        -0.66537E+08
         0.14996E+09
         0.14898E+09
        -0.85188E+08
        -0.48399E+08
        -0.10173E+09
        -0.17361E+09
        -0.17578E+09
        -0.17783E+09
        -0.13953E+09
         0.53868E+08
         0.54367E+08
        -0.17139E+09
         0.32209E+08
        -0.10297E+09
        -0.83315E+08
         0.13420E+09
         0.13034E+09
        -0.12558E+09
        -0.11309E+09
         0.17821E+09
         0.15879E+09
         0.14298E+09
        -0.90411E+08
        -0.20558E+08
        -0.60773E+08
        -0.15855E+09
        -0.17888E+09
        -0.17355E+09
        -0.15897E+09
        -0.13596E+09
        -0.59273E+08
         0.95224E+08
         0.13170E+09
        -0.19560E+08
         0.21117E+08
         0.13841E+09
         0.17353E+09
         0.19763E+09
         0.19488E+09
         0.16797E+09
         0.13957E+09
         0.98126E+08
         0.42432E+08
        -0.11085E+08
        -0.39729E+08
        -0.52875E+08
        -0.91534E+08
        -0.16575E+09
        -0.19797E+09
        -0.19742E+09
        -0.19666E+09
        -0.19896E+09
        -0.19245E+09
        -0.16971E+09
        -0.14826E+09
        -0.78108E+08
         0.19935E+08
         0.48018E+08
         0.51146E+08
         0.85708E+08
         0.15203E+09
         0.18965E+09
         0.19055E+09
        -0.56946E+08
         0.19533E+08
        -0.38026E+08
        -0.15279E+09
         0.12623E+09
         0.15297E+09
         0.82549E+08
        -0.70152E+08
        -0.51482E+08
        -0.70444E+08
        -0.23215E+08
         0.27598E+08
         0.11460E+09
        -0.16744E+09
        -0.66435E+08
         0.15001E+09
         0.14931E+09
        -0.84942E+08
        -0.48347E+08
        -0.10156E+09
        -0.17358E+09
        -0.17578E+09
        -0.17783E+09
        -0.13955E+09
         0.53822E+08
         0.54480E+08
        -0.17138E+09
         0.31530E+08
        -0.10367E+09
        -0.83275E+08
         0.13430E+09
         0.13034E+09
        -0.12500E+09
        -0.11312E+09
         0.17823E+09
         0.15876E+09
         0.14297E+09
        -0.90418E+08
        -0.20695E+08
        -0.60876E+08
        -0.15854E+09
        -0.17891E+09
        -0.17355E+09
        -0.15892E+09
        -0.13591E+09
        -0.59243E+08
         0.95177E+08
         0.13172E+09
        -0.19398E+08
         0.21095E+08
         0.13840E+09
         0.17352E+09
         0.19763E+09
         0.19487E+09
         0.16796E+09
         0.13956E+09
         0.98110E+08
         0.42432E+08
        -0.11101E+08
        -0.39763E+08
        -0.52842E+08
        -0.91523E+08
        -0.16575E+09
        -0.19797E+09
        -0.19741E+09
        -0.19666E+09
        -0.19896E+09
        -0.19245E+09
        -0.16970E+09
        -0.14825E+09
        -0.78090E+08
         0.19943E+08
         0.47984E+08
         0.51128E+08
         0.85674E+08
         0.15203E+09
         0.18965E+09
         0.19056E+09
        -0.57002E+08
         0.19631E+08
        -0.38047E+08
        -0.15288E+09
         0.12616E+09
         0.15291E+09
         0.83058E+08
        -0.69914E+08
        -0.51437E+08
        -0.70207E+08
        -0.22616E+08
         0.27664E+08
         0.11463E+09
        -0.16739E+09
        -0.66334E+08
         0.15005E+09
         0.14964E+09
        -0.84694E+08
        -0.48292E+08
        -0.10139E+09
        -0.17355E+09
        -0.17577E+09
        -0.17782E+09
        -0.13957E+09
         0.53776E+08
         0.54597E+08
        -0.17138E+09
         0.30853E+08
        -0.10436E+09
        -0.83238E+08
         0.13439E+09
         0.13033E+09
        -0.12442E+09
        -0.11315E+09
         0.17825E+09
         0.15873E+09
         0.14295E+09
        -0.90425E+08
        -0.20833E+08
        -0.60980E+08
        -0.15853E+09
        -0.17893E+09
        -0.17355E+09
        -0.15888E+09
        -0.13586E+09
        -0.59212E+08
         0.95132E+08
         0.13174E+09
        -0.19236E+08
         0.21076E+08
         0.13839E+09
         0.17352E+09
         0.19762E+09
         0.19486E+09
         0.16794E+09
         0.13956E+09
         0.98095E+08
         0.42433E+08
        -0.11117E+08
        -0.39796E+08
        -0.52809E+08
        -0.91512E+08
        -0.16575E+09
        -0.19796E+09
        -0.19741E+09
        -0.19666E+09
        -0.19897E+09
        -0.19245E+09
        -0.16969E+09
        -0.14825E+09
        -0.78072E+08
         0.19950E+08
         0.47950E+08
         0.51110E+08
         0.85640E+08
         0.15203E+09
         0.18965E+09
         0.19056E+09
        -0.57058E+08
         0.19730E+08
        -0.38068E+08
        -0.15297E+09
         0.12609E+09
         0.15285E+09
         0.83565E+08
        -0.69675E+08
        -0.51392E+08
        -0.69969E+08
        -0.22020E+08
         0.27730E+08
         0.11465E+09
        -0.16734E+09
        -0.66232E+08
         0.15010E+09
         0.14998E+09
        -0.84446E+08
        -0.48238E+08
        -0.10123E+09
        -0.17352E+09
        -0.17577E+09
        -0.17782E+09
        -0.13959E+09
         0.53729E+08
         0.54710E+08
        -0.17137E+09
         0.30175E+08
        -0.10505E+09
        -0.83200E+08
         0.13448E+09
         0.13032E+09
        -0.12385E+09
        -0.11318E+09
         0.17826E+09
         0.15870E+09
         0.14294E+09
        -0.90431E+08
        -0.20970E+08
        -0.61082E+08
        -0.15853E+09
        -0.17895E+09
        -0.17355E+09
        -0.15884E+09
        -0.13581E+09
        -0.59179E+08
         0.95084E+08
         0.13177E+09
        -0.19072E+08
         0.21054E+08
         0.13838E+09
         0.17351E+09
         0.19762E+09
         0.19486E+09
         0.16793E+09
         0.13956E+09
         0.98079E+08
         0.42432E+08
        -0.11134E+08
        -0.39830E+08
        -0.52776E+08
        -0.91502E+08
        -0.16574E+09
        -0.19796E+09
        -0.19741E+09
        -0.19665E+09
        -0.19897E+09
        -0.19245E+09
        -0.16967E+09
        -0.14824E+09
        -0.78054E+08
         0.19957E+08
         0.47916E+08
         0.51093E+08
         0.85606E+08
         0.15203E+09
         0.18965E+09
         0.19057E+09
        -0.57115E+08
         0.19827E+08
        -0.38088E+08
        -0.15306E+09
         0.12602E+09
         0.15279E+09
         0.84067E+08
        -0.69438E+08
        -0.51348E+08
        -0.69733E+08
        -0.21424E+08
         0.27795E+08
         0.11467E+09
        -0.16728E+09
        -0.66131E+08
         0.15014E+09
         0.15031E+09
        -0.84199E+08
        -0.48188E+08
        -0.10106E+09
        -0.17349E+09
        -0.17576E+09
        -0.17782E+09
        -0.13961E+09
         0.53683E+08
         0.54824E+08
        -0.17136E+09
         0.29501E+08
        -0.10574E+09
        -0.83160E+08
         0.13457E+09
         0.13031E+09
        -0.12327E+09
        -0.11320E+09
         0.17828E+09
         0.15867E+09
         0.14292E+09
        -0.90435E+08
        -0.21106E+08
        -0.61187E+08
        -0.15852E+09
        -0.17898E+09
        -0.17355E+09
        -0.15880E+09
        -0.13575E+09
        -0.59148E+08
         0.95036E+08
         0.13179E+09
        -0.18909E+08
         0.21033E+08
         0.13837E+09
         0.17351E+09
         0.19762E+09
         0.19485E+09
         0.16791E+09
         0.13956E+09
         0.98063E+08
         0.42432E+08
        -0.11150E+08
        -0.39863E+08
        -0.52743E+08
        -0.91492E+08
        -0.16574E+09
        -0.19796E+09
        -0.19741E+09
        -0.19665E+09
        -0.19898E+09
        -0.19245E+09
        -0.16966E+09
        -0.14824E+09
        -0.78036E+08
         0.19964E+08
         0.47882E+08
         0.51076E+08
         0.85572E+08
         0.15203E+09
         0.18966E+09
         0.19058E+09
        -0.57171E+08
         0.19924E+08
        -0.38110E+08
        -0.15315E+09
         0.12596E+09
         0.15273E+09
         0.84574E+08
        -0.69200E+08
        -0.51303E+08
        -0.69499E+08
        -0.20829E+08
         0.27863E+08
         0.11470E+09
        -0.16723E+09
        -0.66029E+08
         0.15019E+09
         0.15064E+09
        -0.83952E+08
        -0.48133E+08
        -0.10089E+09
        -0.17346E+09
        -0.17575E+09
        -0.17782E+09
        -0.13963E+09
         0.53636E+08
         0.54937E+08
        -0.17136E+09
         0.28828E+08
        -0.10644E+09
        -0.83121E+08
         0.13466E+09
         0.13030E+09
        -0.12269E+09
        -0.11323E+09
         0.17829E+09
         0.15864E+09
         0.14291E+09
        -0.90439E+08
        -0.21242E+08
        -0.61290E+08
        -0.15851E+09
        -0.17900E+09
        -0.17355E+09
        -0.15876E+09
        -0.13570E+09
        -0.59118E+08
         0.94990E+08
         0.13181E+09
        -0.18742E+08
         0.21013E+08
         0.13836E+09
         0.17350E+09
         0.19762E+09
         0.19484E+09
         0.16790E+09
         0.13956E+09
         0.98048E+08
         0.42432E+08
        -0.11166E+08
        -0.39896E+08
        -0.52711E+08
        -0.91482E+08
        -0.16574E+09
        -0.19795E+09
        -0.19741E+09
        -0.19665E+09
        -0.19898E+09
        -0.19246E+09
        -0.16964E+09
        -0.14823E+09
        -0.78018E+08
         0.19971E+08
         0.47848E+08
         0.51059E+08
         0.85538E+08
         0.15202E+09
         0.18966E+09
         0.19058E+09
        -0.57227E+08
         0.20024E+08
        -0.38131E+08
        -0.15324E+09
         0.12589E+09
         0.15267E+09
         0.85076E+08
        -0.68963E+08
        -0.51258E+08
        -0.69266E+08
        -0.20234E+08
         0.27928E+08
         0.11472E+09
        -0.16718E+09
        -0.65928E+08
         0.15023E+09
         0.15098E+09
        -0.83708E+08
        -0.48079E+08
        -0.10073E+09
        -0.17343E+09
        -0.17575E+09
        -0.17781E+09
        -0.13965E+09
         0.53587E+08
         0.55052E+08
        -0.17135E+09
         0.28155E+08
        -0.10713E+09
        -0.83081E+08
         0.13475E+09
         0.13029E+09
        -0.12211E+09
        -0.11326E+09
         0.17831E+09
         0.15861E+09
         0.14289E+09
        -0.90443E+08
        -0.21378E+08
        -0.61393E+08
        -0.15851E+09
        -0.17903E+09
        -0.17355E+09
        -0.15871E+09
        -0.13565E+09
        -0.59085E+08
         0.94943E+08
         0.13183E+09
        -0.18577E+08
         0.20990E+08
         0.13835E+09
         0.17350E+09
         0.19761E+09
         0.19483E+09
         0.16789E+09
         0.13956E+09
         0.98032E+08
         0.42433E+08
        -0.11182E+08
        -0.39929E+08
        -0.52678E+08
        -0.91471E+08
        -0.16574E+09
        -0.19795E+09
        -0.19741E+09
        -0.19664E+09
        -0.19899E+09
        -0.19246E+09
        -0.16963E+09
        -0.14823E+09
        -0.78000E+08
         0.19978E+08
         0.47814E+08
         0.51041E+08
         0.85504E+08
         0.15202E+09
         0.18966E+09
         0.19059E+09
        -0.57284E+08
         0.20121E+08
        -0.38152E+08
        -0.15333E+09
         0.12582E+09
         0.15261E+09
         0.85581E+08
        -0.68726E+08
        -0.51211E+08
        -0.69031E+08
        -0.19640E+08
         0.27995E+08
         0.11474E+09
        -0.16713E+09
        -0.65826E+08
         0.15028E+09
         0.15131E+09
        -0.83464E+08
        -0.48027E+08
        -0.10056E+09
        -0.17340E+09
        -0.17574E+09
        -0.17781E+09
        -0.13968E+09
         0.53537E+08
         0.55164E+08
        -0.17134E+09
         0.27475E+08
        -0.10782E+09
        -0.83043E+08
         0.13484E+09
         0.13028E+09
        -0.12154E+09
        -0.11329E+09
         0.17832E+09
         0.15858E+09
         0.14287E+09
        -0.90445E+08
        -0.21516E+08
        -0.61499E+08
        -0.15850E+09
        -0.17905E+09
        -0.17355E+09
        -0.15867E+09
        -0.13559E+09
        -0.59054E+08
         0.94896E+08
         0.13185E+09
        -0.18413E+08
         0.20968E+08
         0.13833E+09
         0.17349E+09
         0.19761E+09
         0.19483E+09
         0.16787E+09
         0.13956E+09
         0.98016E+08
         0.42433E+08
        -0.11198E+08
        -0.39962E+08
        -0.52646E+08
        -0.91462E+08
        -0.16573E+09
        -0.19795E+09
        -0.19741E+09
        -0.19664E+09
        -0.19899E+09
        -0.19246E+09
        -0.16961E+09
        -0.14822E+09
        -0.77981E+08
         0.19985E+08
         0.47780E+08
         0.51024E+08
         0.85470E+08
         0.15202E+09
         0.18966E+09
         0.19060E+09
        -0.57340E+08
         0.20219E+08
        -0.38172E+08
        -0.15342E+09
         0.12575E+09
         0.15255E+09
         0.86083E+08
        -0.68490E+08
        -0.51161E+08
        -0.68790E+08
        -0.19046E+08
         0.28061E+08
         0.11477E+09
        -0.16708E+09
        -0.65724E+08
         0.15032E+09
         0.15164E+09
        -0.83217E+08
        -0.47980E+08
        -0.10040E+09
        -0.17337E+09
        -0.17574E+09
        -0.17781E+09
        -0.13970E+09
         0.53479E+08
         0.55282E+08
        -0.17133E+09
         0.26779E+08
        -0.10851E+09
        -0.83015E+08
         0.13493E+09
         0.13027E+09
        -0.12096E+09
        -0.11331E+09
         0.17834E+09
         0.15855E+09
         0.14286E+09
        -0.90444E+08
        -0.21658E+08
        -0.61604E+08
        -0.15849E+09
        -0.17907E+09
        -0.17355E+09
        -0.15863E+09
        -0.13554E+09
        -0.59021E+08
         0.94850E+08
         0.13187E+09
        -0.18248E+08
         0.20946E+08
         0.13832E+09
         0.17348E+09
         0.19761E+09
         0.19482E+09
         0.16786E+09
         0.13956E+09
         0.98001E+08
         0.42433E+08
        -0.11214E+08
        -0.39995E+08
        -0.52614E+08
        -0.91452E+08
        -0.16573E+09
        -0.19794E+09
        -0.19741E+09
        -0.19664E+09
        -0.19900E+09
        -0.19246E+09
        -0.16960E+09
        -0.14821E+09
        -0.77963E+08
         0.19992E+08
         0.47746E+08
         0.51006E+08
         0.85436E+08
         0.15202E+09
         0.18966E+09
         0.19061E+09
        -0.57396E+08
         0.20315E+08
        -0.38192E+08
        -0.15350E+09
         0.12568E+09
         0.15249E+09
         0.86587E+08
        -0.68254E+08
        -0.51107E+08
        -0.68543E+08
        -0.18455E+08
         0.28128E+08
         0.11479E+09
        -0.16703E+09
        -0.65620E+08
         0.15037E+09
         0.15197E+09
        -0.82972E+08
        -0.47928E+08
        -0.10023E+09
        -0.17334E+09
        -0.17573E+09
        -0.17781E+09
        -0.13972E+09
         0.53413E+08
         0.55394E+08
        -0.17132E+09
         0.26062E+08
        -0.10920E+09
        -0.82988E+08
         0.13502E+09
         0.13026E+09
        -0.12038E+09
        -0.11334E+09
         0.17835E+09
         0.15852E+09
         0.14284E+09
        -0.90440E+08
        -0.21805E+08
        -0.61711E+08
        -0.15848E+09
        -0.17909E+09
        -0.17355E+09
        -0.15859E+09
        -0.13549E+09
        -0.58991E+08
         0.94802E+08
         0.13190E+09
        -0.18081E+08
         0.20926E+08
         0.13831E+09
         0.17348E+09
         0.19761E+09
         0.19481E+09
         0.16785E+09
         0.13956E+09
         0.97985E+08
         0.42434E+08
        -0.11230E+08
        -0.40027E+08
        -0.52582E+08
        -0.91442E+08
        -0.16572E+09
        -0.19794E+09
        -0.19741E+09
        -0.19663E+09
        -0.19900E+09
        -0.19246E+09
        -0.16958E+09
        -0.14821E+09
        -0.77945E+08
         0.19998E+08
         0.47712E+08
         0.50988E+08
         0.85403E+08
         0.15202E+09
         0.18967E+09
         0.19061E+09
        -0.57452E+08
         0.20413E+08
        -0.38213E+08
        -0.15359E+09
         0.12561E+09
         0.15243E+09
         0.87085E+08
        -0.68019E+08
        -0.51050E+08
        -0.68295E+08
        -0.17868E+08
         0.28193E+08
         0.11481E+09
        -0.16697E+09
        -0.65517E+08
         0.15041E+09
         0.15229E+09
        -0.82728E+08
        -0.47874E+08
        -0.10007E+09
        -0.17331E+09
        -0.17573E+09
        -0.17781E+09
        -0.13974E+09
         0.53345E+08
         0.55507E+08
        -0.17131E+09
         0.25342E+08
        -0.10988E+09
        -0.82963E+08
         0.13511E+09
         0.13024E+09
        -0.11980E+09
        -0.11337E+09
         0.17837E+09
         0.15849E+09
         0.14283E+09
        -0.90434E+08
        -0.21953E+08
        -0.61816E+08
        -0.15847E+09
        -0.17912E+09
        -0.17354E+09
        -0.15855E+09
        -0.13543E+09
        -0.58960E+08
         0.94757E+08
         0.13192E+09
        -0.17916E+08
         0.20902E+08
         0.13830E+09
         0.17347E+09
         0.19760E+09
         0.19480E+09
         0.16783E+09
         0.13956E+09
         0.97969E+08
         0.42433E+08
        -0.11245E+08
        -0.40059E+08
        -0.52551E+08
        -0.91432E+08
        -0.16572E+09
        -0.19794E+09
        -0.19741E+09
        -0.19663E+09
        -0.19900E+09
        -0.19246E+09
        -0.16957E+09
        -0.14820E+09
        -0.77927E+08
         0.20006E+08
         0.47679E+08
         0.50971E+08
         0.85369E+08
         0.15201E+09
         0.18967E+09
         0.19062E+09
        -0.55351E+08
         0.18376E+08
        -0.33998E+08
        -0.12845E+09
         0.11919E+09
         0.13902E+09
         0.75752E+08
        -0.64509E+08
        -0.46673E+08
        -0.64603E+08
        -0.13689E+08
         0.27632E+08
         0.11146E+09
        -0.14830E+09
        -0.64120E+08
         0.14114E+09
         0.12582E+09
        -0.82747E+08
        -0.40696E+08
        -0.97343E+08
        -0.16919E+09
        -0.17092E+09
        -0.17319E+09
        -0.12046E+09
         0.47577E+08
         0.55765E+08
        -0.15240E+09
         0.24735E+08
        -0.98230E+08
        -0.74043E+08
         0.12389E+09
         0.11938E+09
        -0.10139E+09
        -0.10037E+09
         0.17185E+09
         0.14596E+09
         0.13573E+09
        -0.88069E+08
        -0.21224E+08
        -0.59130E+08
        -0.15448E+09
        -0.17423E+09
        -0.16924E+09
        -0.15329E+09
        -0.12936E+09
        -0.57045E+08
         0.89192E+08
         0.12282E+09
        -0.16035E+08
         0.19234E+08
         0.13313E+09
         0.16208E+09
         0.19630E+09
         0.19363E+09
         0.16688E+09
         0.13882E+09
         0.97465E+08
         0.42224E+08
        -0.11204E+08
        -0.39822E+08
        -0.52152E+08
        -0.90832E+08
        -0.16468E+09
        -0.19681E+09
        -0.19609E+09
        -0.19533E+09
        -0.19790E+09
        -0.19149E+09
        -0.16875E+09
        -0.14750E+09
        -0.77446E+08
         0.19904E+08
         0.47371E+08
         0.50642E+08
         0.84843E+08
         0.15109E+09
         0.18860E+09
         0.18953E+09
        -0.27431E+08
         0.61363E+07
        -0.11001E+08
        -0.34802E+08
         0.52633E+08
         0.49465E+08
         0.17052E+08
        -0.28837E+08
        -0.16844E+08
        -0.28372E+08
        -0.33625E+07
         0.16482E+08
         0.60050E+08
        -0.47596E+08
        -0.39184E+08
         0.57595E+08
         0.31969E+08
        -0.19661E+08
        -0.11648E+08
        -0.19456E+08
        -0.97970E+08
        -0.94392E+08
        -0.97070E+08
        -0.29399E+08
         0.15582E+08
         0.12285E+08
        -0.49124E+08
         0.43449E+07
        -0.19767E+08
        -0.24262E+08
         0.44847E+08
         0.27656E+08
        -0.26796E+08
        -0.24653E+08
         0.85510E+08
         0.54063E+08
         0.60342E+08
        -0.49393E+08
        -0.10383E+08
        -0.27419E+08
        -0.87946E+08
        -0.96316E+08
        -0.96729E+08
        -0.79057E+08
        -0.59772E+08
        -0.29739E+08
         0.37177E+08
         0.47928E+08
        -0.54178E+07
         0.71360E+07
         0.65850E+08
         0.64706E+08
         0.15662E+09
         0.15730E+09
         0.13700E+09
         0.11503E+09
         0.81602E+08
         0.35608E+08
        -0.93321E+07
        -0.31952E+08
        -0.41266E+08
        -0.72939E+08
        -0.13287E+09
        -0.16152E+09
        -0.15658E+09
        -0.15640E+09
        -0.16304E+09
        -0.16018E+09
        -0.14225E+09
        -0.12441E+09
        -0.62913E+08
         0.16324E+08
         0.38560E+08
         0.40989E+08
         0.69241E+08
         0.12254E+09
         0.15502E+09
         0.15525E+09
  
SCALARS                      stress_xy  double 1
LOOKUP_TABLE default
        -0.64837E+00
        -0.15215E+01
        -0.13047E+02
         0.46083E+00
        -0.68342E-09
         0.66789E-10
         0.10042E-08
         0.15297E-09
        -0.13763E+03
         0.60474E+02
         0.44699E-08
         0.35446E-08
         0.51502E+01
        -0.10686E+01
         0.39454E-09
        -0.11850E-09
         0.14810E+01
         0.25843E+02
         0.19642E-10
         0.29931E-09
        -0.19660E+02
        -0.12472E+03
        -0.12273E+03
         0.30435E-08
         0.24237E-08
        -0.35394E-08
        -0.12986E+02
        -0.10850E+03
         0.40980E-08
         0.63065E-08
        -0.39603E+01
         0.76715E+01
         0.62306E+00
        -0.21630E-09
         0.85329E-09
        -0.10914E-10
        -0.34928E+02
        -0.16232E+02
         0.22837E-08
         0.18918E-08
        -0.68449E+02
        -0.61761E+02
         0.38930E-08
         0.26237E-08
        -0.66394E+02
        -0.12189E+02
        -0.14182E-09
         0.10559E-08
         0.17715E+02
         0.31204E-09
        -0.41530E+01
        -0.70352E-11
         0.10892E+01
         0.23585E-08
         0.53932E+01
         0.36293E-09
         0.76956E+02
        -0.37472E+01
         0.84345E-11
        -0.41379E-10
         0.51282E+00
        -0.51629E+02
         0.22985E-09
         0.58957E-09
         0.22185E+01
        -0.46668E-10
         0.31888E+02
         0.37395E-09
        -0.17048E+03
        -0.61881E+02
         0.28885E-09
        -0.27660E-08
        -0.13917E+03
        -0.44225E-08
         0.56937E+02
         0.29622E-08
         0.17982E+03
         0.44132E-09
         0.31402E+03
         0.57388E-09
         0.60926E+03
         0.33199E+03
         0.13492E-08
        -0.34211E-09
         0.40996E+02
        -0.41168E-10
        -0.12583E+03
        -0.37130E-08
        -0.18524E+03
        -0.41459E-08
        -0.40754E+03
        -0.18581E+03
        -0.26244E-08
         0.29131E-08
         0.29870E+02
         0.26524E-08
         0.73565E+02
         0.11394E-08
         0.17190E+03
         0.30253E-08
         0.42286E+03
         0.24116E+03
         0.64869E-08
         0.32434E-08
        -0.69499E+03
         0.29124E+03
        -0.42146E-08
         0.51614E-08
        -0.16923E+04
        -0.11978E-07
        -0.22074E+04
        -0.13094E-07
        -0.19393E+04
        -0.88866E-08
        -0.16533E+04
        -0.94260E-09
        -0.72248E+03
         0.26568E-08
         0.95172E+03
         0.16450E-08
         0.21387E+04
         0.15038E-08
         0.28276E+04
         0.32264E-08
         0.27732E+04
         0.39228E-08
         0.22746E+04
         0.15455E-08
         0.12124E+04
         0.94226E-09
        -0.83036E+02
         0.15401E-08
        -0.10091E+04
         0.10324E-08
        -0.16277E+04
        -0.36816E-08
        -0.22217E+04
        -0.96601E-08
        -0.19891E+04
        -0.12259E-07
        -0.12771E+04
        -0.75872E-08
        -0.13988E+03
         0.14475E-08
         0.94499E+03
         0.30680E-08
         0.13666E+04
         0.48893E-08
         0.16720E+04
         0.96282E-08
         0.14988E+04
         0.12494E-07
         0.13951E+04
         0.88762E-08
         0.11524E+04
         0.70198E-08
        -0.84610E+02
         0.22751E+02
         0.23305E+02
        -0.14602E+02
         0.18572E+03
         0.15312E+03
         0.24301E+01
        -0.54953E+02
        -0.24402E+02
        -0.63579E+02
        -0.18140E+02
        -0.33485E+03
        -0.47863E+03
         0.17761E+02
         0.27210E+03
        -0.36707E+02
         0.27279E+02
         0.81532E+01
         0.16500E+02
        -0.13426E+02
         0.67320E+02
         0.59141E+02
        -0.17925E+03
         0.46972E+01
         0.40422E+02
         0.44528E+01
         0.73915E+00
         0.14494E+01
         0.17966E+02
        -0.59775E+02
        -0.31981E+02
         0.67919E+01
         0.10959E+02
        -0.86175E+00
        -0.44686E+02
        -0.15469E+03
        -0.31427E+03
         0.47493E+03
         0.24716E+03
         0.44577E+03
         0.86224E+03
         0.20042E+03
        -0.16248E+03
        -0.32744E+03
        -0.38738E+03
        -0.49330E+03
         0.60974E+02
         0.18320E+03
         0.56511E+02
         0.18987E+03
         0.59343E+03
         0.22921E+03
        -0.20062E+04
         0.25397E+04
        -0.61443E+04
        -0.72270E+04
        -0.68579E+04
        -0.41405E+04
         0.24658E+03
         0.26789E+04
         0.38850E+04
         0.63023E+04
         0.66321E+04
         0.35594E+04
         0.14374E+04
         0.60817E+03
        -0.98487E+03
        -0.38953E+04
        -0.65029E+04
        -0.74201E+04
        -0.45285E+04
         0.82167E+03
         0.29798E+04
         0.31403E+04
         0.49458E+04
         0.54847E+04
         0.41652E+04
         0.38468E+04
        -0.26818E+06
         0.71863E+05
        -0.13622E+06
        -0.13687E+06
         0.44712E+06
         0.29777E+06
         0.13651E+06
        -0.33002E+06
        -0.19420E+06
        -0.32344E+06
         0.88729E+05
        -0.15727E+06
        -0.49626E+06
         0.16319E+06
         0.37286E+06
        -0.32088E+06
         0.10922E+06
         0.62452E+05
         0.15487E+06
         0.64318E+05
         0.25964E+06
         0.19603E+06
        -0.11733E+06
         0.13445E+06
         0.19836E+06
        -0.51409E+05
         0.36679E+05
        -0.17268E+05
        -0.69524E+05
        -0.29675E+06
        -0.32840E+06
        -0.91365E+05
         0.22470E+06
         0.16839E+06
         0.75566E+05
        -0.28596E+06
        -0.42303E+06
         0.45065E+06
         0.10424E+06
         0.29995E+06
         0.44562E+06
        -0.13435E+06
        -0.26742E+06
        -0.37214E+06
        -0.44324E+06
        -0.31511E+06
         0.39533E+06
         0.39379E+06
        -0.85755E+05
         0.96648E+05
         0.47490E+06
         0.57198E+05
        -0.23370E+06
         0.32276E+06
        -0.62230E+06
        -0.67211E+06
        -0.57657E+06
        -0.28020E+06
         0.73424E+05
         0.25695E+06
         0.33991E+06
         0.54521E+06
         0.63070E+06
         0.25139E+06
         0.11858E+06
         0.10596E+06
        -0.45596E+05
        -0.35173E+06
        -0.60140E+06
        -0.67507E+06
        -0.48024E+06
         0.13188E+06
         0.30968E+06
         0.32582E+06
         0.51401E+06
         0.65289E+06
         0.41219E+06
         0.39507E+06
        -0.26854E+06
         0.72123E+05
        -0.13645E+06
        -0.13797E+06
         0.44705E+06
         0.29797E+06
         0.13755E+06
        -0.32924E+06
        -0.19433E+06
        -0.32294E+06
         0.86987E+05
        -0.15764E+06
        -0.49635E+06
         0.16333E+06
         0.37245E+06
        -0.32087E+06
         0.11045E+06
         0.62186E+05
         0.15480E+06
         0.63847E+05
         0.26021E+06
         0.19622E+06
        -0.11736E+06
         0.13440E+06
         0.19862E+06
        -0.51401E+05
         0.37105E+05
        -0.17038E+05
        -0.69551E+05
        -0.29688E+06
        -0.32853E+06
        -0.91153E+05
         0.22426E+06
         0.16874E+06
         0.74838E+05
        -0.28613E+06
        -0.42302E+06
         0.45084E+06
         0.10507E+06
         0.30056E+06
         0.44572E+06
        -0.13395E+06
        -0.26765E+06
        -0.37229E+06
        -0.44324E+06
        -0.31498E+06
         0.39528E+06
         0.39372E+06
        -0.85178E+05
         0.96379E+05
         0.47484E+06
         0.56379E+05
        -0.23355E+06
         0.32284E+06
        -0.62236E+06
        -0.67211E+06
        -0.57649E+06
        -0.28020E+06
         0.73531E+05
         0.25715E+06
         0.33971E+06
         0.54514E+06
         0.63067E+06
         0.25149E+06
         0.11858E+06
         0.10618E+06
        -0.45221E+05
        -0.35184E+06
        -0.60150E+06
        -0.67510E+06
        -0.48015E+06
         0.13194E+06
         0.30949E+06
         0.32571E+06
         0.51382E+06
         0.65280E+06
         0.41195E+06
         0.39475E+06
        -0.26889E+06
         0.72377E+05
        -0.13668E+06
        -0.13908E+06
         0.44699E+06
         0.29817E+06
         0.13860E+06
        -0.32847E+06
        -0.19445E+06
        -0.32242E+06
         0.85246E+05
        -0.15802E+06
        -0.49644E+06
         0.16345E+06
         0.37204E+06
        -0.32087E+06
         0.11171E+06
         0.61917E+05
         0.15473E+06
         0.63374E+05
         0.26080E+06
         0.19640E+06
        -0.11741E+06
         0.13432E+06
         0.19891E+06
        -0.51387E+05
         0.37562E+05
        -0.16815E+05
        -0.69532E+05
        -0.29700E+06
        -0.32866E+06
        -0.90905E+05
         0.22382E+06
         0.16909E+06
         0.74106E+05
        -0.28631E+06
        -0.42302E+06
         0.45103E+06
         0.10590E+06
         0.30118E+06
         0.44584E+06
        -0.13351E+06
        -0.26787E+06
        -0.37247E+06
        -0.44326E+06
        -0.31485E+06
         0.39524E+06
         0.39364E+06
        -0.84585E+05
         0.96100E+05
         0.47478E+06
         0.55563E+05
        -0.23341E+06
         0.32291E+06
        -0.62243E+06
        -0.67211E+06
        -0.57642E+06
        -0.28019E+06
         0.73640E+05
         0.25736E+06
         0.33951E+06
         0.54507E+06
         0.63063E+06
         0.25160E+06
         0.11858E+06
         0.10640E+06
        -0.44844E+05
        -0.35195E+06
        -0.60161E+06
        -0.67513E+06
        -0.48006E+06
         0.13201E+06
         0.30930E+06
         0.32561E+06
         0.51363E+06
         0.65271E+06
         0.41171E+06
         0.39443E+06
        -0.26925E+06
         0.72641E+05
        -0.13690E+06
        -0.14019E+06
         0.44692E+06
         0.29837E+06
         0.13965E+06
        -0.32769E+06
        -0.19454E+06
        -0.32187E+06
         0.83505E+05
        -0.15841E+06
        -0.49653E+06
         0.16359E+06
         0.37163E+06
        -0.32086E+06
         0.11299E+06
         0.61646E+05
         0.15466E+06
         0.62877E+05
         0.26139E+06
         0.19657E+06
        -0.11751E+06
         0.13420E+06
         0.19927E+06
        -0.51360E+05
         0.38034E+05
        -0.16629E+05
        -0.69381E+05
        -0.29711E+06
        -0.32878E+06
        -0.90587E+05
         0.22336E+06
         0.16944E+06
         0.73378E+05
        -0.28648E+06
        -0.42301E+06
         0.45122E+06
         0.10672E+06
         0.30177E+06
         0.44598E+06
        -0.13296E+06
        -0.26803E+06
        -0.37273E+06
        -0.44330E+06
        -0.31471E+06
         0.39521E+06
         0.39358E+06
        -0.83990E+05
         0.95821E+05
         0.47471E+06
         0.54747E+05
        -0.23326E+06
         0.32299E+06
        -0.62249E+06
        -0.67211E+06
        -0.57634E+06
        -0.28018E+06
         0.73749E+05
         0.25756E+06
         0.33930E+06
         0.54500E+06
         0.63061E+06
         0.25174E+06
         0.11859E+06
         0.10662E+06
        -0.44463E+05
        -0.35207E+06
        -0.60173E+06
        -0.67517E+06
        -0.47996E+06
         0.13208E+06
         0.30912E+06
         0.32551E+06
         0.51344E+06
         0.65262E+06
         0.41148E+06
         0.39412E+06
        -0.26961E+06
         0.72905E+05
        -0.13713E+06
        -0.14130E+06
         0.44686E+06
         0.29857E+06
         0.14070E+06
        -0.32690E+06
        -0.19461E+06
        -0.32128E+06
         0.81757E+05
        -0.15878E+06
        -0.49662E+06
         0.16373E+06
         0.37121E+06
        -0.32086E+06
         0.11431E+06
         0.61375E+05
         0.15458E+06
         0.62358E+05
         0.26198E+06
         0.19671E+06
        -0.11765E+06
         0.13402E+06
         0.19972E+06
        -0.51312E+05
         0.38560E+05
        -0.16476E+05
        -0.69092E+05
        -0.29722E+06
        -0.32889E+06
        -0.90181E+05
         0.22289E+06
         0.16979E+06
         0.72645E+05
        -0.28666E+06
        -0.42301E+06
         0.45140E+06
         0.10753E+06
         0.30236E+06
         0.44616E+06
        -0.13229E+06
        -0.26814E+06
        -0.37308E+06
        -0.44337E+06
        -0.31454E+06
         0.39518E+06
         0.39352E+06
        -0.83397E+05
         0.95546E+05
         0.47464E+06
         0.53924E+05
        -0.23312E+06
         0.32306E+06
        -0.62256E+06
        -0.67211E+06
        -0.57627E+06
        -0.28017E+06
         0.73857E+05
         0.25777E+06
         0.33910E+06
         0.54492E+06
         0.63059E+06
         0.25189E+06
         0.11861E+06
         0.10683E+06
        -0.44081E+05
        -0.35219E+06
        -0.60187E+06
        -0.67520E+06
        -0.47987E+06
         0.13214E+06
         0.30893E+06
         0.32540E+06
         0.51325E+06
         0.65253E+06
         0.41124E+06
         0.39380E+06
        -0.26995E+06
         0.73192E+05
        -0.13733E+06
        -0.14242E+06
         0.44680E+06
         0.29877E+06
         0.14173E+06
        -0.32611E+06
        -0.19468E+06
        -0.32070E+06
         0.80005E+05
        -0.15916E+06
        -0.49671E+06
         0.16389E+06
         0.37080E+06
        -0.32086E+06
         0.11566E+06
         0.61106E+05
         0.15450E+06
         0.61839E+05
         0.26257E+06
         0.19685E+06
        -0.11782E+06
         0.13382E+06
         0.20017E+06
        -0.51256E+05
         0.39126E+05
        -0.16336E+05
        -0.68741E+05
        -0.29734E+06
        -0.32900E+06
        -0.89725E+05
         0.22241E+06
         0.17014E+06
         0.71907E+05
        -0.28685E+06
        -0.42301E+06
         0.45158E+06
         0.10834E+06
         0.30294E+06
         0.44634E+06
        -0.13159E+06
        -0.26822E+06
        -0.37345E+06
        -0.44346E+06
        -0.31438E+06
         0.39514E+06
         0.39347E+06
        -0.82784E+05
         0.95296E+05
         0.47458E+06
         0.53100E+05
        -0.23297E+06
         0.32314E+06
        -0.62262E+06
        -0.67211E+06
        -0.57619E+06
        -0.28016E+06
         0.73963E+05
         0.25797E+06
         0.33890E+06
         0.54486E+06
         0.63057E+06
         0.25206E+06
         0.11863E+06
         0.10704E+06
        -0.43700E+05
        -0.35232E+06
        -0.60201E+06
        -0.67524E+06
        -0.47978E+06
         0.13220E+06
         0.30874E+06
         0.32530E+06
         0.51306E+06
         0.65244E+06
         0.41100E+06
         0.39348E+06
        -0.27026E+06
         0.73540E+05
        -0.13748E+06
        -0.14356E+06
         0.44673E+06
         0.29897E+06
         0.14275E+06
        -0.32531E+06
        -0.19475E+06
        -0.32014E+06
         0.78241E+05
        -0.15954E+06
        -0.49680E+06
         0.16414E+06
         0.37038E+06
        -0.32087E+06
         0.11703E+06
         0.60835E+05
         0.15443E+06
         0.61322E+05
         0.26317E+06
         0.19698E+06
        -0.11799E+06
         0.13363E+06
         0.20055E+06
        -0.51181E+05
         0.39792E+05
        -0.16193E+05
        -0.68368E+05
        -0.29749E+06
        -0.32909E+06
        -0.89219E+05
         0.22193E+06
         0.17049E+06
         0.71167E+05
        -0.28704E+06
        -0.42303E+06
         0.45176E+06
         0.10915E+06
         0.30354E+06
         0.44653E+06
        -0.13087E+06
        -0.26830E+06
        -0.37382E+06
        -0.44356E+06
        -0.31423E+06
         0.39507E+06
         0.39347E+06
        -0.82109E+05
         0.95112E+05
         0.47451E+06
         0.52263E+05
        -0.23282E+06
         0.32321E+06
        -0.62268E+06
        -0.67211E+06
        -0.57612E+06
        -0.28015E+06
         0.74070E+05
         0.25818E+06
         0.33870E+06
         0.54479E+06
         0.63055E+06
         0.25223E+06
         0.11865E+06
         0.10725E+06
        -0.43318E+05
        -0.35245E+06
        -0.60216E+06
        -0.67528E+06
        -0.47968E+06
         0.13225E+06
         0.30853E+06
         0.32519E+06
         0.51288E+06
         0.65235E+06
         0.41076E+06
         0.39317E+06
        -0.27056E+06
         0.73907E+05
        -0.13761E+06
        -0.14472E+06
         0.44667E+06
         0.29917E+06
         0.14375E+06
        -0.32452E+06
        -0.19482E+06
        -0.31960E+06
         0.76470E+05
        -0.15991E+06
        -0.49689E+06
         0.16441E+06
         0.36996E+06
        -0.32089E+06
         0.11841E+06
         0.60562E+05
         0.15435E+06
         0.60813E+05
         0.26376E+06
         0.19713E+06
        -0.11815E+06
         0.13345E+06
         0.20089E+06
        -0.51099E+05
         0.40485E+05
        -0.16045E+05
        -0.67987E+05
        -0.29764E+06
        -0.32917E+06
        -0.88681E+05
         0.22144E+06
         0.17085E+06
         0.70420E+05
        -0.28724E+06
        -0.42305E+06
         0.45193E+06
         0.10995E+06
         0.30413E+06
         0.44672E+06
        -0.13015E+06
        -0.26837E+06
        -0.37419E+06
        -0.44366E+06
        -0.31410E+06
         0.39500E+06
         0.39348E+06
        -0.81409E+05
         0.94959E+05
         0.47445E+06
         0.51424E+05
        -0.23268E+06
         0.32328E+06
        -0.62275E+06
        -0.67211E+06
        -0.57604E+06
        -0.28014E+06
         0.74177E+05
         0.25838E+06
         0.33850E+06
         0.54472E+06
         0.63053E+06
         0.25239E+06
         0.11867E+06
         0.10746E+06
        -0.42935E+05
        -0.35257E+06
        -0.60230E+06
        -0.67531E+06
        -0.47959E+06
         0.13230E+06
         0.30833E+06
         0.32509E+06
         0.51270E+06
         0.65226E+06
         0.41053E+06
         0.39285E+06
        -0.27085E+06
         0.74278E+05
        -0.13774E+06
        -0.14588E+06
         0.44661E+06
         0.29937E+06
         0.14475E+06
        -0.32372E+06
        -0.19490E+06
        -0.31905E+06
         0.74702E+05
        -0.16029E+06
        -0.49698E+06
         0.16470E+06
         0.36954E+06
        -0.32091E+06
         0.11980E+06
         0.60290E+05
         0.15428E+06
         0.60298E+05
         0.26435E+06
         0.19727E+06
        -0.11832E+06
         0.13328E+06
         0.20123E+06
        -0.51017E+05
         0.41195E+05
        -0.15888E+05
        -0.67595E+05
        -0.29780E+06
        -0.32925E+06
        -0.88151E+05
         0.22095E+06
         0.17120E+06
         0.69669E+05
        -0.28744E+06
        -0.42306E+06
         0.45210E+06
         0.11076E+06
         0.30472E+06
         0.44691E+06
        -0.12944E+06
        -0.26845E+06
        -0.37457E+06
        -0.44377E+06
        -0.31397E+06
         0.39493E+06
         0.39348E+06
        -0.80707E+05
         0.94813E+05
         0.47439E+06
         0.50581E+05
        -0.23253E+06
         0.32336E+06
        -0.62281E+06
        -0.67211E+06
        -0.57596E+06
        -0.28013E+06
         0.74283E+05
         0.25859E+06
         0.33829E+06
         0.54465E+06
         0.63051E+06
         0.25256E+06
         0.11869E+06
         0.10768E+06
        -0.42554E+05
        -0.35269E+06
        -0.60245E+06
        -0.67535E+06
        -0.47949E+06
         0.13235E+06
         0.30812E+06
         0.32498E+06
         0.51252E+06
         0.65216E+06
         0.41029E+06
         0.39253E+06
        -0.27115E+06
         0.74653E+05
        -0.13786E+06
        -0.14704E+06
         0.44655E+06
         0.29956E+06
         0.14575E+06
        -0.32292E+06
        -0.19498E+06
        -0.31851E+06
         0.72930E+05
        -0.16066E+06
        -0.49707E+06
         0.16497E+06
         0.36912E+06
        -0.32092E+06
         0.12120E+06
         0.60020E+05
         0.15419E+06
         0.59785E+05
         0.26494E+06
         0.19741E+06
        -0.11848E+06
         0.13310E+06
         0.20158E+06
        -0.50934E+05
         0.41885E+05
        -0.15725E+05
        -0.67192E+05
        -0.29795E+06
        -0.32934E+06
        -0.87616E+05
         0.22044E+06
         0.17155E+06
         0.68921E+05
        -0.28764E+06
        -0.42308E+06
         0.45226E+06
         0.11156E+06
         0.30532E+06
         0.44709E+06
        -0.12873E+06
        -0.26853E+06
        -0.37494E+06
        -0.44387E+06
        -0.31383E+06
         0.39486E+06
         0.39350E+06
        -0.80011E+05
         0.94652E+05
         0.47432E+06
         0.49739E+05
        -0.23238E+06
         0.32343E+06
        -0.62287E+06
        -0.67211E+06
        -0.57589E+06
        -0.28012E+06
         0.74390E+05
         0.25879E+06
         0.33809E+06
         0.54459E+06
         0.63049E+06
         0.25272E+06
         0.11871E+06
         0.10790E+06
        -0.42173E+05
        -0.35282E+06
        -0.60259E+06
        -0.67538E+06
        -0.47940E+06
         0.13240E+06
         0.30791E+06
         0.32487E+06
         0.51234E+06
         0.65207E+06
         0.41005E+06
         0.39221E+06
        -0.27145E+06
         0.75025E+05
        -0.13799E+06
        -0.14819E+06
         0.44649E+06
         0.29976E+06
         0.14676E+06
        -0.32212E+06
        -0.19505E+06
        -0.31797E+06
         0.71152E+05
        -0.16104E+06
        -0.49716E+06
         0.16525E+06
         0.36870E+06
        -0.32094E+06
         0.12261E+06
         0.59751E+05
         0.15413E+06
         0.59267E+05
         0.26554E+06
         0.19754E+06
        -0.11864E+06
         0.13293E+06
         0.20191E+06
        -0.50849E+05
         0.42587E+05
        -0.15552E+05
        -0.66779E+05
        -0.29810E+06
        -0.32942E+06
        -0.87084E+05
         0.21994E+06
         0.17190E+06
         0.68168E+05
        -0.28784E+06
        -0.42310E+06
         0.45243E+06
         0.11237E+06
         0.30590E+06
         0.44728E+06
        -0.12801E+06
        -0.26860E+06
        -0.37530E+06
        -0.44397E+06
        -0.31370E+06
         0.39479E+06
         0.39351E+06
        -0.79306E+05
         0.94497E+05
         0.47426E+06
         0.48893E+05
        -0.23223E+06
         0.32350E+06
        -0.62293E+06
        -0.67211E+06
        -0.57581E+06
        -0.28012E+06
         0.74494E+05
         0.25899E+06
         0.33789E+06
         0.54452E+06
         0.63047E+06
         0.25288E+06
         0.11873E+06
         0.10811E+06
        -0.41791E+05
        -0.35294E+06
        -0.60273E+06
        -0.67542E+06
        -0.47930E+06
         0.13244E+06
         0.30771E+06
         0.32477E+06
         0.51216E+06
         0.65198E+06
         0.40982E+06
         0.39189E+06
        -0.27175E+06
         0.75395E+05
        -0.13811E+06
        -0.14936E+06
         0.44642E+06
         0.29996E+06
         0.14776E+06
        -0.32132E+06
        -0.19512E+06
        -0.31742E+06
         0.69377E+05
        -0.16142E+06
        -0.49725E+06
         0.16553E+06
         0.36828E+06
        -0.32096E+06
         0.12403E+06
         0.59480E+05
         0.15405E+06
         0.58758E+05
         0.26613E+06
         0.19767E+06
        -0.11880E+06
         0.13276E+06
         0.20224E+06
        -0.50769E+05
         0.43274E+05
        -0.15373E+05
        -0.66349E+05
        -0.29826E+06
        -0.32950E+06
        -0.86551E+05
         0.21942E+06
         0.17226E+06
         0.67412E+05
        -0.28804E+06
        -0.42312E+06
         0.45260E+06
         0.11317E+06
         0.30650E+06
         0.44747E+06
        -0.12731E+06
        -0.26867E+06
        -0.37567E+06
        -0.44407E+06
        -0.31357E+06
         0.39472E+06
         0.39352E+06
        -0.78600E+05
         0.94351E+05
         0.47420E+06
         0.48047E+05
        -0.23209E+06
         0.32357E+06
        -0.62299E+06
        -0.67211E+06
        -0.57573E+06
        -0.28011E+06
         0.74599E+05
         0.25920E+06
         0.33769E+06
         0.54445E+06
         0.63045E+06
         0.25304E+06
         0.11875E+06
         0.10833E+06
        -0.41408E+05
        -0.35307E+06
        -0.60288E+06
        -0.67546E+06
        -0.47921E+06
         0.13249E+06
         0.30750E+06
         0.32466E+06
         0.51198E+06
         0.65189E+06
         0.40958E+06
         0.39157E+06
        -0.27204E+06
         0.75770E+05
        -0.13824E+06
        -0.15052E+06
         0.44636E+06
         0.30015E+06
         0.14876E+06
        -0.32052E+06
        -0.19519E+06
        -0.31687E+06
         0.67604E+05
        -0.16180E+06
        -0.49734E+06
         0.16579E+06
         0.36785E+06
        -0.32097E+06
         0.12545E+06
         0.59207E+05
         0.15398E+06
         0.58250E+05
         0.26672E+06
         0.19781E+06
        -0.11897E+06
         0.13259E+06
         0.20256E+06
        -0.50682E+05
         0.43980E+05
        -0.15185E+05
        -0.65913E+05
        -0.29841E+06
        -0.32957E+06
        -0.86012E+05
         0.21890E+06
         0.17261E+06
         0.66658E+05
        -0.28824E+06
        -0.42314E+06
         0.45276E+06
         0.11397E+06
         0.30708E+06
         0.44766E+06
        -0.12660E+06
        -0.26875E+06
        -0.37604E+06
        -0.44418E+06
        -0.31342E+06
         0.39465E+06
         0.39354E+06
        -0.77889E+05
         0.94194E+05
         0.47414E+06
         0.47202E+05
        -0.23194E+06
         0.32364E+06
        -0.62305E+06
        -0.67211E+06
        -0.57566E+06
        -0.28010E+06
         0.74706E+05
         0.25940E+06
         0.33748E+06
         0.54438E+06
         0.63043E+06
         0.25321E+06
         0.11878E+06
         0.10854E+06
        -0.41026E+05
        -0.35319E+06
        -0.60302E+06
        -0.67549E+06
        -0.47911E+06
         0.13253E+06
         0.30729E+06
         0.32456E+06
         0.51180E+06
         0.65180E+06
         0.40935E+06
         0.39125E+06
        -0.27234E+06
         0.76138E+05
        -0.13836E+06
        -0.15169E+06
         0.44630E+06
         0.30035E+06
         0.14977E+06
        -0.31971E+06
        -0.19526E+06
        -0.31632E+06
         0.65832E+05
        -0.16217E+06
        -0.49743E+06
         0.16607E+06
         0.36743E+06
        -0.32098E+06
         0.12688E+06
         0.58938E+05
         0.15392E+06
         0.57745E+05
         0.26731E+06
         0.19794E+06
        -0.11913E+06
         0.13242E+06
         0.20288E+06
        -0.50595E+05
         0.44667E+05
        -0.14990E+05
        -0.65469E+05
        -0.29856E+06
        -0.32965E+06
        -0.85479E+05
         0.21837E+06
         0.17297E+06
         0.65899E+05
        -0.28844E+06
        -0.42315E+06
         0.45292E+06
         0.11477E+06
         0.30768E+06
         0.44784E+06
        -0.12589E+06
        -0.26882E+06
        -0.37640E+06
        -0.44428E+06
        -0.31329E+06
         0.39457E+06
         0.39355E+06
        -0.77181E+05
         0.94038E+05
         0.47408E+06
         0.46361E+05
        -0.23179E+06
         0.32371E+06
        -0.62312E+06
        -0.67211E+06
        -0.57558E+06
        -0.28009E+06
         0.74813E+05
         0.25960E+06
         0.33728E+06
         0.54432E+06
         0.63041E+06
         0.25337E+06
         0.11880E+06
         0.10876E+06
        -0.40646E+05
        -0.35331E+06
        -0.60316E+06
        -0.67553E+06
        -0.47902E+06
         0.13258E+06
         0.30709E+06
         0.32446E+06
         0.51162E+06
         0.65170E+06
         0.40911E+06
         0.39093E+06
        -0.27264E+06
         0.76504E+05
        -0.13848E+06
        -0.15286E+06
         0.44623E+06
         0.30054E+06
         0.15078E+06
        -0.31890E+06
        -0.19533E+06
        -0.31577E+06
         0.64057E+05
        -0.16255E+06
        -0.49752E+06
         0.16633E+06
         0.36700E+06
        -0.32100E+06
         0.12832E+06
         0.58670E+05
         0.15384E+06
         0.57235E+05
         0.26790E+06
         0.19807E+06
        -0.11929E+06
         0.13225E+06
         0.20320E+06
        -0.50507E+05
         0.45366E+05
        -0.14786E+05
        -0.65017E+05
        -0.29870E+06
        -0.32973E+06
        -0.84941E+05
         0.21784E+06
         0.17332E+06
         0.65143E+05
        -0.28864E+06
        -0.42317E+06
         0.45307E+06
         0.11557E+06
         0.30826E+06
         0.44803E+06
        -0.12518E+06
        -0.26890E+06
        -0.37676E+06
        -0.44438E+06
        -0.31316E+06
         0.39450E+06
         0.39356E+06
        -0.76459E+05
         0.93887E+05
         0.47401E+06
         0.45512E+05
        -0.23164E+06
         0.32378E+06
        -0.62317E+06
        -0.67211E+06
        -0.57551E+06
        -0.28008E+06
         0.74917E+05
         0.25980E+06
         0.33708E+06
         0.54425E+06
         0.63039E+06
         0.25353E+06
         0.11882E+06
         0.10897E+06
        -0.40265E+05
        -0.35344E+06
        -0.60331E+06
        -0.67556E+06
        -0.47892E+06
         0.13262E+06
         0.30688E+06
         0.32435E+06
         0.51144E+06
         0.65161E+06
         0.40888E+06
         0.39061E+06
        -0.27294E+06
         0.76879E+05
        -0.13860E+06
        -0.15403E+06
         0.44617E+06
         0.30073E+06
         0.15178E+06
        -0.31809E+06
        -0.19540E+06
        -0.31522E+06
         0.62280E+05
        -0.16293E+06
        -0.49761E+06
         0.16660E+06
         0.36658E+06
        -0.32101E+06
         0.12977E+06
         0.58403E+05
         0.15377E+06
         0.56731E+05
         0.26849E+06
         0.19820E+06
        -0.11945E+06
         0.13209E+06
         0.20350E+06
        -0.50419E+05
         0.46046E+05
        -0.14575E+05
        -0.64556E+05
        -0.29885E+06
        -0.32980E+06
        -0.84408E+05
         0.21730E+06
         0.17368E+06
         0.64379E+05
        -0.28884E+06
        -0.42319E+06
         0.45323E+06
         0.11636E+06
         0.30885E+06
         0.44822E+06
        -0.12448E+06
        -0.26898E+06
        -0.37712E+06
        -0.44448E+06
        -0.31302E+06
         0.39443E+06
         0.39357E+06
        -0.75745E+05
         0.93728E+05
         0.47395E+06
         0.44662E+05
        -0.23149E+06
         0.32385E+06
        -0.62323E+06
        -0.67211E+06
        -0.57543E+06
        -0.28007E+06
         0.75020E+05
         0.25999E+06
         0.33687E+06
         0.54418E+06
         0.63037E+06
         0.25370E+06
         0.11884E+06
         0.10918E+06
        -0.39883E+05
        -0.35356E+06
        -0.60345E+06
        -0.67560E+06
        -0.47882E+06
         0.13267E+06
         0.30667E+06
         0.32425E+06
         0.51126E+06
         0.65152E+06
         0.40865E+06
         0.39029E+06
        -0.27324E+06
         0.77248E+05
        -0.13873E+06
        -0.15520E+06
         0.44610E+06
         0.30092E+06
         0.15279E+06
        -0.31728E+06
        -0.19546E+06
        -0.31465E+06
         0.60501E+05
        -0.16331E+06
        -0.49770E+06
         0.16685E+06
         0.36615E+06
        -0.32103E+06
         0.13124E+06
         0.58135E+05
         0.15370E+06
         0.56231E+05
         0.26907E+06
         0.19832E+06
        -0.11961E+06
         0.13193E+06
         0.20380E+06
        -0.50327E+05
         0.46744E+05
        -0.14352E+05
        -0.64077E+05
        -0.29899E+06
        -0.32987E+06
        -0.83873E+05
         0.21676E+06
         0.17404E+06
         0.63615E+05
        -0.28903E+06
        -0.42320E+06
         0.45338E+06
         0.11717E+06
         0.30944E+06
         0.44840E+06
        -0.12378E+06
        -0.26906E+06
        -0.37749E+06
        -0.44459E+06
        -0.31289E+06
         0.39436E+06
         0.39359E+06
        -0.75033E+05
         0.93570E+05
         0.47389E+06
         0.43817E+05
        -0.23134E+06
         0.32392E+06
        -0.62329E+06
        -0.67211E+06
        -0.57535E+06
        -0.28006E+06
         0.75122E+05
         0.26019E+06
         0.33667E+06
         0.54412E+06
         0.63035E+06
         0.25386E+06
         0.11885E+06
         0.10940E+06
        -0.39503E+05
        -0.35368E+06
        -0.60359E+06
        -0.67563E+06
        -0.47873E+06
         0.13271E+06
         0.30646E+06
         0.32414E+06
         0.51109E+06
         0.65143E+06
         0.40842E+06
         0.38997E+06
        -0.27354E+06
         0.77616E+05
        -0.13885E+06
        -0.15637E+06
         0.44604E+06
         0.30111E+06
         0.15380E+06
        -0.31647E+06
        -0.19551E+06
        -0.31406E+06
         0.58723E+05
        -0.16369E+06
        -0.49779E+06
         0.16712E+06
         0.36572E+06
        -0.32104E+06
         0.13271E+06
         0.57865E+05
         0.15365E+06
         0.55755E+05
         0.26966E+06
         0.19844E+06
        -0.11977E+06
         0.13176E+06
         0.20406E+06
        -0.50242E+05
         0.47437E+05
        -0.14113E+05
        -0.63593E+05
        -0.29915E+06
        -0.32995E+06
        -0.83328E+05
         0.21621E+06
         0.17440E+06
         0.62851E+05
        -0.28924E+06
        -0.42322E+06
         0.45351E+06
         0.11800E+06
         0.31003E+06
         0.44859E+06
        -0.12307E+06
        -0.26914E+06
        -0.37785E+06
        -0.44469E+06
        -0.31275E+06
         0.39429E+06
         0.39360E+06
        -0.74322E+05
         0.93412E+05
         0.47383E+06
         0.42971E+05
        -0.23119E+06
         0.32398E+06
        -0.62335E+06
        -0.67211E+06
        -0.57528E+06
        -0.28006E+06
         0.75225E+05
         0.26039E+06
         0.33648E+06
         0.54405E+06
         0.63034E+06
         0.25402E+06
         0.11886E+06
         0.10961E+06
        -0.39125E+05
        -0.35380E+06
        -0.60374E+06
        -0.67567E+06
        -0.47863E+06
         0.13276E+06
         0.30626E+06
         0.32404E+06
         0.51091E+06
         0.65134E+06
         0.40819E+06
         0.38964E+06
        -0.27384E+06
         0.77982E+05
        -0.13896E+06
        -0.15755E+06
         0.44597E+06
         0.30130E+06
         0.15480E+06
        -0.31566E+06
        -0.19555E+06
        -0.31343E+06
         0.56947E+05
        -0.16406E+06
        -0.49788E+06
         0.16739E+06
         0.36528E+06
        -0.32105E+06
         0.13421E+06
         0.57596E+05
         0.15358E+06
         0.55293E+05
         0.27024E+06
         0.19856E+06
        -0.11993E+06
         0.13160E+06
         0.20430E+06
        -0.50148E+05
         0.48161E+05
        -0.13856E+05
        -0.63100E+05
        -0.29930E+06
        -0.33002E+06
        -0.82792E+05
         0.21565E+06
         0.17476E+06
         0.62082E+05
        -0.28943E+06
        -0.42324E+06
         0.45364E+06
         0.11886E+06
         0.31063E+06
         0.44879E+06
        -0.12238E+06
        -0.26924E+06
        -0.37821E+06
        -0.44479E+06
        -0.31262E+06
         0.39421E+06
         0.39361E+06
        -0.73601E+05
         0.93258E+05
         0.47376E+06
         0.42116E+05
        -0.23104E+06
         0.32405E+06
        -0.62341E+06
        -0.67211E+06
        -0.57520E+06
        -0.28005E+06
         0.75327E+05
         0.26059E+06
         0.33628E+06
         0.54399E+06
         0.63033E+06
         0.25418E+06
         0.11886E+06
         0.10982E+06
        -0.38744E+05
        -0.35392E+06
        -0.60388E+06
        -0.67570E+06
        -0.47854E+06
         0.13280E+06
         0.30605E+06
         0.32393E+06
         0.51073E+06
         0.65124E+06
         0.40797E+06
         0.38932E+06
        -0.27413E+06
         0.78351E+05
        -0.13909E+06
        -0.15872E+06
         0.44591E+06
         0.30149E+06
         0.15581E+06
        -0.31485E+06
        -0.19557E+06
        -0.31280E+06
         0.55182E+05
        -0.16443E+06
        -0.49797E+06
         0.16764E+06
         0.36485E+06
        -0.32107E+06
         0.13573E+06
         0.57331E+05
         0.15351E+06
         0.54845E+05
         0.27083E+06
         0.19868E+06
        -0.12009E+06
         0.13145E+06
         0.20451E+06
        -0.50061E+05
         0.48866E+05
        -0.13585E+05
        -0.62604E+05
        -0.29944E+06
        -0.33009E+06
        -0.82267E+05
         0.21509E+06
         0.17513E+06
         0.61320E+05
        -0.28963E+06
        -0.42325E+06
         0.45376E+06
         0.11972E+06
         0.31120E+06
         0.44898E+06
        -0.12170E+06
        -0.26935E+06
        -0.37856E+06
        -0.44489E+06
        -0.31248E+06
         0.39414E+06
         0.39363E+06
        -0.72888E+05
         0.93094E+05
         0.47370E+06
         0.41266E+05
        -0.23088E+06
         0.32412E+06
        -0.62347E+06
        -0.67211E+06
        -0.57513E+06
        -0.28003E+06
         0.75428E+05
         0.26078E+06
         0.33609E+06
         0.54392E+06
         0.63033E+06
         0.25433E+06
         0.11884E+06
         0.11003E+06
        -0.38363E+05
        -0.35404E+06
        -0.60402E+06
        -0.67574E+06
        -0.47844E+06
         0.13285E+06
         0.30585E+06
         0.32383E+06
         0.51055E+06
         0.65115E+06
         0.40774E+06
         0.38900E+06
        -0.25795E+06
         0.67931E+05
        -0.11932E+06
        -0.13216E+06
         0.40930E+06
         0.26406E+06
         0.13496E+06
        -0.28961E+06
        -0.17318E+06
        -0.28688E+06
         0.40370E+05
        -0.15815E+06
        -0.47209E+06
         0.14118E+06
         0.35095E+06
        -0.29259E+06
         0.11159E+06
         0.57541E+05
         0.12585E+06
         0.53306E+05
         0.26000E+06
         0.18924E+06
        -0.11471E+06
         0.11257E+06
         0.17477E+06
        -0.50429E+05
         0.41745E+05
        -0.13417E+05
        -0.55236E+05
        -0.25501E+06
        -0.29309E+06
        -0.75170E+05
         0.18094E+06
         0.15495E+06
         0.56768E+05
        -0.25560E+06
        -0.38911E+06
         0.43231E+06
         0.11232E+06
         0.28790E+06
         0.42865E+06
        -0.11525E+06
        -0.25764E+06
        -0.35773E+06
        -0.41248E+06
        -0.29466E+06
         0.35750E+06
         0.35268E+06
        -0.62543E+05
         0.82167E+05
         0.44322E+06
         0.36362E+05
        -0.22784E+06
         0.32059E+06
        -0.61698E+06
        -0.66542E+06
        -0.56969E+06
        -0.27750E+06
         0.74806E+05
         0.25773E+06
         0.33148E+06
         0.53728E+06
         0.62291E+06
         0.25172E+06
         0.11731E+06
         0.10885E+06
        -0.37606E+05
        -0.35081E+06
        -0.59877E+06
        -0.66982E+06
        -0.47302E+06
         0.13152E+06
         0.30229E+06
         0.32000E+06
         0.50482E+06
         0.64365E+06
         0.40324E+06
         0.38452E+06
        -0.71427E+05
         0.10216E+05
        -0.17278E+05
        -0.16361E+05
         0.89504E+05
         0.42115E+05
         0.11818E+05
        -0.65522E+05
        -0.29920E+05
        -0.63013E+05
         0.36542E+04
        -0.57696E+05
        -0.14380E+06
         0.18171E+05
         0.13408E+06
        -0.60816E+05
         0.12037E+05
         0.64302E+04
         0.15159E+05
         0.41024E+04
         0.91340E+05
         0.60893E+05
        -0.38103E+05
         0.11560E+05
         0.24476E+05
        -0.48469E+04
         0.54804E+04
        -0.83936E+03
        -0.39345E+04
        -0.35154E+05
        -0.51114E+05
        -0.73362E+04
         0.21612E+05
         0.16497E+05
         0.14736E+05
        -0.42179E+05
        -0.86017E+05
         0.14068E+06
         0.28512E+05
         0.66762E+05
         0.14381E+06
        -0.36739E+05
        -0.88024E+05
        -0.10329E+06
        -0.97889E+05
        -0.84227E+05
         0.70788E+05
         0.64283E+05
        -0.93231E+04
         0.13797E+05
         0.11623E+06
         0.67158E+04
        -0.14582E+06
         0.21294E+06
        -0.41825E+06
        -0.45946E+06
        -0.40156E+06
        -0.19843E+06
         0.52102E+05
         0.16691E+06
         0.20895E+06
         0.34860E+06
         0.40794E+06
         0.17055E+06
         0.75257E+05
         0.70340E+05
        -0.25516E+05
        -0.24688E+06
        -0.42790E+06
        -0.47908E+06
        -0.31403E+06
         0.88901E+05
         0.20153E+06
         0.21098E+06
         0.33830E+06
         0.42596E+06
         0.27394E+06
         0.25941E+06
  
SCALARS                      strain_xx  double 1
LOOKUP_TABLE default
         0.92931E-07
         0.37710E-05
         0.46946E-04
         0.27293E-06
        -0.23519E-19
        -0.29568E-20
        -0.33060E-19
        -0.13187E-20
         0.32390E-03
         0.15524E-03
        -0.29577E-18
        -0.23997E-18
         0.40932E-06
         0.67062E-05
        -0.44991E-20
        -0.98732E-19
         0.56697E-06
         0.63246E-05
        -0.51515E-19
        -0.11427E-18
         0.92500E-05
         0.17273E-04
         0.28607E-04
        -0.50950E-19
        -0.10834E-19
        -0.33068E-19
         0.19590E-04
         0.37461E-05
        -0.17852E-18
        -0.11234E-18
         0.30745E-05
         0.11779E-04
         0.17092E-06
        -0.18506E-20
        -0.27636E-19
        -0.10489E-19
         0.23525E-04
         0.37510E-05
        -0.60916E-19
        -0.69059E-19
         0.81614E-04
         0.11957E-03
        -0.30996E-18
        -0.16857E-18
         0.11610E-03
         0.35868E-04
        -0.37380E-18
        -0.86600E-19
         0.40318E-05
        -0.34121E-19
         0.58146E-04
        -0.26439E-20
         0.20379E-05
        -0.13028E-18
         0.81261E-06
        -0.91161E-20
         0.15729E-04
         0.28875E-05
        -0.66898E-20
        -0.39085E-19
         0.34890E-07
         0.24234E-04
        -0.26761E-19
        -0.12584E-19
         0.18913E-05
        -0.27077E-21
         0.19076E-04
        -0.11714E-19
         0.59937E-03
         0.27013E-03
        -0.45764E-18
        -0.24072E-18
         0.10207E-03
        -0.12763E-18
         0.10986E-06
        -0.61073E-19
        -0.14166E-05
        -0.23525E-20
        -0.36649E-06
        -0.56624E-20
         0.56864E-04
         0.58148E-04
        -0.76049E-19
        -0.99470E-19
         0.95114E-04
        -0.11505E-18
         0.17004E-03
        -0.23848E-18
         0.58861E-04
        -0.97017E-19
         0.13210E-03
         0.67016E-04
        -0.17672E-19
        -0.33234E-19
         0.37632E-05
        -0.45726E-19
         0.29807E-04
        -0.80616E-20
         0.16445E-03
        -0.49160E-19
         0.35466E-03
         0.17452E-03
        -0.26136E-18
        -0.28459E-18
         0.16249E-02
         0.23086E-02
        -0.89235E-18
        -0.86661E-18
         0.15577E-02
        -0.65125E-18
         0.15357E-02
        -0.36371E-18
         0.66984E-03
        -0.10984E-18
         0.22223E-03
        -0.12560E-20
         0.14482E-04
        -0.15933E-19
         0.87870E-05
        -0.10199E-19
         0.41297E-04
        -0.98526E-20
         0.96363E-04
        -0.50104E-19
         0.54818E-03
        -0.18135E-18
         0.19432E-02
        -0.25825E-18
         0.37255E-02
        -0.22990E-18
         0.42365E-02
        -0.27186E-18
         0.43100E-02
        -0.45792E-18
         0.39061E-02
        -0.63675E-18
         0.30302E-02
        -0.55025E-18
         0.14169E-02
        -0.36344E-18
         0.37511E-03
        -0.80997E-19
         0.25099E-05
        -0.29534E-20
         0.12523E-03
        -0.17408E-19
         0.32942E-03
        -0.46549E-19
         0.65245E-03
        -0.17829E-18
         0.11308E-02
        -0.48006E-18
         0.21627E-02
        -0.69296E-18
         0.32200E-02
        -0.72494E-18
        -0.23114E-05
        -0.62962E-06
        -0.86603E-06
        -0.34871E-05
        -0.52849E-04
        -0.31475E-04
        -0.72124E-06
        -0.15526E-05
        -0.40987E-06
        -0.13050E-05
        -0.39579E-06
        -0.74266E-05
        -0.32361E-04
        -0.33098E-05
        -0.47969E-05
        -0.61786E-05
        -0.43569E-05
        -0.93280E-06
        -0.22811E-05
        -0.26356E-05
        -0.78954E-04
        -0.89388E-04
        -0.73088E-04
        -0.70531E-05
        -0.11311E-05
        -0.62820E-06
        -0.65086E-05
        -0.81810E-07
        -0.85831E-05
        -0.40442E-05
        -0.49282E-05
        -0.19103E-06
        -0.10943E-05
        -0.11493E-06
        -0.11599E-03
        -0.47003E-04
        -0.38455E-04
        -0.18871E-04
        -0.61234E-05
        -0.28054E-04
        -0.11886E-03
        -0.10307E-03
        -0.10005E-03
        -0.54095E-04
        -0.27900E-04
        -0.17121E-04
        -0.60255E-06
        -0.10472E-04
        -0.87596E-06
        -0.88297E-05
        -0.63144E-04
        -0.44662E-04
        -0.99220E-03
        -0.10956E-02
        -0.87546E-03
        -0.63397E-03
        -0.35169E-03
        -0.91272E-04
        -0.32086E-06
        -0.46180E-04
        -0.10720E-03
        -0.31605E-03
        -0.83891E-03
        -0.12459E-02
        -0.10444E-02
        -0.96019E-03
        -0.10717E-02
        -0.10713E-02
        -0.88449E-03
        -0.67867E-03
        -0.17387E-03
        -0.43496E-05
        -0.64254E-04
        -0.79810E-04
        -0.22886E-03
        -0.58313E-03
        -0.98231E-03
        -0.10854E-02
        -0.98095E-05
        -0.41336E-06
        -0.14982E-05
        -0.12701E-04
        -0.53443E-04
        -0.39029E-04
        -0.33129E-05
        -0.15788E-04
        -0.33332E-05
        -0.14269E-04
        -0.58234E-06
        -0.77522E-05
        -0.83896E-04
        -0.49337E-04
        -0.52935E-04
        -0.37862E-04
        -0.11734E-04
        -0.42095E-05
        -0.19064E-05
        -0.58797E-05
        -0.20701E-03
        -0.18802E-03
        -0.18308E-03
        -0.10710E-04
        -0.34552E-05
        -0.15665E-05
        -0.46070E-04
        -0.81221E-06
        -0.51600E-05
        -0.95957E-05
        -0.22348E-04
        -0.93576E-05
        -0.94011E-05
        -0.70025E-05
        -0.16998E-03
        -0.51778E-04
        -0.68129E-04
        -0.65098E-04
        -0.18248E-05
        -0.15339E-04
        -0.20703E-03
        -0.21907E-03
        -0.20931E-03
        -0.10943E-03
        -0.64893E-04
        -0.22216E-04
        -0.25949E-04
        -0.36166E-04
        -0.63195E-06
        -0.91614E-06
        -0.96256E-04
        -0.74693E-04
        -0.29713E-02
        -0.30175E-02
        -0.24316E-02
        -0.16542E-02
        -0.92099E-03
        -0.19537E-03
        -0.12043E-04
        -0.12643E-03
        -0.21940E-03
        -0.73724E-03
        -0.23259E-02
        -0.32369E-02
        -0.22761E-02
        -0.20602E-02
        -0.25005E-02
        -0.26522E-02
        -0.22094E-02
        -0.19769E-02
        -0.51320E-03
        -0.34670E-04
        -0.16959E-03
        -0.17406E-03
        -0.55022E-03
        -0.16495E-02
        -0.27024E-02
        -0.26854E-02
        -0.98466E-05
        -0.41643E-06
        -0.15038E-05
        -0.12719E-04
        -0.53340E-04
        -0.38957E-04
        -0.33552E-05
        -0.15708E-04
        -0.33405E-05
        -0.14247E-04
        -0.55901E-06
        -0.77899E-05
        -0.83997E-04
        -0.49094E-04
        -0.52878E-04
        -0.37940E-04
        -0.11786E-04
        -0.41862E-05
        -0.19046E-05
        -0.58590E-05
        -0.20697E-03
        -0.18797E-03
        -0.18306E-03
        -0.10711E-04
        -0.34708E-05
        -0.15717E-05
        -0.46097E-04
        -0.78196E-06
        -0.52328E-05
        -0.96080E-05
        -0.22414E-04
        -0.93552E-05
        -0.93230E-05
        -0.70089E-05
        -0.17015E-03
        -0.51731E-04
        -0.68085E-04
        -0.65307E-04
        -0.18599E-05
        -0.15436E-04
        -0.20729E-03
        -0.21932E-03
        -0.20933E-03
        -0.10939E-03
        -0.64846E-04
        -0.22193E-04
        -0.25939E-04
        -0.36190E-04
        -0.62276E-06
        -0.90989E-06
        -0.96132E-04
        -0.74472E-04
        -0.29693E-02
        -0.30160E-02
        -0.24312E-02
        -0.16542E-02
        -0.92042E-03
        -0.19525E-03
        -0.12070E-04
        -0.12659E-03
        -0.21903E-03
        -0.73665E-03
        -0.23252E-02
        -0.32371E-02
        -0.22757E-02
        -0.20599E-02
        -0.25012E-02
        -0.26533E-02
        -0.22102E-02
        -0.19777E-02
        -0.51292E-03
        -0.34701E-04
        -0.16934E-03
        -0.17393E-03
        -0.54941E-03
        -0.16474E-02
        -0.26997E-02
        -0.26830E-02
        -0.98839E-05
        -0.41947E-06
        -0.15095E-05
        -0.12735E-04
        -0.53235E-04
        -0.38887E-04
        -0.33979E-05
        -0.15628E-04
        -0.33474E-05
        -0.14223E-04
        -0.53620E-06
        -0.78277E-05
        -0.84099E-04
        -0.48852E-04
        -0.52822E-04
        -0.38021E-04
        -0.11838E-04
        -0.41628E-05
        -0.19027E-05
        -0.58391E-05
        -0.20693E-03
        -0.18793E-03
        -0.18304E-03
        -0.10713E-04
        -0.34875E-05
        -0.15774E-05
        -0.46124E-04
        -0.75264E-06
        -0.53066E-05
        -0.96200E-05
        -0.22481E-04
        -0.93537E-05
        -0.92447E-05
        -0.70152E-05
        -0.17032E-03
        -0.51686E-04
        -0.68040E-04
        -0.65516E-04
        -0.18953E-05
        -0.15534E-04
        -0.20756E-03
        -0.21958E-03
        -0.20936E-03
        -0.10937E-03
        -0.64801E-04
        -0.22172E-04
        -0.25930E-04
        -0.36214E-04
        -0.61341E-06
        -0.90346E-06
        -0.96013E-04
        -0.74253E-04
        -0.29672E-02
        -0.30144E-02
        -0.24307E-02
        -0.16542E-02
        -0.91986E-03
        -0.19513E-03
        -0.12098E-04
        -0.12674E-03
        -0.21866E-03
        -0.73607E-03
        -0.23245E-02
        -0.32372E-02
        -0.22753E-02
        -0.20597E-02
        -0.25018E-02
        -0.26545E-02
        -0.22110E-02
        -0.19785E-02
        -0.51263E-03
        -0.34733E-04
        -0.16909E-03
        -0.17379E-03
        -0.54860E-03
        -0.16454E-02
        -0.26970E-02
        -0.26806E-02
        -0.99213E-05
        -0.42262E-06
        -0.15150E-05
        -0.12752E-04
        -0.53130E-04
        -0.38815E-04
        -0.34404E-05
        -0.15549E-04
        -0.33534E-05
        -0.14195E-04
        -0.51392E-06
        -0.78663E-05
        -0.84202E-04
        -0.48611E-04
        -0.52766E-04
        -0.38109E-04
        -0.11893E-04
        -0.41393E-05
        -0.19010E-05
        -0.58183E-05
        -0.20691E-03
        -0.18790E-03
        -0.18304E-03
        -0.10714E-04
        -0.35074E-05
        -0.15844E-05
        -0.46146E-04
        -0.72477E-06
        -0.53806E-05
        -0.96313E-05
        -0.22553E-04
        -0.93556E-05
        -0.91663E-05
        -0.70215E-05
        -0.17049E-03
        -0.51640E-04
        -0.67997E-04
        -0.65724E-04
        -0.19310E-05
        -0.15631E-04
        -0.20783E-03
        -0.21986E-03
        -0.20942E-03
        -0.10935E-03
        -0.64750E-04
        -0.22148E-04
        -0.25922E-04
        -0.36239E-04
        -0.60411E-06
        -0.89706E-06
        -0.95887E-04
        -0.74033E-04
        -0.29652E-02
        -0.30128E-02
        -0.24303E-02
        -0.16542E-02
        -0.91929E-03
        -0.19501E-03
        -0.12126E-04
        -0.12690E-03
        -0.21829E-03
        -0.73548E-03
        -0.23238E-02
        -0.32374E-02
        -0.22750E-02
        -0.20595E-02
        -0.25026E-02
        -0.26559E-02
        -0.22119E-02
        -0.19792E-02
        -0.51234E-03
        -0.34765E-04
        -0.16884E-03
        -0.17365E-03
        -0.54779E-03
        -0.16434E-02
        -0.26944E-02
        -0.26782E-02
        -0.99584E-05
        -0.42579E-06
        -0.15207E-05
        -0.12769E-04
        -0.53028E-04
        -0.38743E-04
        -0.34837E-05
        -0.15468E-04
        -0.33586E-05
        -0.14162E-04
        -0.49206E-06
        -0.79045E-05
        -0.84304E-04
        -0.48370E-04
        -0.52709E-04
        -0.38204E-04
        -0.11951E-04
        -0.41158E-05
        -0.18990E-05
        -0.57973E-05
        -0.20690E-03
        -0.18788E-03
        -0.18305E-03
        -0.10715E-04
        -0.35305E-05
        -0.15924E-05
        -0.46165E-04
        -0.69829E-06
        -0.54548E-05
        -0.96419E-05
        -0.22631E-04
        -0.93602E-05
        -0.90881E-05
        -0.70277E-05
        -0.17066E-03
        -0.51593E-04
        -0.67954E-04
        -0.65933E-04
        -0.19669E-05
        -0.15730E-04
        -0.20811E-03
        -0.22015E-03
        -0.20950E-03
        -0.10933E-03
        -0.64698E-04
        -0.22122E-04
        -0.25916E-04
        -0.36266E-04
        -0.59494E-06
        -0.89076E-06
        -0.95768E-04
        -0.73813E-04
        -0.29631E-02
        -0.30113E-02
        -0.24299E-02
        -0.16542E-02
        -0.91872E-03
        -0.19490E-03
        -0.12153E-04
        -0.12706E-03
        -0.21792E-03
        -0.73489E-03
        -0.23231E-02
        -0.32376E-02
        -0.22748E-02
        -0.20594E-02
        -0.25033E-02
        -0.26574E-02
        -0.22128E-02
        -0.19800E-02
        -0.51206E-03
        -0.34796E-04
        -0.16859E-03
        -0.17352E-03
        -0.54698E-03
        -0.16414E-02
        -0.26917E-02
        -0.26758E-02
        -0.99941E-05
        -0.42923E-06
        -0.15256E-05
        -0.12785E-04
        -0.52924E-04
        -0.38672E-04
        -0.35273E-05
        -0.15387E-04
        -0.33636E-05
        -0.14129E-04
        -0.47067E-06
        -0.79428E-05
        -0.84405E-04
        -0.48129E-04
        -0.52651E-04
        -0.38300E-04
        -0.12009E-04
        -0.40924E-05
        -0.18968E-05
        -0.57774E-05
        -0.20689E-03
        -0.18787E-03
        -0.18308E-03
        -0.10717E-04
        -0.35536E-05
        -0.16007E-05
        -0.46183E-04
        -0.67246E-06
        -0.55301E-05
        -0.96544E-05
        -0.22708E-04
        -0.93643E-05
        -0.90093E-05
        -0.70333E-05
        -0.17084E-03
        -0.51552E-04
        -0.67914E-04
        -0.66141E-04
        -0.20031E-05
        -0.15829E-04
        -0.20839E-03
        -0.22045E-03
        -0.20959E-03
        -0.10932E-03
        -0.64651E-04
        -0.22100E-04
        -0.25909E-04
        -0.36292E-04
        -0.58557E-06
        -0.88499E-06
        -0.95650E-04
        -0.73599E-04
        -0.29611E-02
        -0.30097E-02
        -0.24294E-02
        -0.16543E-02
        -0.91815E-03
        -0.19478E-03
        -0.12180E-04
        -0.12721E-03
        -0.21756E-03
        -0.73431E-03
        -0.23223E-02
        -0.32379E-02
        -0.22746E-02
        -0.20592E-02
        -0.25041E-02
        -0.26591E-02
        -0.22138E-02
        -0.19807E-02
        -0.51177E-03
        -0.34825E-04
        -0.16834E-03
        -0.17338E-03
        -0.54618E-03
        -0.16394E-02
        -0.26890E-02
        -0.26734E-02
        -0.10027E-04
        -0.43338E-06
        -0.15295E-05
        -0.12801E-04
        -0.52823E-04
        -0.38602E-04
        -0.35719E-05
        -0.15304E-04
        -0.33689E-05
        -0.14098E-04
        -0.44965E-06
        -0.79813E-05
        -0.84511E-04
        -0.47888E-04
        -0.52593E-04
        -0.38397E-04
        -0.12065E-04
        -0.40688E-05
        -0.18951E-05
        -0.57578E-05
        -0.20689E-03
        -0.18786E-03
        -0.18312E-03
        -0.10719E-04
        -0.35741E-05
        -0.16080E-05
        -0.46202E-04
        -0.64653E-06
        -0.56066E-05
        -0.96686E-05
        -0.22781E-04
        -0.93650E-05
        -0.89292E-05
        -0.70373E-05
        -0.17102E-03
        -0.51514E-04
        -0.67877E-04
        -0.66348E-04
        -0.20400E-05
        -0.15931E-04
        -0.20868E-03
        -0.22076E-03
        -0.20969E-03
        -0.10932E-03
        -0.64609E-04
        -0.22080E-04
        -0.25897E-04
        -0.36317E-04
        -0.57549E-06
        -0.88055E-06
        -0.95547E-04
        -0.73386E-04
        -0.29591E-02
        -0.30082E-02
        -0.24290E-02
        -0.16543E-02
        -0.91759E-03
        -0.19466E-03
        -0.12207E-04
        -0.12737E-03
        -0.21719E-03
        -0.73373E-03
        -0.23216E-02
        -0.32382E-02
        -0.22744E-02
        -0.20591E-02
        -0.25049E-02
        -0.26607E-02
        -0.22149E-02
        -0.19814E-02
        -0.51148E-03
        -0.34848E-04
        -0.16808E-03
        -0.17325E-03
        -0.54540E-03
        -0.16374E-02
        -0.26863E-02
        -0.26710E-02
        -0.10058E-04
        -0.43778E-06
        -0.15328E-05
        -0.12816E-04
        -0.52726E-04
        -0.38530E-04
        -0.36174E-05
        -0.15220E-04
        -0.33744E-05
        -0.14067E-04
        -0.42907E-06
        -0.80198E-05
        -0.84616E-04
        -0.47648E-04
        -0.52534E-04
        -0.38493E-04
        -0.12119E-04
        -0.40452E-05
        -0.18931E-05
        -0.57395E-05
        -0.20688E-03
        -0.18785E-03
        -0.18315E-03
        -0.10722E-04
        -0.35933E-05
        -0.16149E-05
        -0.46223E-04
        -0.62097E-06
        -0.56847E-05
        -0.96841E-05
        -0.22852E-04
        -0.93638E-05
        -0.88486E-05
        -0.70406E-05
        -0.17120E-03
        -0.51480E-04
        -0.67845E-04
        -0.66556E-04
        -0.20772E-05
        -0.16032E-04
        -0.20897E-03
        -0.22108E-03
        -0.20979E-03
        -0.10932E-03
        -0.64570E-04
        -0.22064E-04
        -0.25884E-04
        -0.36339E-04
        -0.56519E-06
        -0.87670E-06
        -0.95446E-04
        -0.73177E-04
        -0.29570E-02
        -0.30067E-02
        -0.24285E-02
        -0.16543E-02
        -0.91702E-03
        -0.19454E-03
        -0.12234E-04
        -0.12752E-03
        -0.21682E-03
        -0.73315E-03
        -0.23208E-02
        -0.32384E-02
        -0.22743E-02
        -0.20589E-02
        -0.25058E-02
        -0.26623E-02
        -0.22159E-02
        -0.19821E-02
        -0.51118E-03
        -0.34870E-04
        -0.16782E-03
        -0.17311E-03
        -0.54463E-03
        -0.16354E-02
        -0.26837E-02
        -0.26687E-02
        -0.10090E-04
        -0.44224E-06
        -0.15361E-05
        -0.12832E-04
        -0.52626E-04
        -0.38458E-04
        -0.36628E-05
        -0.15137E-04
        -0.33800E-05
        -0.14038E-04
        -0.40903E-06
        -0.80584E-05
        -0.84722E-04
        -0.47410E-04
        -0.52476E-04
        -0.38589E-04
        -0.12174E-04
        -0.40218E-05
        -0.18910E-05
        -0.57206E-05
        -0.20687E-03
        -0.18784E-03
        -0.18318E-03
        -0.10725E-04
        -0.36124E-05
        -0.16217E-05
        -0.46244E-04
        -0.59596E-06
        -0.57632E-05
        -0.96995E-05
        -0.22923E-04
        -0.93627E-05
        -0.87685E-05
        -0.70440E-05
        -0.17139E-03
        -0.51443E-04
        -0.67812E-04
        -0.66763E-04
        -0.21148E-05
        -0.16134E-04
        -0.20926E-03
        -0.22139E-03
        -0.20990E-03
        -0.10932E-03
        -0.64534E-04
        -0.22047E-04
        -0.25871E-04
        -0.36362E-04
        -0.55496E-06
        -0.87303E-06
        -0.95350E-04
        -0.72966E-04
        -0.29550E-02
        -0.30051E-02
        -0.24280E-02
        -0.16543E-02
        -0.91645E-03
        -0.19442E-03
        -0.12261E-04
        -0.12768E-03
        -0.21646E-03
        -0.73257E-03
        -0.23200E-02
        -0.32387E-02
        -0.22741E-02
        -0.20588E-02
        -0.25066E-02
        -0.26640E-02
        -0.22169E-02
        -0.19828E-02
        -0.51088E-03
        -0.34893E-04
        -0.16756E-03
        -0.17298E-03
        -0.54385E-03
        -0.16334E-02
        -0.26810E-02
        -0.26663E-02
        -0.10122E-04
        -0.44677E-06
        -0.15394E-05
        -0.12848E-04
        -0.52527E-04
        -0.38387E-04
        -0.37088E-05
        -0.15054E-04
        -0.33856E-05
        -0.14008E-04
        -0.38947E-06
        -0.80971E-05
        -0.84830E-04
        -0.47173E-04
        -0.52418E-04
        -0.38685E-04
        -0.12229E-04
        -0.39987E-05
        -0.18890E-05
        -0.57022E-05
        -0.20687E-03
        -0.18783E-03
        -0.18321E-03
        -0.10727E-04
        -0.36317E-05
        -0.16286E-05
        -0.46265E-04
        -0.57160E-06
        -0.58420E-05
        -0.97147E-05
        -0.22994E-04
        -0.93613E-05
        -0.86889E-05
        -0.70476E-05
        -0.17158E-03
        -0.51411E-04
        -0.67780E-04
        -0.66971E-04
        -0.21528E-05
        -0.16237E-04
        -0.20955E-03
        -0.22170E-03
        -0.21000E-03
        -0.10932E-03
        -0.64496E-04
        -0.22029E-04
        -0.25857E-04
        -0.36386E-04
        -0.54492E-06
        -0.86907E-06
        -0.95248E-04
        -0.72756E-04
        -0.29529E-02
        -0.30036E-02
        -0.24276E-02
        -0.16543E-02
        -0.91588E-03
        -0.19430E-03
        -0.12288E-04
        -0.12783E-03
        -0.21609E-03
        -0.73199E-03
        -0.23193E-02
        -0.32390E-02
        -0.22739E-02
        -0.20587E-02
        -0.25074E-02
        -0.26656E-02
        -0.22179E-02
        -0.19835E-02
        -0.51058E-03
        -0.34914E-04
        -0.16729E-03
        -0.17284E-03
        -0.54307E-03
        -0.16315E-02
        -0.26784E-02
        -0.26639E-02
        -0.10153E-04
        -0.45129E-06
        -0.15428E-05
        -0.12863E-04
        -0.52430E-04
        -0.38318E-04
        -0.37547E-05
        -0.14971E-04
        -0.33911E-05
        -0.13979E-04
        -0.37036E-06
        -0.81363E-05
        -0.84936E-04
        -0.46937E-04
        -0.52358E-04
        -0.38780E-04
        -0.12284E-04
        -0.39756E-05
        -0.18873E-05
        -0.56831E-05
        -0.20686E-03
        -0.18782E-03
        -0.18324E-03
        -0.10731E-04
        -0.36507E-05
        -0.16354E-05
        -0.46288E-04
        -0.54773E-06
        -0.59212E-05
        -0.97296E-05
        -0.23065E-04
        -0.93599E-05
        -0.86096E-05
        -0.70509E-05
        -0.17176E-03
        -0.51375E-04
        -0.67748E-04
        -0.67179E-04
        -0.21913E-05
        -0.16339E-04
        -0.20984E-03
        -0.22201E-03
        -0.21010E-03
        -0.10931E-03
        -0.64458E-04
        -0.22014E-04
        -0.25843E-04
        -0.36409E-04
        -0.53487E-06
        -0.86523E-06
        -0.95153E-04
        -0.72547E-04
        -0.29509E-02
        -0.30021E-02
        -0.24271E-02
        -0.16543E-02
        -0.91531E-03
        -0.19418E-03
        -0.12314E-04
        -0.12799E-03
        -0.21573E-03
        -0.73140E-03
        -0.23185E-02
        -0.32392E-02
        -0.22737E-02
        -0.20585E-02
        -0.25082E-02
        -0.26672E-02
        -0.22189E-02
        -0.19842E-02
        -0.51028E-03
        -0.34935E-04
        -0.16703E-03
        -0.17271E-03
        -0.54230E-03
        -0.16295E-02
        -0.26757E-02
        -0.26615E-02
        -0.10185E-04
        -0.45582E-06
        -0.15459E-05
        -0.12878E-04
        -0.52331E-04
        -0.38247E-04
        -0.38011E-05
        -0.14889E-04
        -0.33966E-05
        -0.13949E-04
        -0.35177E-06
        -0.81756E-05
        -0.85041E-04
        -0.46702E-04
        -0.52299E-04
        -0.38876E-04
        -0.12339E-04
        -0.39524E-05
        -0.18854E-05
        -0.56647E-05
        -0.20686E-03
        -0.18780E-03
        -0.18328E-03
        -0.10734E-04
        -0.36698E-05
        -0.16424E-05
        -0.46309E-04
        -0.52448E-06
        -0.60003E-05
        -0.97455E-05
        -0.23137E-04
        -0.93587E-05
        -0.85302E-05
        -0.70544E-05
        -0.17195E-03
        -0.51340E-04
        -0.67715E-04
        -0.67386E-04
        -0.22302E-05
        -0.16443E-04
        -0.21013E-03
        -0.22231E-03
        -0.21020E-03
        -0.10931E-03
        -0.64420E-04
        -0.21998E-04
        -0.25830E-04
        -0.36432E-04
        -0.52489E-06
        -0.86159E-06
        -0.95053E-04
        -0.72337E-04
        -0.29489E-02
        -0.30005E-02
        -0.24266E-02
        -0.16543E-02
        -0.91474E-03
        -0.19407E-03
        -0.12340E-04
        -0.12814E-03
        -0.21536E-03
        -0.73082E-03
        -0.23178E-02
        -0.32395E-02
        -0.22735E-02
        -0.20584E-02
        -0.25090E-02
        -0.26688E-02
        -0.22199E-02
        -0.19849E-02
        -0.50998E-03
        -0.34957E-04
        -0.16676E-03
        -0.17258E-03
        -0.54153E-03
        -0.16275E-02
        -0.26731E-02
        -0.26592E-02
        -0.10216E-04
        -0.46042E-06
        -0.15491E-05
        -0.12893E-04
        -0.52233E-04
        -0.38176E-04
        -0.38477E-05
        -0.14806E-04
        -0.34020E-05
        -0.13919E-04
        -0.33372E-06
        -0.82145E-05
        -0.85149E-04
        -0.46467E-04
        -0.52239E-04
        -0.38972E-04
        -0.12394E-04
        -0.39292E-05
        -0.18835E-05
        -0.56459E-05
        -0.20685E-03
        -0.18779E-03
        -0.18331E-03
        -0.10737E-04
        -0.36886E-05
        -0.16492E-05
        -0.46331E-04
        -0.50168E-06
        -0.60804E-05
        -0.97605E-05
        -0.23208E-04
        -0.93572E-05
        -0.84512E-05
        -0.70578E-05
        -0.17214E-03
        -0.51308E-04
        -0.67684E-04
        -0.67592E-04
        -0.22695E-05
        -0.16546E-04
        -0.21042E-03
        -0.22262E-03
        -0.21030E-03
        -0.10932E-03
        -0.64384E-04
        -0.21979E-04
        -0.25817E-04
        -0.36456E-04
        -0.51496E-06
        -0.85774E-06
        -0.94950E-04
        -0.72127E-04
        -0.29468E-02
        -0.29990E-02
        -0.24262E-02
        -0.16543E-02
        -0.91418E-03
        -0.19395E-03
        -0.12367E-04
        -0.12829E-03
        -0.21500E-03
        -0.73023E-03
        -0.23170E-02
        -0.32397E-02
        -0.22733E-02
        -0.20583E-02
        -0.25098E-02
        -0.26705E-02
        -0.22209E-02
        -0.19855E-02
        -0.50969E-03
        -0.34978E-04
        -0.16650E-03
        -0.17244E-03
        -0.54075E-03
        -0.16255E-02
        -0.26705E-02
        -0.26568E-02
        -0.10248E-04
        -0.46496E-06
        -0.15523E-05
        -0.12908E-04
        -0.52137E-04
        -0.38104E-04
        -0.38940E-05
        -0.14724E-04
        -0.34074E-05
        -0.13889E-04
        -0.31618E-06
        -0.82536E-05
        -0.85255E-04
        -0.46233E-04
        -0.52180E-04
        -0.39068E-04
        -0.12449E-04
        -0.39063E-05
        -0.18820E-05
        -0.56277E-05
        -0.20684E-03
        -0.18778E-03
        -0.18334E-03
        -0.10740E-04
        -0.37075E-05
        -0.16561E-05
        -0.46350E-04
        -0.47953E-06
        -0.61611E-05
        -0.97754E-05
        -0.23279E-04
        -0.93558E-05
        -0.83725E-05
        -0.70611E-05
        -0.17233E-03
        -0.51274E-04
        -0.67652E-04
        -0.67798E-04
        -0.23092E-05
        -0.16651E-04
        -0.21071E-03
        -0.22293E-03
        -0.21040E-03
        -0.10932E-03
        -0.64346E-04
        -0.21963E-04
        -0.25803E-04
        -0.36478E-04
        -0.50516E-06
        -0.85393E-06
        -0.94854E-04
        -0.71920E-04
        -0.29448E-02
        -0.29975E-02
        -0.24257E-02
        -0.16543E-02
        -0.91362E-03
        -0.19383E-03
        -0.12394E-04
        -0.12844E-03
        -0.21463E-03
        -0.72965E-03
        -0.23162E-02
        -0.32400E-02
        -0.22732E-02
        -0.20581E-02
        -0.25106E-02
        -0.26721E-02
        -0.22219E-02
        -0.19862E-02
        -0.50939E-03
        -0.34998E-04
        -0.16624E-03
        -0.17231E-03
        -0.53998E-03
        -0.16236E-02
        -0.26678E-02
        -0.26544E-02
        -0.10280E-04
        -0.46950E-06
        -0.15555E-05
        -0.12924E-04
        -0.52039E-04
        -0.38033E-04
        -0.39411E-05
        -0.14642E-04
        -0.34128E-05
        -0.13859E-04
        -0.29911E-06
        -0.82936E-05
        -0.85361E-04
        -0.46000E-04
        -0.52119E-04
        -0.39164E-04
        -0.12504E-04
        -0.38835E-05
        -0.18801E-05
        -0.56088E-05
        -0.20684E-03
        -0.18777E-03
        -0.18337E-03
        -0.10743E-04
        -0.37263E-05
        -0.16630E-05
        -0.46371E-04
        -0.45788E-06
        -0.62421E-05
        -0.97903E-05
        -0.23351E-04
        -0.93542E-05
        -0.82941E-05
        -0.70644E-05
        -0.17251E-03
        -0.51242E-04
        -0.67620E-04
        -0.68002E-04
        -0.23492E-05
        -0.16755E-04
        -0.21100E-03
        -0.22324E-03
        -0.21050E-03
        -0.10931E-03
        -0.64307E-04
        -0.21947E-04
        -0.25789E-04
        -0.36502E-04
        -0.49531E-06
        -0.85022E-06
        -0.94753E-04
        -0.71710E-04
        -0.29427E-02
        -0.29960E-02
        -0.24252E-02
        -0.16543E-02
        -0.91306E-03
        -0.19371E-03
        -0.12420E-04
        -0.12859E-03
        -0.21427E-03
        -0.72907E-03
        -0.23155E-02
        -0.32403E-02
        -0.22730E-02
        -0.20580E-02
        -0.25114E-02
        -0.26738E-02
        -0.22229E-02
        -0.19869E-02
        -0.50909E-03
        -0.35019E-04
        -0.16598E-03
        -0.17218E-03
        -0.53921E-03
        -0.16216E-02
        -0.26652E-02
        -0.26521E-02
        -0.10312E-04
        -0.47418E-06
        -0.15587E-05
        -0.12939E-04
        -0.51941E-04
        -0.37965E-04
        -0.39881E-05
        -0.14560E-04
        -0.34183E-05
        -0.13830E-04
        -0.28251E-06
        -0.83330E-05
        -0.85468E-04
        -0.45768E-04
        -0.52058E-04
        -0.39260E-04
        -0.12559E-04
        -0.38609E-05
        -0.18783E-05
        -0.55906E-05
        -0.20683E-03
        -0.18776E-03
        -0.18340E-03
        -0.10746E-04
        -0.37448E-05
        -0.16699E-05
        -0.46392E-04
        -0.43675E-06
        -0.63236E-05
        -0.98050E-05
        -0.23422E-04
        -0.93529E-05
        -0.82163E-05
        -0.70679E-05
        -0.17270E-03
        -0.51207E-04
        -0.67588E-04
        -0.68207E-04
        -0.23898E-05
        -0.16860E-04
        -0.21129E-03
        -0.22355E-03
        -0.21060E-03
        -0.10931E-03
        -0.64271E-04
        -0.21929E-04
        -0.25776E-04
        -0.36525E-04
        -0.48565E-06
        -0.84639E-06
        -0.94656E-04
        -0.71501E-04
        -0.29407E-02
        -0.29945E-02
        -0.24248E-02
        -0.16543E-02
        -0.91249E-03
        -0.19359E-03
        -0.12445E-04
        -0.12874E-03
        -0.21390E-03
        -0.72849E-03
        -0.23148E-02
        -0.32405E-02
        -0.22728E-02
        -0.20579E-02
        -0.25122E-02
        -0.26754E-02
        -0.22239E-02
        -0.19876E-02
        -0.50879E-03
        -0.35039E-04
        -0.16571E-03
        -0.17205E-03
        -0.53843E-03
        -0.16196E-02
        -0.26626E-02
        -0.26497E-02
        -0.10344E-04
        -0.47881E-06
        -0.15620E-05
        -0.12954E-04
        -0.51846E-04
        -0.37894E-04
        -0.40356E-05
        -0.14479E-04
        -0.34235E-05
        -0.13798E-04
        -0.26639E-06
        -0.83728E-05
        -0.85575E-04
        -0.45536E-04
        -0.51997E-04
        -0.39357E-04
        -0.12615E-04
        -0.38384E-05
        -0.18765E-05
        -0.55719E-05
        -0.20682E-03
        -0.18774E-03
        -0.18343E-03
        -0.10750E-04
        -0.37630E-05
        -0.16767E-05
        -0.46410E-04
        -0.41593E-06
        -0.64048E-05
        -0.98198E-05
        -0.23494E-04
        -0.93517E-05
        -0.81389E-05
        -0.70716E-05
        -0.17290E-03
        -0.51173E-04
        -0.67555E-04
        -0.68411E-04
        -0.24312E-05
        -0.16966E-04
        -0.21157E-03
        -0.22385E-03
        -0.21070E-03
        -0.10931E-03
        -0.64233E-04
        -0.21913E-04
        -0.25762E-04
        -0.36549E-04
        -0.47613E-06
        -0.84257E-06
        -0.94555E-04
        -0.71295E-04
        -0.29386E-02
        -0.29929E-02
        -0.24243E-02
        -0.16543E-02
        -0.91192E-03
        -0.19347E-03
        -0.12470E-04
        -0.12888E-03
        -0.21354E-03
        -0.72790E-03
        -0.23140E-02
        -0.32409E-02
        -0.22726E-02
        -0.20577E-02
        -0.25130E-02
        -0.26770E-02
        -0.22249E-02
        -0.19883E-02
        -0.50849E-03
        -0.35059E-04
        -0.16545E-03
        -0.17192E-03
        -0.53766E-03
        -0.16176E-02
        -0.26599E-02
        -0.26473E-02
        -0.10376E-04
        -0.48344E-06
        -0.15651E-05
        -0.12969E-04
        -0.51748E-04
        -0.37823E-04
        -0.40830E-05
        -0.14397E-04
        -0.34282E-05
        -0.13764E-04
        -0.25077E-06
        -0.84127E-05
        -0.85680E-04
        -0.45304E-04
        -0.51934E-04
        -0.39453E-04
        -0.12670E-04
        -0.38158E-05
        -0.18752E-05
        -0.55540E-05
        -0.20682E-03
        -0.18773E-03
        -0.18347E-03
        -0.10753E-04
        -0.37801E-05
        -0.16839E-05
        -0.46421E-04
        -0.39511E-06
        -0.64871E-05
        -0.98356E-05
        -0.23566E-04
        -0.93499E-05
        -0.80615E-05
        -0.70751E-05
        -0.17308E-03
        -0.51141E-04
        -0.67525E-04
        -0.68610E-04
        -0.24741E-05
        -0.17070E-04
        -0.21183E-03
        -0.22413E-03
        -0.21078E-03
        -0.10931E-03
        -0.64195E-04
        -0.21895E-04
        -0.25749E-04
        -0.36573E-04
        -0.46672E-06
        -0.83878E-06
        -0.94460E-04
        -0.71086E-04
        -0.29366E-02
        -0.29914E-02
        -0.24238E-02
        -0.16543E-02
        -0.91135E-03
        -0.19335E-03
        -0.12496E-04
        -0.12903E-03
        -0.21319E-03
        -0.72730E-03
        -0.23132E-02
        -0.32414E-02
        -0.22726E-02
        -0.20576E-02
        -0.25138E-02
        -0.26786E-02
        -0.22260E-02
        -0.19889E-02
        -0.50820E-03
        -0.35080E-04
        -0.16519E-03
        -0.17178E-03
        -0.53689E-03
        -0.16157E-02
        -0.26573E-02
        -0.26450E-02
        -0.10408E-04
        -0.48808E-06
        -0.15683E-05
        -0.12983E-04
        -0.51650E-04
        -0.37752E-04
        -0.41310E-05
        -0.14316E-04
        -0.34324E-05
        -0.13726E-04
        -0.23566E-06
        -0.84525E-05
        -0.85788E-04
        -0.45070E-04
        -0.51870E-04
        -0.39549E-04
        -0.12725E-04
        -0.37933E-05
        -0.18735E-05
        -0.55356E-05
        -0.20681E-03
        -0.18771E-03
        -0.18350E-03
        -0.10756E-04
        -0.37958E-05
        -0.16907E-05
        -0.46425E-04
        -0.37423E-06
        -0.65699E-05
        -0.98507E-05
        -0.23638E-04
        -0.93484E-05
        -0.79844E-05
        -0.70786E-05
        -0.17327E-03
        -0.51107E-04
        -0.67494E-04
        -0.68806E-04
        -0.25185E-05
        -0.17175E-04
        -0.21207E-03
        -0.22439E-03
        -0.21086E-03
        -0.10931E-03
        -0.64159E-04
        -0.21879E-04
        -0.25735E-04
        -0.36596E-04
        -0.45729E-06
        -0.83506E-06
        -0.94357E-04
        -0.70875E-04
        -0.29346E-02
        -0.29899E-02
        -0.24233E-02
        -0.16543E-02
        -0.91079E-03
        -0.19323E-03
        -0.12521E-04
        -0.12918E-03
        -0.21283E-03
        -0.72668E-03
        -0.23124E-02
        -0.32420E-02
        -0.22726E-02
        -0.20575E-02
        -0.25146E-02
        -0.26803E-02
        -0.22270E-02
        -0.19896E-02
        -0.50790E-03
        -0.35100E-04
        -0.16493E-03
        -0.17165E-03
        -0.53612E-03
        -0.16137E-02
        -0.26547E-02
        -0.26426E-02
        -0.10441E-04
        -0.49277E-06
        -0.15715E-05
        -0.12999E-04
        -0.51556E-04
        -0.37684E-04
        -0.41786E-05
        -0.14235E-04
        -0.34364E-05
        -0.13688E-04
        -0.22113E-06
        -0.84918E-05
        -0.85893E-04
        -0.44837E-04
        -0.51805E-04
        -0.39646E-04
        -0.12780E-04
        -0.37711E-05
        -0.18717E-05
        -0.55177E-05
        -0.20680E-03
        -0.18769E-03
        -0.18353E-03
        -0.10760E-04
        -0.38111E-05
        -0.16976E-05
        -0.46427E-04
        -0.35384E-06
        -0.66525E-05
        -0.98656E-05
        -0.23710E-04
        -0.93469E-05
        -0.79083E-05
        -0.70822E-05
        -0.17347E-03
        -0.51076E-04
        -0.67462E-04
        -0.68999E-04
        -0.25638E-05
        -0.17278E-04
        -0.21230E-03
        -0.22463E-03
        -0.21093E-03
        -0.10931E-03
        -0.64121E-04
        -0.21863E-04
        -0.25723E-04
        -0.36621E-04
        -0.44807E-06
        -0.83118E-06
        -0.94263E-04
        -0.70671E-04
        -0.29325E-02
        -0.29884E-02
        -0.24229E-02
        -0.16543E-02
        -0.91023E-03
        -0.19311E-03
        -0.12546E-04
        -0.12932E-03
        -0.21248E-03
        -0.72604E-03
        -0.23116E-02
        -0.32427E-02
        -0.22726E-02
        -0.20574E-02
        -0.25154E-02
        -0.26819E-02
        -0.22280E-02
        -0.19903E-02
        -0.50760E-03
        -0.35122E-04
        -0.16467E-03
        -0.17152E-03
        -0.53536E-03
        -0.16118E-02
        -0.26520E-02
        -0.26402E-02
        -0.10563E-04
        -0.50086E-06
        -0.15888E-05
        -0.13124E-04
        -0.51899E-04
        -0.37940E-04
        -0.42581E-05
        -0.14290E-04
        -0.34694E-05
        -0.13778E-04
        -0.21073E-06
        -0.85968E-05
        -0.86726E-04
        -0.45029E-04
        -0.52222E-04
        -0.40075E-04
        -0.12943E-04
        -0.37826E-05
        -0.18853E-05
        -0.55455E-05
        -0.20851E-03
        -0.18927E-03
        -0.18506E-03
        -0.10854E-04
        -0.38586E-05
        -0.17183E-05
        -0.46857E-04
        -0.33831E-06
        -0.67888E-05
        -0.99661E-05
        -0.23982E-04
        -0.94245E-05
        -0.79065E-05
        -0.71480E-05
        -0.17515E-03
        -0.51485E-04
        -0.68006E-04
        -0.69814E-04
        -0.26289E-05
        -0.17528E-04
        -0.21442E-03
        -0.22687E-03
        -0.21283E-03
        -0.11021E-03
        -0.64619E-04
        -0.22028E-04
        -0.25933E-04
        -0.36966E-04
        -0.44376E-06
        -0.83443E-06
        -0.94984E-04
        -0.71082E-04
        -0.29585E-02
        -0.30148E-02
        -0.24454E-02
        -0.16697E-02
        -0.91832E-03
        -0.19482E-03
        -0.12703E-04
        -0.13071E-03
        -0.21426E-03
        -0.73274E-03
        -0.23339E-02
        -0.32743E-02
        -0.22931E-02
        -0.20752E-02
        -0.25378E-02
        -0.27063E-02
        -0.22480E-02
        -0.20088E-02
        -0.51213E-03
        -0.35494E-04
        -0.16598E-03
        -0.17292E-03
        -0.53955E-03
        -0.16246E-02
        -0.26734E-02
        -0.26616E-02
        -0.23682E-04
        -0.11385E-05
        -0.35489E-05
        -0.29500E-04
        -0.10786E-03
        -0.80311E-04
        -0.96334E-05
        -0.31652E-04
        -0.77272E-05
        -0.30415E-04
        -0.44556E-06
        -0.17303E-04
        -0.17956E-03
        -0.96936E-04
        -0.10614E-03
        -0.89952E-04
        -0.28919E-04
        -0.84656E-05
        -0.41181E-05
        -0.12174E-04
        -0.43061E-03
        -0.40108E-03
        -0.38416E-03
        -0.24079E-04
        -0.86919E-05
        -0.38794E-05
        -0.10267E-03
        -0.73582E-06
        -0.15488E-04
        -0.22398E-04
        -0.53887E-04
        -0.21054E-04
        -0.17689E-04
        -0.16077E-04
        -0.35131E-03
        -0.10895E-03
        -0.14405E-03
        -0.14859E-03
        -0.57909E-05
        -0.38667E-04
        -0.45928E-03
        -0.49279E-03
        -0.46128E-03
        -0.23201E-03
        -0.13518E-03
        -0.43543E-04
        -0.53906E-04
        -0.78867E-04
        -0.94303E-06
        -0.17764E-05
        -0.19299E-03
        -0.14960E-03
        -0.47010E-02
        -0.47719E-02
        -0.38763E-02
        -0.26605E-02
        -0.14616E-02
        -0.31181E-03
        -0.20868E-04
        -0.21780E-03
        -0.35523E-03
        -0.12019E-02
        -0.38366E-02
        -0.53571E-02
        -0.38265E-02
        -0.34811E-02
        -0.41495E-02
        -0.43264E-02
        -0.35724E-02
        -0.31621E-02
        -0.80573E-03
        -0.56079E-04
        -0.26685E-03
        -0.28032E-03
        -0.86880E-03
        -0.26341E-02
        -0.43072E-02
        -0.42572E-02
  
SCALARS                      strain_yy  double 1
LOOKUP_TABLE default
         0.34128E-05
         0.30806E-06
         0.23756E-05
         0.77411E-06
        -0.21953E-19
        -0.16677E-20
        -0.33717E-19
        -0.19616E-19
         0.29084E-04
         0.13508E-04
        -0.74675E-19
        -0.57878E-19
         0.15558E-04
         0.39583E-07
        -0.38246E-19
        -0.15721E-21
         0.36341E-05
         0.25743E-04
        -0.82785E-23
        -0.86670E-21
         0.47203E-05
         0.43990E-04
         0.87790E-04
        -0.20097E-18
        -0.59940E-18
        -0.41878E-18
         0.43442E-06
         0.13330E-04
        -0.10399E-18
        -0.39137E-18
         0.47014E-05
         0.27735E-05
         0.31700E-05
        -0.27948E-19
        -0.29124E-19
        -0.12553E-22
         0.36094E-04
         0.23005E-04
        -0.94639E-19
        -0.57288E-19
         0.30459E-04
         0.90065E-05
        -0.54052E-19
        -0.45142E-19
         0.31133E-04
         0.40307E-05
        -0.59479E-22
        -0.14231E-19
         0.11313E-04
        -0.31546E-20
         0.27938E-06
        -0.20694E-22
         0.18240E-07
        -0.47201E-19
         0.57245E-06
        -0.15973E-19
         0.61571E-05
         0.47354E-06
        -0.11756E-22
        -0.48426E-22
         0.68815E-05
         0.83614E-04
        -0.21823E-20
        -0.30533E-19
         0.26496E-05
        -0.88916E-20
         0.43959E-04
        -0.13196E-19
         0.21048E-04
         0.56679E-05
        -0.20153E-21
        -0.35134E-19
         0.63294E-04
        -0.16941E-18
         0.36861E-05
        -0.15882E-18
        -0.49435E-05
        -0.91519E-19
        -0.19310E-06
        -0.64296E-19
         0.36813E-04
         0.43975E-04
        -0.26459E-19
        -0.13007E-20
         0.18032E-05
        -0.16285E-22
         0.75721E-04
        -0.63905E-19
         0.37753E-03
        -0.19585E-18
         0.66765E-03
         0.24061E-03
        -0.43084E-18
        -0.28226E-18
         0.12789E-03
        -0.17008E-18
         0.10824E-03
        -0.17802E-18
         0.98089E-04
        -0.20581E-18
         0.26806E-03
         0.19341E-03
        -0.17798E-18
        -0.40862E-19
         0.92144E-04
         0.15298E-04
        -0.22005E-19
        -0.33981E-19
         0.54423E-03
        -0.24354E-18
         0.13237E-02
        -0.52108E-18
         0.16816E-02
        -0.79477E-18
         0.14536E-02
        -0.78199E-18
         0.95357E-03
        -0.48972E-18
         0.36421E-03
        -0.29329E-18
         0.26648E-03
        -0.25372E-18
         0.22302E-03
        -0.22967E-18
         0.37293E-03
        -0.93800E-19
         0.40831E-03
        -0.10225E-19
         0.17434E-03
        -0.42691E-20
         0.11307E-05
        -0.96448E-20
         0.24098E-03
        -0.25728E-20
         0.86897E-03
        -0.23530E-19
         0.20755E-02
        -0.18747E-18
         0.19429E-02
        -0.45713E-18
         0.17878E-02
        -0.78566E-18
         0.26565E-02
        -0.78429E-18
         0.33415E-02
        -0.59768E-18
         0.30643E-02
        -0.56770E-18
         0.17748E-02
        -0.57479E-18
         0.81791E-03
        -0.35942E-18
         0.45428E-03
        -0.12568E-18
         0.26499E-03
        -0.75141E-19
        -0.24102E-04
        -0.64795E-05
        -0.49349E-05
        -0.47272E-06
        -0.51991E-05
        -0.58554E-05
        -0.65361E-07
        -0.15412E-04
        -0.11267E-04
        -0.24370E-04
        -0.66796E-05
        -0.12165E-03
        -0.56749E-04
        -0.76307E-06
        -0.12413E-03
        -0.16876E-05
        -0.13264E-05
        -0.54770E-06
        -0.94181E-06
        -0.53747E-06
        -0.45407E-06
        -0.30840E-06
        -0.34881E-05
        -0.24761E-07
        -0.11357E-04
        -0.24826E-06
        -0.66756E-09
        -0.20402E-06
        -0.30082E-06
        -0.69924E-05
        -0.16089E-05
        -0.19036E-05
        -0.85093E-06
        -0.50671E-07
        -0.13884E-06
        -0.40771E-05
        -0.20493E-04
        -0.95837E-04
        -0.80008E-04
        -0.57128E-04
        -0.50640E-04
        -0.31254E-05
        -0.20872E-05
        -0.15708E-04
        -0.42938E-04
        -0.11462E-03
        -0.49328E-04
        -0.25319E-04
        -0.28826E-04
        -0.32587E-04
        -0.44866E-04
        -0.93606E-05
        -0.33241E-04
        -0.48189E-04
        -0.35347E-03
        -0.67528E-03
        -0.10978E-02
        -0.15473E-02
        -0.15610E-02
        -0.12773E-02
        -0.11565E-02
        -0.10332E-02
        -0.43071E-03
        -0.83404E-04
        -0.16144E-04
        -0.31370E-05
        -0.73628E-05
        -0.11512E-03
        -0.38898E-03
        -0.66255E-03
        -0.96714E-03
        -0.12734E-02
        -0.11307E-02
        -0.10100E-02
        -0.87411E-03
        -0.42219E-03
        -0.14432E-03
        -0.11133E-03
        -0.85078E-04
        -0.33844E-04
        -0.28981E-04
        -0.16305E-05
        -0.48888E-04
        -0.98891E-05
        -0.62182E-05
        -0.75997E-04
        -0.32682E-04
        -0.67227E-04
        -0.18791E-04
        -0.35198E-03
        -0.12354E-03
        -0.25511E-05
        -0.34166E-03
        -0.12236E-04
        -0.11237E-05
        -0.10242E-05
        -0.20808E-04
        -0.77777E-06
        -0.15459E-04
        -0.77924E-05
        -0.26191E-05
        -0.18658E-05
        -0.30485E-04
        -0.18650E-05
        -0.11744E-06
        -0.40584E-06
        -0.10355E-05
        -0.30335E-04
        -0.14211E-04
        -0.98610E-06
        -0.59372E-05
        -0.44761E-05
        -0.10177E-05
        -0.94562E-05
        -0.34472E-04
        -0.19734E-03
        -0.15346E-03
        -0.11918E-03
        -0.64325E-04
        -0.39276E-05
        -0.16663E-04
        -0.25999E-04
        -0.43110E-04
        -0.17989E-03
        -0.60909E-04
        -0.26636E-04
        -0.42074E-04
        -0.58636E-04
        -0.62954E-04
        -0.35441E-06
        -0.97851E-04
        -0.20022E-03
        -0.10843E-02
        -0.18109E-02
        -0.30166E-02
        -0.43439E-02
        -0.41677E-02
        -0.31783E-02
        -0.29190E-02
        -0.28574E-02
        -0.11268E-02
        -0.12240E-03
        -0.19433E-04
        -0.14268E-04
        -0.30607E-05
        -0.22026E-03
        -0.88399E-03
        -0.17123E-02
        -0.29003E-02
        -0.35661E-02
        -0.27499E-02
        -0.24578E-02
        -0.24432E-02
        -0.12112E-02
        -0.32686E-03
        -0.29305E-03
        -0.85184E-04
        -0.33856E-04
        -0.29010E-04
        -0.16545E-05
        -0.48900E-04
        -0.99046E-05
        -0.62339E-05
        -0.76254E-04
        -0.32799E-04
        -0.67729E-04
        -0.18814E-04
        -0.35192E-03
        -0.12360E-03
        -0.25512E-05
        -0.34254E-03
        -0.12237E-04
        -0.11442E-05
        -0.10212E-05
        -0.20836E-04
        -0.76911E-06
        -0.15535E-04
        -0.78074E-05
        -0.26203E-05
        -0.18640E-05
        -0.30762E-04
        -0.18583E-05
        -0.12022E-06
        -0.41039E-06
        -0.10219E-05
        -0.30463E-04
        -0.14216E-04
        -0.98180E-06
        -0.59635E-05
        -0.44908E-05
        -0.99864E-06
        -0.94685E-05
        -0.34469E-04
        -0.19795E-03
        -0.15412E-03
        -0.11946E-03
        -0.64424E-04
        -0.39065E-05
        -0.16698E-04
        -0.26026E-04
        -0.43113E-04
        -0.17989E-03
        -0.60921E-04
        -0.26604E-04
        -0.41961E-04
        -0.58479E-04
        -0.62900E-04
        -0.34375E-06
        -0.97669E-04
        -0.20024E-03
        -0.10847E-02
        -0.18109E-02
        -0.30158E-02
        -0.43409E-02
        -0.41642E-02
        -0.31764E-02
        -0.29177E-02
        -0.28559E-02
        -0.11263E-02
        -0.12252E-03
        -0.19430E-04
        -0.14327E-04
        -0.30110E-05
        -0.22049E-03
        -0.88478E-03
        -0.17131E-02
        -0.29001E-02
        -0.35657E-02
        -0.27495E-02
        -0.24576E-02
        -0.24419E-02
        -0.12095E-02
        -0.32614E-03
        -0.29228E-03
        -0.85291E-04
        -0.33869E-04
        -0.29039E-04
        -0.16789E-05
        -0.48911E-04
        -0.99209E-05
        -0.62495E-05
        -0.76511E-04
        -0.32918E-04
        -0.68232E-04
        -0.18836E-04
        -0.35186E-03
        -0.12366E-03
        -0.25507E-05
        -0.34340E-03
        -0.12239E-04
        -0.11652E-05
        -0.10181E-05
        -0.20865E-04
        -0.76036E-06
        -0.15613E-04
        -0.78219E-05
        -0.26223E-05
        -0.18618E-05
        -0.31036E-04
        -0.18506E-05
        -0.12323E-06
        -0.41526E-06
        -0.10071E-05
        -0.30587E-04
        -0.14221E-04
        -0.97661E-06
        -0.59900E-05
        -0.45052E-05
        -0.97969E-06
        -0.94815E-05
        -0.34464E-04
        -0.19856E-03
        -0.15479E-03
        -0.11974E-03
        -0.64528E-04
        -0.38832E-05
        -0.16730E-04
        -0.26060E-04
        -0.43123E-04
        -0.17990E-03
        -0.60933E-04
        -0.26571E-04
        -0.41850E-04
        -0.58322E-04
        -0.62848E-04
        -0.33331E-06
        -0.97487E-04
        -0.20026E-03
        -0.10851E-02
        -0.18109E-02
        -0.30151E-02
        -0.43380E-02
        -0.41607E-02
        -0.31745E-02
        -0.29165E-02
        -0.28543E-02
        -0.11258E-02
        -0.12264E-03
        -0.19428E-04
        -0.14386E-04
        -0.29615E-05
        -0.22073E-03
        -0.88562E-03
        -0.17139E-02
        -0.29000E-02
        -0.35652E-02
        -0.27491E-02
        -0.24574E-02
        -0.24407E-02
        -0.12078E-02
        -0.32543E-03
        -0.29151E-03
        -0.85398E-04
        -0.33881E-04
        -0.29068E-04
        -0.17036E-05
        -0.48922E-04
        -0.99369E-05
        -0.62660E-05
        -0.76766E-04
        -0.33037E-04
        -0.68730E-04
        -0.18858E-04
        -0.35180E-03
        -0.12373E-03
        -0.25508E-05
        -0.34428E-03
        -0.12241E-04
        -0.11867E-05
        -0.10149E-05
        -0.20896E-04
        -0.75114E-06
        -0.15692E-04
        -0.78352E-05
        -0.26268E-05
        -0.18581E-05
        -0.31303E-04
        -0.18404E-05
        -0.12638E-06
        -0.42174E-06
        -0.98898E-06
        -0.30700E-04
        -0.14223E-04
        -0.96959E-06
        -0.60164E-05
        -0.45199E-05
        -0.96101E-06
        -0.94938E-05
        -0.34459E-04
        -0.19918E-03
        -0.15547E-03
        -0.12004E-03
        -0.64648E-04
        -0.38537E-05
        -0.16756E-04
        -0.26111E-04
        -0.43149E-04
        -0.17992E-03
        -0.60954E-04
        -0.26539E-04
        -0.41739E-04
        -0.58165E-04
        -0.62791E-04
        -0.32305E-06
        -0.97304E-04
        -0.20029E-03
        -0.10855E-02
        -0.18110E-02
        -0.30144E-02
        -0.43351E-02
        -0.41572E-02
        -0.31726E-02
        -0.29153E-02
        -0.28527E-02
        -0.11254E-02
        -0.12278E-03
        -0.19429E-04
        -0.14444E-04
        -0.29120E-05
        -0.22099E-03
        -0.88658E-03
        -0.17148E-02
        -0.29000E-02
        -0.35648E-02
        -0.27487E-02
        -0.24572E-02
        -0.24394E-02
        -0.12061E-02
        -0.32472E-03
        -0.29074E-03
        -0.85503E-04
        -0.33894E-04
        -0.29097E-04
        -0.17284E-05
        -0.48934E-04
        -0.99527E-05
        -0.62814E-05
        -0.77021E-04
        -0.33156E-04
        -0.69222E-04
        -0.18881E-04
        -0.35174E-03
        -0.12379E-03
        -0.25511E-05
        -0.34516E-03
        -0.12243E-04
        -0.12087E-05
        -0.10117E-05
        -0.20927E-04
        -0.74148E-06
        -0.15773E-04
        -0.78469E-05
        -0.26337E-05
        -0.18529E-05
        -0.31561E-04
        -0.18278E-05
        -0.12994E-06
        -0.42975E-06
        -0.96739E-06
        -0.30801E-04
        -0.14223E-04
        -0.96046E-06
        -0.60427E-05
        -0.45345E-05
        -0.94236E-06
        -0.95063E-05
        -0.34456E-04
        -0.19980E-03
        -0.15616E-03
        -0.12036E-03
        -0.64786E-04
        -0.38177E-05
        -0.16776E-04
        -0.26181E-04
        -0.43191E-04
        -0.17997E-03
        -0.60980E-04
        -0.26510E-04
        -0.41630E-04
        -0.58006E-04
        -0.62739E-04
        -0.31288E-06
        -0.97121E-04
        -0.20031E-03
        -0.10859E-02
        -0.18110E-02
        -0.30136E-02
        -0.43321E-02
        -0.41537E-02
        -0.31707E-02
        -0.29141E-02
        -0.28511E-02
        -0.11250E-02
        -0.12295E-03
        -0.19432E-04
        -0.14501E-04
        -0.28628E-05
        -0.22127E-03
        -0.88767E-03
        -0.17159E-02
        -0.28999E-02
        -0.35643E-02
        -0.27483E-02
        -0.24570E-02
        -0.24382E-02
        -0.12043E-02
        -0.32400E-03
        -0.28998E-03
        -0.85603E-04
        -0.33902E-04
        -0.29126E-04
        -0.17537E-05
        -0.48945E-04
        -0.99684E-05
        -0.62953E-05
        -0.77264E-04
        -0.33276E-04
        -0.69704E-04
        -0.18907E-04
        -0.35168E-03
        -0.12385E-03
        -0.25520E-05
        -0.34603E-03
        -0.12246E-04
        -0.12314E-05
        -0.10086E-05
        -0.20960E-04
        -0.73168E-06
        -0.15854E-04
        -0.78581E-05
        -0.26417E-05
        -0.18472E-05
        -0.31814E-04
        -0.18143E-05
        -0.13381E-06
        -0.43869E-06
        -0.94456E-06
        -0.30897E-04
        -0.14222E-04
        -0.95035E-06
        -0.60697E-05
        -0.45499E-05
        -0.92380E-06
        -0.95201E-05
        -0.34456E-04
        -0.20042E-03
        -0.15687E-03
        -0.12069E-03
        -0.64927E-04
        -0.37798E-05
        -0.16794E-04
        -0.26257E-04
        -0.43244E-04
        -0.18003E-03
        -0.61012E-04
        -0.26486E-04
        -0.41526E-04
        -0.57853E-04
        -0.62686E-04
        -0.30289E-06
        -0.96938E-04
        -0.20033E-03
        -0.10863E-02
        -0.18110E-02
        -0.30129E-02
        -0.43292E-02
        -0.41501E-02
        -0.31687E-02
        -0.29129E-02
        -0.28495E-02
        -0.11247E-02
        -0.12313E-03
        -0.19438E-04
        -0.14558E-04
        -0.28141E-05
        -0.22156E-03
        -0.88880E-03
        -0.17170E-02
        -0.28998E-02
        -0.35639E-02
        -0.27480E-02
        -0.24569E-02
        -0.24370E-02
        -0.12026E-02
        -0.32329E-03
        -0.28921E-03
        -0.85695E-04
        -0.33900E-04
        -0.29154E-04
        -0.17798E-05
        -0.48957E-04
        -0.99849E-05
        -0.63061E-05
        -0.77486E-04
        -0.33399E-04
        -0.70167E-04
        -0.18938E-04
        -0.35165E-03
        -0.12394E-03
        -0.25559E-05
        -0.34693E-03
        -0.12250E-04
        -0.12549E-05
        -0.10055E-05
        -0.20992E-04
        -0.72194E-06
        -0.15935E-04
        -0.78697E-05
        -0.26498E-05
        -0.18416E-05
        -0.32062E-04
        -0.18008E-05
        -0.13845E-06
        -0.44830E-06
        -0.92158E-06
        -0.30990E-04
        -0.14219E-04
        -0.93959E-06
        -0.60976E-05
        -0.45660E-05
        -0.90536E-06
        -0.95346E-05
        -0.34458E-04
        -0.20106E-03
        -0.15758E-03
        -0.12101E-03
        -0.65074E-04
        -0.37412E-05
        -0.16810E-04
        -0.26333E-04
        -0.43301E-04
        -0.18010E-03
        -0.61062E-04
        -0.26477E-04
        -0.41439E-04
        -0.57705E-04
        -0.62632E-04
        -0.29293E-06
        -0.96756E-04
        -0.20035E-03
        -0.10867E-02
        -0.18110E-02
        -0.30122E-02
        -0.43262E-02
        -0.41466E-02
        -0.31668E-02
        -0.29117E-02
        -0.28479E-02
        -0.11243E-02
        -0.12332E-03
        -0.19443E-04
        -0.14616E-04
        -0.27657E-05
        -0.22185E-03
        -0.88993E-03
        -0.17180E-02
        -0.28997E-02
        -0.35634E-02
        -0.27477E-02
        -0.24567E-02
        -0.24357E-02
        -0.12009E-02
        -0.32258E-03
        -0.28845E-03
        -0.85784E-04
        -0.33895E-04
        -0.29182E-04
        -0.18064E-05
        -0.48971E-04
        -0.10001E-04
        -0.63145E-05
        -0.77696E-04
        -0.33523E-04
        -0.70620E-04
        -0.18972E-04
        -0.35161E-03
        -0.12402E-03
        -0.25605E-05
        -0.34781E-03
        -0.12255E-04
        -0.12789E-05
        -0.10023E-05
        -0.21025E-04
        -0.71227E-06
        -0.16017E-04
        -0.78814E-05
        -0.26577E-05
        -0.18362E-05
        -0.32308E-04
        -0.17874E-05
        -0.14336E-06
        -0.45827E-06
        -0.89881E-06
        -0.31083E-04
        -0.14216E-04
        -0.92842E-06
        -0.61260E-05
        -0.45828E-05
        -0.88694E-06
        -0.95504E-05
        -0.34463E-04
        -0.20170E-03
        -0.15829E-03
        -0.12135E-03
        -0.65220E-04
        -0.37028E-05
        -0.16827E-04
        -0.26410E-04
        -0.43360E-04
        -0.18018E-03
        -0.61119E-04
        -0.26473E-04
        -0.41360E-04
        -0.57560E-04
        -0.62581E-04
        -0.28315E-06
        -0.96574E-04
        -0.20038E-03
        -0.10871E-02
        -0.18111E-02
        -0.30114E-02
        -0.43233E-02
        -0.41430E-02
        -0.31649E-02
        -0.29105E-02
        -0.28463E-02
        -0.11240E-02
        -0.12350E-03
        -0.19449E-04
        -0.14674E-04
        -0.27177E-05
        -0.22214E-03
        -0.89106E-03
        -0.17190E-02
        -0.28995E-02
        -0.35629E-02
        -0.27474E-02
        -0.24566E-02
        -0.24344E-02
        -0.11992E-02
        -0.32188E-03
        -0.28768E-03
        -0.85872E-04
        -0.33891E-04
        -0.29210E-04
        -0.18333E-05
        -0.48983E-04
        -0.10017E-04
        -0.63232E-05
        -0.77907E-04
        -0.33647E-04
        -0.71073E-04
        -0.19004E-04
        -0.35158E-03
        -0.12410E-03
        -0.25657E-05
        -0.34872E-03
        -0.12260E-04
        -0.13033E-05
        -0.99910E-06
        -0.21057E-04
        -0.70259E-06
        -0.16099E-04
        -0.78933E-05
        -0.26656E-05
        -0.18309E-05
        -0.32555E-04
        -0.17741E-05
        -0.14848E-06
        -0.46823E-06
        -0.87637E-06
        -0.31176E-04
        -0.14213E-04
        -0.91746E-06
        -0.61544E-05
        -0.45994E-05
        -0.86862E-06
        -0.95649E-05
        -0.34467E-04
        -0.20235E-03
        -0.15902E-03
        -0.12168E-03
        -0.65367E-04
        -0.36649E-05
        -0.16843E-04
        -0.26487E-04
        -0.43421E-04
        -0.18026E-03
        -0.61172E-04
        -0.26470E-04
        -0.41282E-04
        -0.57417E-04
        -0.62533E-04
        -0.27349E-06
        -0.96392E-04
        -0.20040E-03
        -0.10874E-02
        -0.18111E-02
        -0.30107E-02
        -0.43203E-02
        -0.41395E-02
        -0.31630E-02
        -0.29093E-02
        -0.28447E-02
        -0.11236E-02
        -0.12368E-03
        -0.19455E-04
        -0.14734E-04
        -0.26703E-05
        -0.22243E-03
        -0.89219E-03
        -0.17201E-02
        -0.28994E-02
        -0.35625E-02
        -0.27472E-02
        -0.24565E-02
        -0.24331E-02
        -0.11974E-02
        -0.32117E-03
        -0.28692E-03
        -0.85958E-04
        -0.33886E-04
        -0.29238E-04
        -0.18602E-05
        -0.48995E-04
        -0.10032E-04
        -0.63317E-05
        -0.78117E-04
        -0.33772E-04
        -0.71527E-04
        -0.19038E-04
        -0.35154E-03
        -0.12419E-03
        -0.25702E-05
        -0.34961E-03
        -0.12264E-04
        -0.13280E-05
        -0.99590E-06
        -0.21089E-04
        -0.69292E-06
        -0.16181E-04
        -0.79048E-05
        -0.26732E-05
        -0.18255E-05
        -0.32803E-04
        -0.17609E-05
        -0.15355E-06
        -0.47820E-06
        -0.85429E-06
        -0.31269E-04
        -0.14209E-04
        -0.90649E-06
        -0.61826E-05
        -0.46161E-05
        -0.85053E-06
        -0.95808E-05
        -0.34472E-04
        -0.20300E-03
        -0.15974E-03
        -0.12201E-03
        -0.65513E-04
        -0.36272E-05
        -0.16860E-04
        -0.26564E-04
        -0.43480E-04
        -0.18034E-03
        -0.61229E-04
        -0.26468E-04
        -0.41202E-04
        -0.57272E-04
        -0.62480E-04
        -0.26404E-06
        -0.96208E-04
        -0.20042E-03
        -0.10878E-02
        -0.18111E-02
        -0.30100E-02
        -0.43173E-02
        -0.41359E-02
        -0.31610E-02
        -0.29081E-02
        -0.28430E-02
        -0.11232E-02
        -0.12386E-03
        -0.19461E-04
        -0.14793E-04
        -0.26233E-05
        -0.22272E-03
        -0.89333E-03
        -0.17211E-02
        -0.28992E-02
        -0.35620E-02
        -0.27469E-02
        -0.24564E-02
        -0.24318E-02
        -0.11957E-02
        -0.32047E-03
        -0.28615E-03
        -0.86044E-04
        -0.33880E-04
        -0.29266E-04
        -0.18873E-05
        -0.49008E-04
        -0.10048E-04
        -0.63411E-05
        -0.78326E-04
        -0.33898E-04
        -0.71982E-04
        -0.19072E-04
        -0.35150E-03
        -0.12427E-03
        -0.25752E-05
        -0.35051E-03
        -0.12269E-04
        -0.13529E-05
        -0.99273E-06
        -0.21121E-04
        -0.68325E-06
        -0.16263E-04
        -0.79160E-05
        -0.26812E-05
        -0.18203E-05
        -0.33050E-04
        -0.17478E-05
        -0.15879E-06
        -0.48812E-06
        -0.83252E-06
        -0.31362E-04
        -0.14206E-04
        -0.89565E-06
        -0.62110E-05
        -0.46329E-05
        -0.83254E-06
        -0.95960E-05
        -0.34478E-04
        -0.20365E-03
        -0.16046E-03
        -0.12233E-03
        -0.65659E-04
        -0.35897E-05
        -0.16876E-04
        -0.26640E-04
        -0.43539E-04
        -0.18043E-03
        -0.61286E-04
        -0.26465E-04
        -0.41124E-04
        -0.57128E-04
        -0.62431E-04
        -0.25472E-06
        -0.96024E-04
        -0.20043E-03
        -0.10882E-02
        -0.18111E-02
        -0.30093E-02
        -0.43144E-02
        -0.41323E-02
        -0.31591E-02
        -0.29069E-02
        -0.28414E-02
        -0.11229E-02
        -0.12404E-03
        -0.19467E-04
        -0.14852E-04
        -0.25766E-05
        -0.22301E-03
        -0.89446E-03
        -0.17221E-02
        -0.28990E-02
        -0.35615E-02
        -0.27466E-02
        -0.24563E-02
        -0.24305E-02
        -0.11940E-02
        -0.31977E-03
        -0.28539E-03
        -0.86131E-04
        -0.33875E-04
        -0.29294E-04
        -0.19148E-05
        -0.49020E-04
        -0.10064E-04
        -0.63496E-05
        -0.78536E-04
        -0.34024E-04
        -0.72437E-04
        -0.19106E-04
        -0.35147E-03
        -0.12435E-03
        -0.25802E-05
        -0.35141E-03
        -0.12274E-04
        -0.13782E-05
        -0.98949E-06
        -0.21153E-04
        -0.67374E-06
        -0.16346E-04
        -0.79271E-05
        -0.26892E-05
        -0.18151E-05
        -0.33299E-04
        -0.17348E-05
        -0.16400E-06
        -0.49810E-06
        -0.81101E-06
        -0.31454E-04
        -0.14203E-04
        -0.88484E-06
        -0.62394E-05
        -0.46499E-05
        -0.81464E-06
        -0.96114E-05
        -0.34481E-04
        -0.20430E-03
        -0.16118E-03
        -0.12267E-03
        -0.65806E-04
        -0.35527E-05
        -0.16892E-04
        -0.26717E-04
        -0.43599E-04
        -0.18051E-03
        -0.61340E-04
        -0.26464E-04
        -0.41046E-04
        -0.56986E-04
        -0.62381E-04
        -0.24559E-06
        -0.95842E-04
        -0.20045E-03
        -0.10885E-02
        -0.18112E-02
        -0.30085E-02
        -0.43114E-02
        -0.41288E-02
        -0.31572E-02
        -0.29057E-02
        -0.28397E-02
        -0.11225E-02
        -0.12422E-03
        -0.19473E-04
        -0.14911E-04
        -0.25302E-05
        -0.22330E-03
        -0.89559E-03
        -0.17231E-02
        -0.28989E-02
        -0.35611E-02
        -0.27464E-02
        -0.24562E-02
        -0.24292E-02
        -0.11923E-02
        -0.31908E-03
        -0.28463E-03
        -0.86217E-04
        -0.33869E-04
        -0.29322E-04
        -0.19426E-05
        -0.49033E-04
        -0.10080E-04
        -0.63582E-05
        -0.78745E-04
        -0.34150E-04
        -0.72892E-04
        -0.19141E-04
        -0.35143E-03
        -0.12444E-03
        -0.25846E-05
        -0.35231E-03
        -0.12279E-04
        -0.14037E-05
        -0.98622E-06
        -0.21185E-04
        -0.66433E-06
        -0.16429E-04
        -0.79384E-05
        -0.26970E-05
        -0.18099E-05
        -0.33547E-04
        -0.17217E-05
        -0.16945E-06
        -0.50806E-06
        -0.78985E-06
        -0.31547E-04
        -0.14200E-04
        -0.87399E-06
        -0.62677E-05
        -0.46667E-05
        -0.79695E-06
        -0.96273E-05
        -0.34486E-04
        -0.20495E-03
        -0.16191E-03
        -0.12300E-03
        -0.65954E-04
        -0.35156E-05
        -0.16909E-04
        -0.26795E-04
        -0.43660E-04
        -0.18058E-03
        -0.61398E-04
        -0.26461E-04
        -0.40968E-04
        -0.56843E-04
        -0.62328E-04
        -0.23664E-06
        -0.95659E-04
        -0.20047E-03
        -0.10889E-02
        -0.18112E-02
        -0.30078E-02
        -0.43085E-02
        -0.41252E-02
        -0.31552E-02
        -0.29045E-02
        -0.28381E-02
        -0.11221E-02
        -0.12440E-03
        -0.19479E-04
        -0.14970E-04
        -0.24843E-05
        -0.22358E-03
        -0.89673E-03
        -0.17242E-02
        -0.28987E-02
        -0.35606E-02
        -0.27461E-02
        -0.24561E-02
        -0.24279E-02
        -0.11906E-02
        -0.31839E-03
        -0.28388E-03
        -0.86303E-04
        -0.33865E-04
        -0.29350E-04
        -0.19706E-05
        -0.49045E-04
        -0.10096E-04
        -0.63678E-05
        -0.78953E-04
        -0.34276E-04
        -0.73349E-04
        -0.19175E-04
        -0.35140E-03
        -0.12452E-03
        -0.25895E-05
        -0.35321E-03
        -0.12283E-04
        -0.14295E-05
        -0.98301E-06
        -0.21217E-04
        -0.65499E-06
        -0.16512E-04
        -0.79496E-05
        -0.27049E-05
        -0.18048E-05
        -0.33797E-04
        -0.17087E-05
        -0.17484E-06
        -0.51799E-06
        -0.76904E-06
        -0.31640E-04
        -0.14196E-04
        -0.86332E-06
        -0.62962E-05
        -0.46837E-05
        -0.77936E-06
        -0.96425E-05
        -0.34490E-04
        -0.20561E-03
        -0.16264E-03
        -0.12332E-03
        -0.66101E-04
        -0.34787E-05
        -0.16925E-04
        -0.26871E-04
        -0.43720E-04
        -0.18067E-03
        -0.61456E-04
        -0.26458E-04
        -0.40889E-04
        -0.56700E-04
        -0.62279E-04
        -0.22791E-06
        -0.95475E-04
        -0.20049E-03
        -0.10893E-02
        -0.18112E-02
        -0.30071E-02
        -0.43055E-02
        -0.41216E-02
        -0.31533E-02
        -0.29033E-02
        -0.28364E-02
        -0.11218E-02
        -0.12457E-03
        -0.19485E-04
        -0.15029E-04
        -0.24390E-05
        -0.22387E-03
        -0.89787E-03
        -0.17252E-02
        -0.28986E-02
        -0.35602E-02
        -0.27459E-02
        -0.24560E-02
        -0.24266E-02
        -0.11889E-02
        -0.31770E-03
        -0.28312E-03
        -0.86389E-04
        -0.33860E-04
        -0.29377E-04
        -0.19987E-05
        -0.49057E-04
        -0.10112E-04
        -0.63765E-05
        -0.79162E-04
        -0.34403E-04
        -0.73805E-04
        -0.19209E-04
        -0.35137E-03
        -0.12460E-03
        -0.25938E-05
        -0.35412E-03
        -0.12288E-04
        -0.14557E-05
        -0.97983E-06
        -0.21250E-04
        -0.64564E-06
        -0.16595E-04
        -0.79607E-05
        -0.27126E-05
        -0.17998E-05
        -0.34048E-04
        -0.16957E-05
        -0.18042E-06
        -0.52783E-06
        -0.74860E-06
        -0.31733E-04
        -0.14193E-04
        -0.85262E-06
        -0.63247E-05
        -0.47007E-05
        -0.76200E-06
        -0.96583E-05
        -0.34495E-04
        -0.20627E-03
        -0.16338E-03
        -0.12365E-03
        -0.66248E-04
        -0.34421E-05
        -0.16941E-04
        -0.26948E-04
        -0.43781E-04
        -0.18075E-03
        -0.61509E-04
        -0.26456E-04
        -0.40811E-04
        -0.56556E-04
        -0.62229E-04
        -0.21929E-06
        -0.95292E-04
        -0.20051E-03
        -0.10896E-02
        -0.18113E-02
        -0.30064E-02
        -0.43025E-02
        -0.41180E-02
        -0.31513E-02
        -0.29021E-02
        -0.28347E-02
        -0.11214E-02
        -0.12475E-03
        -0.19491E-04
        -0.15089E-04
        -0.23940E-05
        -0.22416E-03
        -0.89901E-03
        -0.17262E-02
        -0.28984E-02
        -0.35597E-02
        -0.27456E-02
        -0.24559E-02
        -0.24253E-02
        -0.11872E-02
        -0.31701E-03
        -0.28236E-03
        -0.86473E-04
        -0.33854E-04
        -0.29405E-04
        -0.20269E-05
        -0.49070E-04
        -0.10128E-04
        -0.63855E-05
        -0.79371E-04
        -0.34531E-04
        -0.74263E-04
        -0.19243E-04
        -0.35133E-03
        -0.12469E-03
        -0.25986E-05
        -0.35502E-03
        -0.12293E-04
        -0.14823E-05
        -0.97661E-06
        -0.21282E-04
        -0.63639E-06
        -0.16679E-04
        -0.79713E-05
        -0.27205E-05
        -0.17948E-05
        -0.34300E-04
        -0.16828E-05
        -0.18593E-06
        -0.53766E-06
        -0.72851E-06
        -0.31826E-04
        -0.14189E-04
        -0.84208E-06
        -0.63531E-05
        -0.47180E-05
        -0.74467E-06
        -0.96735E-05
        -0.34499E-04
        -0.20693E-03
        -0.16411E-03
        -0.12398E-03
        -0.66396E-04
        -0.34057E-05
        -0.16958E-04
        -0.27024E-04
        -0.43842E-04
        -0.18083E-03
        -0.61567E-04
        -0.26453E-04
        -0.40734E-04
        -0.56413E-04
        -0.62178E-04
        -0.21084E-06
        -0.95108E-04
        -0.20052E-03
        -0.10900E-02
        -0.18113E-02
        -0.30056E-02
        -0.42996E-02
        -0.41144E-02
        -0.31494E-02
        -0.29009E-02
        -0.28330E-02
        -0.11210E-02
        -0.12494E-03
        -0.19496E-04
        -0.15148E-04
        -0.23494E-05
        -0.22445E-03
        -0.90015E-03
        -0.17273E-02
        -0.28983E-02
        -0.35592E-02
        -0.27454E-02
        -0.24558E-02
        -0.24240E-02
        -0.11854E-02
        -0.31633E-03
        -0.28160E-03
        -0.86558E-04
        -0.33848E-04
        -0.29433E-04
        -0.20554E-05
        -0.49082E-04
        -0.10144E-04
        -0.63948E-05
        -0.79579E-04
        -0.34660E-04
        -0.74722E-04
        -0.19278E-04
        -0.35130E-03
        -0.12477E-03
        -0.26026E-05
        -0.35593E-03
        -0.12297E-04
        -0.15092E-05
        -0.97333E-06
        -0.21314E-04
        -0.62731E-06
        -0.16762E-04
        -0.79816E-05
        -0.27283E-05
        -0.17898E-05
        -0.34552E-04
        -0.16698E-05
        -0.19167E-06
        -0.54746E-06
        -0.70865E-06
        -0.31917E-04
        -0.14186E-04
        -0.83155E-06
        -0.63816E-05
        -0.47352E-05
        -0.72753E-06
        -0.96889E-05
        -0.34503E-04
        -0.20760E-03
        -0.16484E-03
        -0.12430E-03
        -0.66542E-04
        -0.33699E-05
        -0.16975E-04
        -0.27102E-04
        -0.43903E-04
        -0.18092E-03
        -0.61625E-04
        -0.26452E-04
        -0.40657E-04
        -0.56271E-04
        -0.62128E-04
        -0.20262E-06
        -0.94924E-04
        -0.20054E-03
        -0.10903E-02
        -0.18113E-02
        -0.30049E-02
        -0.42966E-02
        -0.41107E-02
        -0.31474E-02
        -0.28997E-02
        -0.28313E-02
        -0.11207E-02
        -0.12512E-03
        -0.19501E-04
        -0.15206E-04
        -0.23054E-05
        -0.22473E-03
        -0.90129E-03
        -0.17283E-02
        -0.28981E-02
        -0.35587E-02
        -0.27451E-02
        -0.24556E-02
        -0.24227E-02
        -0.11837E-02
        -0.31565E-03
        -0.28085E-03
        -0.86643E-04
        -0.33843E-04
        -0.29461E-04
        -0.20843E-05
        -0.49095E-04
        -0.10160E-04
        -0.64038E-05
        -0.79785E-04
        -0.34789E-04
        -0.75182E-04
        -0.19312E-04
        -0.35126E-03
        -0.12485E-03
        -0.26073E-05
        -0.35683E-03
        -0.12302E-04
        -0.15367E-05
        -0.97005E-06
        -0.21346E-04
        -0.61871E-06
        -0.16846E-04
        -0.79916E-05
        -0.27363E-05
        -0.17847E-05
        -0.34806E-04
        -0.16571E-05
        -0.19745E-06
        -0.55728E-06
        -0.68913E-06
        -0.32002E-04
        -0.14182E-04
        -0.82093E-06
        -0.64099E-05
        -0.47525E-05
        -0.71058E-06
        -0.97050E-05
        -0.34508E-04
        -0.20828E-03
        -0.16558E-03
        -0.12461E-03
        -0.66687E-04
        -0.33338E-05
        -0.16993E-04
        -0.27179E-04
        -0.43964E-04
        -0.18100E-03
        -0.61679E-04
        -0.26449E-04
        -0.40578E-04
        -0.56128E-04
        -0.62080E-04
        -0.19455E-06
        -0.94741E-04
        -0.20055E-03
        -0.10907E-02
        -0.18113E-02
        -0.30042E-02
        -0.42936E-02
        -0.41071E-02
        -0.31455E-02
        -0.28985E-02
        -0.28295E-02
        -0.11204E-02
        -0.12530E-03
        -0.19502E-04
        -0.15265E-04
        -0.22619E-05
        -0.22502E-03
        -0.90243E-03
        -0.17293E-02
        -0.28980E-02
        -0.35583E-02
        -0.27449E-02
        -0.24555E-02
        -0.24214E-02
        -0.11820E-02
        -0.31497E-03
        -0.28009E-03
        -0.86728E-04
        -0.33838E-04
        -0.29489E-04
        -0.21133E-05
        -0.49107E-04
        -0.10175E-04
        -0.64126E-05
        -0.79991E-04
        -0.34920E-04
        -0.75643E-04
        -0.19346E-04
        -0.35123E-03
        -0.12494E-03
        -0.26119E-05
        -0.35774E-03
        -0.12307E-04
        -0.15649E-05
        -0.96675E-06
        -0.21379E-04
        -0.61053E-06
        -0.16930E-04
        -0.80013E-05
        -0.27442E-05
        -0.17799E-05
        -0.35060E-04
        -0.16443E-05
        -0.20356E-06
        -0.56708E-06
        -0.66994E-06
        -0.32083E-04
        -0.14178E-04
        -0.81054E-06
        -0.64383E-05
        -0.47697E-05
        -0.69369E-06
        -0.97203E-05
        -0.34512E-04
        -0.20896E-03
        -0.16631E-03
        -0.12491E-03
        -0.66830E-04
        -0.32980E-05
        -0.17011E-04
        -0.27256E-04
        -0.44026E-04
        -0.18109E-03
        -0.61737E-04
        -0.26447E-04
        -0.40501E-04
        -0.55985E-04
        -0.62028E-04
        -0.18659E-06
        -0.94557E-04
        -0.20057E-03
        -0.10911E-02
        -0.18114E-02
        -0.30034E-02
        -0.42906E-02
        -0.41035E-02
        -0.31436E-02
        -0.28973E-02
        -0.28276E-02
        -0.11201E-02
        -0.12549E-03
        -0.19501E-04
        -0.15324E-04
        -0.22185E-05
        -0.22530E-03
        -0.90357E-03
        -0.17304E-02
        -0.28978E-02
        -0.35578E-02
        -0.27446E-02
        -0.24554E-02
        -0.24201E-02
        -0.11803E-02
        -0.31430E-03
        -0.27934E-03
        -0.86814E-04
        -0.33833E-04
        -0.29518E-04
        -0.21425E-05
        -0.49121E-04
        -0.10191E-04
        -0.64225E-05
        -0.80197E-04
        -0.35053E-04
        -0.76104E-04
        -0.19381E-04
        -0.35120E-03
        -0.12502E-03
        -0.26159E-05
        -0.35865E-03
        -0.12312E-04
        -0.15935E-05
        -0.96349E-06
        -0.21411E-04
        -0.60262E-06
        -0.17014E-04
        -0.80111E-05
        -0.27516E-05
        -0.17753E-05
        -0.35316E-04
        -0.16319E-05
        -0.20961E-06
        -0.57655E-06
        -0.65126E-06
        -0.32162E-04
        -0.14175E-04
        -0.80041E-06
        -0.64669E-05
        -0.47873E-05
        -0.67718E-06
        -0.97354E-05
        -0.34514E-04
        -0.20965E-03
        -0.16704E-03
        -0.12520E-03
        -0.66969E-04
        -0.32630E-05
        -0.17031E-04
        -0.27332E-04
        -0.44085E-04
        -0.18117E-03
        -0.61794E-04
        -0.26444E-04
        -0.40424E-04
        -0.55843E-04
        -0.61980E-04
        -0.17885E-06
        -0.94371E-04
        -0.20059E-03
        -0.10914E-02
        -0.18114E-02
        -0.30028E-02
        -0.42876E-02
        -0.40999E-02
        -0.31417E-02
        -0.28960E-02
        -0.28257E-02
        -0.11198E-02
        -0.12567E-03
        -0.19497E-04
        -0.15383E-04
        -0.21756E-05
        -0.22559E-03
        -0.90471E-03
        -0.17314E-02
        -0.28977E-02
        -0.35573E-02
        -0.27443E-02
        -0.24553E-02
        -0.24187E-02
        -0.11786E-02
        -0.31363E-03
        -0.27859E-03
        -0.87659E-04
        -0.34137E-04
        -0.29818E-04
        -0.21896E-05
        -0.49574E-04
        -0.10295E-04
        -0.64912E-05
        -0.81097E-04
        -0.35484E-04
        -0.77207E-04
        -0.19586E-04
        -0.35425E-03
        -0.12618E-03
        -0.26433E-05
        -0.36276E-03
        -0.12426E-04
        -0.16348E-05
        -0.96863E-06
        -0.21630E-04
        -0.60090E-06
        -0.17239E-04
        -0.80896E-05
        -0.27779E-05
        -0.17886E-05
        -0.35876E-04
        -0.16379E-05
        -0.21714E-06
        -0.58906E-06
        -0.64204E-06
        -0.32535E-04
        -0.14301E-04
        -0.80031E-06
        -0.65509E-05
        -0.48466E-05
        -0.66833E-06
        -0.98273E-05
        -0.34803E-04
        -0.21218E-03
        -0.16923E-03
        -0.12660E-03
        -0.67694E-04
        -0.32654E-05
        -0.17208E-04
        -0.27611E-04
        -0.44491E-04
        -0.18274E-03
        -0.62349E-04
        -0.26652E-04
        -0.40689E-04
        -0.56188E-04
        -0.62471E-04
        -0.17286E-06
        -0.95055E-04
        -0.20253E-03
        -0.11020E-02
        -0.18282E-02
        -0.30306E-02
        -0.43268E-02
        -0.41373E-02
        -0.31712E-02
        -0.29238E-02
        -0.28526E-02
        -0.11307E-02
        -0.12700E-03
        -0.19659E-04
        -0.15571E-04
        -0.21538E-05
        -0.22774E-03
        -0.91343E-03
        -0.17479E-02
        -0.29251E-02
        -0.35907E-02
        -0.27689E-02
        -0.24770E-02
        -0.24394E-02
        -0.11877E-02
        -0.31583E-03
        -0.28038E-03
        -0.19633E-03
        -0.77111E-04
        -0.66598E-04
        -0.49716E-05
        -0.10326E-03
        -0.21864E-04
        -0.14618E-04
        -0.18028E-03
        -0.79211E-04
        -0.17098E-03
        -0.42649E-04
        -0.71256E-03
        -0.26126E-03
        -0.57110E-05
        -0.73858E-03
        -0.27879E-04
        -0.36937E-05
        -0.21687E-05
        -0.47298E-04
        -0.13138E-05
        -0.35731E-04
        -0.17161E-04
        -0.57615E-05
        -0.39677E-05
        -0.81051E-04
        -0.36908E-05
        -0.48489E-06
        -0.13330E-05
        -0.14389E-05
        -0.73255E-04
        -0.32093E-04
        -0.17844E-05
        -0.14798E-04
        -0.10922E-04
        -0.13058E-05
        -0.20814E-04
        -0.73716E-04
        -0.45117E-03
        -0.37021E-03
        -0.27879E-03
        -0.14505E-03
        -0.70673E-05
        -0.37367E-04
        -0.58167E-04
        -0.93112E-04
        -0.36135E-03
        -0.12966E-03
        -0.56725E-04
        -0.87455E-04
        -0.11973E-03
        -0.12700E-03
        -0.35332E-06
        -0.15081E-03
        -0.32088E-03
        -0.17471E-02
        -0.29130E-02
        -0.48246E-02
        -0.69291E-02
        -0.67761E-02
        -0.52814E-02
        -0.48522E-02
        -0.46806E-02
        -0.18587E-02
        -0.20780E-03
        -0.32771E-04
        -0.26180E-04
        -0.34763E-05
        -0.36411E-03
        -0.14520E-02
        -0.27517E-02
        -0.46038E-02
        -0.56653E-02
        -0.44531E-02
        -0.40167E-02
        -0.39292E-02
        -0.19253E-02
        -0.50848E-03
        -0.44798E-03
  
SCALARS                      strain_zz  double 1
LOOKUP_TABLE default
         0.66006E+01
         0.65053E+01
         0.65657E+01
         0.66741E+01
        -0.27130E-08
        -0.30422E-08
        -0.29130E-08
        -0.26463E-08
         0.65016E+01
         0.65341E+01
        -0.27357E-08
        -0.26474E-08
         0.63671E+01
         0.63620E+01
        -0.32505E-08
        -0.30563E-08
         0.66583E+01
         0.63695E+01
        -0.24018E-08
        -0.26640E-08
         0.62632E+01
         0.61807E+01
         0.63119E+01
        -0.32217E-08
        -0.28135E-08
        -0.29053E-08
         0.61839E+01
         0.60634E+01
        -0.30907E-08
        -0.26065E-08
         0.66530E+01
         0.65274E+01
         0.67747E+01
        -0.26375E-08
        -0.24520E-08
        -0.23839E-08
         0.65803E+01
         0.64203E+01
        -0.27904E-08
        -0.25462E-08
         0.65169E+01
         0.63933E+01
        -0.24117E-08
        -0.21350E-08
         0.66214E+01
         0.66678E+01
        -0.26429E-08
        -0.29530E-08
         0.62943E+01
        -0.25818E-08
         0.66588E+01
        -0.30338E-08
         0.61492E+01
        -0.27265E-08
         0.61113E+01
        -0.26153E-08
         0.61119E+01
         0.62466E+01
        -0.26647E-08
        -0.25951E-08
         0.66505E+01
         0.66021E+01
        -0.26720E-08
        -0.30206E-08
         0.66806E+01
        -0.25783E-08
         0.66232E+01
        -0.28139E-08
         0.64716E+01
         0.64568E+01
        -0.27086E-08
        -0.28381E-08
         0.64228E+01
        -0.28620E-08
         0.60206E+01
        -0.22611E-08
         0.59995E+01
        -0.21948E-08
         0.60100E+01
        -0.23142E-08
         0.60682E+01
         0.61288E+01
        -0.22049E-08
        -0.22987E-08
         0.62508E+01
        -0.21410E-08
         0.66188E+01
        -0.28076E-08
         0.65612E+01
        -0.28735E-08
         0.65138E+01
         0.64884E+01
        -0.27595E-08
        -0.27917E-08
         0.65205E+01
        -0.25357E-08
         0.65431E+01
        -0.24995E-08
         0.65225E+01
        -0.26757E-08
         0.65149E+01
         0.65359E+01
        -0.26240E-08
        -0.27009E-08
         0.64001E+01
         0.64540E+01
        -0.20372E-08
        -0.19161E-08
         0.63894E+01
        -0.19453E-08
         0.64516E+01
        -0.18652E-08
         0.63899E+01
        -0.18392E-08
         0.62530E+01
        -0.17381E-08
         0.61202E+01
        -0.15441E-08
         0.60408E+01
        -0.13904E-08
         0.60327E+01
        -0.13807E-08
         0.60352E+01
        -0.14973E-08
         0.61214E+01
        -0.15736E-08
         0.62820E+01
        -0.14369E-08
         0.64582E+01
        -0.12952E-08
         0.65619E+01
        -0.12937E-08
         0.66644E+01
        -0.14461E-08
         0.67320E+01
        -0.16489E-08
         0.67292E+01
        -0.17714E-08
         0.65661E+01
        -0.19131E-08
         0.64523E+01
        -0.20496E-08
         0.64123E+01
        -0.18776E-08
         0.64731E+01
        -0.16471E-08
         0.65054E+01
        -0.16420E-08
         0.64524E+01
        -0.17966E-08
         0.64537E+01
        -0.19153E-08
         0.64937E+01
        -0.18176E-08
         0.65458E+01
        -0.17572E-08
        -0.49228E+00
        -0.49401E+00
        -0.49380E+00
        -0.49146E+00
        -0.49531E+00
        -0.49358E+00
        -0.49571E+00
        -0.49469E+00
        -0.49186E+00
        -0.49372E+00
        -0.49657E+00
        -0.49667E+00
        -0.49608E+00
        -0.49611E+00
        -0.49642E+00
        -0.49158E+00
        -0.49206E+00
        -0.49069E+00
        -0.49418E+00
        -0.49363E+00
        -0.49433E+00
        -0.49381E+00
        -0.49473E+00
        -0.49457E+00
        -0.49367E+00
        -0.49375E+00
        -0.49520E+00
        -0.49509E+00
        -0.49597E+00
        -0.49455E+00
        -0.49182E+00
        -0.49404E+00
        -0.49184E+00
        -0.49335E+00
        -0.49682E+00
        -0.49603E+00
        -0.49552E+00
        -0.49605E+00
        -0.49615E+00
        -0.49690E+00
        -0.49723E+00
        -0.49609E+00
        -0.49427E+00
        -0.49459E+00
        -0.49556E+00
        -0.49678E+00
        -0.49580E+00
        -0.49425E+00
        -0.49438E+00
        -0.49559E+00
        -0.49650E+00
        -0.49517E+00
        -0.49688E+00
        -0.49644E+00
        -0.49644E+00
        -0.49624E+00
        -0.49613E+00
        -0.49616E+00
        -0.49636E+00
        -0.49661E+00
        -0.49666E+00
        -0.49658E+00
        -0.49666E+00
        -0.49628E+00
        -0.49622E+00
        -0.49617E+00
        -0.49575E+00
        -0.49538E+00
        -0.49531E+00
        -0.49567E+00
        -0.49670E+00
        -0.49644E+00
        -0.49627E+00
        -0.49638E+00
        -0.49642E+00
        -0.49675E+00
        -0.49625E+00
        -0.49599E+00
         0.11182E-03
         0.41874E-04
         0.40584E-04
         0.32874E-04
         0.11448E-03
         0.69295E-04
         0.47897E-05
         0.81774E-04
         0.58102E-04
         0.70171E-04
         0.21830E-05
         0.35949E-03
         0.21227E-03
         0.15425E-04
         0.38293E-03
         0.55858E-04
         0.24763E-04
         0.20801E-04
         0.23300E-04
         0.90626E-05
         0.22024E-03
         0.20208E-03
         0.17727E-03
         0.91327E-05
         0.18924E-04
         0.18366E-05
        -0.38098E-05
        -0.38996E-04
        -0.14313E-04
         0.27131E-04
         0.41679E-04
         0.99752E-05
         0.31032E-04
         0.35692E-04
         0.17190E-03
         0.62380E-04
         0.10725E-03
         0.24855E-03
         0.14379E-03
         0.12874E-03
         0.27250E-03
         0.21953E-03
         0.22442E-03
         0.12805E-03
         0.10201E-03
         0.19766E-03
         0.88001E-04
         0.66818E-04
         0.51709E-04
         0.73982E-04
         0.17288E-03
         0.95118E-04
         0.30507E-02
         0.32273E-02
         0.35076E-02
         0.34785E-02
         0.39685E-02
         0.45822E-02
         0.42147E-02
         0.33435E-02
         0.31698E-02
         0.36144E-02
         0.34687E-02
         0.33709E-02
         0.22984E-02
         0.20885E-02
         0.24985E-02
         0.28535E-02
         0.30767E-02
         0.36731E-02
         0.34024E-02
         0.36084E-02
         0.29279E-02
         0.26337E-02
         0.29852E-02
         0.28526E-02
         0.30331E-02
         0.29935E-02
         0.11101E-03
         0.40898E-04
         0.39639E-04
         0.32034E-04
         0.11325E-03
         0.68177E-04
         0.37642E-05
         0.80851E-04
         0.57209E-04
         0.69450E-04
         0.96536E-06
         0.35805E-03
         0.21119E-03
         0.13975E-04
         0.38233E-03
         0.54901E-04
         0.23697E-04
         0.19898E-04
         0.22165E-04
         0.78181E-05
         0.21904E-03
         0.20084E-03
         0.17597E-03
         0.79487E-05
         0.17899E-04
         0.70695E-06
        -0.49464E-05
        -0.40243E-04
        -0.15559E-04
         0.25913E-04
         0.40746E-04
         0.89002E-05
         0.30072E-04
         0.34815E-04
         0.17078E-03
         0.61225E-04
         0.10608E-03
         0.24793E-03
         0.14313E-03
         0.12778E-03
         0.27145E-03
         0.21838E-03
         0.22315E-03
         0.12681E-03
         0.10079E-03
         0.19636E-03
         0.86815E-04
         0.65685E-04
         0.50556E-04
         0.72787E-04
         0.17152E-03
         0.93801E-04
         0.30463E-02
         0.32236E-02
         0.35055E-02
         0.34765E-02
         0.39650E-02
         0.45768E-02
         0.42088E-02
         0.33393E-02
         0.31658E-02
         0.36097E-02
         0.34650E-02
         0.33689E-02
         0.22960E-02
         0.20865E-02
         0.24971E-02
         0.28529E-02
         0.30762E-02
         0.36726E-02
         0.33998E-02
         0.36057E-02
         0.29251E-02
         0.26314E-02
         0.29812E-02
         0.28468E-02
         0.30277E-02
         0.29882E-02
         0.11138E-03
         0.41109E-04
         0.39882E-04
         0.32313E-04
         0.11346E-03
         0.68410E-04
         0.40450E-05
         0.81276E-04
         0.57503E-04
         0.69974E-04
         0.12118E-05
         0.35830E-03
         0.21159E-03
         0.14032E-04
         0.38349E-03
         0.54774E-04
         0.23710E-04
         0.20108E-04
         0.21906E-04
         0.75586E-05
         0.21888E-03
         0.20074E-03
         0.17512E-03
         0.70937E-05
         0.17624E-04
        -0.85332E-07
        -0.46857E-05
        -0.40428E-04
        -0.16024E-04
         0.25100E-04
         0.40818E-04
         0.86512E-05
         0.30265E-04
         0.35132E-04
         0.17126E-03
         0.61477E-04
         0.10628E-03
         0.24899E-03
         0.14405E-03
         0.12823E-03
         0.27178E-03
         0.21811E-03
         0.22250E-03
         0.12599E-03
         0.10056E-03
         0.19652E-03
         0.87033E-04
         0.65930E-04
         0.50719E-04
         0.72943E-04
         0.17169E-03
         0.93881E-04
         0.30447E-02
         0.32227E-02
         0.35061E-02
         0.34771E-02
         0.39641E-02
         0.45741E-02
         0.42058E-02
         0.33380E-02
         0.31647E-02
         0.36081E-02
         0.34641E-02
         0.33691E-02
         0.22956E-02
         0.20867E-02
         0.24980E-02
         0.28539E-02
         0.30774E-02
         0.36743E-02
         0.34001E-02
         0.36060E-02
         0.29250E-02
         0.26317E-02
         0.29799E-02
         0.28437E-02
         0.30248E-02
         0.29855E-02
         0.11139E-03
         0.41041E-04
         0.39835E-04
         0.32216E-04
         0.11326E-03
         0.68265E-04
         0.40112E-05
         0.81307E-04
         0.57334E-04
         0.69928E-04
         0.10866E-05
         0.35813E-03
         0.21166E-03
         0.13650E-04
         0.38414E-03
         0.54038E-04
         0.23116E-04
         0.19924E-04
         0.20921E-04
         0.65058E-05
         0.21800E-03
         0.19989E-03
         0.17317E-03
         0.51815E-05
         0.16347E-04
        -0.18887E-05
        -0.49776E-05
        -0.41437E-04
        -0.17573E-04
         0.22947E-04
         0.40405E-04
         0.76836E-05
         0.30073E-04
         0.35008E-04
         0.17125E-03
         0.61330E-04
         0.10614E-03
         0.24955E-03
         0.14443E-03
         0.12802E-03
         0.27137E-03
         0.21679E-03
         0.22066E-03
         0.12406E-03
         0.99558E-04
         0.19600E-03
         0.86664E-04
         0.65714E-04
         0.50424E-04
         0.72586E-04
         0.17133E-03
         0.93532E-04
         0.30422E-02
         0.32209E-02
         0.35057E-02
         0.34769E-02
         0.39626E-02
         0.45708E-02
         0.42020E-02
         0.33358E-02
         0.31627E-02
         0.36054E-02
         0.34622E-02
         0.33682E-02
         0.22942E-02
         0.20860E-02
         0.24980E-02
         0.28538E-02
         0.30774E-02
         0.36751E-02
         0.33993E-02
         0.36052E-02
         0.29241E-02
         0.26310E-02
         0.29775E-02
         0.28397E-02
         0.30212E-02
         0.29822E-02
         0.11128E-03
         0.40886E-04
         0.39728E-04
         0.32115E-04
         0.11304E-03
         0.68084E-04
         0.39251E-05
         0.81242E-04
         0.57106E-04
         0.69850E-04
         0.95363E-06
         0.35802E-03
         0.21171E-03
         0.13254E-04
         0.38487E-03
         0.53576E-04
         0.22665E-04
         0.19752E-04
         0.20283E-04
         0.57386E-05
         0.21746E-03
         0.19928E-03
         0.17200E-03
         0.39948E-05
         0.15501E-04
        -0.30455E-05
        -0.52314E-05
        -0.42167E-04
        -0.18626E-04
         0.21547E-04
         0.39973E-04
         0.69803E-05
         0.29748E-04
         0.34826E-04
         0.17123E-03
         0.61153E-04
         0.10596E-03
         0.25018E-03
         0.14488E-03
         0.12798E-03
         0.27122E-03
         0.21599E-03
         0.21950E-03
         0.12288E-03
         0.98906E-04
         0.19568E-03
         0.86346E-04
         0.65378E-04
         0.50001E-04
         0.72133E-04
         0.17088E-03
         0.93111E-04
         0.30397E-02
         0.32192E-02
         0.35054E-02
         0.34767E-02
         0.39612E-02
         0.45677E-02
         0.41983E-02
         0.33338E-02
         0.31608E-02
         0.36029E-02
         0.34606E-02
         0.33678E-02
         0.22932E-02
         0.20855E-02
         0.24983E-02
         0.28545E-02
         0.30782E-02
         0.36763E-02
         0.33988E-02
         0.36044E-02
         0.29231E-02
         0.26303E-02
         0.29750E-02
         0.28355E-02
         0.30175E-02
         0.29788E-02
         0.11082E-03
         0.40571E-04
         0.39620E-04
         0.32280E-04
         0.11311E-03
         0.68228E-04
         0.38818E-05
         0.80987E-04
         0.56738E-04
         0.69573E-04
         0.10618E-05
         0.35832E-03
         0.21200E-03
         0.13066E-04
         0.38608E-03
         0.53775E-04
         0.22621E-04
         0.19967E-04
         0.20449E-04
         0.58163E-05
         0.21772E-03
         0.19949E-03
         0.17206E-03
         0.39679E-05
         0.15296E-04
        -0.32108E-05
        -0.52735E-05
        -0.42261E-04
        -0.18510E-04
         0.21600E-04
         0.39440E-04
         0.66066E-05
         0.29238E-04
         0.34797E-04
         0.17153E-03
         0.61141E-04
         0.10590E-03
         0.25126E-03
         0.14584E-03
         0.12865E-03
         0.27192E-03
         0.21642E-03
         0.21975E-03
         0.12287E-03
         0.98830E-04
         0.19566E-03
         0.86077E-04
         0.64705E-04
         0.49140E-04
         0.71582E-04
         0.17062E-03
         0.92979E-04
         0.30380E-02
         0.32182E-02
         0.35058E-02
         0.34770E-02
         0.39602E-02
         0.45650E-02
         0.41953E-02
         0.33325E-02
         0.31597E-02
         0.36015E-02
         0.34602E-02
         0.33686E-02
         0.22934E-02
         0.20859E-02
         0.24995E-02
         0.28568E-02
         0.30806E-02
         0.36783E-02
         0.33987E-02
         0.36042E-02
         0.29225E-02
         0.26297E-02
         0.29727E-02
         0.28319E-02
         0.30144E-02
         0.29761E-02
         0.11003E-03
         0.39995E-04
         0.39315E-04
         0.32236E-04
         0.11290E-03
         0.68165E-04
         0.34997E-05
         0.80313E-04
         0.56033E-04
         0.68936E-04
         0.78000E-06
         0.35820E-03
         0.21199E-03
         0.12445E-04
         0.38683E-03
         0.53707E-04
         0.22264E-04
         0.19896E-04
         0.20363E-04
         0.56165E-05
         0.21771E-03
         0.19943E-03
         0.17201E-03
         0.38220E-05
         0.14884E-04
        -0.35067E-05
        -0.57209E-05
        -0.42640E-04
        -0.18574E-04
         0.21527E-04
         0.38660E-04
         0.59929E-05
         0.28486E-04
         0.34546E-04
         0.17149E-03
         0.60883E-04
         0.10560E-03
         0.25190E-03
         0.14639E-03
         0.12897E-03
         0.27231E-03
         0.21666E-03
         0.21985E-03
         0.12275E-03
         0.98489E-04
         0.19523E-03
         0.85438E-04
         0.63705E-04
         0.47975E-04
         0.70745E-04
         0.17009E-03
         0.92626E-04
         0.30356E-02
         0.32165E-02
         0.35056E-02
         0.34769E-02
         0.39587E-02
         0.45617E-02
         0.41916E-02
         0.33305E-02
         0.31580E-02
         0.35992E-02
         0.34589E-02
         0.33689E-02
         0.22932E-02
         0.20857E-02
         0.25002E-02
         0.28587E-02
         0.30826E-02
         0.36797E-02
         0.33977E-02
         0.36031E-02
         0.29212E-02
         0.26286E-02
         0.29699E-02
         0.28278E-02
         0.30108E-02
         0.29728E-02
         0.10989E-03
         0.39780E-04
         0.39208E-04
         0.32161E-04
         0.11268E-03
         0.67988E-04
         0.33310E-05
         0.80159E-04
         0.55917E-04
         0.69036E-04
         0.58545E-06
         0.35803E-03
         0.21197E-03
         0.11999E-04
         0.38751E-03
         0.53656E-04
         0.22166E-04
         0.19756E-04
         0.20286E-04
         0.54552E-05
         0.21765E-03
         0.19929E-03
         0.17192E-03
         0.37096E-05
         0.14906E-04
        -0.36772E-05
        -0.58963E-05
        -0.42846E-04
        -0.18721E-04
         0.21462E-04
         0.38450E-04
         0.57423E-05
         0.28209E-04
         0.34414E-04
         0.17150E-03
         0.60739E-04
         0.10541E-03
         0.25249E-03
         0.14691E-03
         0.12918E-03
         0.27251E-03
         0.21675E-03
         0.21985E-03
         0.12265E-03
         0.98297E-04
         0.19507E-03
         0.85257E-04
         0.63471E-04
         0.47621E-04
         0.70360E-04
         0.16971E-03
         0.92246E-04
         0.30331E-02
         0.32147E-02
         0.35053E-02
         0.34767E-02
         0.39572E-02
         0.45584E-02
         0.41878E-02
         0.33285E-02
         0.31560E-02
         0.35965E-02
         0.34574E-02
         0.33692E-02
         0.22929E-02
         0.20854E-02
         0.25006E-02
         0.28603E-02
         0.30844E-02
         0.36810E-02
         0.33969E-02
         0.36024E-02
         0.29205E-02
         0.26281E-02
         0.29675E-02
         0.28237E-02
         0.30072E-02
         0.29693E-02
         0.11018E-03
         0.39926E-04
         0.39345E-04
         0.32243E-04
         0.11274E-03
         0.67971E-04
         0.35347E-05
         0.80491E-04
         0.56206E-04
         0.69657E-04
         0.74375E-06
         0.35821E-03
         0.21229E-03
         0.11989E-04
         0.38863E-03
         0.53951E-04
         0.22411E-04
         0.19841E-04
         0.20517E-04
         0.56014E-05
         0.21790E-03
         0.19946E-03
         0.17215E-03
         0.39033E-05
         0.15344E-04
        -0.34990E-05
        -0.55796E-05
        -0.42630E-04
        -0.18498E-04
         0.21735E-04
         0.38679E-04
         0.58690E-05
         0.28271E-04
         0.34488E-04
         0.17185E-03
         0.60863E-04
         0.10551E-03
         0.25352E-03
         0.14782E-03
         0.12974E-03
         0.27310E-03
         0.21720E-03
         0.22015E-03
         0.12290E-03
         0.98458E-04
         0.19528E-03
         0.85442E-04
         0.63666E-04
         0.47708E-04
         0.70348E-04
         0.16967E-03
         0.92066E-04
         0.30313E-02
         0.32136E-02
         0.35055E-02
         0.34769E-02
         0.39561E-02
         0.45557E-02
         0.41847E-02
         0.33270E-02
         0.31545E-02
         0.35945E-02
         0.34566E-02
         0.33700E-02
         0.22931E-02
         0.20855E-02
         0.25016E-02
         0.28625E-02
         0.30868E-02
         0.36831E-02
         0.33967E-02
         0.36024E-02
         0.29203E-02
         0.26282E-02
         0.29657E-02
         0.28203E-02
         0.30041E-02
         0.29664E-02
         0.11025E-03
         0.39912E-04
         0.39348E-04
         0.32208E-04
         0.11262E-03
         0.67851E-04
         0.35606E-05
         0.80544E-04
         0.56215E-04
         0.69954E-04
         0.66941E-06
         0.35811E-03
         0.21245E-03
         0.11652E-04
         0.38931E-03
         0.53957E-04
         0.22376E-04
         0.19693E-04
         0.20457E-04
         0.54696E-05
         0.21791E-03
         0.19937E-03
         0.17212E-03
         0.38294E-05
         0.15539E-04
        -0.35720E-05
        -0.56161E-05
        -0.42663E-04
        -0.18495E-04
         0.21762E-04
         0.38660E-04
         0.57846E-05
         0.28098E-04
         0.34396E-04
         0.17196E-03
         0.60790E-04
         0.10545E-03
         0.25415E-03
         0.14844E-03
         0.13006E-03
         0.27342E-03
         0.21740E-03
         0.22016E-03
         0.12292E-03
         0.98429E-04
         0.19527E-03
         0.85381E-04
         0.63572E-04
         0.47514E-04
         0.70107E-04
         0.16942E-03
         0.91753E-04
         0.30289E-02
         0.32120E-02
         0.35052E-02
         0.34767E-02
         0.39548E-02
         0.45525E-02
         0.41808E-02
         0.33248E-02
         0.31527E-02
         0.35920E-02
         0.34551E-02
         0.33703E-02
         0.22927E-02
         0.20853E-02
         0.25022E-02
         0.28643E-02
         0.30889E-02
         0.36847E-02
         0.33962E-02
         0.36017E-02
         0.29195E-02
         0.26277E-02
         0.29635E-02
         0.28165E-02
         0.30006E-02
         0.29631E-02
         0.11025E-03
         0.39802E-04
         0.39300E-04
         0.32207E-04
         0.11245E-03
         0.67757E-04
         0.35238E-05
         0.80559E-04
         0.56236E-04
         0.70252E-04
         0.58448E-06
         0.35797E-03
         0.21255E-03
         0.11341E-04
         0.38999E-03
         0.53926E-04
         0.22365E-04
         0.19597E-04
         0.20379E-04
         0.53627E-05
         0.21790E-03
         0.19928E-03
         0.17206E-03
         0.37153E-05
         0.15734E-04
        -0.37062E-05
        -0.56336E-05
        -0.42723E-04
        -0.18498E-04
         0.21810E-04
         0.38602E-04
         0.56535E-05
         0.27978E-04
         0.34398E-04
         0.17198E-03
         0.60670E-04
         0.10533E-03
         0.25479E-03
         0.14906E-03
         0.13038E-03
         0.27379E-03
         0.21761E-03
         0.22018E-03
         0.12290E-03
         0.98362E-04
         0.19524E-03
         0.85327E-04
         0.63492E-04
         0.47327E-04
         0.69879E-04
         0.16919E-03
         0.91495E-04
         0.30264E-02
         0.32103E-02
         0.35049E-02
         0.34767E-02
         0.39534E-02
         0.45491E-02
         0.41769E-02
         0.33228E-02
         0.31510E-02
         0.35895E-02
         0.34539E-02
         0.33706E-02
         0.22923E-02
         0.20851E-02
         0.25028E-02
         0.28660E-02
         0.30909E-02
         0.36863E-02
         0.33955E-02
         0.36010E-02
         0.29187E-02
         0.26272E-02
         0.29613E-02
         0.28127E-02
         0.29970E-02
         0.29598E-02
         0.11044E-03
         0.39847E-04
         0.39370E-04
         0.32320E-04
         0.11246E-03
         0.67795E-04
         0.36746E-05
         0.80829E-04
         0.56440E-04
         0.70759E-04
         0.73776E-06
         0.35809E-03
         0.21277E-03
         0.11316E-04
         0.39108E-03
         0.54135E-04
         0.22511E-04
         0.19681E-04
         0.20530E-04
         0.54749E-05
         0.21812E-03
         0.19943E-03
         0.17223E-03
         0.38341E-05
         0.16082E-04
        -0.35943E-05
        -0.54204E-05
        -0.42587E-04
        -0.18253E-04
         0.22098E-04
         0.38798E-04
         0.57364E-05
         0.28064E-04
         0.34548E-04
         0.17227E-03
         0.60744E-04
         0.10536E-03
         0.25580E-03
         0.14997E-03
         0.13101E-03
         0.27441E-03
         0.21802E-03
         0.22044E-03
         0.12308E-03
         0.98467E-04
         0.19539E-03
         0.85455E-04
         0.63620E-04
         0.47355E-04
         0.69849E-04
         0.16915E-03
         0.91388E-04
         0.30246E-02
         0.32091E-02
         0.35052E-02
         0.34769E-02
         0.39521E-02
         0.45461E-02
         0.41736E-02
         0.33213E-02
         0.31496E-02
         0.35876E-02
         0.34530E-02
         0.33712E-02
         0.22924E-02
         0.20853E-02
         0.25038E-02
         0.28681E-02
         0.30932E-02
         0.36882E-02
         0.33952E-02
         0.36008E-02
         0.29185E-02
         0.26272E-02
         0.29594E-02
         0.28092E-02
         0.29940E-02
         0.29570E-02
         0.11051E-03
         0.39759E-04
         0.39324E-04
         0.32276E-04
         0.11228E-03
         0.67647E-04
         0.36139E-05
         0.80856E-04
         0.56483E-04
         0.71029E-04
         0.61038E-06
         0.35793E-03
         0.21279E-03
         0.10950E-04
         0.39181E-03
         0.54129E-04
         0.22474E-04
         0.19525E-04
         0.20426E-04
         0.53244E-05
         0.21803E-03
         0.19927E-03
         0.17210E-03
         0.37027E-05
         0.16205E-04
        -0.37123E-05
        -0.55653E-05
        -0.42782E-04
        -0.18346E-04
         0.22100E-04
         0.38749E-04
         0.56117E-05
         0.27866E-04
         0.34467E-04
         0.17229E-03
         0.60612E-04
         0.10519E-03
         0.25642E-03
         0.15051E-03
         0.13125E-03
         0.27463E-03
         0.21808E-03
         0.22040E-03
         0.12297E-03
         0.98331E-04
         0.19530E-03
         0.85361E-04
         0.63483E-04
         0.47140E-04
         0.69611E-04
         0.16888E-03
         0.91063E-04
         0.30221E-02
         0.32074E-02
         0.35048E-02
         0.34766E-02
         0.39504E-02
         0.45427E-02
         0.41699E-02
         0.33192E-02
         0.31477E-02
         0.35850E-02
         0.34515E-02
         0.33712E-02
         0.22919E-02
         0.20849E-02
         0.25043E-02
         0.28697E-02
         0.30949E-02
         0.36895E-02
         0.33946E-02
         0.36001E-02
         0.29177E-02
         0.26268E-02
         0.29572E-02
         0.28053E-02
         0.29904E-02
         0.29535E-02
         0.11061E-03
         0.39730E-04
         0.39332E-04
         0.32294E-04
         0.11219E-03
         0.67567E-04
         0.36488E-05
         0.80975E-04
         0.56621E-04
         0.71448E-04
         0.60451E-06
         0.35791E-03
         0.21294E-03
         0.10739E-04
         0.39266E-03
         0.54208E-04
         0.22559E-04
         0.19472E-04
         0.20444E-04
         0.52872E-05
         0.21807E-03
         0.19925E-03
         0.17210E-03
         0.36771E-05
         0.16459E-04
        -0.37493E-05
        -0.55018E-05
        -0.42815E-04
        -0.18326E-04
         0.22184E-04
         0.38755E-04
         0.55562E-05
         0.27757E-04
         0.34468E-04
         0.17243E-03
         0.60556E-04
         0.10512E-03
         0.25716E-03
         0.15114E-03
         0.13160E-03
         0.27504E-03
         0.21833E-03
         0.22050E-03
         0.12302E-03
         0.98322E-04
         0.19534E-03
         0.85359E-04
         0.63442E-04
         0.47001E-04
         0.69447E-04
         0.16871E-03
         0.90823E-04
         0.30198E-02
         0.32059E-02
         0.35046E-02
         0.34765E-02
         0.39491E-02
         0.45396E-02
         0.41662E-02
         0.33172E-02
         0.31459E-02
         0.35826E-02
         0.34503E-02
         0.33716E-02
         0.22917E-02
         0.20847E-02
         0.25050E-02
         0.28716E-02
         0.30970E-02
         0.36912E-02
         0.33941E-02
         0.35995E-02
         0.29170E-02
         0.26265E-02
         0.29552E-02
         0.28015E-02
         0.29869E-02
         0.29503E-02
         0.11098E-03
         0.40006E-04
         0.39594E-04
         0.32516E-04
         0.11238E-03
         0.67725E-04
         0.40264E-05
         0.81402E-04
         0.56943E-04
         0.72103E-04
         0.95222E-06
         0.35829E-03
         0.21346E-03
         0.10856E-04
         0.39388E-03
         0.54544E-04
         0.22868E-04
         0.19653E-04
         0.20738E-04
         0.55469E-05
         0.21847E-03
         0.19954E-03
         0.17244E-03
         0.39358E-05
         0.17013E-04
        -0.34957E-05
        -0.51094E-05
        -0.42436E-04
        -0.17898E-04
         0.22624E-04
         0.39079E-04
         0.58082E-05
         0.27918E-04
         0.34661E-04
         0.17291E-03
         0.60811E-04
         0.10536E-03
         0.25826E-03
         0.15221E-03
         0.13235E-03
         0.27578E-03
         0.21891E-03
         0.22088E-03
         0.12341E-03
         0.98657E-04
         0.19572E-03
         0.85682E-04
         0.63733E-04
         0.47146E-04
         0.69506E-04
         0.16877E-03
         0.90798E-04
         0.30182E-02
         0.32050E-02
         0.35050E-02
         0.34769E-02
         0.39483E-02
         0.45371E-02
         0.41631E-02
         0.33158E-02
         0.31448E-02
         0.35808E-02
         0.34496E-02
         0.33725E-02
         0.22919E-02
         0.20851E-02
         0.25062E-02
         0.28740E-02
         0.30997E-02
         0.36935E-02
         0.33941E-02
         0.35996E-02
         0.29170E-02
         0.26266E-02
         0.29535E-02
         0.27983E-02
         0.29841E-02
         0.29477E-02
         0.11099E-03
         0.39925E-04
         0.39553E-04
         0.32451E-04
         0.11218E-03
         0.67578E-04
         0.39789E-05
         0.81398E-04
         0.56950E-04
         0.72340E-04
         0.82896E-06
         0.35816E-03
         0.21357E-03
         0.10485E-04
         0.39455E-03
         0.54509E-04
         0.22803E-04
         0.19521E-04
         0.20592E-04
         0.53691E-05
         0.21844E-03
         0.19940E-03
         0.17238E-03
         0.37776E-05
         0.17113E-04
        -0.36607E-05
        -0.52362E-05
        -0.42570E-04
        -0.17867E-04
         0.22657E-04
         0.39062E-04
         0.56687E-05
         0.27768E-04
         0.34559E-04
         0.17290E-03
         0.60687E-04
         0.10527E-03
         0.25886E-03
         0.15279E-03
         0.13269E-03
         0.27607E-03
         0.21902E-03
         0.22081E-03
         0.12334E-03
         0.98541E-04
         0.19565E-03
         0.85610E-04
         0.63665E-04
         0.46952E-04
         0.69223E-04
         0.16849E-03
         0.90471E-04
         0.30156E-02
         0.32032E-02
         0.35046E-02
         0.34768E-02
         0.39470E-02
         0.45338E-02
         0.41592E-02
         0.33136E-02
         0.31428E-02
         0.35782E-02
         0.34481E-02
         0.33725E-02
         0.22914E-02
         0.20848E-02
         0.25069E-02
         0.28759E-02
         0.31017E-02
         0.36949E-02
         0.33935E-02
         0.35989E-02
         0.29162E-02
         0.26261E-02
         0.29511E-02
         0.27945E-02
         0.29806E-02
         0.29443E-02
         0.11094E-03
         0.39723E-04
         0.39388E-04
         0.32349E-04
         0.11191E-03
         0.67341E-04
         0.38645E-05
         0.81370E-04
         0.56901E-04
         0.72429E-04
         0.67606E-06
         0.35795E-03
         0.21358E-03
         0.10111E-04
         0.39520E-03
         0.54444E-04
         0.22662E-04
         0.19373E-04
         0.20478E-04
         0.52697E-05
         0.21838E-03
         0.19922E-03
         0.17229E-03
         0.36422E-05
         0.17082E-04
        -0.38228E-05
        -0.55681E-05
        -0.42785E-04
        -0.17374E-04
         0.22998E-04
         0.38977E-04
         0.54769E-05
         0.27618E-04
         0.34496E-04
         0.17287E-03
         0.60494E-04
         0.10507E-03
         0.25933E-03
         0.15338E-03
         0.13342E-03
         0.27649E-03
         0.21912E-03
         0.22068E-03
         0.12327E-03
         0.98384E-04
         0.19551E-03
         0.85454E-04
         0.63531E-04
         0.46741E-04
         0.68967E-04
         0.16822E-03
         0.90123E-04
         0.30131E-02
         0.32015E-02
         0.35043E-02
         0.34766E-02
         0.39454E-02
         0.45303E-02
         0.41551E-02
         0.33113E-02
         0.31409E-02
         0.35758E-02
         0.34463E-02
         0.33719E-02
         0.22908E-02
         0.20845E-02
         0.25074E-02
         0.28776E-02
         0.31036E-02
         0.36963E-02
         0.33927E-02
         0.35981E-02
         0.29155E-02
         0.26256E-02
         0.29488E-02
         0.27906E-02
         0.29770E-02
         0.29408E-02
         0.11129E-03
         0.39977E-04
         0.39671E-04
         0.32610E-04
         0.11212E-03
         0.67517E-04
         0.42030E-05
         0.81789E-04
         0.57166E-04
         0.72796E-04
         0.99179E-06
         0.35824E-03
         0.21401E-03
         0.10211E-04
         0.39637E-03
         0.54783E-04
         0.22900E-04
         0.19541E-04
         0.20814E-04
         0.57159E-05
         0.21872E-03
         0.19948E-03
         0.17258E-03
         0.39211E-05
         0.17422E-04
        -0.35457E-05
        -0.56090E-05
        -0.42550E-04
        -0.15970E-04
         0.24122E-04
         0.39264E-04
         0.57333E-05
         0.27775E-04
         0.34745E-04
         0.17338E-03
         0.60780E-04
         0.10531E-03
         0.26023E-03
         0.15449E-03
         0.13494E-03
         0.27747E-03
         0.21967E-03
         0.22094E-03
         0.12361E-03
         0.98713E-04
         0.19593E-03
         0.85790E-04
         0.63798E-04
         0.46909E-04
         0.69102E-04
         0.16836E-03
         0.90136E-04
         0.30115E-02
         0.32006E-02
         0.35048E-02
         0.34771E-02
         0.39444E-02
         0.45275E-02
         0.41520E-02
         0.33100E-02
         0.31398E-02
         0.35743E-02
         0.34450E-02
         0.33717E-02
         0.22908E-02
         0.20848E-02
         0.25085E-02
         0.28797E-02
         0.31060E-02
         0.36985E-02
         0.33929E-02
         0.35982E-02
         0.29155E-02
         0.26259E-02
         0.29473E-02
         0.27875E-02
         0.29741E-02
         0.29382E-02
         0.11052E-03
         0.39044E-04
         0.38796E-04
         0.31788E-04
         0.11097E-03
         0.66452E-04
         0.32350E-05
         0.80870E-04
         0.56319E-04
         0.71918E-04
        -0.13862E-06
         0.35692E-03
         0.21296E-03
         0.87912E-05
         0.39587E-03
         0.53982E-04
         0.21932E-04
         0.18642E-04
         0.19818E-04
         0.47191E-05
         0.21764E-03
         0.19832E-03
         0.17149E-03
         0.29314E-05
         0.16458E-04
        -0.44880E-05
        -0.70145E-05
        -0.43734E-04
        -0.16436E-04
         0.23524E-04
         0.38435E-04
         0.47491E-05
         0.26813E-04
         0.33803E-04
         0.17232E-03
         0.59658E-04
         0.10413E-03
         0.25955E-03
         0.15403E-03
         0.13462E-03
         0.27672E-03
         0.21865E-03
         0.21980E-03
         0.12258E-03
         0.97580E-04
         0.19468E-03
         0.84684E-04
         0.62775E-04
         0.45797E-04
         0.67848E-04
         0.16694E-03
         0.88802E-04
         0.30071E-02
         0.31970E-02
         0.35025E-02
         0.34749E-02
         0.39408E-02
         0.45222E-02
         0.41462E-02
         0.33059E-02
         0.31360E-02
         0.35698E-02
         0.34411E-02
         0.33695E-02
         0.22886E-02
         0.20829E-02
         0.25073E-02
         0.28797E-02
         0.31061E-02
         0.36980E-02
         0.33901E-02
         0.35955E-02
         0.29128E-02
         0.26236E-02
         0.29431E-02
         0.27817E-02
         0.29688E-02
         0.29330E-02
         0.11115E-03
         0.39109E-04
         0.38998E-04
         0.32164E-04
         0.11125E-03
         0.66730E-04
         0.34382E-05
         0.81632E-04
         0.57096E-04
         0.73271E-04
         0.19598E-06
         0.35695E-03
         0.21283E-03
         0.93354E-05
         0.39732E-03
         0.54782E-04
         0.22697E-04
         0.19090E-04
         0.20403E-04
         0.52703E-05
         0.21824E-03
         0.19871E-03
         0.17234E-03
         0.36720E-05
         0.17805E-04
        -0.38016E-05
        -0.57958E-05
        -0.42389E-04
        -0.15252E-04
         0.24651E-04
         0.39056E-04
         0.51677E-05
         0.27025E-04
         0.33685E-04
         0.17268E-03
         0.59559E-04
         0.10378E-03
         0.26115E-03
         0.15568E-03
         0.13578E-03
         0.27760E-03
         0.21956E-03
         0.22062E-03
         0.12341E-03
         0.98021E-04
         0.19494E-03
         0.84900E-04
         0.63244E-04
         0.46055E-04
         0.67724E-04
         0.16688E-03
         0.88613E-04
         0.30057E-02
         0.31966E-02
         0.35027E-02
         0.34744E-02
         0.39385E-02
         0.45185E-02
         0.41436E-02
         0.33051E-02
         0.31352E-02
         0.35677E-02
         0.34401E-02
         0.33708E-02
         0.22895E-02
         0.20833E-02
         0.25090E-02
         0.28828E-02
         0.31093E-02
         0.37005E-02
         0.33900E-02
         0.35951E-02
         0.29128E-02
         0.26240E-02
         0.29421E-02
         0.27793E-02
         0.29665E-02
         0.29310E-02
         0.35944E-02
         0.36719E-02
         0.36439E-02
         0.33215E-02
         0.42818E-02
         0.39590E-02
         0.39357E-02
         0.40642E-02
         0.34803E-02
         0.40677E-02
         0.43797E-02
         0.54194E-02
         0.47530E-02
         0.45314E-02
         0.56079E-02
         0.34013E-02
         0.36231E-02
         0.31647E-02
         0.37738E-02
         0.39315E-02
         0.43931E-02
         0.44065E-02
         0.41791E-02
         0.35949E-02
         0.40249E-02
         0.34363E-02
         0.44723E-02
         0.42988E-02
         0.43297E-02
         0.41696E-02
         0.34211E-02
         0.35634E-02
         0.33381E-02
         0.34903E-02
         0.48121E-02
         0.42175E-02
         0.42679E-02
         0.52067E-02
         0.49163E-02
         0.48218E-02
         0.51019E-02
         0.47790E-02
         0.45425E-02
         0.40131E-02
         0.41562E-02
         0.48627E-02
         0.43089E-02
         0.39966E-02
         0.38854E-02
         0.40574E-02
         0.45880E-02
         0.41119E-02
         0.11144E-01
         0.11140E-01
         0.11607E-01
         0.11302E-01
         0.11993E-01
         0.12952E-01
         0.12620E-01
         0.11695E-01
         0.11600E-01
         0.12272E-01
         0.11891E-01
         0.11346E-01
         0.93843E-02
         0.87737E-02
         0.93081E-02
         0.98498E-02
         0.10162E-01
         0.11373E-01
         0.11600E-01
         0.11823E-01
         0.10466E-01
         0.99196E-02
         0.10500E-01
         0.10259E-01
         0.10382E-01
         0.10352E-01
         0.37826E-01
         0.39489E-01
         0.38935E-01
         0.35627E-01
         0.43653E-01
         0.41023E-01
         0.42582E-01
         0.43010E-01
         0.36954E-01
         0.42982E-01
         0.46633E-01
         0.52579E-01
         0.47613E-01
         0.47983E-01
         0.54446E-01
         0.36250E-01
         0.38826E-01
         0.34042E-01
         0.40063E-01
         0.42062E-01
         0.43747E-01
         0.44639E-01
         0.42000E-01
         0.38572E-01
         0.43403E-01
         0.37258E-01
         0.47815E-01
         0.46970E-01
         0.47184E-01
         0.44892E-01
         0.36612E-01
         0.38408E-01
         0.35899E-01
         0.37482E-01
         0.47755E-01
         0.43799E-01
         0.43992E-01
         0.52589E-01
         0.51120E-01
         0.50485E-01
         0.51560E-01
         0.48968E-01
         0.46391E-01
         0.40972E-01
         0.42570E-01
         0.47772E-01
         0.44148E-01
         0.41567E-01
         0.40745E-01
         0.42214E-01
         0.45838E-01
         0.42351E-01
         0.78806E-01
         0.77150E-01
         0.79141E-01
         0.76810E-01
         0.79587E-01
         0.84227E-01
         0.85035E-01
         0.83637E-01
         0.83909E-01
         0.86330E-01
         0.83847E-01
         0.79085E-01
         0.69934E-01
         0.66017E-01
         0.66782E-01
         0.68077E-01
         0.68999E-01
         0.75194E-01
         0.79635E-01
         0.80227E-01
         0.73779E-01
         0.71266E-01
         0.73928E-01
         0.73217E-01
         0.72685E-01
         0.72393E-01
  
SCALARS                      strain_yz  double 1
LOOKUP_TABLE default
        -0.53587E-02
         0.16937E-02
         0.45466E-02
         0.24749E-02
        -0.20987E-09
        -0.57843E-10
        -0.26009E-09
        -0.19838E-09
         0.16472E-01
        -0.11022E-01
        -0.38706E-09
        -0.34076E-09
         0.13396E-01
         0.67919E-03
         0.27700E-09
        -0.17760E-10
        -0.53953E-02
        -0.17190E-01
         0.40754E-11
         0.41699E-10
         0.83852E-02
         0.30040E-01
         0.33776E-01
         0.63498E-09
         0.10966E-08
         0.91662E-09
         0.29660E-02
         0.28294E-01
         0.45676E-09
         0.88610E-09
        -0.61494E-02
        -0.50156E-02
         0.48435E-02
         0.23679E-09
         0.24172E-09
        -0.50184E-11
        -0.17593E-01
        -0.15535E-01
         0.43574E-09
         0.33902E-09
        -0.16717E-01
        -0.99384E-02
         0.32931E-09
         0.30094E-09
        -0.16030E-01
        -0.56606E-02
        -0.10924E-10
         0.16897E-09
        -0.12415E-01
         0.79554E-10
        -0.14955E-02
        -0.64433E-11
        -0.67009E-03
         0.30773E-09
         0.43369E-02
         0.17901E-09
         0.14153E-01
        -0.27289E-02
         0.48564E-11
        -0.98567E-11
        -0.74475E-02
        -0.26499E-01
        -0.66168E-10
        -0.24750E-09
        -0.45677E-02
        -0.13356E-09
        -0.19036E-01
        -0.16271E-09
         0.14269E-01
         0.74916E-02
        -0.20108E-10
         0.26549E-09
         0.25697E-01
         0.58299E-09
         0.34935E-01
         0.56448E-09
         0.34774E-01
         0.42850E-09
         0.28854E-01
         0.35916E-09
         0.43984E-01
         0.35051E-01
         0.23040E-09
        -0.51083E-10
         0.52786E-02
        -0.57159E-11
        -0.25021E-01
        -0.35806E-09
        -0.57383E-01
        -0.62684E-09
        -0.78223E-01
        -0.47779E-01
        -0.92971E-09
        -0.75252E-09
        -0.34182E-01
        -0.58415E-09
        -0.31048E-01
        -0.59762E-09
        -0.29887E-01
        -0.64257E-09
        -0.49563E-01
        -0.41637E-01
        -0.59756E-09
        -0.28632E-09
         0.31299E-01
        -0.12219E-01
         0.21011E-09
        -0.26110E-09
         0.76562E-01
         0.69899E-09
         0.11358E+00
         0.10225E-08
         0.13431E+00
         0.12627E-08
         0.14559E+00
         0.12525E-08
         0.15826E+00
         0.99122E-09
         0.15385E+00
         0.76708E-09
         0.14411E+00
         0.71346E-09
         0.12842E+00
         0.67880E-09
         0.98887E-01
         0.43380E-09
         0.73670E-01
         0.14322E-09
         0.40865E-01
         0.92546E-10
        -0.31068E-02
         0.13910E-09
        -0.43455E-01
         0.71845E-10
        -0.80669E-01
        -0.21727E-09
        -0.12472E+00
        -0.61328E-09
        -0.12883E+00
        -0.95766E-09
        -0.13234E+00
        -0.12555E-08
        -0.16560E+00
        -0.12544E-08
        -0.17756E+00
        -0.10950E-08
        -0.16690E+00
        -0.10672E-08
        -0.13169E+00
        -0.10739E-08
        -0.89508E-01
        -0.84917E-09
        -0.64869E-01
        -0.50215E-09
        -0.48031E-01
        -0.38827E-09
        -0.75079E-02
        -0.38939E-02
        -0.33981E-02
        -0.10513E-02
        -0.34887E-02
        -0.37013E-02
        -0.39119E-03
        -0.60061E-02
        -0.51329E-02
        -0.75513E-02
         0.39552E-02
         0.16879E-01
         0.11527E-01
         0.13367E-02
         0.17050E-01
         0.19865E-02
        -0.17612E-02
         0.11315E-02
         0.14846E-02
        -0.11214E-02
         0.10308E-02
         0.84948E-03
        -0.28573E-02
         0.24073E-03
        -0.51550E-02
         0.76216E-03
         0.39531E-04
         0.69107E-03
         0.83927E-03
        -0.40454E-02
         0.19397E-02
        -0.21106E-02
         0.14106E-02
        -0.34430E-03
         0.57025E-03
         0.30898E-02
         0.69266E-02
         0.14980E-01
         0.13688E-01
         0.11567E-01
         0.10891E-01
         0.27052E-02
        -0.22101E-02
        -0.60633E-02
        -0.10026E-01
        -0.16385E-01
        -0.10747E-01
        -0.76974E-02
        -0.82135E-02
        -0.87346E-02
        -0.10250E-01
        -0.46810E-02
         0.88237E-02
        -0.10623E-01
         0.28770E-01
         0.39764E-01
         0.50700E-01
         0.60190E-01
         0.60459E-01
         0.54693E-01
         0.52044E-01
         0.49191E-01
         0.31761E-01
         0.13975E-01
         0.61482E-02
         0.27102E-02
        -0.41517E-02
        -0.16415E-01
        -0.30174E-01
        -0.39383E-01
        -0.47592E-01
        -0.54608E-01
        -0.51454E-01
        -0.48632E-01
        -0.45243E-01
        -0.31445E-01
        -0.18383E-01
        -0.16145E-01
        -0.13064E-01
        -0.82400E-02
        -0.76251E-02
        -0.18086E-02
        -0.99034E-02
        -0.44541E-02
        -0.35320E-02
        -0.12348E-01
        -0.80973E-02
        -0.11613E-01
         0.61400E-02
         0.26571E-01
         0.15742E-01
         0.22623E-02
         0.26179E-01
         0.49545E-02
        -0.15015E-02
         0.14335E-02
         0.64610E-02
         0.12492E-02
         0.55687E-02
         0.39537E-02
        -0.22922E-02
         0.19348E-02
        -0.78204E-02
         0.19344E-02
         0.48539E-03
         0.90235E-03
        -0.14414E-02
        -0.78011E-02
         0.53396E-02
         0.14065E-02
         0.34513E-02
         0.29967E-02
        -0.14288E-02
         0.43556E-02
         0.83160E-02
         0.19896E-01
         0.17546E-01
         0.15463E-01
         0.11359E-01
        -0.28069E-02
        -0.57816E-02
        -0.72220E-02
        -0.92997E-02
        -0.18997E-01
        -0.11054E-01
        -0.73100E-02
        -0.91874E-02
        -0.10846E-01
        -0.11238E-01
        -0.84321E-03
         0.14001E-01
        -0.20026E-01
         0.46600E-01
         0.60223E-01
         0.77718E-01
         0.93247E-01
         0.91345E-01
         0.79787E-01
         0.76465E-01
         0.75647E-01
         0.47505E-01
         0.15657E-01
         0.62405E-02
         0.53475E-02
        -0.24764E-02
        -0.21006E-01
        -0.42081E-01
        -0.58558E-01
        -0.76215E-01
        -0.84508E-01
        -0.74222E-01
        -0.70175E-01
        -0.69959E-01
        -0.49260E-01
        -0.25589E-01
        -0.24229E-01
        -0.13073E-01
        -0.82415E-02
        -0.76288E-02
        -0.18219E-02
        -0.99045E-02
        -0.44576E-02
        -0.35365E-02
        -0.12368E-01
        -0.81119E-02
        -0.11657E-01
         0.61437E-02
         0.26569E-01
         0.15746E-01
         0.22624E-02
         0.26212E-01
         0.49548E-02
        -0.15151E-02
         0.14313E-02
         0.64654E-02
         0.12422E-02
         0.55824E-02
         0.39575E-02
        -0.22927E-02
         0.19338E-02
        -0.78559E-02
         0.19308E-02
         0.49111E-03
         0.90739E-03
        -0.14318E-02
        -0.78176E-02
         0.53405E-02
         0.14035E-02
         0.34589E-02
         0.30016E-02
        -0.14154E-02
         0.43584E-02
         0.83156E-02
         0.19927E-01
         0.17584E-01
         0.15481E-01
         0.11368E-01
        -0.27994E-02
        -0.57876E-02
        -0.72257E-02
        -0.93000E-02
        -0.18997E-01
        -0.11055E-01
        -0.73056E-02
        -0.91751E-02
        -0.10831E-01
        -0.11233E-01
        -0.83044E-03
         0.13987E-01
        -0.20027E-01
         0.46609E-01
         0.60223E-01
         0.77708E-01
         0.93216E-01
         0.91307E-01
         0.79763E-01
         0.76449E-01
         0.75626E-01
         0.47495E-01
         0.15665E-01
         0.62400E-02
         0.53585E-02
        -0.24563E-02
        -0.21017E-01
        -0.42099E-01
        -0.58571E-01
        -0.76214E-01
        -0.84503E-01
        -0.74216E-01
        -0.70173E-01
        -0.69941E-01
        -0.49225E-01
        -0.25560E-01
        -0.24197E-01
        -0.13081E-01
        -0.82431E-02
        -0.76327E-02
        -0.18353E-02
        -0.99056E-02
        -0.44613E-02
        -0.35409E-02
        -0.12389E-01
        -0.81265E-02
        -0.11700E-01
         0.61473E-02
         0.26567E-01
         0.15750E-01
         0.22621E-02
         0.26245E-01
         0.49551E-02
        -0.15289E-02
         0.14291E-02
         0.64699E-02
         0.12351E-02
         0.55964E-02
         0.39612E-02
        -0.22936E-02
         0.19327E-02
        -0.78909E-02
         0.19268E-02
         0.49723E-03
         0.91276E-03
        -0.14215E-02
        -0.78336E-02
         0.53414E-02
         0.13998E-02
         0.34666E-02
         0.30064E-02
        -0.14019E-02
         0.43614E-02
         0.83150E-02
         0.19958E-01
         0.17622E-01
         0.15499E-01
         0.11377E-01
        -0.27910E-02
        -0.57931E-02
        -0.72304E-02
        -0.93011E-02
        -0.18997E-01
        -0.11056E-01
        -0.73011E-02
        -0.91630E-02
        -0.10817E-01
        -0.11228E-01
        -0.81772E-03
         0.13974E-01
        -0.20028E-01
         0.46617E-01
         0.60224E-01
         0.77699E-01
         0.93184E-01
         0.91268E-01
         0.79739E-01
         0.76433E-01
         0.75605E-01
         0.47485E-01
         0.15672E-01
         0.62396E-02
         0.53695E-02
        -0.24360E-02
        -0.21029E-01
        -0.42119E-01
        -0.58585E-01
        -0.76212E-01
        -0.84498E-01
        -0.74211E-01
        -0.70170E-01
        -0.69924E-01
        -0.49190E-01
        -0.25532E-01
        -0.24166E-01
        -0.13089E-01
        -0.82446E-02
        -0.76366E-02
        -0.18488E-02
        -0.99068E-02
        -0.44649E-02
        -0.35456E-02
        -0.12410E-01
        -0.81412E-02
        -0.11742E-01
         0.61510E-02
         0.26564E-01
         0.15754E-01
         0.22622E-02
         0.26279E-01
         0.49555E-02
        -0.15430E-02
         0.14269E-02
         0.64747E-02
         0.12276E-02
         0.56106E-02
         0.39646E-02
        -0.22956E-02
         0.19307E-02
        -0.79247E-02
         0.19216E-02
         0.50354E-03
         0.91986E-03
        -0.14086E-02
        -0.78480E-02
         0.53417E-02
         0.13947E-02
         0.34742E-02
         0.30113E-02
        -0.13885E-02
         0.43642E-02
         0.83145E-02
         0.19989E-01
         0.17660E-01
         0.15518E-01
         0.11388E-01
        -0.27804E-02
        -0.57977E-02
        -0.72375E-02
        -0.93039E-02
        -0.18998E-01
        -0.11058E-01
        -0.72967E-02
        -0.91508E-02
        -0.10802E-01
        -0.11223E-01
        -0.80504E-03
         0.13961E-01
        -0.20029E-01
         0.46626E-01
         0.60224E-01
         0.77690E-01
         0.93153E-01
         0.91230E-01
         0.79715E-01
         0.76417E-01
         0.75584E-01
         0.47476E-01
         0.15682E-01
         0.62397E-02
         0.53803E-02
        -0.24156E-02
        -0.21041E-01
        -0.42142E-01
        -0.58601E-01
        -0.76212E-01
        -0.84493E-01
        -0.74206E-01
        -0.70167E-01
        -0.69906E-01
        -0.49155E-01
        -0.25504E-01
        -0.24134E-01
        -0.13097E-01
        -0.82461E-02
        -0.76404E-02
        -0.18621E-02
        -0.99080E-02
        -0.44684E-02
        -0.35499E-02
        -0.12430E-01
        -0.81558E-02
        -0.11784E-01
         0.61547E-02
         0.26562E-01
         0.15758E-01
         0.22623E-02
         0.26312E-01
         0.49560E-02
        -0.15572E-02
         0.14247E-02
         0.64796E-02
         0.12197E-02
         0.56250E-02
         0.39675E-02
        -0.22986E-02
         0.19280E-02
        -0.79573E-02
         0.19149E-02
         0.51057E-03
         0.92855E-03
        -0.13931E-02
        -0.78609E-02
         0.53418E-02
         0.13881E-02
         0.34818E-02
         0.30162E-02
        -0.13749E-02
         0.43671E-02
         0.83141E-02
         0.20020E-01
         0.17700E-01
         0.15539E-01
         0.11400E-01
        -0.27674E-02
        -0.58012E-02
        -0.72472E-02
        -0.93085E-02
        -0.19001E-01
        -0.11061E-01
        -0.72927E-02
        -0.91388E-02
        -0.10788E-01
        -0.11219E-01
        -0.79227E-03
         0.13948E-01
        -0.20031E-01
         0.46634E-01
         0.60224E-01
         0.77680E-01
         0.93121E-01
         0.91191E-01
         0.79691E-01
         0.76401E-01
         0.75563E-01
         0.47468E-01
         0.15693E-01
         0.62403E-02
         0.53909E-02
        -0.23951E-02
        -0.21054E-01
        -0.42168E-01
        -0.58619E-01
        -0.76211E-01
        -0.84487E-01
        -0.74201E-01
        -0.70164E-01
        -0.69888E-01
        -0.49120E-01
        -0.25477E-01
        -0.24102E-01
        -0.13105E-01
        -0.82470E-02
        -0.76441E-02
        -0.18757E-02
        -0.99091E-02
        -0.44720E-02
        -0.35538E-02
        -0.12450E-01
        -0.81706E-02
        -0.11825E-01
         0.61589E-02
         0.26560E-01
         0.15762E-01
         0.22627E-02
         0.26346E-01
         0.49566E-02
        -0.15718E-02
         0.14225E-02
         0.64846E-02
         0.12116E-02
         0.56394E-02
         0.39704E-02
        -0.23021E-02
         0.19251E-02
        -0.79892E-02
         0.19079E-02
         0.51813E-03
         0.93816E-03
        -0.13766E-02
        -0.78731E-02
         0.53415E-02
         0.13808E-02
         0.34896E-02
         0.30213E-02
        -0.13613E-02
         0.43703E-02
         0.83140E-02
         0.20051E-01
         0.17740E-01
         0.15560E-01
         0.11412E-01
        -0.27536E-02
        -0.58042E-02
        -0.72577E-02
        -0.93142E-02
        -0.19004E-01
        -0.11063E-01
        -0.72895E-02
        -0.91274E-02
        -0.10773E-01
        -0.11214E-01
        -0.77951E-03
         0.13935E-01
        -0.20032E-01
         0.46643E-01
         0.60225E-01
         0.77671E-01
         0.93090E-01
         0.91153E-01
         0.79666E-01
         0.76386E-01
         0.75542E-01
         0.47461E-01
         0.15704E-01
         0.62412E-02
         0.54015E-02
        -0.23746E-02
        -0.21068E-01
        -0.42195E-01
        -0.58637E-01
        -0.76210E-01
        -0.84482E-01
        -0.74196E-01
        -0.70162E-01
        -0.69870E-01
        -0.49085E-01
        -0.25449E-01
        -0.24070E-01
        -0.13112E-01
        -0.82468E-02
        -0.76479E-02
        -0.18896E-02
        -0.99104E-02
        -0.44757E-02
        -0.35569E-02
        -0.12468E-01
        -0.81856E-02
        -0.11865E-01
         0.61639E-02
         0.26559E-01
         0.15768E-01
         0.22645E-02
         0.26380E-01
         0.49574E-02
        -0.15867E-02
         0.14203E-02
         0.64896E-02
         0.12035E-02
         0.56539E-02
         0.39733E-02
        -0.23056E-02
         0.19222E-02
        -0.80202E-02
         0.19007E-02
         0.52704E-03
         0.94838E-03
        -0.13598E-02
        -0.78850E-02
         0.53410E-02
         0.13730E-02
         0.34976E-02
         0.30266E-02
        -0.13477E-02
         0.43736E-02
         0.83143E-02
         0.20083E-01
         0.17780E-01
         0.15581E-01
         0.11425E-01
        -0.27395E-02
        -0.58071E-02
        -0.72682E-02
        -0.93203E-02
        -0.19008E-01
        -0.11068E-01
        -0.72883E-02
        -0.91179E-02
        -0.10760E-01
        -0.11209E-01
        -0.76660E-03
         0.13922E-01
        -0.20033E-01
         0.46651E-01
         0.60225E-01
         0.77661E-01
         0.93058E-01
         0.91114E-01
         0.79642E-01
         0.76370E-01
         0.75521E-01
         0.47453E-01
         0.15716E-01
         0.62421E-02
         0.54122E-02
        -0.23541E-02
        -0.21082E-01
        -0.42222E-01
        -0.58655E-01
        -0.76208E-01
        -0.84476E-01
        -0.74192E-01
        -0.70160E-01
        -0.69852E-01
        -0.49050E-01
        -0.25421E-01
        -0.24038E-01
        -0.13119E-01
        -0.82463E-02
        -0.76516E-02
        -0.19037E-02
        -0.99117E-02
        -0.44792E-02
        -0.35593E-02
        -0.12485E-01
        -0.82008E-02
        -0.11903E-01
         0.61694E-02
         0.26557E-01
         0.15773E-01
         0.22665E-02
         0.26413E-01
         0.49584E-02
        -0.16018E-02
         0.14180E-02
         0.64946E-02
         0.11954E-02
         0.56684E-02
         0.39762E-02
        -0.23090E-02
         0.19193E-02
        -0.80510E-02
         0.18937E-02
         0.53630E-03
         0.95886E-03
        -0.13428E-02
        -0.78968E-02
         0.53405E-02
         0.13648E-02
         0.35057E-02
         0.30322E-02
        -0.13339E-02
         0.43772E-02
         0.83149E-02
         0.20115E-01
         0.17820E-01
         0.15602E-01
         0.11438E-01
        -0.27254E-02
        -0.58099E-02
        -0.72788E-02
        -0.93267E-02
        -0.19012E-01
        -0.11073E-01
        -0.72877E-02
        -0.91092E-02
        -0.10746E-01
        -0.11205E-01
        -0.75369E-03
         0.13909E-01
        -0.20034E-01
         0.46659E-01
         0.60226E-01
         0.77652E-01
         0.93026E-01
         0.91075E-01
         0.79618E-01
         0.76354E-01
         0.75499E-01
         0.47445E-01
         0.15727E-01
         0.62429E-02
         0.54231E-02
        -0.23336E-02
        -0.21096E-01
        -0.42248E-01
        -0.58672E-01
        -0.76206E-01
        -0.84471E-01
        -0.74189E-01
        -0.70158E-01
        -0.69834E-01
        -0.49015E-01
        -0.25393E-01
        -0.24006E-01
        -0.13125E-01
        -0.82458E-02
        -0.76552E-02
        -0.19178E-02
        -0.99130E-02
        -0.44828E-02
        -0.35617E-02
        -0.12502E-01
        -0.82161E-02
        -0.11941E-01
         0.61747E-02
         0.26556E-01
         0.15778E-01
         0.22688E-02
         0.26448E-01
         0.49594E-02
        -0.16170E-02
         0.14158E-02
         0.64996E-02
         0.11873E-02
         0.56829E-02
         0.39792E-02
        -0.23124E-02
         0.19165E-02
        -0.80817E-02
         0.18866E-02
         0.54579E-03
         0.96923E-03
        -0.13260E-02
        -0.79086E-02
         0.53398E-02
         0.13567E-02
         0.35138E-02
         0.30377E-02
        -0.13200E-02
         0.43805E-02
         0.83154E-02
         0.20147E-01
         0.17861E-01
         0.15624E-01
         0.11451E-01
        -0.27114E-02
        -0.58127E-02
        -0.72895E-02
        -0.93332E-02
        -0.19016E-01
        -0.11078E-01
        -0.72872E-02
        -0.91005E-02
        -0.10733E-01
        -0.11200E-01
        -0.74072E-03
         0.13896E-01
        -0.20035E-01
         0.46667E-01
         0.60226E-01
         0.77643E-01
         0.92995E-01
         0.91036E-01
         0.79594E-01
         0.76338E-01
         0.75478E-01
         0.47438E-01
         0.15739E-01
         0.62440E-02
         0.54340E-02
        -0.23131E-02
        -0.21109E-01
        -0.42275E-01
        -0.58690E-01
        -0.76203E-01
        -0.84465E-01
        -0.74185E-01
        -0.70157E-01
        -0.69815E-01
        -0.48980E-01
        -0.25365E-01
        -0.23975E-01
        -0.13132E-01
        -0.82451E-02
        -0.76588E-02
        -0.19318E-02
        -0.99142E-02
        -0.44863E-02
        -0.35641E-02
        -0.12519E-01
        -0.82313E-02
        -0.11979E-01
         0.61803E-02
         0.26555E-01
         0.15784E-01
         0.22708E-02
         0.26481E-01
         0.49603E-02
        -0.16322E-02
         0.14135E-02
         0.65045E-02
         0.11791E-02
         0.56974E-02
         0.39821E-02
        -0.23157E-02
         0.19137E-02
        -0.81123E-02
         0.18796E-02
         0.55502E-03
         0.97949E-03
        -0.13092E-02
        -0.79204E-02
         0.53392E-02
         0.13486E-02
         0.35219E-02
         0.30432E-02
        -0.13062E-02
         0.43842E-02
         0.83160E-02
         0.20179E-01
         0.17901E-01
         0.15645E-01
         0.11464E-01
        -0.26975E-02
        -0.58156E-02
        -0.73000E-02
        -0.93395E-02
        -0.19020E-01
        -0.11083E-01
        -0.72870E-02
        -0.90917E-02
        -0.10719E-01
        -0.11196E-01
        -0.72781E-03
         0.13883E-01
        -0.20036E-01
         0.46675E-01
         0.60227E-01
         0.77633E-01
         0.92963E-01
         0.90997E-01
         0.79570E-01
         0.76323E-01
         0.75456E-01
         0.47430E-01
         0.15750E-01
         0.62450E-02
         0.54450E-02
        -0.22927E-02
        -0.21123E-01
        -0.42302E-01
        -0.58708E-01
        -0.76201E-01
        -0.84460E-01
        -0.74182E-01
        -0.70155E-01
        -0.69797E-01
        -0.48944E-01
        -0.25337E-01
        -0.23943E-01
        -0.13138E-01
        -0.82444E-02
        -0.76625E-02
        -0.19458E-02
        -0.99154E-02
        -0.44899E-02
        -0.35668E-02
        -0.12535E-01
        -0.82465E-02
        -0.12017E-01
         0.61858E-02
         0.26553E-01
         0.15789E-01
         0.22730E-02
         0.26516E-01
         0.49613E-02
        -0.16475E-02
         0.14113E-02
         0.65095E-02
         0.11708E-02
         0.57118E-02
         0.39850E-02
        -0.23192E-02
         0.19110E-02
        -0.81429E-02
         0.18726E-02
         0.56442E-03
         0.98960E-03
        -0.12924E-02
        -0.79321E-02
         0.53386E-02
         0.13405E-02
         0.35300E-02
         0.30487E-02
        -0.12923E-02
         0.43876E-02
         0.83167E-02
         0.20212E-01
         0.17942E-01
         0.15666E-01
         0.11477E-01
        -0.26835E-02
        -0.58184E-02
        -0.73105E-02
        -0.93459E-02
        -0.19025E-01
        -0.11088E-01
        -0.72865E-02
        -0.90831E-02
        -0.10706E-01
        -0.11191E-01
        -0.71485E-03
         0.13869E-01
        -0.20037E-01
         0.46683E-01
         0.60227E-01
         0.77624E-01
         0.92931E-01
         0.90957E-01
         0.79545E-01
         0.76307E-01
         0.75434E-01
         0.47422E-01
         0.15762E-01
         0.62460E-02
         0.54557E-02
        -0.22722E-02
        -0.21137E-01
        -0.42329E-01
        -0.58725E-01
        -0.76199E-01
        -0.84454E-01
        -0.74178E-01
        -0.70154E-01
        -0.69778E-01
        -0.48909E-01
        -0.25310E-01
        -0.23911E-01
        -0.13145E-01
        -0.82438E-02
        -0.76661E-02
        -0.19600E-02
        -0.99167E-02
        -0.44934E-02
        -0.35691E-02
        -0.12552E-01
        -0.82619E-02
        -0.12055E-01
         0.61913E-02
         0.26552E-01
         0.15794E-01
         0.22752E-02
         0.26549E-01
         0.49623E-02
        -0.16628E-02
         0.14090E-02
         0.65145E-02
         0.11626E-02
         0.57263E-02
         0.39878E-02
        -0.23226E-02
         0.19083E-02
        -0.81734E-02
         0.18656E-02
         0.57361E-03
         0.99966E-03
        -0.12756E-02
        -0.79438E-02
         0.53380E-02
         0.13324E-02
         0.35380E-02
         0.30543E-02
        -0.12784E-02
         0.43912E-02
         0.83171E-02
         0.20244E-01
         0.17982E-01
         0.15687E-01
         0.11489E-01
        -0.26696E-02
        -0.58212E-02
        -0.73210E-02
        -0.93523E-02
        -0.19029E-01
        -0.11093E-01
        -0.72863E-02
        -0.90745E-02
        -0.10692E-01
        -0.11187E-01
        -0.70192E-03
         0.13856E-01
        -0.20038E-01
         0.46691E-01
         0.60228E-01
         0.77614E-01
         0.92899E-01
         0.90918E-01
         0.79521E-01
         0.76291E-01
         0.75413E-01
         0.47414E-01
         0.15773E-01
         0.62469E-02
         0.54666E-02
        -0.22516E-02
        -0.21150E-01
        -0.42356E-01
        -0.58742E-01
        -0.76197E-01
        -0.84449E-01
        -0.74175E-01
        -0.70152E-01
        -0.69760E-01
        -0.48874E-01
        -0.25282E-01
        -0.23879E-01
        -0.13152E-01
        -0.82431E-02
        -0.76698E-02
        -0.19742E-02
        -0.99180E-02
        -0.44970E-02
        -0.35716E-02
        -0.12569E-01
        -0.82772E-02
        -0.12093E-01
         0.61968E-02
         0.26551E-01
         0.15799E-01
         0.22771E-02
         0.26584E-01
         0.49632E-02
        -0.16781E-02
         0.14066E-02
         0.65194E-02
         0.11545E-02
         0.57408E-02
         0.39906E-02
        -0.23260E-02
         0.19055E-02
        -0.82039E-02
         0.18585E-02
         0.58306E-03
         0.10096E-02
        -0.12588E-02
        -0.79555E-02
         0.53374E-02
         0.13242E-02
         0.35460E-02
         0.30598E-02
        -0.12644E-02
         0.43948E-02
         0.83177E-02
         0.20276E-01
         0.18023E-01
         0.15708E-01
         0.11502E-01
        -0.26556E-02
        -0.58240E-02
        -0.73317E-02
        -0.93589E-02
        -0.19033E-01
        -0.11098E-01
        -0.72859E-02
        -0.90659E-02
        -0.10679E-01
        -0.11182E-01
        -0.68901E-03
         0.13843E-01
        -0.20039E-01
         0.46699E-01
         0.60228E-01
         0.77605E-01
         0.92867E-01
         0.90879E-01
         0.79497E-01
         0.76276E-01
         0.75390E-01
         0.47407E-01
         0.15784E-01
         0.62478E-02
         0.54774E-02
        -0.22311E-02
        -0.21164E-01
        -0.42383E-01
        -0.58760E-01
        -0.76195E-01
        -0.84443E-01
        -0.74171E-01
        -0.70151E-01
        -0.69741E-01
        -0.48839E-01
        -0.25255E-01
        -0.23847E-01
        -0.13158E-01
        -0.82426E-02
        -0.76734E-02
        -0.19883E-02
        -0.99193E-02
        -0.45006E-02
        -0.35743E-02
        -0.12585E-01
        -0.82925E-02
        -0.12131E-01
         0.62024E-02
         0.26549E-01
         0.15805E-01
         0.22793E-02
         0.26617E-01
         0.49641E-02
        -0.16935E-02
         0.14043E-02
         0.65243E-02
         0.11463E-02
         0.57553E-02
         0.39934E-02
        -0.23294E-02
         0.19028E-02
        -0.82344E-02
         0.18515E-02
         0.59226E-03
         0.10194E-02
        -0.12421E-02
        -0.79672E-02
         0.53367E-02
         0.13161E-02
         0.35541E-02
         0.30654E-02
        -0.12504E-02
         0.43983E-02
         0.83182E-02
         0.20309E-01
         0.18063E-01
         0.15729E-01
         0.11515E-01
        -0.26417E-02
        -0.58268E-02
        -0.73421E-02
        -0.93653E-02
        -0.19038E-01
        -0.11104E-01
        -0.72855E-02
        -0.90571E-02
        -0.10665E-01
        -0.11178E-01
        -0.67619E-03
         0.13830E-01
        -0.20040E-01
         0.46707E-01
         0.60229E-01
         0.77596E-01
         0.92835E-01
         0.90840E-01
         0.79472E-01
         0.76260E-01
         0.75368E-01
         0.47399E-01
         0.15796E-01
         0.62488E-02
         0.54883E-02
        -0.22107E-02
        -0.21178E-01
        -0.42409E-01
        -0.58778E-01
        -0.76193E-01
        -0.84438E-01
        -0.74168E-01
        -0.70149E-01
        -0.69723E-01
        -0.48804E-01
        -0.25227E-01
        -0.23815E-01
        -0.13165E-01
        -0.82420E-02
        -0.76771E-02
        -0.20024E-02
        -0.99205E-02
        -0.45041E-02
        -0.35767E-02
        -0.12602E-01
        -0.83078E-02
        -0.12168E-01
         0.62079E-02
         0.26548E-01
         0.15810E-01
         0.22812E-02
         0.26652E-01
         0.49651E-02
        -0.17089E-02
         0.14021E-02
         0.65293E-02
         0.11381E-02
         0.57698E-02
         0.39962E-02
        -0.23328E-02
         0.19002E-02
        -0.82649E-02
         0.18445E-02
         0.60163E-03
         0.10291E-02
        -0.12255E-02
        -0.79789E-02
         0.53361E-02
         0.13079E-02
         0.35621E-02
         0.30709E-02
        -0.12364E-02
         0.44019E-02
         0.83187E-02
         0.20342E-01
         0.18104E-01
         0.15750E-01
         0.11528E-01
        -0.26277E-02
        -0.58297E-02
        -0.73526E-02
        -0.93718E-02
        -0.19042E-01
        -0.11108E-01
        -0.72854E-02
        -0.90485E-02
        -0.10652E-01
        -0.11173E-01
        -0.66328E-03
         0.13816E-01
        -0.20041E-01
         0.46715E-01
         0.60229E-01
         0.77587E-01
         0.92803E-01
         0.90800E-01
         0.79448E-01
         0.76244E-01
         0.75346E-01
         0.47391E-01
         0.15807E-01
         0.62497E-02
         0.54992E-02
        -0.21902E-02
        -0.21191E-01
        -0.42436E-01
        -0.58795E-01
        -0.76191E-01
        -0.84432E-01
        -0.74164E-01
        -0.70147E-01
        -0.69704E-01
        -0.48769E-01
        -0.25200E-01
        -0.23783E-01
        -0.13171E-01
        -0.82412E-02
        -0.76807E-02
        -0.20165E-02
        -0.99217E-02
        -0.45076E-02
        -0.35792E-02
        -0.12619E-01
        -0.83233E-02
        -0.12206E-01
         0.62134E-02
         0.26547E-01
         0.15815E-01
         0.22833E-02
         0.26685E-01
         0.49660E-02
        -0.17245E-02
         0.13998E-02
         0.65342E-02
         0.11299E-02
         0.57843E-02
         0.39989E-02
        -0.23361E-02
         0.18976E-02
        -0.82954E-02
         0.18374E-02
         0.61075E-03
         0.10386E-02
        -0.12090E-02
        -0.79906E-02
         0.53354E-02
         0.12998E-02
         0.35701E-02
         0.30766E-02
        -0.12222E-02
         0.44053E-02
         0.83193E-02
         0.20374E-01
         0.18144E-01
         0.15771E-01
         0.11541E-01
        -0.26138E-02
        -0.58326E-02
        -0.73630E-02
        -0.93784E-02
        -0.19046E-01
        -0.11114E-01
        -0.72849E-02
        -0.90399E-02
        -0.10638E-01
        -0.11168E-01
        -0.65036E-03
         0.13803E-01
        -0.20041E-01
         0.46722E-01
         0.60230E-01
         0.77577E-01
         0.92771E-01
         0.90760E-01
         0.79423E-01
         0.76229E-01
         0.75323E-01
         0.47383E-01
         0.15819E-01
         0.62506E-02
         0.55099E-02
        -0.21697E-02
        -0.21205E-01
        -0.42463E-01
        -0.58813E-01
        -0.76189E-01
        -0.84427E-01
        -0.74161E-01
        -0.70146E-01
        -0.69685E-01
        -0.48734E-01
        -0.25173E-01
        -0.23752E-01
        -0.13178E-01
        -0.82406E-02
        -0.76843E-02
        -0.20307E-02
        -0.99230E-02
        -0.45111E-02
        -0.35818E-02
        -0.12635E-01
        -0.83387E-02
        -0.12244E-01
         0.62190E-02
         0.26546E-01
         0.15821E-01
         0.22851E-02
         0.26720E-01
         0.49670E-02
        -0.17401E-02
         0.13974E-02
         0.65392E-02
         0.11218E-02
         0.57988E-02
         0.40014E-02
        -0.23395E-02
         0.18949E-02
        -0.83258E-02
         0.18303E-02
         0.62011E-03
         0.10480E-02
        -0.11924E-02
        -0.80020E-02
         0.53347E-02
         0.12916E-02
         0.35781E-02
         0.30822E-02
        -0.12081E-02
         0.44088E-02
         0.83197E-02
         0.20407E-01
         0.18185E-01
         0.15791E-01
         0.11553E-01
        -0.26000E-02
        -0.58355E-02
        -0.73736E-02
        -0.93849E-02
        -0.19051E-01
        -0.11119E-01
        -0.72847E-02
        -0.90314E-02
        -0.10625E-01
        -0.11164E-01
        -0.63756E-03
         0.13790E-01
        -0.20042E-01
         0.46730E-01
         0.60230E-01
         0.77568E-01
         0.92739E-01
         0.90720E-01
         0.79399E-01
         0.76213E-01
         0.75301E-01
         0.47376E-01
         0.15830E-01
         0.62513E-02
         0.55205E-02
        -0.21493E-02
        -0.21218E-01
        -0.42490E-01
        -0.58830E-01
        -0.76187E-01
        -0.84421E-01
        -0.74158E-01
        -0.70144E-01
        -0.69666E-01
        -0.48699E-01
        -0.25146E-01
        -0.23720E-01
        -0.13184E-01
        -0.82399E-02
        -0.76880E-02
        -0.20449E-02
        -0.99243E-02
        -0.45146E-02
        -0.35843E-02
        -0.12652E-01
        -0.83543E-02
        -0.12281E-01
         0.62245E-02
         0.26544E-01
         0.15826E-01
         0.22871E-02
         0.26753E-01
         0.49679E-02
        -0.17558E-02
         0.13950E-02
         0.65441E-02
         0.11141E-02
         0.58132E-02
         0.40039E-02
        -0.23429E-02
         0.18923E-02
        -0.83563E-02
         0.18233E-02
         0.62938E-03
         0.10574E-02
        -0.11758E-02
        -0.80127E-02
         0.53341E-02
         0.12834E-02
         0.35861E-02
         0.30878E-02
        -0.11939E-02
         0.44125E-02
         0.83203E-02
         0.20440E-01
         0.18225E-01
         0.15811E-01
         0.11566E-01
        -0.25860E-02
        -0.58385E-02
        -0.73841E-02
        -0.93914E-02
        -0.19055E-01
        -0.11124E-01
        -0.72844E-02
        -0.90226E-02
        -0.10611E-01
        -0.11160E-01
        -0.62474E-03
         0.13776E-01
        -0.20043E-01
         0.46738E-01
         0.60230E-01
         0.77558E-01
         0.92707E-01
         0.90680E-01
         0.79374E-01
         0.76197E-01
         0.75277E-01
         0.47369E-01
         0.15842E-01
         0.62515E-02
         0.55312E-02
        -0.21289E-02
        -0.21232E-01
        -0.42517E-01
        -0.58848E-01
        -0.76185E-01
        -0.84416E-01
        -0.74154E-01
        -0.70143E-01
        -0.69647E-01
        -0.48664E-01
        -0.25119E-01
        -0.23688E-01
        -0.13190E-01
        -0.82393E-02
        -0.76916E-02
        -0.20591E-02
        -0.99255E-02
        -0.45181E-02
        -0.35868E-02
        -0.12668E-01
        -0.83700E-02
        -0.12319E-01
         0.62300E-02
         0.26543E-01
         0.15831E-01
         0.22891E-02
         0.26788E-01
         0.49688E-02
        -0.17719E-02
         0.13927E-02
         0.65491E-02
         0.11067E-02
         0.58277E-02
         0.40064E-02
        -0.23463E-02
         0.18897E-02
        -0.83868E-02
         0.18163E-02
         0.63906E-03
         0.10666E-02
        -0.11593E-02
        -0.80228E-02
         0.53333E-02
         0.12752E-02
         0.35940E-02
         0.30934E-02
        -0.11797E-02
         0.44160E-02
         0.83208E-02
         0.20474E-01
         0.18265E-01
         0.15830E-01
         0.11578E-01
        -0.25721E-02
        -0.58417E-02
        -0.73945E-02
        -0.93980E-02
        -0.19060E-01
        -0.11129E-01
        -0.72840E-02
        -0.90141E-02
        -0.10598E-01
        -0.11155E-01
        -0.61182E-03
         0.13763E-01
        -0.20044E-01
         0.46745E-01
         0.60231E-01
         0.77549E-01
         0.92675E-01
         0.90640E-01
         0.79350E-01
         0.76181E-01
         0.75251E-01
         0.47363E-01
         0.15854E-01
         0.62513E-02
         0.55418E-02
        -0.21084E-02
        -0.21245E-01
        -0.42544E-01
        -0.58865E-01
        -0.76183E-01
        -0.84410E-01
        -0.74151E-01
        -0.70141E-01
        -0.69628E-01
        -0.48629E-01
        -0.25092E-01
        -0.23656E-01
        -0.13197E-01
        -0.82387E-02
        -0.76955E-02
        -0.20732E-02
        -0.99270E-02
        -0.45216E-02
        -0.35896E-02
        -0.12684E-01
        -0.83858E-02
        -0.12356E-01
         0.62356E-02
         0.26542E-01
         0.15836E-01
         0.22909E-02
         0.26822E-01
         0.49699E-02
        -0.17880E-02
         0.13903E-02
         0.65541E-02
         0.10995E-02
         0.58422E-02
         0.40088E-02
        -0.23494E-02
         0.18872E-02
        -0.84173E-02
         0.18094E-02
         0.64848E-03
         0.10755E-02
        -0.11431E-02
        -0.80327E-02
         0.53327E-02
         0.12672E-02
         0.36019E-02
         0.30991E-02
        -0.11655E-02
         0.44194E-02
         0.83210E-02
         0.20508E-01
         0.18305E-01
         0.15848E-01
         0.11590E-01
        -0.25585E-02
        -0.58451E-02
        -0.74048E-02
        -0.94043E-02
        -0.19064E-01
        -0.11134E-01
        -0.72837E-02
        -0.90055E-02
        -0.10585E-01
        -0.11151E-01
        -0.59900E-03
         0.13749E-01
        -0.20045E-01
         0.46753E-01
         0.60231E-01
         0.77540E-01
         0.92643E-01
         0.90601E-01
         0.79326E-01
         0.76165E-01
         0.75226E-01
         0.47358E-01
         0.15865E-01
         0.62507E-02
         0.55524E-02
        -0.20879E-02
        -0.21259E-01
        -0.42570E-01
        -0.58883E-01
        -0.76182E-01
        -0.84405E-01
        -0.74147E-01
        -0.70139E-01
        -0.69609E-01
        -0.48594E-01
        -0.25066E-01
        -0.23624E-01
        -0.13253E-01
        -0.82707E-02
        -0.77297E-02
        -0.20948E-02
        -0.99657E-02
        -0.45417E-02
        -0.36064E-02
        -0.12747E-01
        -0.84325E-02
        -0.12437E-01
         0.62640E-02
         0.26635E-01
         0.15898E-01
         0.23011E-02
         0.26952E-01
         0.49901E-02
        -0.18099E-02
         0.13933E-02
         0.65834E-02
         0.10973E-02
         0.58765E-02
         0.40256E-02
        -0.23591E-02
         0.18932E-02
        -0.84781E-02
         0.18117E-02
         0.65954E-03
         0.10863E-02
        -0.11341E-02
        -0.80736E-02
         0.53533E-02
         0.12664E-02
         0.36233E-02
         0.31164E-02
        -0.11570E-02
         0.44371E-02
         0.83500E-02
         0.20614E-01
         0.18411E-01
         0.15924E-01
         0.11644E-01
        -0.25574E-02
        -0.58712E-02
        -0.74377E-02
        -0.94412E-02
        -0.19132E-01
        -0.11176E-01
        -0.73074E-02
        -0.90292E-02
        -0.10610E-01
        -0.11186E-01
        -0.58850E-03
         0.13780E-01
        -0.20115E-01
         0.46915E-01
         0.60432E-01
         0.77794E-01
         0.92934E-01
         0.90884E-01
         0.79586E-01
         0.76422E-01
         0.75473E-01
         0.47520E-01
         0.15927E-01
         0.62691E-02
         0.55801E-02
        -0.20751E-02
        -0.21335E-01
        -0.42725E-01
        -0.59087E-01
        -0.76436E-01
        -0.84684E-01
        -0.74385E-01
        -0.70363E-01
        -0.69818E-01
        -0.48720E-01
        -0.25122E-01
        -0.23671E-01
        -0.19721E-01
        -0.12356E-01
        -0.11484E-01
        -0.31395E-02
        -0.14289E-01
        -0.65777E-02
        -0.53771E-02
        -0.18882E-01
        -0.12529E-01
        -0.18388E-01
         0.91783E-02
         0.37476E-01
         0.22712E-01
         0.33578E-02
         0.38142E-01
         0.74335E-02
        -0.27046E-02
         0.20741E-02
         0.96763E-02
         0.16122E-02
         0.84048E-02
         0.58239E-02
        -0.33760E-02
         0.28033E-02
        -0.12660E-01
         0.27043E-02
         0.97845E-03
         0.16225E-02
        -0.16857E-02
        -0.12032E-01
         0.79751E-02
         0.18800E-02
         0.54162E-02
         0.46518E-02
        -0.16056E-02
         0.64149E-02
         0.12072E-01
         0.29821E-01
         0.27020E-01
         0.23451E-01
         0.16911E-01
        -0.37346E-02
        -0.85911E-02
        -0.10729E-01
        -0.13571E-01
        -0.26710E-01
        -0.16010E-01
        -0.10594E-01
        -0.13156E-01
        -0.15390E-01
        -0.15840E-01
        -0.83599E-03
         0.17158E-01
        -0.25035E-01
         0.58394E-01
         0.75431E-01
         0.97025E-01
         0.11618E+00
         0.11487E+00
         0.10145E+00
         0.97239E-01
         0.95460E-01
         0.60182E-01
         0.20139E-01
         0.80112E-02
         0.71654E-02
        -0.26106E-02
        -0.26710E-01
        -0.53329E-01
        -0.73331E-01
        -0.94785E-01
        -0.10513E+00
        -0.93319E-01
        -0.88670E-01
        -0.87655E-01
        -0.61367E-01
        -0.31540E-01
        -0.29606E-01
  
SCALARS                      strain_xz  double 1
LOOKUP_TABLE default
        -0.88427E-03
         0.59257E-02
         0.20212E-01
        -0.14696E-02
        -0.21722E-09
         0.77020E-10
         0.25754E-09
         0.51435E-10
         0.54971E-01
         0.37365E-01
         0.77032E-09
         0.69386E-09
        -0.21729E-02
         0.88405E-02
        -0.95007E-10
        -0.44506E-09
         0.21311E-02
         0.85207E-02
        -0.32148E-09
        -0.47880E-09
         0.11738E-01
         0.18824E-01
         0.19281E-01
        -0.31972E-09
        -0.14743E-09
         0.25757E-09
         0.19918E-01
         0.14999E-01
        -0.59847E-09
        -0.47474E-09
        -0.49729E-02
         0.10336E-01
        -0.11247E-02
         0.60932E-10
        -0.23547E-09
        -0.14506E-09
        -0.14203E-01
        -0.62732E-02
        -0.34959E-09
        -0.37222E-09
        -0.27365E-01
        -0.36212E-01
        -0.78857E-09
        -0.58154E-09
        -0.30955E-01
        -0.16886E-01
        -0.86599E-09
        -0.41682E-09
         0.74116E-02
        -0.26164E-09
        -0.21575E-01
        -0.72831E-10
         0.70829E-02
        -0.51125E-09
        -0.51672E-02
        -0.13524E-09
        -0.22621E-01
        -0.67385E-02
        -0.11585E-09
        -0.28003E-09
         0.53029E-03
        -0.14266E-01
         0.23171E-09
         0.15890E-09
         0.38591E-02
        -0.23307E-10
         0.12540E-01
         0.15330E-09
         0.76145E-01
         0.51719E-01
         0.95820E-09
         0.69495E-09
         0.32632E-01
         0.50602E-09
        -0.60310E-02
        -0.35004E-09
        -0.18615E-01
        -0.68700E-10
        -0.39751E-01
        -0.10658E-09
        -0.54665E-01
        -0.40305E-01
        -0.39061E-09
        -0.44672E-09
        -0.38337E-01
        -0.48043E-09
        -0.37495E-01
        -0.69170E-09
        -0.22658E-01
        -0.44118E-09
        -0.34794E-01
        -0.25216E-01
        -0.18829E-09
         0.25822E-09
         0.58635E-02
         0.30288E-09
         0.16293E-01
         0.12718E-09
         0.38698E-01
         0.31405E-09
         0.57010E-01
         0.39552E-01
         0.72412E-09
         0.75562E-09
         0.13143E+00
         0.15010E+00
         0.13380E-08
         0.13186E-08
         0.12953E+00
         0.11431E-08
         0.12234E+00
         0.85422E-09
         0.84772E-01
         0.46943E-09
         0.56927E-01
         0.50198E-10
         0.19503E-01
        -0.17879E-09
        -0.23897E-01
        -0.14304E-09
        -0.56730E-01
        -0.14059E-09
        -0.84417E-01
        -0.31705E-09
        -0.11989E+00
        -0.60319E-09
        -0.16071E+00
        -0.71980E-09
        -0.18891E+00
        -0.67915E-09
        -0.19017E+00
        -0.73852E-09
        -0.18378E+00
        -0.95849E-09
        -0.17103E+00
        -0.11303E-08
        -0.15070E+00
        -0.10507E-08
        -0.11001E+00
        -0.85390E-09
        -0.60618E-01
        -0.40311E-09
        -0.50901E-02
         0.76975E-10
         0.34374E-01
         0.18688E-09
         0.54724E-01
         0.30560E-09
         0.79847E-01
         0.59807E-09
         0.10524E+00
         0.98139E-09
         0.14154E+00
         0.11791E-08
         0.16743E+00
         0.12060E-08
        -0.23250E-02
         0.12138E-02
         0.14235E-02
        -0.28554E-02
         0.11123E-01
         0.85814E-02
         0.12995E-02
        -0.19063E-02
        -0.97901E-03
        -0.17474E-02
         0.96277E-03
         0.41705E-02
         0.87049E-02
        -0.27840E-02
        -0.33516E-02
         0.38009E-02
         0.31920E-02
        -0.14767E-02
        -0.23104E-02
        -0.24833E-02
        -0.13593E-01
        -0.14462E-01
        -0.13079E-01
        -0.40629E-02
         0.16268E-02
        -0.12124E-02
        -0.39033E-02
        -0.43761E-03
        -0.44830E-02
        -0.30765E-02
         0.33947E-02
         0.66859E-03
        -0.15997E-02
        -0.51854E-03
         0.16482E-01
         0.10491E-01
         0.94884E-02
        -0.66474E-02
        -0.37867E-02
        -0.81061E-02
        -0.16687E-01
        -0.15535E-01
        -0.15302E-01
        -0.11252E-01
        -0.80820E-02
        -0.63324E-02
         0.11878E-02
         0.49503E-02
         0.14318E-02
         0.45467E-02
         0.12161E-01
         0.10225E-01
         0.48207E-01
         0.50651E-01
         0.45278E-01
         0.38528E-01
         0.28696E-01
         0.14619E-01
        -0.86680E-03
        -0.10400E-01
        -0.15845E-01
        -0.27206E-01
        -0.44325E-01
        -0.54011E-01
        -0.49453E-01
        -0.47416E-01
        -0.50090E-01
        -0.50078E-01
        -0.45501E-01
        -0.39859E-01
        -0.20179E-01
         0.31915E-02
         0.12266E-01
         0.13671E-01
         0.23150E-01
         0.36955E-01
         0.47959E-01
         0.50411E-01
        -0.44361E-02
         0.91065E-03
        -0.17337E-02
        -0.50480E-02
         0.10354E-01
         0.88487E-02
         0.25781E-02
        -0.56279E-02
        -0.25859E-02
        -0.53504E-02
        -0.10809E-02
         0.39433E-02
         0.12973E-01
        -0.99489E-02
        -0.10304E-01
         0.87154E-02
         0.48519E-02
        -0.29061E-02
        -0.19557E-02
        -0.34345E-02
        -0.20378E-01
        -0.19421E-01
        -0.19165E-01
        -0.46355E-02
         0.26329E-02
         0.17728E-02
        -0.96139E-02
         0.12765E-02
        -0.32175E-02
        -0.43876E-02
         0.66960E-02
         0.43329E-02
        -0.43429E-02
        -0.37482E-02
         0.18466E-01
         0.10192E-01
         0.11691E-01
        -0.11427E-01
        -0.19133E-02
        -0.55472E-02
        -0.20379E-01
        -0.20963E-01
        -0.20491E-01
        -0.14816E-01
        -0.11410E-01
        -0.66759E-02
         0.72152E-02
         0.85180E-02
        -0.11260E-02
         0.13557E-02
         0.13896E-01
         0.12241E-01
         0.77150E-01
         0.77744E-01
         0.69784E-01
         0.57558E-01
         0.42943E-01
         0.19775E-01
        -0.49103E-02
        -0.15913E-01
        -0.20964E-01
        -0.38424E-01
        -0.68252E-01
        -0.80518E-01
        -0.67537E-01
        -0.64257E-01
        -0.70785E-01
        -0.72893E-01
        -0.66527E-01
        -0.62920E-01
        -0.32060E-01
         0.83325E-02
         0.18432E-01
         0.18675E-01
         0.33200E-01
         0.57485E-01
         0.73577E-01
         0.73345E-01
        -0.44445E-02
         0.91403E-03
        -0.17369E-02
        -0.50514E-02
         0.10344E-01
         0.88405E-02
         0.25945E-02
        -0.56137E-02
        -0.25888E-02
        -0.53462E-02
        -0.10590E-02
         0.39529E-02
         0.12981E-01
        -0.99244E-02
        -0.10299E-01
         0.87244E-02
         0.48626E-02
        -0.28980E-02
        -0.19547E-02
        -0.34285E-02
        -0.20376E-01
        -0.19419E-01
        -0.19163E-01
        -0.46357E-02
         0.26388E-02
         0.17757E-02
        -0.96168E-02
         0.12525E-02
        -0.32401E-02
        -0.43904E-02
         0.67057E-02
         0.43323E-02
        -0.43248E-02
        -0.37498E-02
         0.18475E-01
         0.10187E-01
         0.11687E-01
        -0.11446E-01
        -0.19316E-02
        -0.55647E-02
        -0.20392E-01
        -0.20975E-01
        -0.20492E-01
        -0.14814E-01
        -0.11406E-01
        -0.66724E-02
         0.72138E-02
         0.85208E-02
        -0.11178E-02
         0.13511E-02
         0.13887E-01
         0.12223E-01
         0.77123E-01
         0.77724E-01
         0.69778E-01
         0.57558E-01
         0.42930E-01
         0.19769E-01
        -0.49159E-02
        -0.15923E-01
        -0.20946E-01
        -0.38409E-01
        -0.68242E-01
        -0.80520E-01
        -0.67531E-01
        -0.64253E-01
        -0.70793E-01
        -0.72908E-01
        -0.66539E-01
        -0.62932E-01
        -0.32051E-01
         0.83363E-02
         0.18418E-01
         0.18668E-01
         0.33175E-01
         0.57450E-01
         0.73540E-01
         0.73313E-01
        -0.44529E-02
         0.91736E-03
        -0.17402E-02
        -0.50547E-02
         0.10334E-01
         0.88326E-02
         0.26110E-02
        -0.55994E-02
        -0.25914E-02
        -0.53417E-02
        -0.10372E-02
         0.39625E-02
         0.12989E-01
        -0.98999E-02
        -0.10293E-01
         0.87337E-02
         0.48734E-02
        -0.28899E-02
        -0.19538E-02
        -0.34227E-02
        -0.20374E-01
        -0.19417E-01
        -0.19162E-01
        -0.46360E-02
         0.26451E-02
         0.17789E-02
        -0.96196E-02
         0.12288E-02
        -0.32629E-02
        -0.43932E-02
         0.67157E-02
         0.43320E-02
        -0.43066E-02
        -0.37515E-02
         0.18485E-01
         0.10183E-01
         0.11683E-01
        -0.11464E-01
        -0.19499E-02
        -0.55823E-02
        -0.20405E-01
        -0.20988E-01
        -0.20493E-01
        -0.14812E-01
        -0.11402E-01
        -0.66692E-02
         0.72125E-02
         0.85236E-02
        -0.11093E-02
         0.13463E-02
         0.13878E-01
         0.12205E-01
         0.77097E-01
         0.77704E-01
         0.69772E-01
         0.57559E-01
         0.42916E-01
         0.19764E-01
        -0.49215E-02
        -0.15933E-01
        -0.20928E-01
        -0.38394E-01
        -0.68231E-01
        -0.80522E-01
        -0.67525E-01
        -0.64249E-01
        -0.70803E-01
        -0.72925E-01
        -0.66551E-01
        -0.62945E-01
        -0.32042E-01
         0.83401E-02
         0.18405E-01
         0.18660E-01
         0.33151E-01
         0.57415E-01
         0.73504E-01
         0.73280E-01
        -0.44613E-02
         0.92080E-03
        -0.17434E-02
        -0.50580E-02
         0.10324E-01
         0.88244E-02
         0.26272E-02
        -0.55851E-02
        -0.25938E-02
        -0.53364E-02
        -0.10154E-02
         0.39723E-02
         0.12997E-01
        -0.98754E-02
        -0.10288E-01
         0.87438E-02
         0.48848E-02
        -0.28817E-02
        -0.19529E-02
        -0.34166E-02
        -0.20373E-01
        -0.19415E-01
        -0.19162E-01
        -0.46362E-02
         0.26527E-02
         0.17829E-02
        -0.96219E-02
         0.12059E-02
        -0.32855E-02
        -0.43957E-02
         0.67266E-02
         0.43324E-02
        -0.42883E-02
        -0.37532E-02
         0.18494E-01
         0.10178E-01
         0.11680E-01
        -0.11482E-01
        -0.19682E-02
        -0.55998E-02
        -0.20418E-01
        -0.21001E-01
        -0.20496E-01
        -0.14811E-01
        -0.11397E-01
        -0.66656E-02
         0.72114E-02
         0.85266E-02
        -0.11009E-02
         0.13415E-02
         0.13869E-01
         0.12187E-01
         0.77070E-01
         0.77684E-01
         0.69766E-01
         0.57559E-01
         0.42903E-01
         0.19758E-01
        -0.49271E-02
        -0.15943E-01
        -0.20911E-01
        -0.38379E-01
        -0.68221E-01
        -0.80524E-01
        -0.67520E-01
        -0.64246E-01
        -0.70813E-01
        -0.72943E-01
        -0.66564E-01
        -0.62957E-01
        -0.32034E-01
         0.83439E-02
         0.18391E-01
         0.18653E-01
         0.33127E-01
         0.57379E-01
         0.73467E-01
         0.73247E-01
        -0.44697E-02
         0.92424E-03
        -0.17466E-02
        -0.50613E-02
         0.10314E-01
         0.88162E-02
         0.26437E-02
        -0.55706E-02
        -0.25958E-02
        -0.53303E-02
        -0.99358E-03
         0.39819E-02
         0.13005E-01
        -0.98509E-02
        -0.10282E-01
         0.87547E-02
         0.48966E-02
        -0.28736E-02
        -0.19519E-02
        -0.34104E-02
        -0.20373E-01
        -0.19414E-01
        -0.19163E-01
        -0.46365E-02
         0.26614E-02
         0.17874E-02
        -0.96238E-02
         0.11836E-02
        -0.33081E-02
        -0.43982E-02
         0.67381E-02
         0.43335E-02
        -0.42700E-02
        -0.37549E-02
         0.18503E-01
         0.10174E-01
         0.11676E-01
        -0.11500E-01
        -0.19864E-02
        -0.56175E-02
        -0.20432E-01
        -0.21015E-01
        -0.20500E-01
        -0.14810E-01
        -0.11393E-01
        -0.66617E-02
         0.72106E-02
         0.85298E-02
        -0.10925E-02
         0.13368E-02
         0.13861E-01
         0.12169E-01
         0.77044E-01
         0.77664E-01
         0.69759E-01
         0.57559E-01
         0.42890E-01
         0.19752E-01
        -0.49327E-02
        -0.15953E-01
        -0.20893E-01
        -0.38363E-01
        -0.68210E-01
        -0.80527E-01
        -0.67517E-01
        -0.64244E-01
        -0.70824E-01
        -0.72965E-01
        -0.66578E-01
        -0.62969E-01
        -0.32025E-01
         0.83477E-02
         0.18378E-01
         0.18646E-01
         0.33102E-01
         0.57344E-01
         0.73430E-01
         0.73215E-01
        -0.44777E-02
         0.92797E-03
        -0.17495E-02
        -0.50646E-02
         0.10304E-01
         0.88081E-02
         0.26602E-02
        -0.55560E-02
        -0.25977E-02
        -0.53240E-02
        -0.97174E-03
         0.39915E-02
         0.13012E-01
        -0.98264E-02
        -0.10277E-01
         0.87657E-02
         0.49084E-02
        -0.28654E-02
        -0.19508E-02
        -0.34045E-02
        -0.20372E-01
        -0.19413E-01
        -0.19164E-01
        -0.46369E-02
         0.26701E-02
         0.17920E-02
        -0.96257E-02
         0.11615E-02
        -0.33309E-02
        -0.44010E-02
         0.67496E-02
         0.43344E-02
        -0.42514E-02
        -0.37564E-02
         0.18513E-01
         0.10170E-01
         0.11672E-01
        -0.11519E-01
        -0.20046E-02
        -0.56352E-02
        -0.20446E-01
        -0.21029E-01
        -0.20505E-01
        -0.14809E-01
        -0.11389E-01
        -0.66584E-02
         0.72096E-02
         0.85328E-02
        -0.10839E-02
         0.13325E-02
         0.13852E-01
         0.12151E-01
         0.77018E-01
         0.77644E-01
         0.69753E-01
         0.57560E-01
         0.42877E-01
         0.19746E-01
        -0.49381E-02
        -0.15962E-01
        -0.20875E-01
        -0.38348E-01
        -0.68199E-01
        -0.80530E-01
        -0.67514E-01
        -0.64242E-01
        -0.70835E-01
        -0.72987E-01
        -0.66593E-01
        -0.62980E-01
        -0.32016E-01
         0.83511E-02
         0.18364E-01
         0.18638E-01
         0.33078E-01
         0.57309E-01
         0.73394E-01
         0.73182E-01
        -0.44850E-02
         0.93245E-03
        -0.17517E-02
        -0.50677E-02
         0.10294E-01
         0.88002E-02
         0.26770E-02
        -0.55410E-02
        -0.25997E-02
        -0.53181E-02
        -0.94980E-03
         0.40012E-02
         0.13020E-01
        -0.98018E-02
        -0.10271E-01
         0.87767E-02
         0.49198E-02
        -0.28571E-02
        -0.19499E-02
        -0.33988E-02
        -0.20372E-01
        -0.19413E-01
        -0.19166E-01
        -0.46374E-02
         0.26778E-02
         0.17961E-02
        -0.96277E-02
         0.11389E-02
        -0.33538E-02
        -0.44043E-02
         0.67604E-02
         0.43346E-02
        -0.42325E-02
        -0.37574E-02
         0.18522E-01
         0.10166E-01
         0.11669E-01
        -0.11537E-01
        -0.20230E-02
        -0.56533E-02
        -0.20460E-01
        -0.21044E-01
        -0.20510E-01
        -0.14809E-01
        -0.11385E-01
        -0.66554E-02
         0.72079E-02
         0.85357E-02
        -0.10745E-02
         0.13291E-02
         0.13845E-01
         0.12134E-01
         0.76991E-01
         0.77624E-01
         0.69746E-01
         0.57560E-01
         0.42863E-01
         0.19740E-01
        -0.49436E-02
        -0.15972E-01
        -0.20858E-01
        -0.38333E-01
        -0.68188E-01
        -0.80534E-01
        -0.67512E-01
        -0.64240E-01
        -0.70847E-01
        -0.73009E-01
        -0.66609E-01
        -0.62991E-01
        -0.32006E-01
         0.83540E-02
         0.18350E-01
         0.18631E-01
         0.33054E-01
         0.57275E-01
         0.73358E-01
         0.73149E-01
        -0.44921E-02
         0.93716E-03
        -0.17536E-02
        -0.50708E-02
         0.10285E-01
         0.87920E-02
         0.26939E-02
        -0.55258E-02
        -0.26019E-02
        -0.53124E-02
        -0.92780E-03
         0.40108E-02
         0.13029E-01
        -0.97772E-02
        -0.10265E-01
         0.87877E-02
         0.49309E-02
        -0.28488E-02
        -0.19488E-02
        -0.33934E-02
        -0.20372E-01
        -0.19412E-01
        -0.19168E-01
        -0.46379E-02
         0.26849E-02
         0.18000E-02
        -0.96298E-02
         0.11162E-02
        -0.33771E-02
        -0.44078E-02
         0.67709E-02
         0.43343E-02
        -0.42134E-02
        -0.37583E-02
         0.18532E-01
         0.10163E-01
         0.11666E-01
        -0.11555E-01
        -0.20413E-02
        -0.56712E-02
        -0.20474E-01
        -0.21059E-01
        -0.20515E-01
        -0.14809E-01
        -0.11381E-01
        -0.66529E-02
         0.72060E-02
         0.85384E-02
        -0.10648E-02
         0.13262E-02
         0.13837E-01
         0.12116E-01
         0.76965E-01
         0.77604E-01
         0.69740E-01
         0.57560E-01
         0.42850E-01
         0.19734E-01
        -0.49491E-02
        -0.15982E-01
        -0.20840E-01
        -0.38318E-01
        -0.68177E-01
        -0.80537E-01
        -0.67509E-01
        -0.64238E-01
        -0.70858E-01
        -0.73032E-01
        -0.66624E-01
        -0.63002E-01
        -0.31997E-01
         0.83566E-02
         0.18336E-01
         0.18624E-01
         0.33031E-01
         0.57240E-01
         0.73322E-01
         0.73117E-01
        -0.44991E-02
         0.94193E-03
        -0.17555E-02
        -0.50738E-02
         0.10275E-01
         0.87838E-02
         0.27108E-02
        -0.55107E-02
        -0.26040E-02
        -0.53068E-02
        -0.90588E-03
         0.40205E-02
         0.13037E-01
        -0.97527E-02
        -0.10260E-01
         0.87987E-02
         0.49420E-02
        -0.28405E-02
        -0.19478E-02
        -0.33877E-02
        -0.20371E-01
        -0.19412E-01
        -0.19170E-01
        -0.46385E-02
         0.26921E-02
         0.18038E-02
        -0.96320E-02
         0.10935E-02
        -0.34004E-02
        -0.44113E-02
         0.67815E-02
         0.43340E-02
        -0.41942E-02
        -0.37592E-02
         0.18543E-01
         0.10159E-01
         0.11664E-01
        -0.11573E-01
        -0.20597E-02
        -0.56891E-02
        -0.20488E-01
        -0.21074E-01
        -0.20520E-01
        -0.14809E-01
        -0.11378E-01
        -0.66504E-02
         0.72042E-02
         0.85410E-02
        -0.10552E-02
         0.13234E-02
         0.13830E-01
         0.12099E-01
         0.76938E-01
         0.77585E-01
         0.69733E-01
         0.57560E-01
         0.42837E-01
         0.19728E-01
        -0.49545E-02
        -0.15992E-01
        -0.20823E-01
        -0.38303E-01
        -0.68166E-01
        -0.80540E-01
        -0.67507E-01
        -0.64236E-01
        -0.70870E-01
        -0.73054E-01
        -0.66639E-01
        -0.63013E-01
        -0.31988E-01
         0.83593E-02
         0.18321E-01
         0.18617E-01
         0.33007E-01
         0.57205E-01
         0.73285E-01
         0.73084E-01
        -0.45061E-02
         0.94674E-03
        -0.17574E-02
        -0.50769E-02
         0.10265E-01
         0.87756E-02
         0.27278E-02
        -0.54956E-02
        -0.26062E-02
        -0.53012E-02
        -0.88395E-03
         0.40301E-02
         0.13045E-01
        -0.97283E-02
        -0.10254E-01
         0.88096E-02
         0.49532E-02
        -0.28324E-02
        -0.19467E-02
        -0.33823E-02
        -0.20371E-01
        -0.19411E-01
        -0.19171E-01
        -0.46392E-02
         0.26992E-02
         0.18076E-02
        -0.96343E-02
         0.10709E-02
        -0.34235E-02
        -0.44147E-02
         0.67920E-02
         0.43337E-02
        -0.41751E-02
        -0.37602E-02
         0.18552E-01
         0.10156E-01
         0.11661E-01
        -0.11591E-01
        -0.20782E-02
        -0.57073E-02
        -0.20502E-01
        -0.21089E-01
        -0.20525E-01
        -0.14809E-01
        -0.11375E-01
        -0.66477E-02
         0.72023E-02
         0.85438E-02
        -0.10456E-02
         0.13204E-02
         0.13823E-01
         0.12081E-01
         0.76912E-01
         0.77565E-01
         0.69726E-01
         0.57560E-01
         0.42824E-01
         0.19721E-01
        -0.49599E-02
        -0.16001E-01
        -0.20805E-01
        -0.38287E-01
        -0.68154E-01
        -0.80543E-01
        -0.67504E-01
        -0.64233E-01
        -0.70881E-01
        -0.73077E-01
        -0.66654E-01
        -0.63024E-01
        -0.31978E-01
         0.83619E-02
         0.18307E-01
         0.18610E-01
         0.32984E-01
         0.57171E-01
         0.73249E-01
         0.73052E-01
        -0.45131E-02
         0.95152E-03
        -0.17593E-02
        -0.50799E-02
         0.10256E-01
         0.87677E-02
         0.27446E-02
        -0.54804E-02
        -0.26083E-02
        -0.52956E-02
        -0.86199E-03
         0.40399E-02
         0.13053E-01
        -0.97039E-02
        -0.10248E-01
         0.88205E-02
         0.49643E-02
        -0.28242E-02
        -0.19459E-02
        -0.33766E-02
        -0.20371E-01
        -0.19410E-01
        -0.19173E-01
        -0.46398E-02
         0.27063E-02
         0.18113E-02
        -0.96366E-02
         0.10483E-02
        -0.34467E-02
        -0.44181E-02
         0.68024E-02
         0.43334E-02
        -0.41561E-02
        -0.37611E-02
         0.18563E-01
         0.10152E-01
         0.11658E-01
        -0.11609E-01
        -0.20966E-02
        -0.57252E-02
        -0.20517E-01
        -0.21103E-01
        -0.20530E-01
        -0.14809E-01
        -0.11372E-01
        -0.66453E-02
         0.72004E-02
         0.85465E-02
        -0.10359E-02
         0.13175E-02
         0.13816E-01
         0.12064E-01
         0.76885E-01
         0.77545E-01
         0.69720E-01
         0.57560E-01
         0.42810E-01
         0.19716E-01
        -0.49652E-02
        -0.16011E-01
        -0.20788E-01
        -0.38272E-01
        -0.68143E-01
        -0.80547E-01
        -0.67501E-01
        -0.64231E-01
        -0.70892E-01
        -0.73099E-01
        -0.66669E-01
        -0.63035E-01
        -0.31969E-01
         0.83644E-02
         0.18292E-01
         0.18602E-01
         0.32960E-01
         0.57136E-01
         0.73213E-01
         0.73019E-01
        -0.45202E-02
         0.95628E-03
        -0.17611E-02
        -0.50830E-02
         0.10246E-01
         0.87596E-02
         0.27615E-02
        -0.54653E-02
        -0.26104E-02
        -0.52900E-02
        -0.84009E-03
         0.40496E-02
         0.13061E-01
        -0.96796E-02
        -0.10242E-01
         0.88314E-02
         0.49754E-02
        -0.28159E-02
        -0.19449E-02
        -0.33712E-02
        -0.20371E-01
        -0.19410E-01
        -0.19175E-01
        -0.46405E-02
         0.27134E-02
         0.18152E-02
        -0.96389E-02
         0.10258E-02
        -0.34696E-02
        -0.44217E-02
         0.68130E-02
         0.43331E-02
        -0.41369E-02
        -0.37620E-02
         0.18573E-01
         0.10149E-01
         0.11655E-01
        -0.11627E-01
        -0.21152E-02
        -0.57434E-02
        -0.20531E-01
        -0.21118E-01
        -0.20534E-01
        -0.14809E-01
        -0.11368E-01
        -0.66429E-02
         0.71986E-02
         0.85493E-02
        -0.10262E-02
         0.13147E-02
         0.13809E-01
         0.12047E-01
         0.76858E-01
         0.77525E-01
         0.69713E-01
         0.57560E-01
         0.42797E-01
         0.19710E-01
        -0.49705E-02
        -0.16020E-01
        -0.20770E-01
        -0.38257E-01
        -0.68132E-01
        -0.80550E-01
        -0.67498E-01
        -0.64229E-01
        -0.70904E-01
        -0.73121E-01
        -0.66684E-01
        -0.63046E-01
        -0.31960E-01
         0.83670E-02
         0.18278E-01
         0.18595E-01
         0.32937E-01
         0.57102E-01
         0.73177E-01
         0.72987E-01
        -0.45272E-02
         0.96109E-03
        -0.17629E-02
        -0.50859E-02
         0.10237E-01
         0.87514E-02
         0.27784E-02
        -0.54501E-02
        -0.26125E-02
        -0.52843E-02
        -0.81825E-03
         0.40592E-02
         0.13069E-01
        -0.96552E-02
        -0.10236E-01
         0.88423E-02
         0.49864E-02
        -0.28077E-02
        -0.19439E-02
        -0.33656E-02
        -0.20370E-01
        -0.19409E-01
        -0.19176E-01
        -0.46412E-02
         0.27203E-02
         0.18190E-02
        -0.96411E-02
         0.10032E-02
        -0.34927E-02
        -0.44251E-02
         0.68235E-02
         0.43328E-02
        -0.41176E-02
        -0.37629E-02
         0.18583E-01
         0.10146E-01
         0.11653E-01
        -0.11644E-01
        -0.21337E-02
        -0.57614E-02
        -0.20545E-01
        -0.21133E-01
        -0.20539E-01
        -0.14809E-01
        -0.11365E-01
        -0.66401E-02
         0.71967E-02
         0.85520E-02
        -0.10164E-02
         0.13118E-02
         0.13801E-01
         0.12029E-01
         0.76832E-01
         0.77506E-01
         0.69706E-01
         0.57560E-01
         0.42784E-01
         0.19704E-01
        -0.49759E-02
        -0.16030E-01
        -0.20752E-01
        -0.38242E-01
        -0.68121E-01
        -0.80553E-01
        -0.67496E-01
        -0.64227E-01
        -0.70915E-01
        -0.73143E-01
        -0.66699E-01
        -0.63057E-01
        -0.31950E-01
         0.83695E-02
         0.18264E-01
         0.18588E-01
         0.32913E-01
         0.57067E-01
         0.73141E-01
         0.72954E-01
        -0.45343E-02
         0.96582E-03
        -0.17647E-02
        -0.50889E-02
         0.10227E-01
         0.87432E-02
         0.27951E-02
        -0.54350E-02
        -0.26146E-02
        -0.52786E-02
        -0.79645E-03
         0.40689E-02
         0.13078E-01
        -0.96309E-02
        -0.10231E-01
         0.88531E-02
         0.49975E-02
        -0.27995E-02
        -0.19431E-02
        -0.33601E-02
        -0.20370E-01
        -0.19409E-01
        -0.19178E-01
        -0.46419E-02
         0.27273E-02
         0.18228E-02
        -0.96431E-02
         0.98085E-03
        -0.35158E-02
        -0.44285E-02
         0.68340E-02
         0.43324E-02
        -0.40984E-02
        -0.37638E-02
         0.18593E-01
         0.10142E-01
         0.11650E-01
        -0.11662E-01
        -0.21523E-02
        -0.57796E-02
        -0.20559E-01
        -0.21147E-01
        -0.20544E-01
        -0.14809E-01
        -0.11362E-01
        -0.66376E-02
         0.71948E-02
         0.85547E-02
        -0.10067E-02
         0.13089E-02
         0.13794E-01
         0.12012E-01
         0.76805E-01
         0.77486E-01
         0.69699E-01
         0.57560E-01
         0.42771E-01
         0.19697E-01
        -0.49813E-02
        -0.16039E-01
        -0.20735E-01
        -0.38226E-01
        -0.68110E-01
        -0.80556E-01
        -0.67493E-01
        -0.64225E-01
        -0.70927E-01
        -0.73166E-01
        -0.66714E-01
        -0.63068E-01
        -0.31941E-01
         0.83719E-02
         0.18249E-01
         0.18581E-01
         0.32890E-01
         0.57032E-01
         0.73105E-01
         0.72922E-01
        -0.45413E-02
         0.97052E-03
        -0.17666E-02
        -0.50919E-02
         0.10218E-01
         0.87351E-02
         0.28119E-02
        -0.54198E-02
        -0.26166E-02
        -0.52730E-02
        -0.77465E-03
         0.40787E-02
         0.13086E-01
        -0.96066E-02
        -0.10225E-01
         0.88640E-02
         0.50086E-02
        -0.27913E-02
        -0.19421E-02
        -0.33545E-02
        -0.20370E-01
        -0.19408E-01
        -0.19179E-01
        -0.46425E-02
         0.27342E-02
         0.18266E-02
        -0.96453E-02
         0.95846E-03
        -0.35388E-02
        -0.44319E-02
         0.68444E-02
         0.43321E-02
        -0.40792E-02
        -0.37647E-02
         0.18603E-01
         0.10139E-01
         0.11647E-01
        -0.11680E-01
        -0.21709E-02
        -0.57977E-02
        -0.20573E-01
        -0.21162E-01
        -0.20549E-01
        -0.14809E-01
        -0.11358E-01
        -0.66352E-02
         0.71928E-02
         0.85574E-02
        -0.99684E-03
         0.13060E-02
         0.13787E-01
         0.11994E-01
         0.76779E-01
         0.77467E-01
         0.69693E-01
         0.57560E-01
         0.42758E-01
         0.19691E-01
        -0.49865E-02
        -0.16048E-01
        -0.20717E-01
        -0.38211E-01
        -0.68099E-01
        -0.80560E-01
        -0.67490E-01
        -0.64223E-01
        -0.70938E-01
        -0.73188E-01
        -0.66730E-01
        -0.63078E-01
        -0.31932E-01
         0.83744E-02
         0.18235E-01
         0.18574E-01
         0.32866E-01
         0.56998E-01
         0.73069E-01
         0.72889E-01
        -0.45484E-02
         0.97535E-03
        -0.17684E-02
        -0.50949E-02
         0.10208E-01
         0.87272E-02
         0.28286E-02
        -0.54046E-02
        -0.26187E-02
        -0.52673E-02
        -0.75285E-03
         0.40884E-02
         0.13094E-01
        -0.95823E-02
        -0.10219E-01
         0.88749E-02
         0.50196E-02
        -0.27831E-02
        -0.19412E-02
        -0.33490E-02
        -0.20369E-01
        -0.19407E-01
        -0.19181E-01
        -0.46432E-02
         0.27410E-02
         0.18304E-02
        -0.96474E-02
         0.93608E-03
        -0.35618E-02
        -0.44352E-02
         0.68549E-02
         0.43318E-02
        -0.40600E-02
        -0.37656E-02
         0.18613E-01
         0.10136E-01
         0.11644E-01
        -0.11697E-01
        -0.21896E-02
        -0.58157E-02
        -0.20587E-01
        -0.21176E-01
        -0.20554E-01
        -0.14808E-01
        -0.11355E-01
        -0.66325E-02
         0.71910E-02
         0.85601E-02
        -0.98707E-03
         0.13031E-02
         0.13780E-01
         0.11977E-01
         0.76752E-01
         0.77447E-01
         0.69686E-01
         0.57560E-01
         0.42744E-01
         0.19685E-01
        -0.49916E-02
        -0.16058E-01
        -0.20700E-01
        -0.38196E-01
        -0.68088E-01
        -0.80563E-01
        -0.67488E-01
        -0.64221E-01
        -0.70950E-01
        -0.73210E-01
        -0.66745E-01
        -0.63089E-01
        -0.31922E-01
         0.83768E-02
         0.18220E-01
         0.18567E-01
         0.32843E-01
         0.56963E-01
         0.73033E-01
         0.72857E-01
        -0.45554E-02
         0.98010E-03
        -0.17702E-02
        -0.50978E-02
         0.10199E-01
         0.87191E-02
         0.28454E-02
        -0.53895E-02
        -0.26207E-02
        -0.52614E-02
        -0.73106E-03
         0.40982E-02
         0.13102E-01
        -0.95580E-02
        -0.10213E-01
         0.88858E-02
         0.50307E-02
        -0.27750E-02
        -0.19403E-02
        -0.33434E-02
        -0.20369E-01
        -0.19407E-01
        -0.19183E-01
        -0.46440E-02
         0.27476E-02
         0.18341E-02
        -0.96493E-02
         0.91349E-03
        -0.35847E-02
        -0.44385E-02
         0.68654E-02
         0.43315E-02
        -0.40409E-02
        -0.37666E-02
         0.18624E-01
         0.10132E-01
         0.11642E-01
        -0.11715E-01
        -0.22084E-02
        -0.58340E-02
        -0.20601E-01
        -0.21191E-01
        -0.20559E-01
        -0.14809E-01
        -0.11352E-01
        -0.66301E-02
         0.71891E-02
         0.85629E-02
        -0.97735E-03
         0.13001E-02
         0.13773E-01
         0.11960E-01
         0.76725E-01
         0.77427E-01
         0.69679E-01
         0.57560E-01
         0.42731E-01
         0.19679E-01
        -0.49967E-02
        -0.16067E-01
        -0.20682E-01
        -0.38180E-01
        -0.68077E-01
        -0.80567E-01
        -0.67485E-01
        -0.64218E-01
        -0.70961E-01
        -0.73233E-01
        -0.66760E-01
        -0.63100E-01
        -0.31913E-01
         0.83792E-02
         0.18206E-01
         0.18560E-01
         0.32819E-01
         0.56929E-01
         0.72997E-01
         0.72824E-01
        -0.45625E-02
         0.98483E-03
        -0.17720E-02
        -0.51008E-02
         0.10189E-01
         0.87109E-02
         0.28621E-02
        -0.53743E-02
        -0.26225E-02
        -0.52548E-02
        -0.70930E-03
         0.41079E-02
         0.13110E-01
        -0.95336E-02
        -0.10206E-01
         0.88967E-02
         0.50417E-02
        -0.27668E-02
        -0.19396E-02
        -0.33381E-02
        -0.20369E-01
        -0.19406E-01
        -0.19185E-01
        -0.46446E-02
         0.27539E-02
         0.18380E-02
        -0.96504E-02
         0.89034E-03
        -0.36076E-02
        -0.44421E-02
         0.68759E-02
         0.43311E-02
        -0.40216E-02
        -0.37675E-02
         0.18634E-01
         0.10129E-01
         0.11639E-01
        -0.11732E-01
        -0.22278E-02
        -0.58519E-02
        -0.20614E-01
        -0.21204E-01
        -0.20563E-01
        -0.14809E-01
        -0.11348E-01
        -0.66274E-02
         0.71872E-02
         0.85657E-02
        -0.96764E-03
         0.12972E-02
         0.13766E-01
         0.11942E-01
         0.76699E-01
         0.77408E-01
         0.69673E-01
         0.57560E-01
         0.42718E-01
         0.19673E-01
        -0.50018E-02
        -0.16076E-01
        -0.20665E-01
        -0.38165E-01
        -0.68066E-01
        -0.80573E-01
        -0.67484E-01
        -0.64217E-01
        -0.70972E-01
        -0.73255E-01
        -0.66775E-01
        -0.63110E-01
        -0.31904E-01
         0.83817E-02
         0.18192E-01
         0.18552E-01
         0.32796E-01
         0.56894E-01
         0.72961E-01
         0.72792E-01
        -0.45696E-02
         0.98954E-03
        -0.17738E-02
        -0.51037E-02
         0.10179E-01
         0.87028E-02
         0.28788E-02
        -0.53591E-02
        -0.26241E-02
        -0.52476E-02
        -0.68760E-03
         0.41176E-02
         0.13118E-01
        -0.95090E-02
        -0.10200E-01
         0.89075E-02
         0.50526E-02
        -0.27587E-02
        -0.19387E-02
        -0.33325E-02
        -0.20368E-01
        -0.19405E-01
        -0.19186E-01
        -0.46454E-02
         0.27596E-02
         0.18418E-02
        -0.96509E-02
         0.86649E-03
        -0.36305E-02
        -0.44455E-02
         0.68864E-02
         0.43307E-02
        -0.40023E-02
        -0.37684E-02
         0.18644E-01
         0.10126E-01
         0.11636E-01
        -0.11748E-01
        -0.22477E-02
        -0.58699E-02
        -0.20625E-01
        -0.21216E-01
        -0.20567E-01
        -0.14809E-01
        -0.11345E-01
        -0.66250E-02
         0.71854E-02
         0.85685E-02
        -0.95782E-03
         0.12943E-02
         0.13758E-01
         0.11924E-01
         0.76672E-01
         0.77389E-01
         0.69666E-01
         0.57560E-01
         0.42705E-01
         0.19667E-01
        -0.50069E-02
        -0.16085E-01
        -0.20648E-01
        -0.38148E-01
        -0.68054E-01
        -0.80581E-01
        -0.67485E-01
        -0.64215E-01
        -0.70983E-01
        -0.73277E-01
        -0.66790E-01
        -0.63121E-01
        -0.31894E-01
         0.83841E-02
         0.18177E-01
         0.18545E-01
         0.32772E-01
         0.56859E-01
         0.72925E-01
         0.72760E-01
        -0.45766E-02
         0.99429E-03
        -0.17756E-02
        -0.51067E-02
         0.10170E-01
         0.86949E-02
         0.28954E-02
        -0.53440E-02
        -0.26257E-02
        -0.52403E-02
        -0.66606E-03
         0.41272E-02
         0.13126E-01
        -0.94844E-02
        -0.10194E-01
         0.89183E-02
         0.50635E-02
        -0.27506E-02
        -0.19378E-02
        -0.33271E-02
        -0.20368E-01
        -0.19404E-01
        -0.19188E-01
        -0.46461E-02
         0.27651E-02
         0.18455E-02
        -0.96511E-02
         0.84255E-03
        -0.36533E-02
        -0.44489E-02
         0.68969E-02
         0.43304E-02
        -0.39832E-02
        -0.37694E-02
         0.18654E-01
         0.10123E-01
         0.11633E-01
        -0.11765E-01
        -0.22679E-02
        -0.58874E-02
        -0.20637E-01
        -0.21228E-01
        -0.20570E-01
        -0.14809E-01
        -0.11342E-01
        -0.66225E-02
         0.71836E-02
         0.85714E-02
        -0.94812E-03
         0.12913E-02
         0.13751E-01
         0.11907E-01
         0.76646E-01
         0.77369E-01
         0.69659E-01
         0.57561E-01
         0.42692E-01
         0.19661E-01
        -0.50119E-02
        -0.16094E-01
        -0.20631E-01
        -0.38132E-01
        -0.68042E-01
        -0.80590E-01
        -0.67485E-01
        -0.64213E-01
        -0.70995E-01
        -0.73299E-01
        -0.66805E-01
        -0.63132E-01
        -0.31885E-01
         0.83867E-02
         0.18163E-01
         0.18538E-01
         0.32749E-01
         0.56825E-01
         0.72889E-01
         0.72727E-01
        -0.46007E-02
         0.10018E-02
        -0.17843E-02
        -0.51284E-02
         0.10197E-01
         0.87187E-02
         0.29209E-02
        -0.53507E-02
        -0.26367E-02
        -0.52540E-02
        -0.64974E-03
         0.41491E-02
         0.13180E-01
        -0.94975E-02
        -0.10226E-01
         0.89615E-02
         0.50927E-02
        -0.27533E-02
        -0.19436E-02
        -0.33333E-02
        -0.20438E-01
        -0.19472E-01
        -0.19255E-01
        -0.46637E-02
         0.27805E-02
         0.18557E-02
        -0.96885E-02
         0.82327E-03
        -0.36879E-02
        -0.44684E-02
         0.69325E-02
         0.43458E-02
        -0.39806E-02
        -0.37847E-02
         0.18730E-01
         0.10156E-01
         0.11672E-01
        -0.11824E-01
        -0.22946E-02
        -0.59252E-02
        -0.20723E-01
        -0.21317E-01
        -0.20648E-01
        -0.14859E-01
        -0.11378E-01
        -0.66424E-02
         0.72079E-02
         0.86060E-02
        -0.94294E-03
         0.12930E-02
         0.13794E-01
         0.11934E-01
         0.76879E-01
         0.77607E-01
         0.69888E-01
         0.57753E-01
         0.42823E-01
         0.19720E-01
        -0.50359E-02
        -0.16158E-01
        -0.20687E-01
        -0.38252E-01
        -0.68273E-01
        -0.80874E-01
        -0.67708E-01
        -0.64418E-01
        -0.71229E-01
        -0.73547E-01
        -0.67026E-01
        -0.63344E-01
        -0.31983E-01
         0.84195E-02
         0.18212E-01
         0.18591E-01
         0.32835E-01
         0.56981E-01
         0.73092E-01
         0.72931E-01
        -0.68493E-02
         0.15014E-02
        -0.26510E-02
        -0.76475E-02
         0.14603E-01
         0.12607E-01
         0.43651E-02
        -0.79116E-02
        -0.39131E-02
        -0.77555E-02
        -0.93813E-03
         0.58399E-02
         0.18829E-01
        -0.13834E-01
        -0.14459E-01
         0.13353E-01
         0.75678E-02
        -0.40978E-02
        -0.28552E-02
        -0.49074E-02
        -0.29177E-01
        -0.28155E-01
        -0.27567E-01
        -0.69058E-02
         0.41457E-02
         0.27725E-02
        -0.14238E-01
         0.12055E-02
        -0.55306E-02
        -0.66533E-02
         0.10334E-01
         0.64576E-02
        -0.59217E-02
        -0.56439E-02
         0.26336E-01
         0.14677E-01
         0.16875E-01
        -0.17114E-01
        -0.33794E-02
        -0.87334E-02
        -0.30093E-01
        -0.31185E-01
        -0.30185E-01
        -0.21427E-01
        -0.16351E-01
        -0.92719E-02
         0.10323E-01
         0.12492E-01
        -0.13661E-02
         0.18745E-02
         0.19526E-01
         0.17202E-01
         0.95799E-01
         0.96543E-01
         0.86980E-01
         0.72089E-01
         0.53403E-01
         0.24645E-01
        -0.63749E-02
        -0.20602E-01
        -0.26310E-01
        -0.48373E-01
        -0.86463E-01
        -0.10225E+00
        -0.86567E-01
        -0.82625E-01
        -0.90194E-01
        -0.92071E-01
        -0.83649E-01
        -0.78610E-01
        -0.39653E-01
         0.10460E-01
         0.22844E-01
         0.23424E-01
         0.41218E-01
         0.71780E-01
         0.91794E-01
         0.91265E-01
  
SCALARS                      strain_xy  double 1
LOOKUP_TABLE default
         0.56316E-06
         0.10778E-05
         0.10561E-04
        -0.45965E-06
        -0.22723E-19
         0.22206E-20
         0.33387E-19
         0.50859E-20
         0.97059E-04
        -0.45793E-04
         0.14862E-18
         0.11785E-18
        -0.25235E-05
         0.51522E-06
         0.13118E-19
        -0.39398E-20
        -0.14354E-05
        -0.12760E-04
         0.65305E-21
         0.99516E-20
         0.66078E-05
         0.27565E-04
         0.50114E-04
         0.10119E-18
         0.80584E-19
        -0.11768E-18
         0.29172E-05
         0.70665E-05
         0.13625E-18
         0.20968E-18
         0.38019E-05
        -0.57157E-05
        -0.73609E-06
        -0.71916E-20
         0.28370E-19
        -0.36286E-21
         0.29139E-04
         0.92894E-05
         0.75928E-19
         0.62899E-19
         0.49858E-04
         0.32817E-04
         0.12944E-18
         0.87232E-19
         0.60121E-04
         0.12024E-04
        -0.47152E-20
         0.35105E-19
        -0.67535E-05
         0.10375E-19
         0.40305E-05
        -0.23391E-21
        -0.19280E-06
         0.78417E-19
        -0.68204E-06
         0.12067E-19
        -0.98410E-05
         0.11693E-05
         0.28043E-21
        -0.13758E-20
        -0.48999E-06
         0.45014E-04
         0.76421E-20
         0.19602E-19
        -0.22386E-05
        -0.15516E-20
        -0.28958E-04
         0.12433E-19
         0.11232E-03
         0.39129E-04
         0.96036E-20
        -0.91965E-19
         0.80375E-04
        -0.14704E-18
        -0.63636E-06
         0.98486E-19
         0.26463E-05
         0.14673E-19
         0.26602E-06
         0.19080E-19
        -0.45753E-04
        -0.50567E-04
         0.44857E-19
        -0.11374E-19
        -0.13096E-04
        -0.13688E-20
         0.11347E-03
        -0.12345E-18
         0.14907E-03
        -0.13784E-18
         0.29698E-03
         0.12698E-03
        -0.87256E-19
         0.96854E-19
        -0.21938E-04
         0.88189E-19
        -0.56799E-04
         0.37883E-19
        -0.12701E-03
         0.10059E-18
        -0.30833E-03
        -0.18372E-03
         0.21568E-18
         0.10784E-18
         0.38695E-03
        -0.18793E-03
        -0.14013E-18
         0.17161E-18
         0.92073E-03
        -0.39825E-18
         0.14258E-02
        -0.43534E-18
         0.10613E-02
        -0.29546E-18
         0.56836E-03
        -0.31340E-19
         0.11751E-03
         0.88334E-19
        -0.56571E-04
         0.54692E-19
        -0.10490E-03
         0.49998E-19
        -0.14660E-03
         0.10727E-18
        -0.45214E-03
         0.13043E-18
        -0.89075E-03
         0.51386E-19
        -0.80592E-03
         0.31328E-19
         0.69213E-04
         0.51206E-19
         0.10191E-02
         0.34324E-19
         0.18424E-02
        -0.12240E-18
         0.25078E-02
        -0.32118E-18
         0.16592E-02
        -0.40760E-18
         0.81891E-03
        -0.25226E-18
         0.81654E-04
         0.48128E-19
        -0.64687E-03
         0.10200E-18
        -0.10047E-02
         0.16256E-18
        -0.10761E-02
         0.32012E-18
        -0.96170E-03
         0.41539E-18
        -0.99120E-03
         0.29512E-18
        -0.92373E-03
         0.23339E-18
        -0.74639E-05
         0.20198E-05
         0.20673E-05
        -0.12839E-05
         0.16576E-04
         0.13576E-04
         0.21712E-06
        -0.48917E-05
        -0.21489E-05
        -0.56394E-05
        -0.16259E-05
        -0.30057E-04
        -0.42854E-04
         0.15892E-05
         0.24402E-04
        -0.32291E-05
         0.24040E-05
         0.71477E-06
         0.14657E-05
        -0.11902E-05
         0.59876E-05
         0.52505E-05
        -0.15967E-04
         0.41790E-06
         0.35842E-05
         0.39491E-06
         0.65915E-07
         0.12919E-06
         0.16069E-05
        -0.53178E-05
        -0.28159E-05
         0.60302E-06
         0.96499E-06
        -0.76312E-07
        -0.40130E-05
        -0.13843E-04
        -0.28073E-04
         0.42527E-04
         0.22134E-04
         0.40033E-04
         0.77584E-04
         0.17948E-04
        -0.14451E-04
        -0.29150E-04
        -0.34612E-04
        -0.44299E-04
         0.54519E-05
         0.16283E-04
         0.50250E-05
         0.16963E-04
         0.53226E-04
         0.20447E-04
        -0.18161E-03
         0.22977E-03
        -0.55628E-03
        -0.65430E-03
        -0.62137E-03
        -0.37580E-03
         0.22380E-04
         0.24287E-03
         0.35211E-03
         0.57145E-03
         0.60110E-03
         0.32235E-03
         0.12985E-03
         0.54883E-04
        -0.88830E-04
        -0.35118E-03
        -0.58656E-03
        -0.67056E-03
        -0.41007E-03
         0.74425E-04
         0.26954E-03
         0.28392E-03
         0.44726E-03
         0.49618E-03
         0.37652E-03
         0.34762E-03
        -0.28889E-04
         0.37402E-05
        -0.65892E-05
        -0.45507E-05
         0.51115E-04
         0.19646E-04
         0.45388E-05
        -0.34639E-04
        -0.10437E-04
        -0.30972E-04
         0.33080E-05
        -0.52236E-04
        -0.10180E-03
         0.11219E-04
         0.13448E-03
        -0.21524E-04
         0.36312E-05
         0.20764E-05
         0.62983E-05
         0.21385E-05
         0.56569E-04
         0.38277E-04
        -0.21898E-04
         0.44703E-05
         0.10263E-04
        -0.17093E-05
         0.23260E-05
        -0.57413E-06
        -0.23115E-05
        -0.17061E-04
        -0.17821E-04
        -0.30377E-05
         0.74710E-05
         0.55986E-05
         0.13152E-04
        -0.22127E-04
        -0.48461E-04
         0.11334E-03
         0.16734E-04
         0.42757E-04
         0.11540E-03
        -0.29333E-04
        -0.59058E-04
        -0.53339E-04
        -0.52891E-04
        -0.63218E-04
         0.39756E-04
         0.31037E-04
        -0.51564E-05
         0.73293E-05
         0.77844E-04
         0.51451E-05
        -0.53921E-03
         0.77728E-03
        -0.16237E-02
        -0.17307E-02
        -0.16668E-02
        -0.92123E-03
         0.22404E-03
         0.63390E-03
         0.80027E-03
         0.14514E-02
         0.16189E-02
         0.62945E-03
         0.21032E-03
         0.17145E-03
        -0.87483E-04
        -0.76430E-03
        -0.13975E-02
        -0.18399E-02
        -0.12200E-02
         0.35162E-03
         0.68289E-03
         0.65408E-03
         0.11594E-02
         0.14135E-02
         0.93985E-03
         0.88711E-03
        -0.28962E-04
         0.37548E-05
        -0.66049E-05
        -0.45872E-05
         0.51072E-04
         0.19643E-04
         0.45734E-05
        -0.34609E-04
        -0.10467E-04
        -0.31063E-04
         0.32430E-05
        -0.52358E-04
        -0.10189E-03
         0.11191E-04
         0.13458E-03
        -0.21547E-04
         0.36723E-05
         0.20676E-05
         0.62995E-05
         0.21228E-05
         0.56703E-04
         0.38309E-04
        -0.21901E-04
         0.44684E-05
         0.10333E-04
        -0.17090E-05
         0.23541E-05
        -0.56649E-06
        -0.23124E-05
        -0.17108E-04
        -0.17851E-04
        -0.30307E-05
         0.74564E-05
         0.56103E-05
         0.13035E-04
        -0.22132E-04
        -0.48444E-04
         0.11370E-03
         0.16931E-04
         0.42941E-04
         0.11556E-03
        -0.29271E-04
        -0.59121E-04
        -0.53358E-04
        -0.52874E-04
        -0.63186E-04
         0.39752E-04
         0.31029E-04
        -0.51119E-05
         0.72945E-05
         0.77761E-04
         0.50596E-05
        -0.53852E-03
         0.77712E-03
        -0.16239E-02
        -0.17308E-02
        -0.16661E-02
        -0.92064E-03
         0.22420E-03
         0.63410E-03
         0.79942E-03
         0.14504E-02
         0.16183E-02
         0.62975E-03
         0.21028E-03
         0.17179E-03
        -0.86781E-04
        -0.76487E-03
        -0.13984E-02
        -0.18406E-02
        -0.12196E-02
         0.35176E-03
         0.68234E-03
         0.65379E-03
         0.11583E-02
         0.14116E-02
         0.93835E-03
         0.88554E-03
        -0.29035E-04
         0.37692E-05
        -0.66207E-05
        -0.46240E-05
         0.51027E-04
         0.19642E-04
         0.46082E-05
        -0.34580E-04
        -0.10497E-04
        -0.31152E-04
         0.31780E-05
        -0.52481E-04
        -0.10198E-03
         0.11163E-04
         0.13468E-03
        -0.21572E-04
         0.37140E-05
         0.20586E-05
         0.63007E-05
         0.21071E-05
         0.56839E-04
         0.38341E-04
        -0.21908E-04
         0.44659E-05
         0.10404E-04
        -0.17085E-05
         0.23841E-05
        -0.55905E-06
        -0.23118E-05
        -0.17154E-04
        -0.17880E-04
        -0.30224E-05
         0.74415E-05
         0.56218E-05
         0.12918E-04
        -0.22137E-04
        -0.48425E-04
         0.11406E-03
         0.17128E-04
         0.43128E-04
         0.11573E-03
        -0.29201E-04
        -0.59182E-04
        -0.53386E-04
        -0.52862E-04
        -0.63157E-04
         0.39749E-04
         0.31020E-04
        -0.50667E-05
         0.72589E-05
         0.77680E-04
         0.49749E-05
        -0.53783E-03
         0.77697E-03
        -0.16241E-02
        -0.17308E-02
        -0.16654E-02
        -0.92005E-03
         0.22436E-03
         0.63430E-03
         0.79858E-03
         0.14495E-02
         0.16177E-02
         0.63008E-03
         0.21025E-03
         0.17213E-03
        -0.86076E-04
        -0.76546E-03
        -0.13993E-02
        -0.18414E-02
        -0.12193E-02
         0.35190E-03
         0.68179E-03
         0.65351E-03
         0.11571E-02
         0.14097E-02
         0.93685E-03
         0.88398E-03
        -0.29108E-04
         0.37840E-05
        -0.66362E-05
        -0.46610E-05
         0.50982E-04
         0.19639E-04
         0.46430E-05
        -0.34549E-04
        -0.10526E-04
        -0.31235E-04
         0.31131E-05
        -0.52606E-04
        -0.10207E-03
         0.11135E-04
         0.13478E-03
        -0.21598E-04
         0.37568E-05
         0.20496E-05
         0.63026E-05
         0.20905E-05
         0.56981E-04
         0.38370E-04
        -0.21927E-04
         0.44618E-05
         0.10478E-04
        -0.17076E-05
         0.24150E-05
        -0.55287E-06
        -0.23068E-05
        -0.17195E-04
        -0.17910E-04
        -0.30118E-05
         0.74262E-05
         0.56335E-05
         0.12800E-04
        -0.22142E-04
        -0.48406E-04
         0.11441E-03
         0.17327E-04
         0.43317E-04
         0.11591E-03
        -0.29108E-04
        -0.59237E-04
        -0.53433E-04
        -0.52857E-04
        -0.63126E-04
         0.39750E-04
         0.31012E-04
        -0.50214E-05
         0.72234E-05
         0.77594E-04
         0.48904E-05
        -0.53715E-03
         0.77681E-03
        -0.16242E-02
        -0.17308E-02
        -0.16647E-02
        -0.91946E-03
         0.22452E-03
         0.63450E-03
         0.79774E-03
         0.14485E-02
         0.16172E-02
         0.63047E-03
         0.21024E-03
         0.17247E-03
        -0.85366E-04
        -0.76611E-03
        -0.14004E-02
        -0.18423E-02
        -0.12189E-02
         0.35204E-03
         0.68124E-03
         0.65323E-03
         0.11560E-02
         0.14078E-02
         0.93536E-03
         0.88243E-03
        -0.29180E-04
         0.37989E-05
        -0.66518E-05
        -0.46979E-05
         0.50939E-04
         0.19637E-04
         0.46779E-05
        -0.34516E-04
        -0.10553E-04
        -0.31311E-04
         0.30481E-05
        -0.52729E-04
        -0.10216E-03
         0.11108E-04
         0.13488E-03
        -0.21627E-04
         0.38007E-05
         0.20406E-05
         0.63040E-05
         0.20733E-05
         0.57125E-04
         0.38397E-04
        -0.21957E-04
         0.44558E-05
         0.10556E-04
        -0.17060E-05
         0.24492E-05
        -0.54781E-06
        -0.22972E-05
        -0.17233E-04
        -0.17941E-04
        -0.29983E-05
         0.74106E-05
         0.56451E-05
         0.12682E-04
        -0.22146E-04
        -0.48389E-04
         0.11477E-03
         0.17526E-04
         0.43511E-04
         0.11611E-03
        -0.28991E-04
        -0.59284E-04
        -0.53502E-04
        -0.52862E-04
        -0.63097E-04
         0.39754E-04
         0.31007E-04
        -0.49766E-05
         0.71882E-05
         0.77514E-04
         0.48057E-05
        -0.53646E-03
         0.77665E-03
        -0.16244E-02
        -0.17308E-02
        -0.16639E-02
        -0.91887E-03
         0.22468E-03
         0.63471E-03
         0.79690E-03
         0.14475E-02
         0.16166E-02
         0.63093E-03
         0.21025E-03
         0.17281E-03
        -0.84656E-04
        -0.76682E-03
        -0.14015E-02
        -0.18432E-02
        -0.12186E-02
         0.35217E-03
         0.68070E-03
         0.65295E-03
         0.11548E-02
         0.14060E-02
         0.93387E-03
         0.88087E-03
        -0.29249E-04
         0.38147E-05
        -0.66660E-05
        -0.47351E-05
         0.50896E-04
         0.19634E-04
         0.47122E-05
        -0.34480E-04
        -0.10580E-04
        -0.31382E-04
         0.29831E-05
        -0.52852E-04
        -0.10224E-03
         0.11083E-04
         0.13498E-03
        -0.21657E-04
         0.38455E-05
         0.20317E-05
         0.63053E-05
         0.20560E-05
         0.57271E-04
         0.38423E-04
        -0.21992E-04
         0.44493E-05
         0.10633E-04
        -0.17042E-05
         0.24859E-05
        -0.54314E-06
        -0.22855E-05
        -0.17271E-04
        -0.17970E-04
        -0.29832E-05
         0.73948E-05
         0.56569E-05
         0.12563E-04
        -0.22153E-04
        -0.48374E-04
         0.11513E-03
         0.17726E-04
         0.43708E-04
         0.11632E-03
        -0.28867E-04
        -0.59328E-04
        -0.53577E-04
        -0.52875E-04
        -0.63076E-04
         0.39759E-04
         0.31004E-04
        -0.49312E-05
         0.71554E-05
         0.77433E-04
         0.47215E-05
        -0.53577E-03
         0.77650E-03
        -0.16245E-02
        -0.17309E-02
        -0.16632E-02
        -0.91828E-03
         0.22483E-03
         0.63490E-03
         0.79606E-03
         0.14465E-02
         0.16161E-02
         0.63143E-03
         0.21027E-03
         0.17314E-03
        -0.83946E-04
        -0.76755E-03
        -0.14027E-02
        -0.18441E-02
        -0.12182E-02
         0.35229E-03
         0.68015E-03
         0.65267E-03
         0.11537E-02
         0.14041E-02
         0.93238E-03
         0.87931E-03
        -0.29313E-04
         0.38330E-05
        -0.66777E-05
        -0.47732E-05
         0.50853E-04
         0.19633E-04
         0.47460E-05
        -0.34436E-04
        -0.10607E-04
        -0.31451E-04
         0.29181E-05
        -0.52977E-04
        -0.10234E-03
         0.11063E-04
         0.13508E-03
        -0.21688E-04
         0.38910E-05
         0.20227E-05
         0.63073E-05
         0.20388E-05
         0.57418E-04
         0.38450E-04
        -0.22028E-04
         0.44431E-05
         0.10705E-04
        -0.17017E-05
         0.25292E-05
        -0.53837E-06
        -0.22731E-05
        -0.17310E-04
        -0.17998E-04
        -0.29664E-05
         0.73788E-05
         0.56685E-05
         0.12443E-04
        -0.22162E-04
        -0.48362E-04
         0.11550E-03
         0.17929E-04
         0.43908E-04
         0.11653E-03
        -0.28739E-04
        -0.59372E-04
        -0.53653E-04
        -0.52893E-04
        -0.63060E-04
         0.39766E-04
         0.31009E-04
        -0.48835E-05
         0.71283E-05
         0.77359E-04
         0.46365E-05
        -0.53508E-03
         0.77634E-03
        -0.16247E-02
        -0.17309E-02
        -0.16625E-02
        -0.91769E-03
         0.22498E-03
         0.63510E-03
         0.79522E-03
         0.14455E-02
         0.16156E-02
         0.63192E-03
         0.21029E-03
         0.17348E-03
        -0.83235E-04
        -0.76829E-03
        -0.14040E-02
        -0.18450E-02
        -0.12178E-02
         0.35239E-03
         0.67959E-03
         0.65240E-03
         0.11526E-02
         0.14023E-02
         0.93090E-03
         0.87775E-03
        -0.29374E-04
         0.38521E-05
        -0.66882E-05
        -0.48117E-05
         0.50814E-04
         0.19630E-04
         0.47793E-05
        -0.34388E-04
        -0.10636E-04
        -0.31519E-04
         0.28531E-05
        -0.53102E-04
        -0.10244E-03
         0.11045E-04
         0.13517E-03
        -0.21719E-04
         0.39369E-05
         0.20136E-05
         0.63088E-05
         0.20219E-05
         0.57565E-04
         0.38477E-04
        -0.22062E-04
         0.44370E-05
         0.10775E-04
        -0.16990E-05
         0.25742E-05
        -0.53345E-06
        -0.22604E-05
        -0.17350E-04
        -0.18024E-04
        -0.29485E-05
         0.73625E-05
         0.56803E-05
         0.12323E-04
        -0.22173E-04
        -0.48354E-04
         0.11586E-03
         0.18133E-04
         0.44108E-04
         0.11674E-03
        -0.28611E-04
        -0.59415E-04
        -0.53731E-04
        -0.52913E-04
        -0.63051E-04
         0.39774E-04
         0.31017E-04
        -0.48349E-05
         0.71037E-05
         0.77286E-04
         0.45520E-05
        -0.53439E-03
         0.77618E-03
        -0.16248E-02
        -0.17309E-02
        -0.16618E-02
        -0.91709E-03
         0.22514E-03
         0.63529E-03
         0.79439E-03
         0.14446E-02
         0.16151E-02
         0.63241E-03
         0.21031E-03
         0.17382E-03
        -0.82522E-04
        -0.76903E-03
        -0.14052E-02
        -0.18459E-02
        -0.12174E-02
         0.35248E-03
         0.67902E-03
         0.65213E-03
         0.11515E-02
         0.14004E-02
         0.92941E-03
         0.87620E-03
        -0.29435E-04
         0.38714E-05
        -0.66985E-05
        -0.48502E-05
         0.50772E-04
         0.19627E-04
         0.48125E-05
        -0.34341E-04
        -0.10664E-04
        -0.31587E-04
         0.27881E-05
        -0.53227E-04
        -0.10254E-03
         0.11029E-04
         0.13527E-03
        -0.21750E-04
         0.39832E-05
         0.20045E-05
         0.63103E-05
         0.20048E-05
         0.57711E-04
         0.38505E-04
        -0.22097E-04
         0.44312E-05
         0.10844E-04
        -0.16962E-05
         0.26204E-05
        -0.52825E-06
        -0.22474E-05
        -0.17389E-04
        -0.18050E-04
        -0.29309E-05
         0.73461E-05
         0.56920E-05
         0.12201E-04
        -0.22182E-04
        -0.48345E-04
         0.11623E-03
         0.18338E-04
         0.44307E-04
         0.11696E-03
        -0.28484E-04
        -0.59459E-04
        -0.53810E-04
        -0.52935E-04
        -0.63042E-04
         0.39781E-04
         0.31024E-04
        -0.47864E-05
         0.70801E-05
         0.77217E-04
         0.44672E-05
        -0.53370E-03
         0.77603E-03
        -0.16249E-02
        -0.17309E-02
        -0.16611E-02
        -0.91650E-03
         0.22529E-03
         0.63548E-03
         0.79355E-03
         0.14436E-02
         0.16146E-02
         0.63289E-03
         0.21034E-03
         0.17417E-03
        -0.81812E-04
        -0.76976E-03
        -0.14064E-02
        -0.18468E-02
        -0.12170E-02
         0.35257E-03
         0.67846E-03
         0.65187E-03
         0.11503E-02
         0.13986E-02
         0.92794E-03
         0.87464E-03
        -0.29496E-04
         0.38909E-05
        -0.67088E-05
        -0.48887E-05
         0.50730E-04
         0.19624E-04
         0.48459E-05
        -0.34293E-04
        -0.10693E-04
        -0.31654E-04
         0.27230E-05
        -0.53352E-04
        -0.10264E-03
         0.11011E-04
         0.13537E-03
        -0.21782E-04
         0.40298E-05
         0.19956E-05
         0.63116E-05
         0.19877E-05
         0.57857E-04
         0.38532E-04
        -0.22130E-04
         0.44253E-05
         0.10915E-04
        -0.16935E-05
         0.26653E-05
        -0.52282E-06
        -0.22340E-05
        -0.17429E-04
        -0.18076E-04
        -0.29131E-05
         0.73294E-05
         0.57037E-05
         0.12080E-04
        -0.22194E-04
        -0.48338E-04
         0.11660E-03
         0.18544E-04
         0.44509E-04
         0.11717E-03
        -0.28357E-04
        -0.59502E-04
        -0.53888E-04
        -0.52955E-04
        -0.63031E-04
         0.39789E-04
         0.31033E-04
        -0.47383E-05
         0.70550E-05
         0.77143E-04
         0.43829E-05
        -0.53301E-03
         0.77587E-03
        -0.16250E-02
        -0.17309E-02
        -0.16604E-02
        -0.91590E-03
         0.22543E-03
         0.63567E-03
         0.79272E-03
         0.14426E-02
         0.16140E-02
         0.63338E-03
         0.21036E-03
         0.17451E-03
        -0.81103E-04
        -0.77050E-03
        -0.14076E-02
        -0.18476E-02
        -0.12167E-02
         0.35265E-03
         0.67789E-03
         0.65160E-03
         0.11492E-02
         0.13967E-02
         0.92647E-03
         0.87309E-03
        -0.29557E-04
         0.39102E-05
        -0.67194E-05
        -0.49270E-05
         0.50690E-04
         0.19622E-04
         0.48794E-05
        -0.34244E-04
        -0.10722E-04
        -0.31721E-04
         0.26577E-05
        -0.53479E-04
        -0.10274E-03
         0.10994E-04
         0.13547E-03
        -0.21813E-04
         0.40767E-05
         0.19866E-05
         0.63137E-05
         0.19705E-05
         0.58003E-04
         0.38558E-04
        -0.22165E-04
         0.44196E-05
         0.10984E-04
        -0.16906E-05
         0.27111E-05
        -0.51707E-06
        -0.22203E-05
        -0.17468E-04
        -0.18102E-04
        -0.28954E-05
         0.73126E-05
         0.57154E-05
         0.11958E-04
        -0.22203E-04
        -0.48330E-04
         0.11696E-03
         0.18751E-04
         0.44708E-04
         0.11738E-03
        -0.28230E-04
        -0.59545E-04
        -0.53964E-04
        -0.52976E-04
        -0.63022E-04
         0.39797E-04
         0.31041E-04
        -0.46900E-05
         0.70306E-05
         0.77074E-04
         0.42988E-05
        -0.53231E-03
         0.77570E-03
        -0.16251E-02
        -0.17309E-02
        -0.16596E-02
        -0.91531E-03
         0.22558E-03
         0.63586E-03
         0.79189E-03
         0.14416E-02
         0.16135E-02
         0.63386E-03
         0.21039E-03
         0.17485E-03
        -0.80390E-04
        -0.77124E-03
        -0.14088E-02
        -0.18485E-02
        -0.12163E-02
         0.35274E-03
         0.67732E-03
         0.65133E-03
         0.11481E-02
         0.13948E-02
         0.92500E-03
         0.87154E-03
        -0.29618E-04
         0.39295E-05
        -0.67295E-05
        -0.49658E-05
         0.50649E-04
         0.19620E-04
         0.49128E-05
        -0.34195E-04
        -0.10750E-04
        -0.31787E-04
         0.25925E-05
        -0.53605E-04
        -0.10283E-03
         0.10977E-04
         0.13557E-03
        -0.21844E-04
         0.41237E-05
         0.19776E-05
         0.63153E-05
         0.19536E-05
         0.58149E-04
         0.38584E-04
        -0.22200E-04
         0.44139E-05
         0.11054E-04
        -0.16880E-05
         0.27559E-05
        -0.51112E-06
        -0.22060E-05
        -0.17508E-04
        -0.18128E-04
        -0.28777E-05
         0.72954E-05
         0.57273E-05
         0.11836E-04
        -0.22214E-04
        -0.48321E-04
         0.11733E-03
         0.18960E-04
         0.44911E-04
         0.11759E-03
        -0.28104E-04
        -0.59588E-04
        -0.54042E-04
        -0.52997E-04
        -0.63014E-04
         0.39805E-04
         0.31050E-04
        -0.46416E-05
         0.70070E-05
         0.77003E-04
         0.42148E-05
        -0.53162E-03
         0.77554E-03
        -0.16253E-02
        -0.17310E-02
        -0.16589E-02
        -0.91472E-03
         0.22572E-03
         0.63605E-03
         0.79106E-03
         0.14406E-02
         0.16130E-02
         0.63434E-03
         0.21041E-03
         0.17519E-03
        -0.79675E-04
        -0.77197E-03
        -0.14100E-02
        -0.18494E-02
        -0.12159E-02
         0.35282E-03
         0.67676E-03
         0.65106E-03
         0.11469E-02
         0.13930E-02
         0.92354E-03
         0.86999E-03
        -0.29679E-04
         0.39489E-05
        -0.67397E-05
        -0.50047E-05
         0.50607E-04
         0.19617E-04
         0.49461E-05
        -0.34146E-04
        -0.10778E-04
        -0.31852E-04
         0.25274E-05
        -0.53729E-04
        -0.10293E-03
         0.10959E-04
         0.13566E-03
        -0.21875E-04
         0.41709E-05
         0.19685E-05
         0.63169E-05
         0.19367E-05
         0.58295E-04
         0.38611E-04
        -0.22234E-04
         0.44083E-05
         0.11124E-04
        -0.16851E-05
         0.28019E-05
        -0.50486E-06
        -0.21915E-05
        -0.17547E-04
        -0.18153E-04
        -0.28597E-05
         0.72780E-05
         0.57390E-05
         0.11713E-04
        -0.22225E-04
        -0.48313E-04
         0.11770E-03
         0.19169E-04
         0.45113E-04
         0.11781E-03
        -0.27976E-04
        -0.59631E-04
        -0.54121E-04
        -0.53019E-04
        -0.63000E-04
         0.39813E-04
         0.31059E-04
        -0.45932E-05
         0.69826E-05
         0.76929E-04
         0.41314E-05
        -0.53093E-03
         0.77539E-03
        -0.16254E-02
        -0.17310E-02
        -0.16582E-02
        -0.91412E-03
         0.22587E-03
         0.63623E-03
         0.79022E-03
         0.14396E-02
         0.16124E-02
         0.63483E-03
         0.21044E-03
         0.17553E-03
        -0.78962E-04
        -0.77270E-03
        -0.14112E-02
        -0.18503E-02
        -0.12155E-02
         0.35291E-03
         0.67619E-03
         0.65080E-03
         0.11458E-02
         0.13912E-02
         0.92208E-03
         0.86845E-03
        -0.29740E-04
         0.39681E-05
        -0.67498E-05
        -0.50435E-05
         0.50568E-04
         0.19614E-04
         0.49796E-05
        -0.34096E-04
        -0.10807E-04
        -0.31918E-04
         0.24622E-05
        -0.53854E-04
        -0.10303E-03
         0.10942E-04
         0.13576E-03
        -0.21906E-04
         0.42185E-05
         0.19596E-05
         0.63191E-05
         0.19199E-05
         0.58441E-04
         0.38636E-04
        -0.22269E-04
         0.44026E-05
         0.11194E-04
        -0.16822E-05
         0.28468E-05
        -0.49839E-06
        -0.21767E-05
        -0.17587E-04
        -0.18179E-04
        -0.28420E-05
         0.72605E-05
         0.57509E-05
         0.11589E-04
        -0.22235E-04
        -0.48304E-04
         0.11807E-03
         0.19380E-04
         0.45315E-04
         0.11802E-03
        -0.27848E-04
        -0.59674E-04
        -0.54198E-04
        -0.53040E-04
        -0.62992E-04
         0.39821E-04
         0.31067E-04
        -0.45449E-05
         0.69583E-05
         0.76860E-04
         0.40486E-05
        -0.53024E-03
         0.77522E-03
        -0.16255E-02
        -0.17310E-02
        -0.16575E-02
        -0.91352E-03
         0.22601E-03
         0.63640E-03
         0.78938E-03
         0.14386E-02
         0.16119E-02
         0.63531E-03
         0.21046E-03
         0.17588E-03
        -0.78251E-04
        -0.77344E-03
        -0.14124E-02
        -0.18511E-02
        -0.12151E-02
         0.35299E-03
         0.67563E-03
         0.65054E-03
         0.11447E-02
         0.13893E-02
         0.92063E-03
         0.86690E-03
        -0.29801E-04
         0.39872E-05
        -0.67600E-05
        -0.50824E-05
         0.50526E-04
         0.19611E-04
         0.50130E-05
        -0.34046E-04
        -0.10836E-04
        -0.31983E-04
         0.23970E-05
        -0.53982E-04
        -0.10313E-03
         0.10923E-04
         0.13585E-03
        -0.21937E-04
         0.42664E-05
         0.19507E-05
         0.63207E-05
         0.19030E-05
         0.58588E-04
         0.38662E-04
        -0.22303E-04
         0.43971E-05
         0.11264E-04
        -0.16793E-05
         0.28924E-05
        -0.49162E-06
        -0.21617E-05
        -0.17626E-04
        -0.18205E-04
        -0.28241E-05
         0.72427E-05
         0.57626E-05
         0.11465E-04
        -0.22247E-04
        -0.48296E-04
         0.11844E-03
         0.19591E-04
         0.45518E-04
         0.11823E-03
        -0.27720E-04
        -0.59718E-04
        -0.54275E-04
        -0.53060E-04
        -0.62984E-04
         0.39828E-04
         0.31076E-04
        -0.44960E-05
         0.69343E-05
         0.76788E-04
         0.39655E-05
        -0.52955E-03
         0.77506E-03
        -0.16256E-02
        -0.17310E-02
        -0.16568E-02
        -0.91292E-03
         0.22615E-03
         0.63657E-03
         0.78855E-03
         0.14376E-02
         0.16114E-02
         0.63580E-03
         0.21048E-03
         0.17622E-03
        -0.77539E-04
        -0.77418E-03
        -0.14137E-02
        -0.18520E-02
        -0.12147E-02
         0.35307E-03
         0.67506E-03
         0.65028E-03
         0.11436E-02
         0.13875E-02
         0.91918E-03
         0.86535E-03
        -0.29862E-04
         0.40066E-05
        -0.67702E-05
        -0.51211E-05
         0.50485E-04
         0.19609E-04
         0.50464E-05
        -0.33995E-04
        -0.10864E-04
        -0.32047E-04
         0.23316E-05
        -0.54108E-04
        -0.10323E-03
         0.10906E-04
         0.13595E-03
        -0.21968E-04
         0.43147E-05
         0.19418E-05
         0.63224E-05
         0.18862E-05
         0.58734E-04
         0.38687E-04
        -0.22337E-04
         0.43917E-05
         0.11333E-04
        -0.16763E-05
         0.29369E-05
        -0.48458E-06
        -0.21463E-05
        -0.17665E-04
        -0.18230E-04
        -0.28064E-05
         0.72249E-05
         0.57746E-05
         0.11341E-04
        -0.22257E-04
        -0.48288E-04
         0.11880E-03
         0.19804E-04
         0.45719E-04
         0.11844E-03
        -0.27592E-04
        -0.59761E-04
        -0.54351E-04
        -0.53083E-04
        -0.62972E-04
         0.39836E-04
         0.31084E-04
        -0.44477E-05
         0.69100E-05
         0.76717E-04
         0.38826E-05
        -0.52885E-03
         0.77489E-03
        -0.16257E-02
        -0.17310E-02
        -0.16561E-02
        -0.91232E-03
         0.22628E-03
         0.63674E-03
         0.78773E-03
         0.14366E-02
         0.16109E-02
         0.63629E-03
         0.21050E-03
         0.17656E-03
        -0.76825E-04
        -0.77491E-03
        -0.14149E-02
        -0.18529E-02
        -0.12143E-02
         0.35314E-03
         0.67449E-03
         0.65001E-03
         0.11424E-02
         0.13856E-02
         0.91773E-03
         0.86380E-03
        -0.29923E-04
         0.40258E-05
        -0.67805E-05
        -0.51600E-05
         0.50445E-04
         0.19606E-04
         0.50800E-05
        -0.33944E-04
        -0.10893E-04
        -0.32110E-04
         0.22662E-05
        -0.54234E-04
        -0.10333E-03
         0.10886E-04
         0.13604E-03
        -0.22000E-04
         0.43633E-05
         0.19329E-05
         0.63242E-05
         0.18696E-05
         0.58880E-04
         0.38710E-04
        -0.22371E-04
         0.43864E-05
         0.11403E-04
        -0.16733E-05
         0.29825E-05
        -0.47718E-06
        -0.21304E-05
        -0.17704E-04
        -0.18256E-04
        -0.27886E-05
         0.72069E-05
         0.57866E-05
         0.11215E-04
        -0.22267E-04
        -0.48279E-04
         0.11917E-03
         0.20019E-04
         0.45923E-04
         0.11865E-03
        -0.27466E-04
        -0.59805E-04
        -0.54430E-04
        -0.53104E-04
        -0.62963E-04
         0.39845E-04
         0.31093E-04
        -0.43997E-05
         0.68856E-05
         0.76645E-04
         0.38007E-05
        -0.52816E-03
         0.77473E-03
        -0.16258E-02
        -0.17310E-02
        -0.16554E-02
        -0.91173E-03
         0.22641E-03
         0.63691E-03
         0.78690E-03
         0.14356E-02
         0.16103E-02
         0.63678E-03
         0.21052E-03
         0.17689E-03
        -0.76114E-04
        -0.77563E-03
        -0.14161E-02
        -0.18537E-02
        -0.12139E-02
         0.35322E-03
         0.67393E-03
         0.64975E-03
         0.11413E-02
         0.13838E-02
         0.91629E-03
         0.86226E-03
        -0.29984E-04
         0.40449E-05
        -0.67904E-05
        -0.51991E-05
         0.50404E-04
         0.19603E-04
         0.51134E-05
        -0.33892E-04
        -0.10921E-04
        -0.32168E-04
         0.22007E-05
        -0.54361E-04
        -0.10343E-03
         0.10868E-04
         0.13613E-03
        -0.22031E-04
         0.44125E-05
         0.19239E-05
         0.63269E-05
         0.18537E-05
         0.59025E-04
         0.38733E-04
        -0.22406E-04
         0.43807E-05
         0.11470E-04
        -0.16704E-05
         0.30275E-05
        -0.46924E-06
        -0.21144E-05
        -0.17742E-04
        -0.18281E-04
        -0.27705E-05
         0.71884E-05
         0.57986E-05
         0.11090E-04
        -0.22278E-04
        -0.48271E-04
         0.11954E-03
         0.20240E-04
         0.46120E-04
         0.11885E-03
        -0.27335E-04
        -0.59848E-04
        -0.54507E-04
        -0.53125E-04
        -0.62953E-04
         0.39852E-04
         0.31102E-04
        -0.43518E-05
         0.68615E-05
         0.76577E-04
         0.37188E-05
        -0.52746E-03
         0.77456E-03
        -0.16259E-02
        -0.17310E-02
        -0.16547E-02
        -0.91114E-03
         0.22655E-03
         0.63708E-03
         0.78608E-03
         0.14345E-02
         0.16099E-02
         0.63730E-03
         0.21052E-03
         0.17723E-03
        -0.75405E-04
        -0.77636E-03
        -0.14173E-02
        -0.18546E-02
        -0.12136E-02
         0.35330E-03
         0.67337E-03
         0.64948E-03
         0.11402E-02
         0.13819E-02
         0.91486E-03
         0.86072E-03
        -0.30045E-04
         0.40640E-05
        -0.68004E-05
        -0.52382E-05
         0.50362E-04
         0.19599E-04
         0.51469E-05
        -0.33840E-04
        -0.10948E-04
        -0.32223E-04
         0.21352E-05
        -0.54487E-04
        -0.10353E-03
         0.10850E-04
         0.13622E-03
        -0.22062E-04
         0.44623E-05
         0.19150E-05
         0.63288E-05
         0.18384E-05
         0.59172E-04
         0.38754E-04
        -0.22440E-04
         0.43755E-05
         0.11536E-04
        -0.16673E-05
         0.30741E-05
        -0.46067E-06
        -0.20980E-05
        -0.17778E-04
        -0.18307E-04
        -0.27527E-05
         0.71698E-05
         0.58105E-05
         0.10964E-04
        -0.22288E-04
        -0.48263E-04
         0.11991E-03
         0.20466E-04
         0.46318E-04
         0.11905E-03
        -0.27203E-04
        -0.59891E-04
        -0.54584E-04
        -0.53148E-04
        -0.62944E-04
         0.39860E-04
         0.31110E-04
        -0.43036E-05
         0.68374E-05
         0.76503E-04
         0.36365E-05
        -0.52677E-03
         0.77440E-03
        -0.16260E-02
        -0.17310E-02
        -0.16539E-02
        -0.91054E-03
         0.22667E-03
         0.63725E-03
         0.78526E-03
         0.14334E-02
         0.16094E-02
         0.63783E-03
         0.21052E-03
         0.17756E-03
        -0.74691E-04
        -0.77709E-03
        -0.14185E-02
        -0.18555E-02
        -0.12132E-02
         0.35338E-03
         0.67281E-03
         0.64921E-03
         0.11391E-02
         0.13801E-02
         0.91343E-03
         0.85917E-03
        -0.30106E-04
         0.40831E-05
        -0.68109E-05
        -0.52772E-05
         0.50324E-04
         0.19597E-04
         0.51804E-05
        -0.33788E-04
        -0.10975E-04
        -0.32276E-04
         0.20702E-05
        -0.54611E-04
        -0.10363E-03
         0.10830E-04
         0.13631E-03
        -0.22093E-04
         0.45126E-05
         0.19061E-05
         0.63306E-05
         0.18235E-05
         0.59318E-04
         0.38776E-04
        -0.22472E-04
         0.43705E-05
         0.11601E-04
        -0.16644E-05
         0.31195E-05
        -0.45167E-06
        -0.20815E-05
        -0.17813E-04
        -0.18333E-04
        -0.27352E-05
         0.71514E-05
         0.58228E-05
         0.10838E-04
        -0.22299E-04
        -0.48253E-04
         0.12027E-03
         0.20694E-04
         0.46510E-04
         0.11924E-03
        -0.27073E-04
        -0.59936E-04
        -0.54660E-04
        -0.53167E-04
        -0.62935E-04
         0.39869E-04
         0.31120E-04
        -0.42559E-05
         0.68129E-05
         0.76436E-04
         0.35552E-05
        -0.52607E-03
         0.77424E-03
        -0.16261E-02
        -0.17311E-02
        -0.16532E-02
        -0.90993E-03
         0.22680E-03
         0.63740E-03
         0.78444E-03
         0.14323E-02
         0.16089E-02
         0.63836E-03
         0.21050E-03
         0.17790E-03
        -0.73977E-04
        -0.77782E-03
        -0.14197E-02
        -0.18563E-02
        -0.12128E-02
         0.35347E-03
         0.67225E-03
         0.64894E-03
         0.11379E-02
         0.13783E-02
         0.91202E-03
         0.85764E-03
        -0.30429E-04
         0.41350E-05
        -0.68829E-05
        -0.53606E-05
         0.50723E-04
         0.19764E-04
         0.52574E-05
        -0.34042E-04
        -0.11095E-04
        -0.32615E-04
         0.20316E-05
        -0.55186E-04
        -0.10461E-03
         0.10910E-04
         0.13764E-03
        -0.22315E-04
         0.45999E-05
         0.19141E-05
         0.63859E-05
         0.18255E-05
         0.59953E-04
         0.39129E-04
        -0.22673E-04
         0.44062E-05
         0.11766E-04
        -0.16776E-05
         0.31898E-05
        -0.44642E-06
        -0.20877E-05
        -0.18007E-04
        -0.18519E-04
        -0.27464E-05
         0.71969E-05
         0.58858E-05
         0.10819E-04
        -0.22494E-04
        -0.48650E-04
         0.12171E-03
         0.21092E-04
         0.47106E-04
         0.12048E-03
        -0.27218E-04
        -0.60518E-04
        -0.55163E-04
        -0.53619E-04
        -0.63446E-04
         0.40211E-04
         0.31388E-04
        -0.42492E-05
         0.68473E-05
         0.77031E-04
         0.35053E-05
        -0.53030E-03
         0.78141E-03
        -0.16416E-02
        -0.17472E-02
        -0.16682E-02
        -0.91813E-03
         0.22925E-03
         0.64382E-03
         0.79149E-03
         0.14458E-02
         0.16245E-02
         0.64485E-03
         0.21232E-03
         0.17976E-03
        -0.73931E-04
        -0.78507E-03
        -0.14330E-02
        -0.18738E-02
        -0.12239E-02
         0.35700E-03
         0.67792E-03
         0.65447E-03
         0.11472E-02
         0.13891E-02
         0.91889E-03
         0.86387E-03
        -0.68186E-04
         0.93697E-05
        -0.15374E-04
        -0.12110E-04
         0.10554E-03
         0.41904E-04
         0.11867E-04
        -0.75540E-04
        -0.24740E-04
        -0.72113E-04
         0.43592E-05
        -0.11104E-03
        -0.21659E-03
         0.23529E-04
         0.27999E-03
        -0.50077E-04
         0.10335E-04
         0.42848E-05
         0.13956E-04
         0.39993E-05
         0.12404E-03
         0.82964E-04
        -0.47046E-04
         0.97744E-05
         0.26542E-04
        -0.37839E-05
         0.70558E-05
        -0.99037E-06
        -0.47208E-05
        -0.40506E-04
        -0.41586E-04
        -0.61292E-05
         0.16179E-04
         0.13251E-04
         0.21418E-04
        -0.47621E-04
        -0.10305E-03
         0.25892E-03
         0.46301E-04
         0.10383E-03
         0.25810E-03
        -0.59014E-04
        -0.13129E-03
        -0.11617E-03
        -0.11219E-03
        -0.12544E-03
         0.83602E-04
         0.66886E-04
        -0.90814E-05
         0.14584E-04
         0.15656E-03
         0.72702E-05
        -0.84199E-03
         0.12374E-02
        -0.26023E-02
        -0.27839E-02
        -0.26555E-02
        -0.14699E-02
         0.37604E-03
         0.10725E-02
         0.13129E-02
         0.23719E-02
         0.26704E-02
         0.10551E-02
         0.35411E-03
         0.30188E-03
        -0.12011E-03
        -0.12551E-02
        -0.22775E-02
        -0.29498E-02
        -0.19260E-02
         0.56365E-03
         0.10901E-02
         0.10611E-02
         0.18476E-02
         0.22520E-02
         0.14799E-02
         0.13810E-02
  
SCALARS                      strain_eq  double 1
LOOKUP_TABLE default
         0.53894E+01
         0.53115E+01
         0.53609E+01
         0.54494E+01
         0.22424E-08
         0.24864E-08
         0.24157E-08
         0.21736E-08
         0.53089E+01
         0.53352E+01
         0.24454E-08
         0.23387E-08
         0.51987E+01
         0.51946E+01
         0.26755E-08
         0.25479E-08
         0.54365E+01
         0.52007E+01
         0.19959E-08
         0.22448E-08
         0.51139E+01
         0.50467E+01
         0.51538E+01
         0.27556E-08
         0.26286E-08
         0.26145E-08
         0.50492E+01
         0.49509E+01
         0.26691E-08
         0.24242E-08
         0.54322E+01
         0.53297E+01
         0.55315E+01
         0.21719E-08
         0.20396E-08
         0.19537E-08
         0.53729E+01
         0.52422E+01
         0.23679E-08
         0.21587E-08
         0.53212E+01
         0.52203E+01
         0.22025E-08
         0.19001E-08
         0.54065E+01
         0.54443E+01
         0.23783E-08
         0.24664E-08
         0.51393E+01
         0.21316E-08
         0.54369E+01
         0.24785E-08
         0.50208E+01
         0.23304E-08
         0.49899E+01
         0.21510E-08
         0.49905E+01
         0.51003E+01
         0.21798E-08
         0.21434E-08
         0.54301E+01
         0.53907E+01
         0.21993E-08
         0.24896E-08
         0.54547E+01
         0.21110E-08
         0.54079E+01
         0.23120E-08
         0.52848E+01
         0.52723E+01
         0.24730E-08
         0.24714E-08
         0.52444E+01
         0.25010E-08
         0.49160E+01
         0.19992E-08
         0.48987E+01
         0.18608E-08
         0.49074E+01
         0.19384E-08
         0.49553E+01
         0.50045E+01
         0.18749E-08
         0.19474E-08
         0.51039E+01
         0.18340E-08
         0.54045E+01
         0.24625E-08
         0.53577E+01
         0.25076E-08
         0.53194E+01
         0.52981E+01
         0.25053E-08
         0.24576E-08
         0.53241E+01
         0.22054E-08
         0.53426E+01
         0.21593E-08
         0.53259E+01
         0.23356E-08
         0.53201E+01
         0.53370E+01
         0.24011E-08
         0.23946E-08
         0.52280E+01
         0.52725E+01
         0.22832E-08
         0.22038E-08
         0.52198E+01
         0.22173E-08
         0.52712E+01
         0.21648E-08
         0.52206E+01
         0.21622E-08
         0.51087E+01
         0.20271E-08
         0.50005E+01
         0.17153E-08
         0.49356E+01
         0.14493E-08
         0.49289E+01
         0.14057E-08
         0.49309E+01
         0.14977E-08
         0.50013E+01
         0.15450E-08
         0.51333E+01
         0.14473E-08
         0.52779E+01
         0.13209E-08
         0.53623E+01
         0.13671E-08
         0.54458E+01
         0.16205E-08
         0.55010E+01
         0.18918E-08
         0.54990E+01
         0.20162E-08
         0.53647E+01
         0.21529E-08
         0.52710E+01
         0.22625E-08
         0.52391E+01
         0.21109E-08
         0.52894E+01
         0.18585E-08
         0.53155E+01
         0.18549E-08
         0.52714E+01
         0.20411E-08
         0.52718E+01
         0.21659E-08
         0.53051E+01
         0.20958E-08
         0.53484E+01
         0.20491E-08
         0.40204E+00
         0.40338E+00
         0.40321E+00
         0.40129E+00
         0.40464E+00
         0.40315E+00
         0.40475E+00
         0.40398E+00
         0.40165E+00
         0.40322E+00
         0.40547E+00
         0.40602E+00
         0.40539E+00
         0.40509E+00
         0.40582E+00
         0.40141E+00
         0.40178E+00
         0.40065E+00
         0.40351E+00
         0.40306E+00
         0.40392E+00
         0.40354E+00
         0.40424E+00
         0.40384E+00
         0.40313E+00
         0.40315E+00
         0.40435E+00
         0.40424E+00
         0.40499E+00
         0.40384E+00
         0.40159E+00
         0.40339E+00
         0.40159E+00
         0.40282E+00
         0.40610E+00
         0.40520E+00
         0.40482E+00
         0.40546E+00
         0.40543E+00
         0.40605E+00
         0.40663E+00
         0.40546E+00
         0.40397E+00
         0.40410E+00
         0.40490E+00
         0.40612E+00
         0.40501E+00
         0.40369E+00
         0.40377E+00
         0.40481E+00
         0.40581E+00
         0.40452E+00
         0.40963E+00
         0.40972E+00
         0.41004E+00
         0.41019E+00
         0.41064E+00
         0.41138E+00
         0.41125E+00
         0.41054E+00
         0.41036E+00
         0.41062E+00
         0.41038E+00
         0.41030E+00
         0.40923E+00
         0.40882E+00
         0.40892E+00
         0.40903E+00
         0.40930E+00
         0.40985E+00
         0.40992E+00
         0.41024E+00
         0.40978E+00
         0.40947E+00
         0.40955E+00
         0.40944E+00
         0.40950E+00
         0.40956E+00
         0.15932E-01
         0.95727E-02
         0.90295E-02
         0.61918E-02
         0.16545E-01
         0.11439E-01
         0.50493E-02
         0.15669E-01
         0.98154E-02
         0.14765E-01
         0.71989E-02
         0.31021E-01
         0.23556E-01
         0.11781E-01
         0.32489E-01
         0.11576E-01
         0.58647E-02
         0.37417E-02
         0.77949E-02
         0.42200E-02
         0.24394E-01
         0.22886E-01
         0.22288E-01
         0.58001E-02
         0.95283E-02
         0.30297E-02
         0.11115E-01
         0.18054E-02
         0.40710E-02
         0.10335E-01
         0.98893E-02
         0.52602E-02
         0.64055E-02
         0.55413E-02
         0.21387E-01
         0.12798E-01
         0.16567E-01
         0.26496E-01
         0.20381E-01
         0.18970E-01
         0.26942E-01
         0.24424E-01
         0.24586E-01
         0.19033E-01
         0.16997E-01
         0.23252E-01
         0.15243E-01
         0.12961E-01
         0.10688E-01
         0.12622E-01
         0.20637E-01
         0.14169E-01
         0.90609E-01
         0.92776E-01
         0.96979E-01
         0.96275E-01
         0.10263E+00
         0.11019E+00
         0.10574E+00
         0.94022E-01
         0.91625E-01
         0.98060E-01
         0.96104E-01
         0.94796E-01
         0.78362E-01
         0.74492E-01
         0.81836E-01
         0.87657E-01
         0.90966E-01
         0.99341E-01
         0.95556E-01
         0.98143E-01
         0.88371E-01
         0.83907E-01
         0.89483E-01
         0.87477E-01
         0.90018E-01
         0.89260E-01
         0.15944E-01
         0.95749E-02
         0.90346E-02
         0.62006E-02
         0.16538E-01
         0.11433E-01
         0.50647E-02
         0.15684E-01
         0.98323E-02
         0.14808E-01
         0.71987E-02
         0.31020E-01
         0.23565E-01
         0.11754E-01
         0.32523E-01
         0.11586E-01
         0.58811E-02
         0.37323E-02
         0.77994E-02
         0.42107E-02
         0.24396E-01
         0.22885E-01
         0.22287E-01
         0.58000E-02
         0.95693E-02
         0.30291E-02
         0.11119E-01
         0.17862E-02
         0.40904E-02
         0.10353E-01
         0.98988E-02
         0.52585E-02
         0.63946E-02
         0.55464E-02
         0.21397E-01
         0.12795E-01
         0.16563E-01
         0.26537E-01
         0.20427E-01
         0.18996E-01
         0.26960E-01
         0.24436E-01
         0.24589E-01
         0.19033E-01
         0.16994E-01
         0.23250E-01
         0.15243E-01
         0.12960E-01
         0.10673E-01
         0.12604E-01
         0.20626E-01
         0.14147E-01
         0.90576E-01
         0.92754E-01
         0.96979E-01
         0.96276E-01
         0.10261E+00
         0.11016E+00
         0.10570E+00
         0.93997E-01
         0.91602E-01
         0.98030E-01
         0.96088E-01
         0.94799E-01
         0.78355E-01
         0.74489E-01
         0.81845E-01
         0.87678E-01
         0.90989E-01
         0.99362E-01
         0.95551E-01
         0.98138E-01
         0.88362E-01
         0.83901E-01
         0.89453E-01
         0.87420E-01
         0.89968E-01
         0.89212E-01
         0.15956E-01
         0.95771E-02
         0.90397E-02
         0.62096E-02
         0.16530E-01
         0.11426E-01
         0.50800E-02
         0.15699E-01
         0.98494E-02
         0.14851E-01
         0.71987E-02
         0.31019E-01
         0.23574E-01
         0.11726E-01
         0.32556E-01
         0.11595E-01
         0.58978E-02
         0.37228E-02
         0.78040E-02
         0.42016E-02
         0.24399E-01
         0.22883E-01
         0.22285E-01
         0.57997E-02
         0.96100E-02
         0.30282E-02
         0.11123E-01
         0.17678E-02
         0.41097E-02
         0.10371E-01
         0.99084E-02
         0.52568E-02
         0.63838E-02
         0.55514E-02
         0.21406E-01
         0.12792E-01
         0.16559E-01
         0.26578E-01
         0.20473E-01
         0.19023E-01
         0.26978E-01
         0.24449E-01
         0.24592E-01
         0.19033E-01
         0.16991E-01
         0.23250E-01
         0.15243E-01
         0.12960E-01
         0.10658E-01
         0.12587E-01
         0.20614E-01
         0.14125E-01
         0.90543E-01
         0.92732E-01
         0.96978E-01
         0.96277E-01
         0.10260E+00
         0.11012E+00
         0.10565E+00
         0.93972E-01
         0.91578E-01
         0.98001E-01
         0.96072E-01
         0.94803E-01
         0.78348E-01
         0.74486E-01
         0.81855E-01
         0.87700E-01
         0.91013E-01
         0.99383E-01
         0.95545E-01
         0.98132E-01
         0.88352E-01
         0.83896E-01
         0.89422E-01
         0.87363E-01
         0.89917E-01
         0.89165E-01
         0.15968E-01
         0.95793E-02
         0.90449E-02
         0.62185E-02
         0.16522E-01
         0.11420E-01
         0.50956E-02
         0.15714E-01
         0.98663E-02
         0.14894E-01
         0.71987E-02
         0.31018E-01
         0.23584E-01
         0.11699E-01
         0.32590E-01
         0.11605E-01
         0.59152E-02
         0.37132E-02
         0.78090E-02
         0.41920E-02
         0.24402E-01
         0.22882E-01
         0.22286E-01
         0.57991E-02
         0.96498E-02
         0.30268E-02
         0.11126E-01
         0.17516E-02
         0.41278E-02
         0.10387E-01
         0.99185E-02
         0.52555E-02
         0.63729E-02
         0.55564E-02
         0.21416E-01
         0.12788E-01
         0.16555E-01
         0.26620E-01
         0.20519E-01
         0.19050E-01
         0.26998E-01
         0.24463E-01
         0.24597E-01
         0.19035E-01
         0.16989E-01
         0.23250E-01
         0.15244E-01
         0.12959E-01
         0.10643E-01
         0.12569E-01
         0.20603E-01
         0.14103E-01
         0.90510E-01
         0.92710E-01
         0.96978E-01
         0.96278E-01
         0.10258E+00
         0.11008E+00
         0.10561E+00
         0.93947E-01
         0.91555E-01
         0.97971E-01
         0.96056E-01
         0.94807E-01
         0.78342E-01
         0.74484E-01
         0.81866E-01
         0.87724E-01
         0.91040E-01
         0.99406E-01
         0.95540E-01
         0.98126E-01
         0.88342E-01
         0.83891E-01
         0.89391E-01
         0.87306E-01
         0.89867E-01
         0.89118E-01
         0.15980E-01
         0.95815E-02
         0.90500E-02
         0.62274E-02
         0.16515E-01
         0.11413E-01
         0.51109E-02
         0.15729E-01
         0.98831E-02
         0.14935E-01
         0.71989E-02
         0.31017E-01
         0.23593E-01
         0.11671E-01
         0.32624E-01
         0.11617E-01
         0.59332E-02
         0.37036E-02
         0.78141E-02
         0.41823E-02
         0.24406E-01
         0.22882E-01
         0.22287E-01
         0.57982E-02
         0.96887E-02
         0.30247E-02
         0.11128E-01
         0.17375E-02
         0.41448E-02
         0.10401E-01
         0.99289E-02
         0.52543E-02
         0.63620E-02
         0.55614E-02
         0.21425E-01
         0.12784E-01
         0.16551E-01
         0.26661E-01
         0.20567E-01
         0.19080E-01
         0.27018E-01
         0.24477E-01
         0.24602E-01
         0.19039E-01
         0.16988E-01
         0.23251E-01
         0.15246E-01
         0.12959E-01
         0.10628E-01
         0.12552E-01
         0.20591E-01
         0.14081E-01
         0.90477E-01
         0.92688E-01
         0.96977E-01
         0.96278E-01
         0.10256E+00
         0.11004E+00
         0.10556E+00
         0.93922E-01
         0.91532E-01
         0.97942E-01
         0.96040E-01
         0.94813E-01
         0.78339E-01
         0.74482E-01
         0.81878E-01
         0.87752E-01
         0.91070E-01
         0.99430E-01
         0.95535E-01
         0.98121E-01
         0.88333E-01
         0.83885E-01
         0.89361E-01
         0.87248E-01
         0.89816E-01
         0.89070E-01
         0.15991E-01
         0.95831E-02
         0.90550E-02
         0.62363E-02
         0.16508E-01
         0.11407E-01
         0.51259E-02
         0.15743E-01
         0.99001E-02
         0.14975E-01
         0.71996E-02
         0.31016E-01
         0.23603E-01
         0.11644E-01
         0.32657E-01
         0.11628E-01
         0.59513E-02
         0.36940E-02
         0.78193E-02
         0.41727E-02
         0.24410E-01
         0.22882E-01
         0.22289E-01
         0.57973E-02
         0.97267E-02
         0.30224E-02
         0.11131E-01
         0.17244E-02
         0.41617E-02
         0.10415E-01
         0.99391E-02
         0.52528E-02
         0.63511E-02
         0.55665E-02
         0.21435E-01
         0.12782E-01
         0.16548E-01
         0.26703E-01
         0.20615E-01
         0.19110E-01
         0.27039E-01
         0.24491E-01
         0.24609E-01
         0.19044E-01
         0.16989E-01
         0.23253E-01
         0.15248E-01
         0.12959E-01
         0.10614E-01
         0.12535E-01
         0.20580E-01
         0.14060E-01
         0.90445E-01
         0.92666E-01
         0.96977E-01
         0.96279E-01
         0.10255E+00
         0.11001E+00
         0.10552E+00
         0.93897E-01
         0.91509E-01
         0.97912E-01
         0.96025E-01
         0.94820E-01
         0.78336E-01
         0.74481E-01
         0.81891E-01
         0.87782E-01
         0.91102E-01
         0.99455E-01
         0.95530E-01
         0.98115E-01
         0.88324E-01
         0.83880E-01
         0.89330E-01
         0.87191E-01
         0.89766E-01
         0.89023E-01
         0.16002E-01
         0.95834E-02
         0.90598E-02
         0.62453E-02
         0.16500E-01
         0.11400E-01
         0.51404E-02
         0.15755E-01
         0.99173E-02
         0.15014E-01
         0.72015E-02
         0.31016E-01
         0.23613E-01
         0.11616E-01
         0.32691E-01
         0.11640E-01
         0.59691E-02
         0.36843E-02
         0.78245E-02
         0.41633E-02
         0.24414E-01
         0.22882E-01
         0.22292E-01
         0.57966E-02
         0.97636E-02
         0.30197E-02
         0.11134E-01
         0.17117E-02
         0.41789E-02
         0.10429E-01
         0.99486E-02
         0.52502E-02
         0.63401E-02
         0.55713E-02
         0.21445E-01
         0.12779E-01
         0.16545E-01
         0.26745E-01
         0.20664E-01
         0.19140E-01
         0.27061E-01
         0.24506E-01
         0.24615E-01
         0.19049E-01
         0.16990E-01
         0.23256E-01
         0.15252E-01
         0.12960E-01
         0.10601E-01
         0.12519E-01
         0.20570E-01
         0.14039E-01
         0.90412E-01
         0.92644E-01
         0.96976E-01
         0.96279E-01
         0.10253E+00
         0.10997E+00
         0.10547E+00
         0.93872E-01
         0.91486E-01
         0.97882E-01
         0.96009E-01
         0.94826E-01
         0.78333E-01
         0.74479E-01
         0.81903E-01
         0.87811E-01
         0.91133E-01
         0.99478E-01
         0.95524E-01
         0.98109E-01
         0.88316E-01
         0.83876E-01
         0.89299E-01
         0.87134E-01
         0.89715E-01
         0.88975E-01
         0.16012E-01
         0.95834E-02
         0.90644E-02
         0.62543E-02
         0.16494E-01
         0.11394E-01
         0.51544E-02
         0.15765E-01
         0.99348E-02
         0.15051E-01
         0.72040E-02
         0.31016E-01
         0.23624E-01
         0.11589E-01
         0.32725E-01
         0.11651E-01
         0.59867E-02
         0.36745E-02
         0.78297E-02
         0.41543E-02
         0.24418E-01
         0.22882E-01
         0.22294E-01
         0.57959E-02
         0.97998E-02
         0.30168E-02
         0.11137E-01
         0.16995E-02
         0.41966E-02
         0.10443E-01
         0.99577E-02
         0.52471E-02
         0.63291E-02
         0.55761E-02
         0.21456E-01
         0.12777E-01
         0.16543E-01
         0.26788E-01
         0.20712E-01
         0.19170E-01
         0.27082E-01
         0.24521E-01
         0.24621E-01
         0.19054E-01
         0.16992E-01
         0.23259E-01
         0.15256E-01
         0.12962E-01
         0.10590E-01
         0.12503E-01
         0.20560E-01
         0.14018E-01
         0.90379E-01
         0.92622E-01
         0.96975E-01
         0.96280E-01
         0.10251E+00
         0.10993E+00
         0.10543E+00
         0.93847E-01
         0.91463E-01
         0.97852E-01
         0.95993E-01
         0.94832E-01
         0.78331E-01
         0.74478E-01
         0.81915E-01
         0.87840E-01
         0.91165E-01
         0.99501E-01
         0.95517E-01
         0.98103E-01
         0.88308E-01
         0.83872E-01
         0.89268E-01
         0.87077E-01
         0.89665E-01
         0.88928E-01
         0.16022E-01
         0.95834E-02
         0.90690E-02
         0.62634E-02
         0.16487E-01
         0.11387E-01
         0.51684E-02
         0.15776E-01
         0.99523E-02
         0.15089E-01
         0.72063E-02
         0.31016E-01
         0.23635E-01
         0.11562E-01
         0.32760E-01
         0.11663E-01
         0.60043E-02
         0.36648E-02
         0.78349E-02
         0.41451E-02
         0.24422E-01
         0.22882E-01
         0.22297E-01
         0.57953E-02
         0.98361E-02
         0.30140E-02
         0.11140E-01
         0.16876E-02
         0.42144E-02
         0.10457E-01
         0.99669E-02
         0.52440E-02
         0.63181E-02
         0.55809E-02
         0.21466E-01
         0.12775E-01
         0.16541E-01
         0.26830E-01
         0.20761E-01
         0.19200E-01
         0.27104E-01
         0.24536E-01
         0.24628E-01
         0.19060E-01
         0.16993E-01
         0.23263E-01
         0.15259E-01
         0.12964E-01
         0.10579E-01
         0.12487E-01
         0.20551E-01
         0.13997E-01
         0.90346E-01
         0.92600E-01
         0.96973E-01
         0.96280E-01
         0.10249E+00
         0.10990E+00
         0.10538E+00
         0.93822E-01
         0.91440E-01
         0.97822E-01
         0.95978E-01
         0.94838E-01
         0.78328E-01
         0.74476E-01
         0.81928E-01
         0.87869E-01
         0.91196E-01
         0.99524E-01
         0.95511E-01
         0.98097E-01
         0.88300E-01
         0.83869E-01
         0.89238E-01
         0.87020E-01
         0.89615E-01
         0.88881E-01
         0.16032E-01
         0.95833E-02
         0.90735E-02
         0.62725E-02
         0.16479E-01
         0.11381E-01
         0.51825E-02
         0.15787E-01
         0.99698E-02
         0.15126E-01
         0.72090E-02
         0.31017E-01
         0.23646E-01
         0.11535E-01
         0.32794E-01
         0.11674E-01
         0.60220E-02
         0.36552E-02
         0.78400E-02
         0.41360E-02
         0.24427E-01
         0.22882E-01
         0.22299E-01
         0.57948E-02
         0.98723E-02
         0.30111E-02
         0.11143E-01
         0.16761E-02
         0.42324E-02
         0.10470E-01
         0.99759E-02
         0.52408E-02
         0.63072E-02
         0.55858E-02
         0.21476E-01
         0.12773E-01
         0.16539E-01
         0.26873E-01
         0.20810E-01
         0.19230E-01
         0.27125E-01
         0.24551E-01
         0.24634E-01
         0.19065E-01
         0.16995E-01
         0.23267E-01
         0.15263E-01
         0.12967E-01
         0.10568E-01
         0.12471E-01
         0.20541E-01
         0.13976E-01
         0.90313E-01
         0.92578E-01
         0.96972E-01
         0.96281E-01
         0.10248E+00
         0.10986E+00
         0.10534E+00
         0.93796E-01
         0.91417E-01
         0.97792E-01
         0.95962E-01
         0.94845E-01
         0.78325E-01
         0.74475E-01
         0.81940E-01
         0.87899E-01
         0.91227E-01
         0.99547E-01
         0.95504E-01
         0.98091E-01
         0.88292E-01
         0.83865E-01
         0.89207E-01
         0.86964E-01
         0.89565E-01
         0.88834E-01
         0.16041E-01
         0.95831E-02
         0.90782E-02
         0.62815E-02
         0.16473E-01
         0.11375E-01
         0.51967E-02
         0.15798E-01
         0.99874E-02
         0.15164E-01
         0.72118E-02
         0.31017E-01
         0.23656E-01
         0.11508E-01
         0.32828E-01
         0.11686E-01
         0.60397E-02
         0.36456E-02
         0.78452E-02
         0.41267E-02
         0.24431E-01
         0.22882E-01
         0.22301E-01
         0.57943E-02
         0.99083E-02
         0.30083E-02
         0.11147E-01
         0.16650E-02
         0.42505E-02
         0.10484E-01
         0.99850E-02
         0.52377E-02
         0.62965E-02
         0.55906E-02
         0.21487E-01
         0.12771E-01
         0.16536E-01
         0.26916E-01
         0.20859E-01
         0.19260E-01
         0.27147E-01
         0.24566E-01
         0.24640E-01
         0.19070E-01
         0.16997E-01
         0.23271E-01
         0.15267E-01
         0.12969E-01
         0.10556E-01
         0.12455E-01
         0.20531E-01
         0.13955E-01
         0.90280E-01
         0.92556E-01
         0.96971E-01
         0.96281E-01
         0.10246E+00
         0.10982E+00
         0.10529E+00
         0.93771E-01
         0.91394E-01
         0.97761E-01
         0.95946E-01
         0.94851E-01
         0.78321E-01
         0.74474E-01
         0.81953E-01
         0.87928E-01
         0.91259E-01
         0.99570E-01
         0.95498E-01
         0.98084E-01
         0.88284E-01
         0.83861E-01
         0.89175E-01
         0.86907E-01
         0.89515E-01
         0.88786E-01
         0.16051E-01
         0.95830E-02
         0.90827E-02
         0.62906E-02
         0.16466E-01
         0.11368E-01
         0.52109E-02
         0.15809E-01
         0.10005E-01
         0.15201E-01
         0.72146E-02
         0.31017E-01
         0.23667E-01
         0.11482E-01
         0.32862E-01
         0.11697E-01
         0.60575E-02
         0.36359E-02
         0.78504E-02
         0.41177E-02
         0.24435E-01
         0.22882E-01
         0.22304E-01
         0.57938E-02
         0.99444E-02
         0.30057E-02
         0.11150E-01
         0.16543E-02
         0.42685E-02
         0.10498E-01
         0.99942E-02
         0.52346E-02
         0.62856E-02
         0.55955E-02
         0.21498E-01
         0.12769E-01
         0.16534E-01
         0.26958E-01
         0.20908E-01
         0.19290E-01
         0.27168E-01
         0.24580E-01
         0.24647E-01
         0.19076E-01
         0.16999E-01
         0.23275E-01
         0.15270E-01
         0.12971E-01
         0.10545E-01
         0.12440E-01
         0.20522E-01
         0.13934E-01
         0.90247E-01
         0.92535E-01
         0.96969E-01
         0.96281E-01
         0.10244E+00
         0.10978E+00
         0.10525E+00
         0.93746E-01
         0.91372E-01
         0.97731E-01
         0.95931E-01
         0.94857E-01
         0.78318E-01
         0.74472E-01
         0.81965E-01
         0.87957E-01
         0.91290E-01
         0.99593E-01
         0.95492E-01
         0.98078E-01
         0.88276E-01
         0.83857E-01
         0.89144E-01
         0.86850E-01
         0.89465E-01
         0.88739E-01
         0.16061E-01
         0.95829E-02
         0.90873E-02
         0.62997E-02
         0.16459E-01
         0.11362E-01
         0.52250E-02
         0.15819E-01
         0.10023E-01
         0.15239E-01
         0.72176E-02
         0.31017E-01
         0.23678E-01
         0.11455E-01
         0.32896E-01
         0.11709E-01
         0.60752E-02
         0.36262E-02
         0.78555E-02
         0.41085E-02
         0.24439E-01
         0.22882E-01
         0.22306E-01
         0.57933E-02
         0.99803E-02
         0.30029E-02
         0.11153E-01
         0.16439E-02
         0.42870E-02
         0.10512E-01
         0.10003E-01
         0.52315E-02
         0.62748E-02
         0.56003E-02
         0.21508E-01
         0.12767E-01
         0.16532E-01
         0.27001E-01
         0.20957E-01
         0.19320E-01
         0.27190E-01
         0.24595E-01
         0.24653E-01
         0.19081E-01
         0.17001E-01
         0.23278E-01
         0.15274E-01
         0.12973E-01
         0.10534E-01
         0.12424E-01
         0.20511E-01
         0.13913E-01
         0.90214E-01
         0.92513E-01
         0.96968E-01
         0.96282E-01
         0.10243E+00
         0.10975E+00
         0.10520E+00
         0.93720E-01
         0.91349E-01
         0.97700E-01
         0.95915E-01
         0.94863E-01
         0.78315E-01
         0.74471E-01
         0.81978E-01
         0.87986E-01
         0.91322E-01
         0.99616E-01
         0.95485E-01
         0.98072E-01
         0.88268E-01
         0.83853E-01
         0.89113E-01
         0.86793E-01
         0.89416E-01
         0.88692E-01
         0.16071E-01
         0.95829E-02
         0.90919E-02
         0.63088E-02
         0.16452E-01
         0.11355E-01
         0.52393E-02
         0.15830E-01
         0.10040E-01
         0.15276E-01
         0.72207E-02
         0.31017E-01
         0.23688E-01
         0.11428E-01
         0.32931E-01
         0.11720E-01
         0.60930E-02
         0.36165E-02
         0.78607E-02
         0.40995E-02
         0.24443E-01
         0.22882E-01
         0.22309E-01
         0.57929E-02
         0.10016E-01
         0.30001E-02
         0.11156E-01
         0.16339E-02
         0.43056E-02
         0.10525E-01
         0.10012E-01
         0.52284E-02
         0.62641E-02
         0.56052E-02
         0.21519E-01
         0.12765E-01
         0.16530E-01
         0.27044E-01
         0.21006E-01
         0.19350E-01
         0.27212E-01
         0.24610E-01
         0.24660E-01
         0.19087E-01
         0.17002E-01
         0.23282E-01
         0.15278E-01
         0.12975E-01
         0.10523E-01
         0.12408E-01
         0.20502E-01
         0.13892E-01
         0.90181E-01
         0.92491E-01
         0.96966E-01
         0.96282E-01
         0.10241E+00
         0.10971E+00
         0.10516E+00
         0.93694E-01
         0.91326E-01
         0.97669E-01
         0.95899E-01
         0.94869E-01
         0.78312E-01
         0.74470E-01
         0.81990E-01
         0.88016E-01
         0.91353E-01
         0.99640E-01
         0.95479E-01
         0.98066E-01
         0.88260E-01
         0.83849E-01
         0.89082E-01
         0.86736E-01
         0.89366E-01
         0.88645E-01
         0.16081E-01
         0.95829E-02
         0.90965E-02
         0.63180E-02
         0.16445E-01
         0.11349E-01
         0.52535E-02
         0.15841E-01
         0.10058E-01
         0.15313E-01
         0.72239E-02
         0.31018E-01
         0.23699E-01
         0.11401E-01
         0.32965E-01
         0.11732E-01
         0.61108E-02
         0.36069E-02
         0.78659E-02
         0.40903E-02
         0.24448E-01
         0.22882E-01
         0.22311E-01
         0.57924E-02
         0.10052E-01
         0.29974E-02
         0.11159E-01
         0.16242E-02
         0.43244E-02
         0.10539E-01
         0.10021E-01
         0.52252E-02
         0.62534E-02
         0.56100E-02
         0.21529E-01
         0.12764E-01
         0.16527E-01
         0.27087E-01
         0.21055E-01
         0.19380E-01
         0.27233E-01
         0.24625E-01
         0.24666E-01
         0.19092E-01
         0.17004E-01
         0.23286E-01
         0.15281E-01
         0.12977E-01
         0.10512E-01
         0.12392E-01
         0.20492E-01
         0.13871E-01
         0.90148E-01
         0.92469E-01
         0.96965E-01
         0.96283E-01
         0.10239E+00
         0.10967E+00
         0.10511E+00
         0.93669E-01
         0.91303E-01
         0.97638E-01
         0.95884E-01
         0.94876E-01
         0.78309E-01
         0.74468E-01
         0.82003E-01
         0.88045E-01
         0.91385E-01
         0.99663E-01
         0.95473E-01
         0.98060E-01
         0.88252E-01
         0.83845E-01
         0.89051E-01
         0.86679E-01
         0.89316E-01
         0.88598E-01
         0.16090E-01
         0.95826E-02
         0.91010E-02
         0.63272E-02
         0.16438E-01
         0.11342E-01
         0.52678E-02
         0.15851E-01
         0.10075E-01
         0.15351E-01
         0.72272E-02
         0.31018E-01
         0.23710E-01
         0.11375E-01
         0.32999E-01
         0.11743E-01
         0.61287E-02
         0.35973E-02
         0.78710E-02
         0.40813E-02
         0.24452E-01
         0.22882E-01
         0.22313E-01
         0.57920E-02
         0.10088E-01
         0.29947E-02
         0.11162E-01
         0.16149E-02
         0.43434E-02
         0.10553E-01
         0.10030E-01
         0.52222E-02
         0.62429E-02
         0.56150E-02
         0.21540E-01
         0.12761E-01
         0.16525E-01
         0.27129E-01
         0.21104E-01
         0.19410E-01
         0.27254E-01
         0.24639E-01
         0.24672E-01
         0.19097E-01
         0.17006E-01
         0.23289E-01
         0.15285E-01
         0.12979E-01
         0.10501E-01
         0.12376E-01
         0.20482E-01
         0.13850E-01
         0.90115E-01
         0.92448E-01
         0.96964E-01
         0.96283E-01
         0.10238E+00
         0.10963E+00
         0.10507E+00
         0.93643E-01
         0.91280E-01
         0.97607E-01
         0.95868E-01
         0.94882E-01
         0.78306E-01
         0.74467E-01
         0.82015E-01
         0.88074E-01
         0.91416E-01
         0.99686E-01
         0.95466E-01
         0.98054E-01
         0.88245E-01
         0.83841E-01
         0.89020E-01
         0.86623E-01
         0.89267E-01
         0.88550E-01
         0.16100E-01
         0.95825E-02
         0.91056E-02
         0.63364E-02
         0.16431E-01
         0.11336E-01
         0.52822E-02
         0.15862E-01
         0.10093E-01
         0.15388E-01
         0.72306E-02
         0.31018E-01
         0.23721E-01
         0.11348E-01
         0.33033E-01
         0.11755E-01
         0.61467E-02
         0.35877E-02
         0.78762E-02
         0.40722E-02
         0.24456E-01
         0.22881E-01
         0.22315E-01
         0.57917E-02
         0.10124E-01
         0.29920E-02
         0.11165E-01
         0.16057E-02
         0.43622E-02
         0.10566E-01
         0.10040E-01
         0.52192E-02
         0.62324E-02
         0.56199E-02
         0.21551E-01
         0.12760E-01
         0.16523E-01
         0.27172E-01
         0.21153E-01
         0.19439E-01
         0.27275E-01
         0.24654E-01
         0.24678E-01
         0.19103E-01
         0.17008E-01
         0.23293E-01
         0.15289E-01
         0.12982E-01
         0.10490E-01
         0.12360E-01
         0.20473E-01
         0.13830E-01
         0.90082E-01
         0.92426E-01
         0.96962E-01
         0.96284E-01
         0.10236E+00
         0.10959E+00
         0.10502E+00
         0.93617E-01
         0.91258E-01
         0.97575E-01
         0.95853E-01
         0.94889E-01
         0.78304E-01
         0.74465E-01
         0.82027E-01
         0.88103E-01
         0.91447E-01
         0.99708E-01
         0.95460E-01
         0.98048E-01
         0.88237E-01
         0.83838E-01
         0.88989E-01
         0.86566E-01
         0.89217E-01
         0.88503E-01
         0.16110E-01
         0.95825E-02
         0.91102E-02
         0.63456E-02
         0.16424E-01
         0.11329E-01
         0.52964E-02
         0.15873E-01
         0.10111E-01
         0.15425E-01
         0.72340E-02
         0.31018E-01
         0.23731E-01
         0.11321E-01
         0.33067E-01
         0.11766E-01
         0.61646E-02
         0.35780E-02
         0.78814E-02
         0.40635E-02
         0.24460E-01
         0.22881E-01
         0.22318E-01
         0.57912E-02
         0.10160E-01
         0.29895E-02
         0.11167E-01
         0.15965E-02
         0.43814E-02
         0.10579E-01
         0.10049E-01
         0.52160E-02
         0.62218E-02
         0.56249E-02
         0.21561E-01
         0.12758E-01
         0.16521E-01
         0.27215E-01
         0.21202E-01
         0.19468E-01
         0.27295E-01
         0.24667E-01
         0.24684E-01
         0.19108E-01
         0.17010E-01
         0.23297E-01
         0.15293E-01
         0.12984E-01
         0.10478E-01
         0.12345E-01
         0.20463E-01
         0.13809E-01
         0.90049E-01
         0.92405E-01
         0.96960E-01
         0.96284E-01
         0.10234E+00
         0.10956E+00
         0.10498E+00
         0.93592E-01
         0.91235E-01
         0.97542E-01
         0.95838E-01
         0.94899E-01
         0.78303E-01
         0.74464E-01
         0.82039E-01
         0.88132E-01
         0.91479E-01
         0.99731E-01
         0.95454E-01
         0.98042E-01
         0.88229E-01
         0.83834E-01
         0.88957E-01
         0.86509E-01
         0.89167E-01
         0.88456E-01
         0.16120E-01
         0.95824E-02
         0.91147E-02
         0.63549E-02
         0.16417E-01
         0.11323E-01
         0.53108E-02
         0.15883E-01
         0.10129E-01
         0.15462E-01
         0.72375E-02
         0.31019E-01
         0.23742E-01
         0.11294E-01
         0.33102E-01
         0.11778E-01
         0.61826E-02
         0.35684E-02
         0.78867E-02
         0.40547E-02
         0.24464E-01
         0.22881E-01
         0.22321E-01
         0.57909E-02
         0.10195E-01
         0.29868E-02
         0.11168E-01
         0.15872E-02
         0.44008E-02
         0.10591E-01
         0.10058E-01
         0.52130E-02
         0.62114E-02
         0.56298E-02
         0.21572E-01
         0.12756E-01
         0.16519E-01
         0.27259E-01
         0.21251E-01
         0.19496E-01
         0.27314E-01
         0.24679E-01
         0.24689E-01
         0.19113E-01
         0.17012E-01
         0.23301E-01
         0.15297E-01
         0.12986E-01
         0.10467E-01
         0.12329E-01
         0.20453E-01
         0.13787E-01
         0.90016E-01
         0.92383E-01
         0.96959E-01
         0.96284E-01
         0.10233E+00
         0.10952E+00
         0.10493E+00
         0.93566E-01
         0.91211E-01
         0.97507E-01
         0.95822E-01
         0.94911E-01
         0.78303E-01
         0.74463E-01
         0.82052E-01
         0.88161E-01
         0.91510E-01
         0.99754E-01
         0.95448E-01
         0.98036E-01
         0.88221E-01
         0.83830E-01
         0.88926E-01
         0.86452E-01
         0.89118E-01
         0.88409E-01
         0.16129E-01
         0.95824E-02
         0.91195E-02
         0.63642E-02
         0.16411E-01
         0.11317E-01
         0.53252E-02
         0.15894E-01
         0.10147E-01
         0.15498E-01
         0.72412E-02
         0.31019E-01
         0.23753E-01
         0.11267E-01
         0.33135E-01
         0.11789E-01
         0.62006E-02
         0.35588E-02
         0.78919E-02
         0.40462E-02
         0.24469E-01
         0.22880E-01
         0.22323E-01
         0.57906E-02
         0.10231E-01
         0.29844E-02
         0.11169E-01
         0.15780E-02
         0.44201E-02
         0.10603E-01
         0.10067E-01
         0.52100E-02
         0.62011E-02
         0.56349E-02
         0.21583E-01
         0.12754E-01
         0.16516E-01
         0.27302E-01
         0.21300E-01
         0.19522E-01
         0.27332E-01
         0.24690E-01
         0.24694E-01
         0.19119E-01
         0.17013E-01
         0.23305E-01
         0.15301E-01
         0.12988E-01
         0.10456E-01
         0.12313E-01
         0.20444E-01
         0.13767E-01
         0.89983E-01
         0.92361E-01
         0.96957E-01
         0.96285E-01
         0.10231E+00
         0.10948E+00
         0.10488E+00
         0.93541E-01
         0.91188E-01
         0.97472E-01
         0.95807E-01
         0.94923E-01
         0.78304E-01
         0.74462E-01
         0.82064E-01
         0.88190E-01
         0.91542E-01
         0.99777E-01
         0.95442E-01
         0.98030E-01
         0.88213E-01
         0.83825E-01
         0.88894E-01
         0.86396E-01
         0.89068E-01
         0.88362E-01
         0.16463E-01
         0.10076E-01
         0.96313E-02
         0.69479E-02
         0.16831E-01
         0.11803E-01
         0.62485E-02
         0.16304E-01
         0.10590E-01
         0.15940E-01
         0.81036E-02
         0.31440E-01
         0.24160E-01
         0.11875E-01
         0.33601E-01
         0.12165E-01
         0.69065E-02
         0.44015E-02
         0.85041E-02
         0.51696E-02
         0.24817E-01
         0.23240E-01
         0.22659E-01
         0.65111E-02
         0.10814E-01
         0.41036E-02
         0.11793E-01
         0.38467E-02
         0.56874E-02
         0.11186E-01
         0.10493E-01
         0.59820E-02
         0.67867E-02
         0.63380E-02
         0.22023E-01
         0.13253E-01
         0.16934E-01
         0.27769E-01
         0.21796E-01
         0.20011E-01
         0.27763E-01
         0.25097E-01
         0.25064E-01
         0.19466E-01
         0.17407E-01
         0.23720E-01
         0.15754E-01
         0.13439E-01
         0.10952E-01
         0.12779E-01
         0.20847E-01
         0.14199E-01
         0.90680E-01
         0.93057E-01
         0.97700E-01
         0.97004E-01
         0.10306E+00
         0.11027E+00
         0.10566E+00
         0.94297E-01
         0.91946E-01
         0.98259E-01
         0.96582E-01
         0.95670E-01
         0.78913E-01
         0.75025E-01
         0.82659E-01
         0.88823E-01
         0.92192E-01
         0.10050E+00
         0.96184E-01
         0.98784E-01
         0.88874E-01
         0.84453E-01
         0.89534E-01
         0.87002E-01
         0.89681E-01
         0.88973E-01
         0.39179E-01
         0.35301E-01
         0.34581E-01
         0.30616E-01
         0.42743E-01
         0.37303E-01
         0.35676E-01
         0.42333E-01
         0.33765E-01
         0.41984E-01
         0.39538E-01
         0.61331E-01
         0.51691E-01
         0.42487E-01
         0.64770E-01
         0.34459E-01
         0.33032E-01
         0.28297E-01
         0.34724E-01
         0.34858E-01
         0.50053E-01
         0.49302E-01
         0.46952E-01
         0.32649E-01
         0.38633E-01
         0.30748E-01
         0.42376E-01
         0.38422E-01
         0.39100E-01
         0.39945E-01
         0.33479E-01
         0.32307E-01
         0.30742E-01
         0.31748E-01
         0.49484E-01
         0.40261E-01
         0.43177E-01
         0.58483E-01
         0.52258E-01
         0.50340E-01
         0.57976E-01
         0.53982E-01
         0.52423E-01
         0.43415E-01
         0.42547E-01
         0.50867E-01
         0.42228E-01
         0.38854E-01
         0.36606E-01
         0.38839E-01
         0.47368E-01
         0.39890E-01
         0.12956E+00
         0.13133E+00
         0.13722E+00
         0.13590E+00
         0.14354E+00
         0.15352E+00
         0.15000E+00
         0.13774E+00
         0.13506E+00
         0.14234E+00
         0.13966E+00
         0.13665E+00
         0.11553E+00
         0.10993E+00
         0.11764E+00
         0.12393E+00
         0.12772E+00
         0.13857E+00
         0.13536E+00
         0.13855E+00
         0.12630E+00
         0.12088E+00
         0.12716E+00
         0.12441E+00
         0.12688E+00
         0.12563E+00
  
SCALARS                     nodal_mass  double 1
LOOKUP_TABLE default
         0.24608E-05
         0.19551E-05
         0.20945E-05
         0.35953E-05
         0.12304E-05
         0.97770E-06
         0.10472E-05
         0.17973E-05
         0.19315E-05
         0.24627E-05
         0.96570E-06
         0.12312E-05
         0.13823E-05
         0.16614E-05
         0.69133E-06
         0.83095E-06
         0.27274E-05
         0.20125E-05
         0.13635E-05
         0.10066E-05
         0.81737E-06
         0.15393E-05
         0.16929E-05
         0.40889E-06
         0.76975E-06
         0.84649E-06
         0.13859E-05
         0.17532E-05
         0.69345E-06
         0.87672E-06
         0.32470E-05
         0.25355E-05
         0.32225E-05
         0.16233E-05
         0.12675E-05
         0.16109E-05
         0.18980E-05
         0.21673E-05
         0.94902E-06
         0.10836E-05
         0.20482E-05
         0.22683E-05
         0.10242E-05
         0.11342E-05
         0.17426E-05
         0.10823E-05
         0.87140E-06
         0.54121E-06
         0.20598E-05
         0.10301E-05
         0.17103E-05
         0.85523E-06
         0.17977E-05
         0.89958E-06
         0.18362E-05
         0.91859E-06
         0.15911E-05
         0.19369E-05
         0.79575E-06
         0.96860E-06
         0.24553E-05
         0.17361E-05
         0.12277E-05
         0.86816E-06
         0.27409E-05
         0.13702E-05
         0.23792E-05
         0.11891E-05
         0.10821E-05
         0.16705E-05
         0.54106E-06
         0.83538E-06
         0.18955E-05
         0.94787E-06
         0.20026E-05
         0.10014E-05
         0.19316E-05
         0.96578E-06
         0.15181E-05
         0.75906E-06
         0.95443E-06
         0.15782E-05
         0.47723E-06
         0.78918E-06
         0.20886E-05
         0.10443E-05
         0.16867E-05
         0.84342E-06
         0.14838E-05
         0.74203E-06
         0.97224E-06
         0.16569E-05
         0.48620E-06
         0.82849E-06
         0.22482E-05
         0.11241E-05
         0.23568E-05
         0.11783E-05
         0.19018E-05
         0.95085E-06
         0.11709E-05
         0.20091E-05
         0.58544E-06
         0.10044E-05
         0.74681E-06
         0.94889E-06
         0.37348E-06
         0.47447E-06
         0.88885E-06
         0.44455E-06
         0.10466E-05
         0.52333E-06
         0.10205E-05
         0.51021E-06
         0.99108E-06
         0.49550E-06
         0.10560E-05
         0.52791E-06
         0.11142E-05
         0.55694E-06
         0.10497E-05
         0.52469E-06
         0.82085E-06
         0.41039E-06
         0.66950E-06
         0.33475E-06
         0.86397E-06
         0.43199E-06
         0.11504E-05
         0.57519E-06
         0.12637E-05
         0.63182E-06
         0.12132E-05
         0.60658E-06
         0.10948E-05
         0.54745E-06
         0.99429E-06
         0.49718E-06
         0.80759E-06
         0.40382E-06
         0.67982E-06
         0.33995E-06
         0.88797E-06
         0.44401E-06
         0.11753E-05
         0.58766E-06
         0.12140E-05
         0.60702E-06
         0.98236E-06
         0.49125E-06
         0.79766E-06
         0.39889E-06
         0.97540E-06
         0.48769E-06
         0.11548E-05
         0.57743E-06
         0.24609E-05
         0.19547E-05
         0.20946E-05
         0.35969E-05
         0.19318E-05
         0.24634E-05
         0.13815E-05
         0.16603E-05
         0.27283E-05
         0.20111E-05
         0.81658E-06
         0.15390E-05
         0.16927E-05
         0.13839E-05
         0.17528E-05
         0.32479E-05
         0.25367E-05
         0.32241E-05
         0.18980E-05
         0.21675E-05
         0.20481E-05
         0.22684E-05
         0.17424E-05
         0.10822E-05
         0.20589E-05
         0.17102E-05
         0.17950E-05
         0.18344E-05
         0.15904E-05
         0.19365E-05
         0.24555E-05
         0.17359E-05
         0.27423E-05
         0.23814E-05
         0.10820E-05
         0.16702E-05
         0.18953E-05
         0.20025E-05
         0.19317E-05
         0.15181E-05
         0.95442E-06
         0.15780E-05
         0.20884E-05
         0.16864E-05
         0.14835E-05
         0.97197E-06
         0.16567E-05
         0.22482E-05
         0.23571E-05
         0.19022E-05
         0.11709E-05
         0.20101E-05
         0.74658E-06
         0.94886E-06
         0.88841E-06
         0.10467E-05
         0.10207E-05
         0.99128E-06
         0.10565E-05
         0.11150E-05
         0.10503E-05
         0.82102E-06
         0.66954E-06
         0.86398E-06
         0.11506E-05
         0.12640E-05
         0.12133E-05
         0.10948E-05
         0.99421E-06
         0.80751E-06
         0.67970E-06
         0.88789E-06
         0.11752E-05
         0.12140E-05
         0.98215E-06
         0.79747E-06
         0.97551E-06
         0.11548E-05
         0.24611E-05
         0.19543E-05
         0.20949E-05
         0.35987E-05
         0.19321E-05
         0.24642E-05
         0.13808E-05
         0.16594E-05
         0.27293E-05
         0.20098E-05
         0.81582E-06
         0.15388E-05
         0.16927E-05
         0.13821E-05
         0.17525E-05
         0.32489E-05
         0.25379E-05
         0.32257E-05
         0.18982E-05
         0.21678E-05
         0.20480E-05
         0.22685E-05
         0.17423E-05
         0.10821E-05
         0.20580E-05
         0.17101E-05
         0.17924E-05
         0.18326E-05
         0.15898E-05
         0.19361E-05
         0.24558E-05
         0.17357E-05
         0.27438E-05
         0.23836E-05
         0.10821E-05
         0.16699E-05
         0.18951E-05
         0.20024E-05
         0.19318E-05
         0.15183E-05
         0.95445E-06
         0.15778E-05
         0.20884E-05
         0.16862E-05
         0.14831E-05
         0.97174E-06
         0.16566E-05
         0.22483E-05
         0.23575E-05
         0.19026E-05
         0.11709E-05
         0.20112E-05
         0.74636E-06
         0.94886E-06
         0.88800E-06
         0.10467E-05
         0.10210E-05
         0.99152E-06
         0.10570E-05
         0.11159E-05
         0.10509E-05
         0.82122E-06
         0.66961E-06
         0.86402E-06
         0.11507E-05
         0.12643E-05
         0.12135E-05
         0.10948E-05
         0.99417E-06
         0.80747E-06
         0.67961E-06
         0.88784E-06
         0.11752E-05
         0.12140E-05
         0.98197E-06
         0.79731E-06
         0.97565E-06
         0.11548E-05
         0.24612E-05
         0.19539E-05
         0.20950E-05
         0.36004E-05
         0.19324E-05
         0.24650E-05
         0.13801E-05
         0.16584E-05
         0.27303E-05
         0.20085E-05
         0.81504E-06
         0.15385E-05
         0.16925E-05
         0.13801E-05
         0.17521E-05
         0.32498E-05
         0.25390E-05
         0.32274E-05
         0.18982E-05
         0.21681E-05
         0.20479E-05
         0.22686E-05
         0.17421E-05
         0.10820E-05
         0.20571E-05
         0.17099E-05
         0.17897E-05
         0.18308E-05
         0.15891E-05
         0.19356E-05
         0.24561E-05
         0.17355E-05
         0.27453E-05
         0.23857E-05
         0.10820E-05
         0.16696E-05
         0.18948E-05
         0.20022E-05
         0.19320E-05
         0.15183E-05
         0.95445E-06
         0.15776E-05
         0.20883E-05
         0.16859E-05
         0.14828E-05
         0.97149E-06
         0.16564E-05
         0.22483E-05
         0.23578E-05
         0.19030E-05
         0.11710E-05
         0.20122E-05
         0.74613E-06
         0.94884E-06
         0.88756E-06
         0.10467E-05
         0.10212E-05
         0.99173E-06
         0.10574E-05
         0.11167E-05
         0.10515E-05
         0.82140E-06
         0.66966E-06
         0.86404E-06
         0.11509E-05
         0.12646E-05
         0.12136E-05
         0.10947E-05
         0.99410E-06
         0.80740E-06
         0.67950E-06
         0.88777E-06
         0.11752E-05
         0.12140E-05
         0.98177E-06
         0.79713E-06
         0.97576E-06
         0.11547E-05
         0.24613E-05
         0.19535E-05
         0.20952E-05
         0.36022E-05
         0.19327E-05
         0.24657E-05
         0.13794E-05
         0.16574E-05
         0.27313E-05
         0.20072E-05
         0.81426E-06
         0.15382E-05
         0.16924E-05
         0.13782E-05
         0.17517E-05
         0.32508E-05
         0.25402E-05
         0.32290E-05
         0.18983E-05
         0.21684E-05
         0.20479E-05
         0.22687E-05
         0.17420E-05
         0.10819E-05
         0.20563E-05
         0.17098E-05
         0.17870E-05
         0.18290E-05
         0.15884E-05
         0.19352E-05
         0.24563E-05
         0.17353E-05
         0.27467E-05
         0.23879E-05
         0.10820E-05
         0.16693E-05
         0.18946E-05
         0.20021E-05
         0.19321E-05
         0.15184E-05
         0.95445E-06
         0.15773E-05
         0.20882E-05
         0.16857E-05
         0.14824E-05
         0.97124E-06
         0.16563E-05
         0.22484E-05
         0.23582E-05
         0.19034E-05
         0.11710E-05
         0.20132E-05
         0.74590E-06
         0.94883E-06
         0.88713E-06
         0.10468E-05
         0.10215E-05
         0.99194E-06
         0.10579E-05
         0.11175E-05
         0.10521E-05
         0.82159E-06
         0.66972E-06
         0.86406E-06
         0.11510E-05
         0.12649E-05
         0.12138E-05
         0.10947E-05
         0.99404E-06
         0.80734E-06
         0.67940E-06
         0.88771E-06
         0.11752E-05
         0.12140E-05
         0.98157E-06
         0.79696E-06
         0.97588E-06
         0.11547E-05
         0.24615E-05
         0.19531E-05
         0.20954E-05
         0.36039E-05
         0.19331E-05
         0.24665E-05
         0.13787E-05
         0.16564E-05
         0.27322E-05
         0.20059E-05
         0.81349E-06
         0.15380E-05
         0.16923E-05
         0.13763E-05
         0.17514E-05
         0.32518E-05
         0.25414E-05
         0.32306E-05
         0.18984E-05
         0.21687E-05
         0.20478E-05
         0.22688E-05
         0.17418E-05
         0.10818E-05
         0.20554E-05
         0.17096E-05
         0.17843E-05
         0.18272E-05
         0.15878E-05
         0.19347E-05
         0.24566E-05
         0.17351E-05
         0.27482E-05
         0.23901E-05
         0.10820E-05
         0.16690E-05
         0.18943E-05
         0.20019E-05
         0.19322E-05
         0.15185E-05
         0.95446E-06
         0.15771E-05
         0.20881E-05
         0.16855E-05
         0.14821E-05
         0.97100E-06
         0.16562E-05
         0.22484E-05
         0.23586E-05
         0.19038E-05
         0.11710E-05
         0.20142E-05
         0.74568E-06
         0.94882E-06
         0.88671E-06
         0.10468E-05
         0.10217E-05
         0.99216E-06
         0.10583E-05
         0.11183E-05
         0.10528E-05
         0.82178E-06
         0.66977E-06
         0.86408E-06
         0.11512E-05
         0.12652E-05
         0.12139E-05
         0.10947E-05
         0.99398E-06
         0.80728E-06
         0.67930E-06
         0.88766E-06
         0.11752E-05
         0.12140E-05
         0.98138E-06
         0.79679E-06
         0.97601E-06
         0.11547E-05
         0.24616E-05
         0.19527E-05
         0.20956E-05
         0.36056E-05
         0.19334E-05
         0.24672E-05
         0.13779E-05
         0.16554E-05
         0.27332E-05
         0.20046E-05
         0.81271E-06
         0.15377E-05
         0.16922E-05
         0.13744E-05
         0.17510E-05
         0.32527E-05
         0.25425E-05
         0.32322E-05
         0.18984E-05
         0.21689E-05
         0.20477E-05
         0.22689E-05
         0.17416E-05
         0.10816E-05
         0.20545E-05
         0.17095E-05
         0.17817E-05
         0.18254E-05
         0.15871E-05
         0.19343E-05
         0.24568E-05
         0.17349E-05
         0.27496E-05
         0.23922E-05
         0.10820E-05
         0.16686E-05
         0.18941E-05
         0.20018E-05
         0.19324E-05
         0.15186E-05
         0.95446E-06
         0.15769E-05
         0.20880E-05
         0.16852E-05
         0.14817E-05
         0.97074E-06
         0.16560E-05
         0.22484E-05
         0.23589E-05
         0.19042E-05
         0.11710E-05
         0.20152E-05
         0.74544E-06
         0.94880E-06
         0.88627E-06
         0.10469E-05
         0.10219E-05
         0.99237E-06
         0.10588E-05
         0.11191E-05
         0.10534E-05
         0.82196E-06
         0.66982E-06
         0.86410E-06
         0.11513E-05
         0.12654E-05
         0.12140E-05
         0.10947E-05
         0.99391E-06
         0.80721E-06
         0.67919E-06
         0.88759E-06
         0.11751E-05
         0.12140E-05
         0.98118E-06
         0.79661E-06
         0.97612E-06
         0.11546E-05
         0.24618E-05
         0.19523E-05
         0.20957E-05
         0.36073E-05
         0.19337E-05
         0.24680E-05
         0.13772E-05
         0.16545E-05
         0.27341E-05
         0.20033E-05
         0.81194E-06
         0.15374E-05
         0.16921E-05
         0.13725E-05
         0.17506E-05
         0.32537E-05
         0.25437E-05
         0.32339E-05
         0.18985E-05
         0.21692E-05
         0.20476E-05
         0.22690E-05
         0.17414E-05
         0.10815E-05
         0.20536E-05
         0.17093E-05
         0.17790E-05
         0.18236E-05
         0.15864E-05
         0.19339E-05
         0.24571E-05
         0.17347E-05
         0.27511E-05
         0.23944E-05
         0.10820E-05
         0.16683E-05
         0.18938E-05
         0.20016E-05
         0.19325E-05
         0.15186E-05
         0.95446E-06
         0.15767E-05
         0.20878E-05
         0.16850E-05
         0.14814E-05
         0.97050E-06
         0.16559E-05
         0.22484E-05
         0.23593E-05
         0.19046E-05
         0.11711E-05
         0.20162E-05
         0.74522E-06
         0.94878E-06
         0.88584E-06
         0.10469E-05
         0.10222E-05
         0.99258E-06
         0.10593E-05
         0.11199E-05
         0.10540E-05
         0.82215E-06
         0.66988E-06
         0.86413E-06
         0.11515E-05
         0.12657E-05
         0.12142E-05
         0.10946E-05
         0.99385E-06
         0.80715E-06
         0.67909E-06
         0.88752E-06
         0.11751E-05
         0.12140E-05
         0.98098E-06
         0.79643E-06
         0.97624E-06
         0.11546E-05
         0.24619E-05
         0.19519E-05
         0.20959E-05
         0.36091E-05
         0.19340E-05
         0.24688E-05
         0.13765E-05
         0.16535E-05
         0.27351E-05
         0.20020E-05
         0.81117E-06
         0.15372E-05
         0.16920E-05
         0.13706E-05
         0.17503E-05
         0.32546E-05
         0.25448E-05
         0.32355E-05
         0.18986E-05
         0.21695E-05
         0.20475E-05
         0.22691E-05
         0.17413E-05
         0.10814E-05
         0.20527E-05
         0.17092E-05
         0.17763E-05
         0.18219E-05
         0.15858E-05
         0.19334E-05
         0.24573E-05
         0.17345E-05
         0.27525E-05
         0.23966E-05
         0.10820E-05
         0.16680E-05
         0.18936E-05
         0.20015E-05
         0.19326E-05
         0.15187E-05
         0.95447E-06
         0.15765E-05
         0.20878E-05
         0.16848E-05
         0.14810E-05
         0.97025E-06
         0.16557E-05
         0.22485E-05
         0.23597E-05
         0.19050E-05
         0.11711E-05
         0.20172E-05
         0.74499E-06
         0.94877E-06
         0.88541E-06
         0.10469E-05
         0.10224E-05
         0.99280E-06
         0.10597E-05
         0.11207E-05
         0.10546E-05
         0.82234E-06
         0.66994E-06
         0.86415E-06
         0.11517E-05
         0.12660E-05
         0.12143E-05
         0.10946E-05
         0.99379E-06
         0.80709E-06
         0.67898E-06
         0.88746E-06
         0.11751E-05
         0.12140E-05
         0.98079E-06
         0.79626E-06
         0.97636E-06
         0.11546E-05
         0.24621E-05
         0.19515E-05
         0.20961E-05
         0.36108E-05
         0.19343E-05
         0.24695E-05
         0.13758E-05
         0.16525E-05
         0.27361E-05
         0.20006E-05
         0.81039E-06
         0.15369E-05
         0.16919E-05
         0.13686E-05
         0.17499E-05
         0.32556E-05
         0.25460E-05
         0.32371E-05
         0.18986E-05
         0.21697E-05
         0.20474E-05
         0.22692E-05
         0.17411E-05
         0.10813E-05
         0.20519E-05
         0.17091E-05
         0.17736E-05
         0.18201E-05
         0.15851E-05
         0.19330E-05
         0.24575E-05
         0.17342E-05
         0.27540E-05
         0.23987E-05
         0.10820E-05
         0.16677E-05
         0.18933E-05
         0.20014E-05
         0.19328E-05
         0.15188E-05
         0.95448E-06
         0.15763E-05
         0.20876E-05
         0.16845E-05
         0.14807E-05
         0.97000E-06
         0.16556E-05
         0.22485E-05
         0.23600E-05
         0.19053E-05
         0.11711E-05
         0.20182E-05
         0.74476E-06
         0.94875E-06
         0.88498E-06
         0.10470E-05
         0.10227E-05
         0.99301E-06
         0.10602E-05
         0.11215E-05
         0.10553E-05
         0.82252E-06
         0.66999E-06
         0.86417E-06
         0.11518E-05
         0.12663E-05
         0.12145E-05
         0.10946E-05
         0.99373E-06
         0.80702E-06
         0.67888E-06
         0.88740E-06
         0.11751E-05
         0.12140E-05
         0.98058E-06
         0.79608E-06
         0.97648E-06
         0.11546E-05
         0.24622E-05
         0.19511E-05
         0.20963E-05
         0.36125E-05
         0.19346E-05
         0.24703E-05
         0.13751E-05
         0.16515E-05
         0.27370E-05
         0.19993E-05
         0.80962E-06
         0.15366E-05
         0.16917E-05
         0.13667E-05
         0.17495E-05
         0.32565E-05
         0.25471E-05
         0.32388E-05
         0.18987E-05
         0.21700E-05
         0.20473E-05
         0.22693E-05
         0.17409E-05
         0.10812E-05
         0.20510E-05
         0.17089E-05
         0.17710E-05
         0.18183E-05
         0.15844E-05
         0.19325E-05
         0.24578E-05
         0.17340E-05
         0.27554E-05
         0.24009E-05
         0.10820E-05
         0.16674E-05
         0.18931E-05
         0.20012E-05
         0.19329E-05
         0.15189E-05
         0.95448E-06
         0.15760E-05
         0.20875E-05
         0.16843E-05
         0.14803E-05
         0.96975E-06
         0.16555E-05
         0.22485E-05
         0.23604E-05
         0.19057E-05
         0.11712E-05
         0.20192E-05
         0.74453E-06
         0.94874E-06
         0.88455E-06
         0.10470E-05
         0.10229E-05
         0.99322E-06
         0.10606E-05
         0.11223E-05
         0.10559E-05
         0.82270E-06
         0.67004E-06
         0.86419E-06
         0.11520E-05
         0.12666E-05
         0.12146E-05
         0.10945E-05
         0.99366E-06
         0.80696E-06
         0.67877E-06
         0.88733E-06
         0.11751E-05
         0.12140E-05
         0.98038E-06
         0.79590E-06
         0.97660E-06
         0.11545E-05
         0.24623E-05
         0.19507E-05
         0.20964E-05
         0.36142E-05
         0.19349E-05
         0.24710E-05
         0.13743E-05
         0.16505E-05
         0.27380E-05
         0.19980E-05
         0.80885E-06
         0.15364E-05
         0.16916E-05
         0.13648E-05
         0.17492E-05
         0.32575E-05
         0.25483E-05
         0.32404E-05
         0.18988E-05
         0.21703E-05
         0.20473E-05
         0.22694E-05
         0.17407E-05
         0.10811E-05
         0.20501E-05
         0.17088E-05
         0.17683E-05
         0.18165E-05
         0.15837E-05
         0.19321E-05
         0.24580E-05
         0.17338E-05
         0.27569E-05
         0.24031E-05
         0.10820E-05
         0.16670E-05
         0.18928E-05
         0.20011E-05
         0.19330E-05
         0.15189E-05
         0.95448E-06
         0.15758E-05
         0.20874E-05
         0.16840E-05
         0.14800E-05
         0.96950E-06
         0.16553E-05
         0.22485E-05
         0.23608E-05
         0.19061E-05
         0.11712E-05
         0.20202E-05
         0.74430E-06
         0.94872E-06
         0.88412E-06
         0.10470E-05
         0.10231E-05
         0.99344E-06
         0.10611E-05
         0.11231E-05
         0.10565E-05
         0.82289E-06
         0.67009E-06
         0.86422E-06
         0.11521E-05
         0.12669E-05
         0.12147E-05
         0.10945E-05
         0.99360E-06
         0.80690E-06
         0.67867E-06
         0.88727E-06
         0.11750E-05
         0.12140E-05
         0.98019E-06
         0.79573E-06
         0.97672E-06
         0.11545E-05
         0.24625E-05
         0.19503E-05
         0.20966E-05
         0.36160E-05
         0.19352E-05
         0.24718E-05
         0.13736E-05
         0.16496E-05
         0.27389E-05
         0.19967E-05
         0.80807E-06
         0.15361E-05
         0.16915E-05
         0.13629E-05
         0.17488E-05
         0.32584E-05
         0.25495E-05
         0.32420E-05
         0.18988E-05
         0.21705E-05
         0.20472E-05
         0.22695E-05
         0.17406E-05
         0.10810E-05
         0.20492E-05
         0.17086E-05
         0.17656E-05
         0.18147E-05
         0.15831E-05
         0.19317E-05
         0.24583E-05
         0.17336E-05
         0.27583E-05
         0.24053E-05
         0.10820E-05
         0.16667E-05
         0.18926E-05
         0.20009E-05
         0.19331E-05
         0.15190E-05
         0.95449E-06
         0.15756E-05
         0.20873E-05
         0.16838E-05
         0.14796E-05
         0.96925E-06
         0.16552E-05
         0.22486E-05
         0.23611E-05
         0.19065E-05
         0.11712E-05
         0.20212E-05
         0.74407E-06
         0.94870E-06
         0.88368E-06
         0.10471E-05
         0.10234E-05
         0.99365E-06
         0.10616E-05
         0.11239E-05
         0.10571E-05
         0.82307E-06
         0.67014E-06
         0.86424E-06
         0.11523E-05
         0.12672E-05
         0.12149E-05
         0.10945E-05
         0.99354E-06
         0.80683E-06
         0.67856E-06
         0.88721E-06
         0.11750E-05
         0.12140E-05
         0.97999E-06
         0.79555E-06
         0.97684E-06
         0.11545E-05
         0.24626E-05
         0.19499E-05
         0.20968E-05
         0.36177E-05
         0.19355E-05
         0.24725E-05
         0.13729E-05
         0.16486E-05
         0.27399E-05
         0.19954E-05
         0.80730E-06
         0.15358E-05
         0.16914E-05
         0.13610E-05
         0.17484E-05
         0.32594E-05
         0.25506E-05
         0.32437E-05
         0.18989E-05
         0.21708E-05
         0.20471E-05
         0.22696E-05
         0.17404E-05
         0.10808E-05
         0.20483E-05
         0.17085E-05
         0.17629E-05
         0.18129E-05
         0.15824E-05
         0.19312E-05
         0.24585E-05
         0.17334E-05
         0.27598E-05
         0.24074E-05
         0.10820E-05
         0.16664E-05
         0.18923E-05
         0.20008E-05
         0.19333E-05
         0.15191E-05
         0.95449E-06
         0.15754E-05
         0.20872E-05
         0.16835E-05
         0.14793E-05
         0.96901E-06
         0.16550E-05
         0.22486E-05
         0.23615E-05
         0.19069E-05
         0.11713E-05
         0.20222E-05
         0.74384E-06
         0.94869E-06
         0.88325E-06
         0.10471E-05
         0.10236E-05
         0.99386E-06
         0.10620E-05
         0.11247E-05
         0.10577E-05
         0.82326E-06
         0.67020E-06
         0.86426E-06
         0.11524E-05
         0.12674E-05
         0.12150E-05
         0.10944E-05
         0.99348E-06
         0.80677E-06
         0.67846E-06
         0.88714E-06
         0.11750E-05
         0.12140E-05
         0.97979E-06
         0.79538E-06
         0.97696E-06
         0.11544E-05
         0.24628E-05
         0.19495E-05
         0.20970E-05
         0.36194E-05
         0.19358E-05
         0.24733E-05
         0.13722E-05
         0.16476E-05
         0.27409E-05
         0.19941E-05
         0.80652E-06
         0.15355E-05
         0.16913E-05
         0.13591E-05
         0.17481E-05
         0.32604E-05
         0.25518E-05
         0.32453E-05
         0.18990E-05
         0.21711E-05
         0.20470E-05
         0.22697E-05
         0.17402E-05
         0.10807E-05
         0.20474E-05
         0.17084E-05
         0.17603E-05
         0.18111E-05
         0.15817E-05
         0.19308E-05
         0.24588E-05
         0.17332E-05
         0.27613E-05
         0.24096E-05
         0.10819E-05
         0.16661E-05
         0.18921E-05
         0.20006E-05
         0.19334E-05
         0.15192E-05
         0.95450E-06
         0.15752E-05
         0.20871E-05
         0.16833E-05
         0.14789E-05
         0.96876E-06
         0.16549E-05
         0.22486E-05
         0.23619E-05
         0.19073E-05
         0.11713E-05
         0.20232E-05
         0.74362E-06
         0.94868E-06
         0.88282E-06
         0.10472E-05
         0.10238E-05
         0.99408E-06
         0.10625E-05
         0.11255E-05
         0.10584E-05
         0.82345E-06
         0.67025E-06
         0.86428E-06
         0.11526E-05
         0.12677E-05
         0.12152E-05
         0.10944E-05
         0.99342E-06
         0.80671E-06
         0.67836E-06
         0.88709E-06
         0.11750E-05
         0.12140E-05
         0.97959E-06
         0.79521E-06
         0.97708E-06
         0.11544E-05
         0.24629E-05
         0.19491E-05
         0.20972E-05
         0.36212E-05
         0.19361E-05
         0.24741E-05
         0.13715E-05
         0.16466E-05
         0.27418E-05
         0.19928E-05
         0.80575E-06
         0.15353E-05
         0.16912E-05
         0.13572E-05
         0.17477E-05
         0.32613E-05
         0.25529E-05
         0.32469E-05
         0.18990E-05
         0.21714E-05
         0.20469E-05
         0.22698E-05
         0.17400E-05
         0.10806E-05
         0.20466E-05
         0.17082E-05
         0.17576E-05
         0.18093E-05
         0.15810E-05
         0.19303E-05
         0.24590E-05
         0.17330E-05
         0.27627E-05
         0.24118E-05
         0.10819E-05
         0.16658E-05
         0.18919E-05
         0.20005E-05
         0.19335E-05
         0.15192E-05
         0.95450E-06
         0.15750E-05
         0.20870E-05
         0.16831E-05
         0.14786E-05
         0.96851E-06
         0.16548E-05
         0.22487E-05
         0.23622E-05
         0.19077E-05
         0.11713E-05
         0.20242E-05
         0.74339E-06
         0.94866E-06
         0.88239E-06
         0.10472E-05
         0.10241E-05
         0.99429E-06
         0.10630E-05
         0.11263E-05
         0.10590E-05
         0.82363E-06
         0.67030E-06
         0.86430E-06
         0.11527E-05
         0.12680E-05
         0.12153E-05
         0.10944E-05
         0.99335E-06
         0.80665E-06
         0.67825E-06
         0.88702E-06
         0.11749E-05
         0.12140E-05
         0.97939E-06
         0.79503E-06
         0.97720E-06
         0.11544E-05
         0.24631E-05
         0.19487E-05
         0.20973E-05
         0.36229E-05
         0.19364E-05
         0.24748E-05
         0.13707E-05
         0.16456E-05
         0.27428E-05
         0.19915E-05
         0.80498E-06
         0.15350E-05
         0.16911E-05
         0.13553E-05
         0.17473E-05
         0.32623E-05
         0.25541E-05
         0.32486E-05
         0.18991E-05
         0.21716E-05
         0.20468E-05
         0.22699E-05
         0.17399E-05
         0.10805E-05
         0.20457E-05
         0.17081E-05
         0.17549E-05
         0.18075E-05
         0.15804E-05
         0.19299E-05
         0.24592E-05
         0.17328E-05
         0.27642E-05
         0.24140E-05
         0.10819E-05
         0.16654E-05
         0.18916E-05
         0.20003E-05
         0.19337E-05
         0.15193E-05
         0.95450E-06
         0.15748E-05
         0.20869E-05
         0.16828E-05
         0.14782E-05
         0.96826E-06
         0.16546E-05
         0.22487E-05
         0.23626E-05
         0.19081E-05
         0.11714E-05
         0.20253E-05
         0.74316E-06
         0.94864E-06
         0.88196E-06
         0.10472E-05
         0.10243E-05
         0.99450E-06
         0.10634E-05
         0.11271E-05
         0.10596E-05
         0.82381E-06
         0.67036E-06
         0.86432E-06
         0.11529E-05
         0.12683E-05
         0.12154E-05
         0.10943E-05
         0.99329E-06
         0.80658E-06
         0.67815E-06
         0.88696E-06
         0.11749E-05
         0.12140E-05
         0.97919E-06
         0.79485E-06
         0.97732E-06
         0.11544E-05
         0.24632E-05
         0.19483E-05
         0.20975E-05
         0.36246E-05
         0.19368E-05
         0.24756E-05
         0.13700E-05
         0.16447E-05
         0.27437E-05
         0.19902E-05
         0.80421E-06
         0.15347E-05
         0.16910E-05
         0.13534E-05
         0.17470E-05
         0.32632E-05
         0.25552E-05
         0.32502E-05
         0.18992E-05
         0.21719E-05
         0.20467E-05
         0.22700E-05
         0.17397E-05
         0.10804E-05
         0.20448E-05
         0.17079E-05
         0.17523E-05
         0.18057E-05
         0.15797E-05
         0.19295E-05
         0.24595E-05
         0.17326E-05
         0.27656E-05
         0.24161E-05
         0.10819E-05
         0.16651E-05
         0.18914E-05
         0.20002E-05
         0.19338E-05
         0.15194E-05
         0.95451E-06
         0.15745E-05
         0.20868E-05
         0.16826E-05
         0.14779E-05
         0.96801E-06
         0.16545E-05
         0.22487E-05
         0.23630E-05
         0.19085E-05
         0.11714E-05
         0.20263E-05
         0.74293E-06
         0.94863E-06
         0.88153E-06
         0.10473E-05
         0.10245E-05
         0.99472E-06
         0.10639E-05
         0.11279E-05
         0.10602E-05
         0.82400E-06
         0.67041E-06
         0.86435E-06
         0.11530E-05
         0.12686E-05
         0.12156E-05
         0.10943E-05
         0.99323E-06
         0.80652E-06
         0.67804E-06
         0.88690E-06
         0.11749E-05
         0.12140E-05
         0.97900E-06
         0.79468E-06
         0.97744E-06
         0.11543E-05
         0.24633E-05
         0.19479E-05
         0.20977E-05
         0.36264E-05
         0.19371E-05
         0.24763E-05
         0.13693E-05
         0.16437E-05
         0.27447E-05
         0.19888E-05
         0.80343E-06
         0.15345E-05
         0.16908E-05
         0.13515E-05
         0.17466E-05
         0.32642E-05
         0.25564E-05
         0.32518E-05
         0.18992E-05
         0.21722E-05
         0.20466E-05
         0.22701E-05
         0.17395E-05
         0.10803E-05
         0.20439E-05
         0.17078E-05
         0.17496E-05
         0.18039E-05
         0.15790E-05
         0.19290E-05
         0.24597E-05
         0.17323E-05
         0.27671E-05
         0.24183E-05
         0.10819E-05
         0.16648E-05
         0.18911E-05
         0.20001E-05
         0.19339E-05
         0.15195E-05
         0.95452E-06
         0.15743E-05
         0.20867E-05
         0.16823E-05
         0.14775E-05
         0.96776E-06
         0.16543E-05
         0.22487E-05
         0.23633E-05
         0.19089E-05
         0.11714E-05
         0.20273E-05
         0.74270E-06
         0.94861E-06
         0.88109E-06
         0.10473E-05
         0.10248E-05
         0.99493E-06
         0.10643E-05
         0.11287E-05
         0.10609E-05
         0.82418E-06
         0.67046E-06
         0.86437E-06
         0.11532E-05
         0.12689E-05
         0.12157E-05
         0.10943E-05
         0.99316E-06
         0.80646E-06
         0.67794E-06
         0.88683E-06
         0.11749E-05
         0.12140E-05
         0.97879E-06
         0.79450E-06
         0.97755E-06
         0.11543E-05
         0.24635E-05
         0.19475E-05
         0.20979E-05
         0.36281E-05
         0.19374E-05
         0.24771E-05
         0.13686E-05
         0.16427E-05
         0.27456E-05
         0.19875E-05
         0.80266E-06
         0.15342E-05
         0.16907E-05
         0.13496E-05
         0.17463E-05
         0.32651E-05
         0.25575E-05
         0.32534E-05
         0.18993E-05
         0.21724E-05
         0.20466E-05
         0.22702E-05
         0.17393E-05
         0.10802E-05
         0.20430E-05
         0.17076E-05
         0.17469E-05
         0.18021E-05
         0.15784E-05
         0.19286E-05
         0.24600E-05
         0.17321E-05
         0.27685E-05
         0.24205E-05
         0.10819E-05
         0.16645E-05
         0.18909E-05
         0.19999E-05
         0.19341E-05
         0.15195E-05
         0.95452E-06
         0.15741E-05
         0.20866E-05
         0.16821E-05
         0.14772E-05
         0.96751E-06
         0.16542E-05
         0.22488E-05
         0.23637E-05
         0.19092E-05
         0.11715E-05
         0.20283E-05
         0.74247E-06
         0.94860E-06
         0.88066E-06
         0.10473E-05
         0.10250E-05
         0.99514E-06
         0.10648E-05
         0.11295E-05
         0.10615E-05
         0.82437E-06
         0.67052E-06
         0.86439E-06
         0.11533E-05
         0.12691E-05
         0.12159E-05
         0.10942E-05
         0.99310E-06
         0.80639E-06
         0.67783E-06
         0.88676E-06
         0.11748E-05
         0.12140E-05
         0.97859E-06
         0.79433E-06
         0.97767E-06
         0.11543E-05
         0.24636E-05
         0.19471E-05
         0.20980E-05
         0.36298E-05
         0.19377E-05
         0.24779E-05
         0.13679E-05
         0.16417E-05
         0.27466E-05
         0.19862E-05
         0.80189E-06
         0.15339E-05
         0.16906E-05
         0.13477E-05
         0.17459E-05
         0.32661E-05
         0.25587E-05
         0.32551E-05
         0.18994E-05
         0.21727E-05
         0.20465E-05
         0.22703E-05
         0.17392E-05
         0.10800E-05
         0.20421E-05
         0.17075E-05
         0.17443E-05
         0.18003E-05
         0.15777E-05
         0.19281E-05
         0.24602E-05
         0.17319E-05
         0.27700E-05
         0.24227E-05
         0.10819E-05
         0.16642E-05
         0.18906E-05
         0.19998E-05
         0.19342E-05
         0.15196E-05
         0.95453E-06
         0.15739E-05
         0.20865E-05
         0.16819E-05
         0.14768E-05
         0.96727E-06
         0.16541E-05
         0.22488E-05
         0.23640E-05
         0.19096E-05
         0.11715E-05
         0.20293E-05
         0.74225E-06
         0.94859E-06
         0.88023E-06
         0.10474E-05
         0.10253E-05
         0.99535E-06
         0.10653E-05
         0.11303E-05
         0.10621E-05
         0.82456E-06
         0.67057E-06
         0.86441E-06
         0.11535E-05
         0.12694E-05
         0.12160E-05
         0.10942E-05
         0.99304E-06
         0.80633E-06
         0.67773E-06
         0.88671E-06
         0.11748E-05
         0.12140E-05
         0.97840E-06
         0.79415E-06
         0.97780E-06
         0.11542E-05
         0.24637E-05
         0.19466E-05
         0.20982E-05
         0.36315E-05
         0.19380E-05
         0.24786E-05
         0.13671E-05
         0.16407E-05
         0.27475E-05
         0.19849E-05
         0.80110E-06
         0.15336E-05
         0.16905E-05
         0.13457E-05
         0.17455E-05
         0.32669E-05
         0.25598E-05
         0.32567E-05
         0.18994E-05
         0.21729E-05
         0.20464E-05
         0.22703E-05
         0.17390E-05
         0.10799E-05
         0.20412E-05
         0.17073E-05
         0.17416E-05
         0.17985E-05
         0.15770E-05
         0.19277E-05
         0.24604E-05
         0.17317E-05
         0.27714E-05
         0.24248E-05
         0.10819E-05
         0.16638E-05
         0.18903E-05
         0.19996E-05
         0.19343E-05
         0.15196E-05
         0.95451E-06
         0.15737E-05
         0.20864E-05
         0.16816E-05
         0.14765E-05
         0.96700E-06
         0.16539E-05
         0.22488E-05
         0.23644E-05
         0.19100E-05
         0.11715E-05
         0.20303E-05
         0.74200E-06
         0.94855E-06
         0.87978E-06
         0.10474E-05
         0.10255E-05
         0.99555E-06
         0.10657E-05
         0.11311E-05
         0.10627E-05
         0.82472E-06
         0.67061E-06
         0.86442E-06
         0.11536E-05
         0.12697E-05
         0.12161E-05
         0.10941E-05
         0.99295E-06
         0.80625E-06
         0.67761E-06
         0.88662E-06
         0.11748E-05
         0.12140E-05
         0.97818E-06
         0.79396E-06
         0.97790E-06
         0.11542E-05
         0.24639E-05
         0.19463E-05
         0.20984E-05
         0.36333E-05
         0.19383E-05
         0.24794E-05
         0.13664E-05
         0.16398E-05
         0.27485E-05
         0.19836E-05
         0.80034E-06
         0.15334E-05
         0.16904E-05
         0.13439E-05
         0.17452E-05
         0.32679E-05
         0.25610E-05
         0.32583E-05
         0.18995E-05
         0.21732E-05
         0.20463E-05
         0.22704E-05
         0.17388E-05
         0.10798E-05
         0.20404E-05
         0.17072E-05
         0.17389E-05
         0.17967E-05
         0.15763E-05
         0.19272E-05
         0.24607E-05
         0.17315E-05
         0.27729E-05
         0.24270E-05
         0.10819E-05
         0.16635E-05
         0.18901E-05
         0.19995E-05
         0.19345E-05
         0.15197E-05
         0.95453E-06
         0.15735E-05
         0.20863E-05
         0.16814E-05
         0.14761E-05
         0.96677E-06
         0.16538E-05
         0.22488E-05
         0.23647E-05
         0.19104E-05
         0.11716E-05
         0.20313E-05
         0.74179E-06
         0.94855E-06
         0.87936E-06
         0.10475E-05
         0.10257E-05
         0.99577E-06
         0.10662E-05
         0.11319E-05
         0.10633E-05
         0.82492E-06
         0.67068E-06
         0.86446E-06
         0.11538E-05
         0.12700E-05
         0.12163E-05
         0.10941E-05
         0.99291E-06
         0.80620E-06
         0.67752E-06
         0.88657E-06
         0.11748E-05
         0.12140E-05
         0.97800E-06
         0.79380E-06
         0.97803E-06
         0.11542E-05
         0.12320E-05
         0.97306E-06
         0.10493E-05
         0.18171E-05
         0.96926E-06
         0.12399E-05
         0.68306E-06
         0.81967E-06
         0.13745E-05
         0.99152E-06
         0.39999E-06
         0.76665E-06
         0.84519E-06
         0.67148E-06
         0.87252E-06
         0.16343E-05
         0.12808E-05
         0.16296E-05
         0.94981E-06
         0.10867E-05
         0.10232E-05
         0.11353E-05
         0.86940E-06
         0.53990E-06
         0.10200E-05
         0.85360E-06
         0.86884E-06
         0.89793E-06
         0.78802E-06
         0.96354E-06
         0.12305E-05
         0.86572E-06
         0.13869E-05
         0.12141E-05
         0.54095E-06
         0.83170E-06
         0.94503E-06
         0.99975E-06
         0.96729E-06
         0.75992E-06
         0.47728E-06
         0.78670E-06
         0.10432E-05
         0.84065E-06
         0.73800E-06
         0.48334E-06
         0.82688E-06
         0.11245E-05
         0.11825E-05
         0.95534E-06
         0.58581E-06
         0.10159E-05
         0.37085E-06
         0.47429E-06
         0.43959E-06
         0.52375E-06
         0.51294E-06
         0.49796E-06
         0.53322E-06
         0.56619E-06
         0.53185E-06
         0.41252E-06
         0.33536E-06
         0.43225E-06
         0.57696E-06
         0.63509E-06
         0.60820E-06
         0.54708E-06
         0.49646E-06
         0.40310E-06
         0.33875E-06
         0.44329E-06
         0.58740E-06
         0.60700E-06
         0.48897E-06
         0.39687E-06
         0.48906E-06
         0.57710E-06
  
SCALARS                 Poissons_ratio  double 1
LOOKUP_TABLE default
         0.30000E+00
         0.30000E+00
         0.30000E+00
         0.30000E+00
         0.30000E+00
         0.30000E+00
         0.30000E+00
         0.30000E+00
         0.30000E+00
         0.30000E+00
         0.30000E+00
         0.30000E+00
         0.30000E+00
         0.30000E+00
         0.30000E+00
         0.30000E+00
         0.30000E+00
         0.30000E+00
         0.30000E+00
         0.30000E+00
         0.30000E+00
         0.30000E+00
         0.30000E+00
         0.30000E+00
         0.30000E+00
         0.30000E+00
         0.30000E+00
         0.30000E+00
         0.30000E+00
         0.30000E+00
         0.30000E+00
         0.30000E+00
         0.30000E+00
         0.30000E+00
         0.30000E+00
         0.30000E+00
         0.30000E+00
         0.30000E+00
         0.30000E+00
         0.30000E+00
         0.30000E+00
         0.30000E+00
         0.30000E+00
         0.30000E+00
         0.30000E+00
         0.30000E+00
         0.30000E+00
         0.30000E+00
         0.30000E+00
         0.30000E+00
         0.30000E+00
         0.30000E+00
         0.30000E+00
         0.30000E+00
         0.30000E+00
         0.30000E+00
         0.30000E+00
         0.30000E+00
         0.30000E+00
         0.30000E+00
         0.30000E+00
         0.30000E+00
         0.30000E+00
         0.30000E+00
         0.30000E+00
         0.30000E+00
         0.30000E+00
         0.30000E+00
         0.30000E+00
         0.30000E+00
         0.30000E+00
         0.30000E+00
         0.30000E+00
         0.30000E+00
         0.30000E+00
         0.30000E+00
         0.30000E+00
         0.30000E+00
         0.30000E+00
         0.30000E+00
         0.30000E+00
         0.30000E+00
         0.30000E+00
         0.30000E+00
         0.30000E+00
         0.30000E+00
         0.30000E+00
         0.30000E+00
         0.30000E+00
         0.30000E+00
         0.30000E+00
         0.30000E+00
         0.30000E+00
         0.30000E+00
         0.30000E+00
         0.30000E+00
         0.30000E+00
         0.30000E+00
         0.30000E+00
         0.30000E+00
         0.30000E+00
         0.30000E+00
         0.30000E+00
         0.30000E+00
         0.30000E+00
         0.30000E+00
         0.30000E+00
         0.30000E+00
         0.30000E+00
         0.30000E+00
         0.30000E+00
         0.30000E+00
         0.30000E+00
         0.30000E+00
         0.30000E+00
         0.30000E+00
         0.30000E+00
         0.30000E+00
         0.30000E+00
         0.30000E+00
         0.30000E+00
         0.30000E+00
         0.30000E+00
         0.30000E+00
         0.30000E+00
         0.30000E+00
         0.30000E+00
         0.30000E+00
         0.30000E+00
         0.30000E+00
         0.30000E+00
         0.30000E+00
         0.30000E+00
         0.30000E+00
         0.30000E+00
         0.30000E+00
         0.30000E+00
         0.30000E+00
         0.30000E+00
         0.30000E+00
         0.30000E+00
         0.30000E+00
         0.30000E+00
         0.30000E+00
         0.30000E+00
         0.30000E+00
         0.30000E+00
         0.30000E+00
         0.30000E+00
         0.30000E+00
         0.30000E+00
         0.30000E+00
         0.30000E+00
         0.30000E+00
         0.30000E+00
         0.30000E+00
         0.30000E+00
         0.30000E+00
         0.30000E+00
         0.30000E+00
         0.30000E+00
         0.30000E+00
         0.30000E+00
         0.30000E+00
         0.30000E+00
         0.30000E+00
         0.30000E+00
         0.30000E+00
         0.30000E+00
         0.30000E+00
         0.30000E+00
         0.30000E+00
         0.30000E+00
         0.30000E+00
         0.30000E+00
         0.30000E+00
         0.30000E+00
         0.30000E+00
         0.30000E+00
         0.30000E+00
         0.30000E+00
         0.30000E+00
         0.30000E+00
         0.30000E+00
         0.30000E+00
         0.30000E+00
         0.30000E+00
         0.30000E+00
         0.30000E+00
         0.30000E+00
         0.30000E+00
         0.30000E+00
         0.30000E+00
         0.30000E+00
         0.30000E+00
         0.30000E+00
         0.30000E+00
         0.30000E+00
         0.30000E+00
         0.30000E+00
         0.30000E+00
         0.30000E+00
         0.30000E+00
         0.30000E+00
         0.30000E+00
         0.30000E+00
         0.30000E+00
         0.30000E+00
         0.30000E+00
         0.30000E+00
         0.30000E+00
         0.30000E+00
         0.30000E+00
         0.30000E+00
         0.30000E+00
         0.30000E+00
         0.30000E+00
         0.30000E+00
         0.30000E+00
         0.30000E+00
         0.30000E+00
         0.30000E+00
         0.30000E+00
         0.30000E+00
         0.30000E+00
         0.30000E+00
         0.30000E+00
         0.30000E+00
         0.30000E+00
         0.30000E+00
         0.30000E+00
         0.30000E+00
         0.30000E+00
         0.30000E+00
         0.30000E+00
         0.30000E+00
         0.30000E+00
         0.30000E+00
         0.30000E+00
         0.30000E+00
         0.30000E+00
         0.30000E+00
         0.30000E+00
         0.30000E+00
         0.30000E+00
         0.30000E+00
         0.30000E+00
         0.30000E+00
         0.30000E+00
         0.30000E+00
         0.30000E+00
         0.30000E+00
         0.30000E+00
         0.30000E+00
         0.30000E+00
         0.30000E+00
         0.30000E+00
         0.30000E+00
         0.30000E+00
         0.30000E+00
         0.30000E+00
         0.30000E+00
         0.30000E+00
         0.30000E+00
         0.30000E+00
         0.30000E+00
         0.30000E+00
         0.30000E+00
         0.30000E+00
         0.30000E+00
         0.30000E+00
         0.30000E+00
         0.30000E+00
         0.30000E+00
         0.30000E+00
         0.30000E+00
         0.30000E+00
         0.30000E+00
         0.30000E+00
         0.30000E+00
         0.30000E+00
         0.30000E+00
         0.30000E+00
         0.30000E+00
         0.30000E+00
         0.30000E+00
         0.30000E+00
         0.30000E+00
         0.30000E+00
         0.30000E+00
         0.30000E+00
         0.30000E+00
         0.30000E+00
         0.30000E+00
         0.30000E+00
         0.30000E+00
         0.30000E+00
         0.30000E+00
         0.30000E+00
         0.30000E+00
         0.30000E+00
         0.30000E+00
         0.30000E+00
         0.30000E+00
         0.30000E+00
         0.30000E+00
         0.30000E+00
         0.30000E+00
         0.30000E+00
         0.30000E+00
         0.30000E+00
         0.30000E+00
         0.30000E+00
         0.30000E+00
         0.30000E+00
         0.30000E+00
         0.30000E+00
         0.30000E+00
         0.30000E+00
         0.30000E+00
         0.30000E+00
         0.30000E+00
         0.30000E+00
         0.30000E+00
         0.30000E+00
         0.30000E+00
         0.30000E+00
         0.30000E+00
         0.30000E+00
         0.30000E+00
         0.30000E+00
         0.30000E+00
         0.30000E+00
         0.30000E+00
         0.30000E+00
         0.30000E+00
         0.30000E+00
         0.30000E+00
         0.30000E+00
         0.30000E+00
         0.30000E+00
         0.30000E+00
         0.30000E+00
         0.30000E+00
         0.30000E+00
         0.30000E+00
         0.30000E+00
         0.30000E+00
         0.30000E+00
         0.30000E+00
         0.30000E+00
         0.30000E+00
         0.30000E+00
         0.30000E+00
         0.30000E+00
         0.30000E+00
         0.30000E+00
         0.30000E+00
         0.30000E+00
         0.30000E+00
         0.30000E+00
         0.30000E+00
         0.30000E+00
         0.30000E+00
         0.30000E+00
         0.30000E+00
         0.30000E+00
         0.30000E+00
         0.30000E+00
         0.30000E+00
         0.30000E+00
         0.30000E+00
         0.30000E+00
         0.30000E+00
         0.30000E+00
         0.30000E+00
         0.30000E+00
         0.30000E+00
         0.30000E+00
         0.30000E+00
         0.30000E+00
         0.30000E+00
         0.30000E+00
         0.30000E+00
         0.30000E+00
         0.30000E+00
         0.30000E+00
         0.30000E+00
         0.30000E+00
         0.30000E+00
         0.30000E+00
         0.30000E+00
         0.30000E+00
         0.30000E+00
         0.30000E+00
         0.30000E+00
         0.30000E+00
         0.30000E+00
         0.30000E+00
         0.30000E+00
         0.30000E+00
         0.30000E+00
         0.30000E+00
         0.30000E+00
         0.30000E+00
         0.30000E+00
         0.30000E+00
         0.30000E+00
         0.30000E+00
         0.30000E+00
         0.30000E+00
         0.30000E+00
         0.30000E+00
         0.30000E+00
         0.30000E+00
         0.30000E+00
         0.30000E+00
         0.30000E+00
         0.30000E+00
         0.30000E+00
         0.30000E+00
         0.30000E+00
         0.30000E+00
         0.30000E+00
         0.30000E+00
         0.30000E+00
         0.30000E+00
         0.30000E+00
         0.30000E+00
         0.30000E+00
         0.30000E+00
         0.30000E+00
         0.30000E+00
         0.30000E+00
         0.30000E+00
         0.30000E+00
         0.30000E+00
         0.30000E+00
         0.30000E+00
         0.30000E+00
         0.30000E+00
         0.30000E+00
         0.30000E+00
         0.30000E+00
         0.30000E+00
         0.30000E+00
         0.30000E+00
         0.30000E+00
         0.30000E+00
         0.30000E+00
         0.30000E+00
         0.30000E+00
         0.30000E+00
         0.30000E+00
         0.30000E+00
         0.30000E+00
         0.30000E+00
         0.30000E+00
         0.30000E+00
         0.30000E+00
         0.30000E+00
         0.30000E+00
         0.30000E+00
         0.30000E+00
         0.30000E+00
         0.30000E+00
         0.30000E+00
         0.30000E+00
         0.30000E+00
         0.30000E+00
         0.30000E+00
         0.30000E+00
         0.30000E+00
         0.30000E+00
         0.30000E+00
         0.30000E+00
         0.30000E+00
         0.30000E+00
         0.30000E+00
         0.30000E+00
         0.30000E+00
         0.30000E+00
         0.30000E+00
         0.30000E+00
         0.30000E+00
         0.30000E+00
         0.30000E+00
         0.30000E+00
         0.30000E+00
         0.30000E+00
         0.30000E+00
         0.30000E+00
         0.30000E+00
         0.30000E+00
         0.30000E+00
         0.30000E+00
         0.30000E+00
         0.30000E+00
         0.30000E+00
         0.30000E+00
         0.30000E+00
         0.30000E+00
         0.30000E+00
         0.30000E+00
         0.30000E+00
         0.30000E+00
         0.30000E+00
         0.30000E+00
         0.30000E+00
         0.30000E+00
         0.30000E+00
         0.30000E+00
         0.30000E+00
         0.30000E+00
         0.30000E+00
         0.30000E+00
         0.30000E+00
         0.30000E+00
         0.30000E+00
         0.30000E+00
         0.30000E+00
         0.30000E+00
         0.30000E+00
         0.30000E+00
         0.30000E+00
         0.30000E+00
         0.30000E+00
         0.30000E+00
         0.30000E+00
         0.30000E+00
         0.30000E+00
         0.30000E+00
         0.30000E+00
         0.30000E+00
         0.30000E+00
         0.30000E+00
         0.30000E+00
         0.30000E+00
         0.30000E+00
         0.30000E+00
         0.30000E+00
         0.30000E+00
         0.30000E+00
         0.30000E+00
         0.30000E+00
         0.30000E+00
         0.30000E+00
         0.30000E+00
         0.30000E+00
         0.30000E+00
         0.30000E+00
         0.30000E+00
         0.30000E+00
         0.30000E+00
         0.30000E+00
         0.30000E+00
         0.30000E+00
         0.30000E+00
         0.30000E+00
         0.30000E+00
         0.30000E+00
         0.30000E+00
         0.30000E+00
         0.30000E+00
         0.30000E+00
         0.30000E+00
         0.30000E+00
         0.30000E+00
         0.30000E+00
         0.30000E+00
         0.30000E+00
         0.30000E+00
         0.30000E+00
         0.30000E+00
         0.30000E+00
         0.30000E+00
         0.30000E+00
         0.30000E+00
         0.30000E+00
         0.30000E+00
         0.30000E+00
         0.30000E+00
         0.30000E+00
         0.30000E+00
         0.30000E+00
         0.30000E+00
         0.30000E+00
         0.30000E+00
         0.30000E+00
         0.30000E+00
         0.30000E+00
         0.30000E+00
         0.30000E+00
         0.30000E+00
         0.30000E+00
         0.30000E+00
         0.30000E+00
         0.30000E+00
         0.30000E+00
         0.30000E+00
         0.30000E+00
         0.30000E+00
         0.30000E+00
         0.30000E+00
         0.30000E+00
         0.30000E+00
         0.30000E+00
         0.30000E+00
         0.30000E+00
         0.30000E+00
         0.30000E+00
         0.30000E+00
         0.30000E+00
         0.30000E+00
         0.30000E+00
         0.30000E+00
         0.30000E+00
         0.30000E+00
         0.30000E+00
         0.30000E+00
         0.30000E+00
         0.30000E+00
         0.30000E+00
         0.30000E+00
         0.30000E+00
         0.30000E+00
         0.30000E+00
         0.30000E+00
         0.30000E+00
         0.30000E+00
         0.30000E+00
         0.30000E+00
         0.30000E+00
         0.30000E+00
         0.30000E+00
         0.30000E+00
         0.30000E+00
         0.30000E+00
         0.30000E+00
         0.30000E+00
         0.30000E+00
         0.30000E+00
         0.30000E+00
         0.30000E+00
         0.30000E+00
         0.30000E+00
         0.30000E+00
         0.30000E+00
         0.30000E+00
         0.30000E+00
         0.30000E+00
         0.30000E+00
         0.30000E+00
         0.30000E+00
         0.30000E+00
         0.30000E+00
         0.30000E+00
         0.30000E+00
         0.30000E+00
         0.30000E+00
         0.30000E+00
         0.30000E+00
         0.30000E+00
         0.30000E+00
         0.30000E+00
         0.30000E+00
         0.30000E+00
         0.30000E+00
         0.30000E+00
         0.30000E+00
         0.30000E+00
         0.30000E+00
         0.30000E+00
         0.30000E+00
         0.30000E+00
         0.30000E+00
         0.30000E+00
         0.30000E+00
         0.30000E+00
         0.30000E+00
         0.30000E+00
         0.30000E+00
         0.30000E+00
         0.30000E+00
         0.30000E+00
         0.30000E+00
         0.30000E+00
         0.30000E+00
         0.30000E+00
         0.30000E+00
         0.30000E+00
         0.30000E+00
         0.30000E+00
         0.30000E+00
         0.30000E+00
         0.30000E+00
         0.30000E+00
         0.30000E+00
         0.30000E+00
         0.30000E+00
         0.30000E+00
         0.30000E+00
         0.30000E+00
         0.30000E+00
         0.30000E+00
         0.30000E+00
         0.30000E+00
         0.30000E+00
         0.30000E+00
         0.30000E+00
         0.30000E+00
         0.30000E+00
         0.30000E+00
         0.30000E+00
         0.30000E+00
         0.30000E+00
         0.30000E+00
         0.30000E+00
         0.30000E+00
         0.30000E+00
         0.30000E+00
         0.30000E+00
         0.30000E+00
         0.30000E+00
         0.30000E+00
         0.30000E+00
         0.30000E+00
         0.30000E+00
         0.30000E+00
         0.30000E+00
         0.30000E+00
         0.30000E+00
         0.30000E+00
         0.30000E+00
         0.30000E+00
         0.30000E+00
         0.30000E+00
         0.30000E+00
         0.30000E+00
         0.30000E+00
         0.30000E+00
         0.30000E+00
         0.30000E+00
         0.30000E+00
         0.30000E+00
         0.30000E+00
         0.30000E+00
         0.30000E+00
         0.30000E+00
         0.30000E+00
         0.30000E+00
         0.30000E+00
         0.30000E+00
         0.30000E+00
         0.30000E+00
         0.30000E+00
         0.30000E+00
         0.30000E+00
         0.30000E+00
         0.30000E+00
         0.30000E+00
         0.30000E+00
         0.30000E+00
         0.30000E+00
         0.30000E+00
         0.30000E+00
         0.30000E+00
         0.30000E+00
         0.30000E+00
         0.30000E+00
         0.30000E+00
         0.30000E+00
         0.30000E+00
         0.30000E+00
         0.30000E+00
         0.30000E+00
         0.30000E+00
         0.30000E+00
         0.30000E+00
         0.30000E+00
         0.30000E+00
         0.30000E+00
         0.30000E+00
         0.30000E+00
         0.30000E+00
         0.30000E+00
         0.30000E+00
         0.30000E+00
         0.30000E+00
         0.30000E+00
         0.30000E+00
         0.30000E+00
         0.30000E+00
         0.30000E+00
         0.30000E+00
         0.30000E+00
         0.30000E+00
         0.30000E+00
         0.30000E+00
         0.30000E+00
         0.30000E+00
         0.30000E+00
         0.30000E+00
         0.30000E+00
         0.30000E+00
         0.30000E+00
         0.30000E+00
         0.30000E+00
         0.30000E+00
         0.30000E+00
         0.30000E+00
         0.30000E+00
         0.30000E+00
         0.30000E+00
         0.30000E+00
         0.30000E+00
         0.30000E+00
         0.30000E+00
         0.30000E+00
         0.30000E+00
         0.30000E+00
         0.30000E+00
         0.30000E+00
         0.30000E+00
         0.30000E+00
         0.30000E+00
         0.30000E+00
         0.30000E+00
         0.30000E+00
         0.30000E+00
         0.30000E+00
         0.30000E+00
         0.30000E+00
         0.30000E+00
         0.30000E+00
         0.30000E+00
         0.30000E+00
         0.30000E+00
         0.30000E+00
         0.30000E+00
         0.30000E+00
         0.30000E+00
         0.30000E+00
         0.30000E+00
         0.30000E+00
         0.30000E+00
         0.30000E+00
         0.30000E+00
         0.30000E+00
         0.30000E+00
         0.30000E+00
         0.30000E+00
         0.30000E+00
         0.30000E+00
         0.30000E+00
         0.30000E+00
         0.30000E+00
         0.30000E+00
         0.30000E+00
         0.30000E+00
         0.30000E+00
         0.30000E+00
         0.30000E+00
         0.30000E+00
         0.30000E+00
         0.30000E+00
         0.30000E+00
         0.30000E+00
         0.30000E+00
         0.30000E+00
         0.30000E+00
         0.30000E+00
         0.30000E+00
         0.30000E+00
         0.30000E+00
         0.30000E+00
         0.30000E+00
         0.30000E+00
         0.30000E+00
         0.30000E+00
         0.30000E+00
         0.30000E+00
         0.30000E+00
         0.30000E+00
         0.30000E+00
         0.30000E+00
         0.30000E+00
         0.30000E+00
         0.30000E+00
         0.30000E+00
         0.30000E+00
         0.30000E+00
         0.30000E+00
         0.30000E+00
         0.30000E+00
         0.30000E+00
         0.30000E+00
         0.30000E+00
         0.30000E+00
         0.30000E+00
         0.30000E+00
         0.30000E+00
         0.30000E+00
         0.30000E+00
         0.30000E+00
         0.30000E+00
         0.30000E+00
         0.30000E+00
         0.30000E+00
         0.30000E+00
         0.30000E+00
         0.30000E+00
         0.30000E+00
         0.30000E+00
         0.30000E+00
         0.30000E+00
         0.30000E+00
         0.30000E+00
         0.30000E+00
         0.30000E+00
         0.30000E+00
         0.30000E+00
         0.30000E+00
         0.30000E+00
         0.30000E+00
         0.30000E+00
         0.30000E+00
         0.30000E+00
         0.30000E+00
         0.30000E+00
         0.30000E+00
         0.30000E+00
         0.30000E+00
         0.30000E+00
         0.30000E+00
         0.30000E+00
         0.30000E+00
         0.30000E+00
         0.30000E+00
         0.30000E+00
         0.30000E+00
         0.30000E+00
         0.30000E+00
         0.30000E+00
         0.30000E+00
         0.30000E+00
         0.30000E+00
         0.30000E+00
         0.30000E+00
         0.30000E+00
         0.30000E+00
         0.30000E+00
         0.30000E+00
         0.30000E+00
         0.30000E+00
         0.30000E+00
         0.30000E+00
         0.30000E+00
         0.30000E+00
         0.30000E+00
         0.30000E+00
         0.30000E+00
         0.30000E+00
         0.30000E+00
         0.30000E+00
         0.30000E+00
         0.30000E+00
         0.30000E+00
         0.30000E+00
         0.30000E+00
         0.30000E+00
         0.30000E+00
         0.30000E+00
         0.30000E+00
         0.30000E+00
         0.30000E+00
         0.30000E+00
         0.30000E+00
         0.30000E+00
         0.30000E+00
         0.30000E+00
         0.30000E+00
         0.30000E+00
         0.30000E+00
         0.30000E+00
         0.30000E+00
         0.30000E+00
         0.30000E+00
         0.30000E+00
         0.30000E+00
         0.30000E+00
         0.30000E+00
         0.30000E+00
         0.30000E+00
         0.30000E+00
         0.30000E+00
         0.30000E+00
         0.30000E+00
         0.30000E+00
         0.30000E+00
         0.30000E+00
         0.30000E+00
         0.30000E+00
         0.30000E+00
         0.30000E+00
         0.30000E+00
         0.30000E+00
         0.30000E+00
         0.30000E+00
         0.30000E+00
         0.30000E+00
         0.30000E+00
         0.30000E+00
         0.30000E+00
         0.30000E+00
         0.30000E+00
         0.30000E+00
         0.30000E+00
         0.30000E+00
         0.30000E+00
         0.30000E+00
         0.30000E+00
         0.30000E+00
         0.30000E+00
         0.30000E+00
         0.30000E+00
         0.30000E+00
         0.30000E+00
         0.30000E+00
         0.30000E+00
         0.30000E+00
         0.30000E+00
         0.30000E+00
         0.30000E+00
         0.30000E+00
         0.30000E+00
         0.30000E+00
         0.30000E+00
         0.30000E+00
         0.30000E+00
         0.30000E+00
         0.30000E+00
         0.30000E+00
         0.30000E+00
         0.30000E+00
         0.30000E+00
         0.30000E+00
         0.30000E+00
         0.30000E+00
         0.30000E+00
         0.30000E+00
         0.30000E+00
         0.30000E+00
         0.30000E+00
         0.30000E+00
         0.30000E+00
         0.30000E+00
         0.30000E+00
         0.30000E+00
         0.30000E+00
         0.30000E+00
         0.30000E+00
         0.30000E+00
         0.30000E+00
         0.30000E+00
         0.30000E+00
         0.30000E+00
         0.30000E+00
         0.30000E+00
         0.30000E+00
         0.30000E+00
         0.30000E+00
         0.30000E+00
         0.30000E+00
         0.30000E+00
         0.30000E+00
         0.30000E+00
         0.30000E+00
         0.30000E+00
         0.30000E+00
         0.30000E+00
         0.30000E+00
         0.30000E+00
         0.30000E+00
         0.30000E+00
         0.30000E+00
         0.30000E+00
         0.30000E+00
         0.30000E+00
         0.30000E+00
         0.30000E+00
         0.30000E+00
         0.30000E+00
         0.30000E+00
         0.30000E+00
         0.30000E+00
         0.30000E+00
         0.30000E+00
         0.30000E+00
         0.30000E+00
         0.30000E+00
         0.30000E+00
         0.30000E+00
         0.30000E+00
         0.30000E+00
         0.30000E+00
         0.30000E+00
         0.30000E+00
         0.30000E+00
         0.30000E+00
         0.30000E+00
         0.30000E+00
         0.30000E+00
         0.30000E+00
         0.30000E+00
         0.30000E+00
         0.30000E+00
         0.30000E+00
         0.30000E+00
         0.30000E+00
         0.30000E+00
         0.30000E+00
         0.30000E+00
         0.30000E+00
         0.30000E+00
         0.30000E+00
         0.30000E+00
         0.30000E+00
         0.30000E+00
         0.30000E+00
         0.30000E+00
         0.30000E+00
         0.30000E+00
         0.30000E+00
         0.30000E+00
         0.30000E+00
         0.30000E+00
         0.30000E+00
         0.30000E+00
         0.30000E+00
         0.30000E+00
         0.30000E+00
         0.30000E+00
         0.30000E+00
         0.30000E+00
         0.30000E+00
         0.30000E+00
         0.30000E+00
         0.30000E+00
         0.30000E+00
         0.30000E+00
         0.30000E+00
         0.30000E+00
         0.30000E+00
         0.30000E+00
         0.30000E+00
         0.30000E+00
         0.30000E+00
         0.30000E+00
         0.30000E+00
         0.30000E+00
         0.30000E+00
         0.30000E+00
         0.30000E+00
         0.30000E+00
         0.30000E+00
         0.30000E+00
         0.30000E+00
         0.30000E+00
         0.30000E+00
         0.30000E+00
         0.30000E+00
         0.30000E+00
         0.30000E+00
         0.30000E+00
         0.30000E+00
         0.30000E+00
         0.30000E+00
         0.30000E+00
         0.30000E+00
         0.30000E+00
         0.30000E+00
         0.30000E+00
         0.30000E+00
         0.30000E+00
         0.30000E+00
         0.30000E+00
         0.30000E+00
         0.30000E+00
         0.30000E+00
         0.30000E+00
         0.30000E+00
         0.30000E+00
         0.30000E+00
         0.30000E+00
         0.30000E+00
         0.30000E+00
         0.30000E+00
         0.30000E+00
         0.30000E+00
         0.30000E+00
         0.30000E+00
         0.30000E+00
         0.30000E+00
         0.30000E+00
         0.30000E+00
         0.30000E+00
         0.30000E+00
         0.30000E+00
         0.30000E+00
         0.30000E+00
         0.30000E+00
         0.30000E+00
         0.30000E+00
         0.30000E+00
         0.30000E+00
         0.30000E+00
         0.30000E+00
         0.30000E+00
         0.30000E+00
         0.30000E+00
         0.30000E+00
         0.30000E+00
         0.30000E+00
         0.30000E+00
         0.30000E+00
         0.30000E+00
         0.30000E+00
         0.30000E+00
         0.30000E+00
         0.30000E+00
         0.30000E+00
         0.30000E+00
         0.30000E+00
         0.30000E+00
         0.30000E+00
         0.30000E+00
         0.30000E+00
         0.30000E+00
         0.30000E+00
         0.30000E+00
         0.30000E+00
         0.30000E+00
         0.30000E+00
         0.30000E+00
         0.30000E+00
         0.30000E+00
         0.30000E+00
         0.30000E+00
         0.30000E+00
         0.30000E+00
         0.30000E+00
         0.30000E+00
         0.30000E+00
         0.30000E+00
         0.30000E+00
         0.30000E+00
         0.30000E+00
         0.30000E+00
         0.30000E+00
         0.30000E+00
         0.30000E+00
         0.30000E+00
         0.30000E+00
         0.30000E+00
         0.30000E+00
         0.30000E+00
         0.30000E+00
         0.30000E+00
         0.30000E+00
         0.30000E+00
         0.30000E+00
         0.30000E+00
         0.30000E+00
         0.30000E+00
         0.30000E+00
         0.30000E+00
         0.30000E+00
         0.30000E+00
         0.30000E+00
         0.30000E+00
         0.30000E+00
         0.30000E+00
         0.30000E+00
         0.30000E+00
         0.30000E+00
         0.30000E+00
         0.30000E+00
         0.30000E+00
         0.30000E+00
         0.30000E+00
         0.30000E+00
         0.30000E+00
         0.30000E+00
         0.30000E+00
         0.30000E+00
         0.30000E+00
         0.30000E+00
         0.30000E+00
         0.30000E+00
         0.30000E+00
         0.30000E+00
         0.30000E+00
         0.30000E+00
         0.30000E+00
         0.30000E+00
         0.30000E+00
         0.30000E+00
         0.30000E+00
         0.30000E+00
         0.30000E+00
         0.30000E+00
         0.30000E+00
         0.30000E+00
         0.30000E+00
         0.30000E+00
         0.30000E+00
         0.30000E+00
         0.30000E+00
         0.30000E+00
         0.30000E+00
         0.30000E+00
         0.30000E+00
         0.30000E+00
         0.30000E+00
         0.30000E+00
         0.30000E+00
         0.30000E+00
         0.30000E+00
         0.30000E+00
         0.30000E+00
         0.30000E+00
         0.30000E+00
         0.30000E+00
         0.30000E+00
         0.30000E+00
         0.30000E+00
         0.30000E+00
         0.30000E+00
         0.30000E+00
         0.30000E+00
         0.30000E+00
         0.30000E+00
         0.30000E+00
         0.30000E+00
         0.30000E+00
         0.30000E+00
         0.30000E+00
         0.30000E+00
         0.30000E+00
         0.30000E+00
         0.30000E+00
         0.30000E+00
         0.30000E+00
         0.30000E+00
         0.30000E+00
         0.30000E+00
         0.30000E+00
         0.30000E+00
         0.30000E+00
         0.30000E+00
         0.30000E+00
         0.30000E+00
         0.30000E+00
         0.30000E+00
         0.30000E+00
         0.30000E+00
         0.30000E+00
         0.30000E+00
         0.30000E+00
         0.30000E+00
         0.30000E+00
         0.30000E+00
         0.30000E+00
         0.30000E+00
         0.30000E+00
         0.30000E+00
         0.30000E+00
         0.30000E+00
         0.30000E+00
         0.30000E+00
         0.30000E+00
         0.30000E+00
         0.30000E+00
         0.30000E+00
         0.30000E+00
         0.30000E+00
         0.30000E+00
         0.30000E+00
         0.30000E+00
         0.30000E+00
         0.30000E+00
         0.30000E+00
         0.30000E+00
         0.30000E+00
         0.30000E+00
         0.30000E+00
         0.30000E+00
         0.30000E+00
         0.30000E+00
         0.30000E+00
         0.30000E+00
         0.30000E+00
         0.30000E+00
         0.30000E+00
         0.30000E+00
         0.30000E+00
         0.30000E+00
         0.30000E+00
         0.30000E+00
         0.30000E+00
         0.30000E+00
         0.30000E+00
         0.30000E+00
         0.30000E+00
         0.30000E+00
         0.30000E+00
         0.30000E+00
         0.30000E+00
         0.30000E+00
         0.30000E+00
         0.30000E+00
         0.30000E+00
         0.30000E+00
         0.30000E+00
         0.30000E+00
         0.30000E+00
         0.30000E+00
         0.30000E+00
         0.30000E+00
         0.30000E+00
         0.30000E+00
         0.30000E+00
         0.30000E+00
         0.30000E+00
         0.30000E+00
         0.30000E+00
         0.30000E+00
         0.30000E+00
         0.30000E+00
         0.30000E+00
         0.30000E+00
         0.30000E+00
         0.30000E+00
         0.30000E+00
         0.30000E+00
         0.30000E+00
         0.30000E+00
         0.30000E+00
         0.30000E+00
         0.30000E+00
         0.30000E+00
         0.30000E+00
         0.30000E+00
         0.30000E+00
         0.30000E+00
         0.30000E+00
         0.30000E+00
         0.30000E+00
         0.30000E+00
         0.30000E+00
         0.30000E+00
         0.30000E+00
         0.30000E+00
         0.30000E+00
         0.30000E+00
         0.30000E+00
         0.30000E+00
         0.30000E+00
         0.30000E+00
         0.30000E+00
         0.30000E+00
         0.30000E+00
         0.30000E+00
         0.30000E+00
         0.30000E+00
         0.30000E+00
         0.30000E+00
         0.30000E+00
         0.30000E+00
         0.30000E+00
         0.30000E+00
         0.30000E+00
         0.30000E+00
         0.30000E+00
         0.30000E+00
         0.30000E+00
         0.30000E+00
         0.30000E+00
         0.30000E+00
         0.30000E+00
         0.30000E+00
         0.30000E+00
         0.30000E+00
         0.30000E+00
         0.30000E+00
         0.30000E+00
         0.30000E+00
         0.30000E+00
         0.30000E+00
         0.30000E+00
         0.30000E+00
         0.30000E+00
         0.30000E+00
         0.30000E+00
         0.30000E+00
         0.30000E+00
         0.30000E+00
         0.30000E+00
         0.30000E+00
         0.30000E+00
         0.30000E+00
         0.30000E+00
         0.30000E+00
         0.30000E+00
         0.30000E+00
         0.30000E+00
         0.30000E+00
         0.30000E+00
         0.30000E+00
         0.30000E+00
         0.30000E+00
         0.30000E+00
         0.30000E+00
         0.30000E+00
         0.30000E+00
         0.30000E+00
         0.30000E+00
         0.30000E+00
         0.30000E+00
         0.30000E+00
         0.30000E+00
         0.30000E+00
         0.30000E+00
         0.30000E+00
         0.30000E+00
         0.30000E+00
         0.30000E+00
         0.30000E+00
         0.30000E+00
         0.30000E+00
         0.30000E+00
         0.30000E+00
         0.30000E+00
         0.30000E+00
         0.30000E+00
         0.30000E+00
         0.30000E+00
         0.30000E+00
         0.30000E+00
         0.30000E+00
         0.30000E+00
         0.30000E+00
         0.30000E+00
         0.30000E+00
         0.30000E+00
         0.30000E+00
         0.30000E+00
         0.30000E+00
         0.30000E+00
         0.30000E+00
         0.30000E+00
         0.30000E+00
         0.30000E+00
         0.30000E+00
         0.30000E+00
         0.30000E+00
         0.30000E+00
         0.30000E+00
         0.30000E+00
         0.30000E+00
         0.30000E+00
         0.30000E+00
         0.30000E+00
         0.30000E+00
         0.30000E+00
         0.30000E+00
         0.30000E+00
         0.30000E+00
         0.30000E+00
         0.30000E+00
         0.30000E+00
         0.30000E+00
         0.30000E+00
         0.30000E+00
         0.30000E+00
         0.30000E+00
         0.30000E+00
         0.30000E+00
         0.30000E+00
         0.30000E+00
         0.30000E+00
         0.30000E+00
         0.30000E+00
         0.30000E+00
         0.30000E+00
         0.30000E+00
         0.30000E+00
         0.30000E+00
         0.30000E+00
         0.30000E+00
         0.30000E+00
         0.30000E+00
         0.30000E+00
         0.30000E+00
         0.30000E+00
         0.30000E+00
         0.30000E+00
         0.30000E+00
         0.30000E+00
         0.30000E+00
         0.30000E+00
         0.30000E+00
         0.30000E+00
         0.30000E+00
         0.30000E+00
         0.30000E+00
         0.30000E+00
         0.30000E+00
         0.30000E+00
         0.30000E+00
         0.30000E+00
         0.30000E+00
         0.30000E+00
         0.30000E+00
         0.30000E+00
         0.30000E+00
         0.30000E+00
         0.30000E+00
         0.30000E+00
         0.30000E+00
         0.30000E+00
         0.30000E+00
         0.30000E+00
         0.30000E+00
         0.30000E+00
         0.30000E+00
         0.30000E+00
         0.30000E+00
         0.30000E+00
         0.30000E+00
         0.30000E+00
         0.30000E+00
         0.30000E+00
         0.30000E+00
         0.30000E+00
         0.30000E+00
         0.30000E+00
         0.30000E+00
         0.30000E+00
         0.30000E+00
         0.30000E+00
         0.30000E+00
         0.30000E+00
         0.30000E+00
         0.30000E+00
         0.30000E+00
         0.30000E+00
         0.30000E+00
         0.30000E+00
         0.30000E+00
         0.30000E+00
         0.30000E+00
         0.30000E+00
         0.30000E+00
         0.30000E+00
         0.30000E+00
         0.30000E+00
         0.30000E+00
         0.30000E+00
         0.30000E+00
         0.30000E+00
         0.30000E+00
         0.30000E+00
         0.30000E+00
         0.30000E+00
         0.30000E+00
         0.30000E+00
         0.30000E+00
         0.30000E+00
         0.30000E+00
         0.30000E+00
         0.30000E+00
         0.30000E+00
         0.30000E+00
         0.30000E+00
         0.30000E+00
         0.30000E+00
         0.30000E+00
         0.30000E+00
         0.30000E+00
         0.30000E+00
         0.30000E+00
         0.30000E+00
         0.30000E+00
         0.30000E+00
         0.30000E+00
         0.30000E+00
         0.30000E+00
         0.30000E+00
         0.30000E+00
         0.30000E+00
         0.30000E+00
         0.30000E+00
         0.30000E+00
         0.30000E+00
         0.30000E+00
         0.30000E+00
         0.30000E+00
         0.30000E+00
         0.30000E+00
         0.30000E+00
         0.30000E+00
         0.30000E+00
         0.30000E+00
         0.30000E+00
         0.30000E+00
         0.30000E+00
         0.30000E+00
         0.30000E+00
         0.30000E+00
         0.30000E+00
         0.30000E+00
         0.30000E+00
         0.30000E+00
         0.30000E+00
         0.30000E+00
         0.30000E+00
         0.30000E+00
         0.30000E+00
         0.30000E+00
         0.30000E+00
         0.30000E+00
         0.30000E+00
         0.30000E+00
         0.30000E+00
         0.30000E+00
         0.30000E+00
         0.30000E+00
         0.30000E+00
         0.30000E+00
         0.30000E+00
         0.30000E+00
         0.30000E+00
         0.30000E+00
         0.30000E+00
         0.30000E+00
         0.30000E+00
         0.30000E+00
         0.30000E+00
         0.30000E+00
         0.30000E+00
         0.30000E+00
         0.30000E+00
         0.30000E+00
         0.30000E+00
         0.30000E+00
         0.30000E+00
         0.30000E+00
         0.30000E+00
         0.30000E+00
         0.30000E+00
         0.30000E+00
         0.30000E+00
         0.30000E+00
         0.30000E+00
         0.30000E+00
         0.30000E+00
         0.30000E+00
         0.30000E+00
         0.30000E+00
         0.30000E+00
         0.30000E+00
         0.30000E+00
         0.30000E+00
         0.30000E+00
         0.30000E+00
         0.30000E+00
         0.30000E+00
         0.30000E+00
         0.30000E+00
         0.30000E+00
         0.30000E+00
         0.30000E+00
         0.30000E+00
         0.30000E+00
         0.30000E+00
         0.30000E+00
         0.30000E+00
         0.30000E+00
         0.30000E+00
         0.30000E+00
         0.30000E+00
         0.30000E+00
         0.30000E+00
         0.30000E+00
         0.30000E+00
         0.30000E+00
         0.30000E+00
         0.30000E+00
         0.30000E+00
         0.30000E+00
         0.30000E+00
         0.30000E+00
         0.30000E+00
         0.30000E+00
         0.30000E+00
         0.30000E+00
         0.30000E+00
         0.30000E+00
         0.30000E+00
         0.30000E+00
         0.30000E+00
         0.30000E+00
         0.30000E+00
         0.30000E+00
         0.30000E+00
         0.30000E+00
         0.30000E+00
         0.30000E+00
         0.30000E+00
         0.30000E+00
         0.30000E+00
         0.30000E+00
         0.30000E+00
         0.30000E+00
         0.30000E+00
         0.30000E+00
         0.30000E+00
         0.30000E+00
         0.30000E+00
         0.30000E+00
         0.30000E+00
         0.30000E+00
         0.30000E+00
         0.30000E+00
         0.30000E+00
         0.30000E+00
         0.30000E+00
         0.30000E+00
         0.30000E+00
         0.30000E+00
         0.30000E+00
         0.30000E+00
         0.30000E+00
         0.30000E+00
         0.30000E+00
         0.30000E+00
         0.30000E+00
         0.30000E+00
         0.30000E+00
         0.30000E+00
         0.30000E+00
         0.30000E+00
         0.30000E+00
         0.30000E+00
         0.30000E+00
         0.30000E+00
         0.30000E+00
         0.30000E+00
         0.30000E+00
         0.30000E+00
         0.30000E+00
         0.30000E+00
         0.30000E+00
         0.30000E+00
         0.30000E+00
         0.30000E+00
         0.30000E+00
         0.30000E+00
         0.30000E+00
         0.30000E+00
         0.30000E+00
         0.30000E+00
         0.30000E+00
         0.30000E+00
         0.30000E+00
         0.30000E+00
         0.30000E+00
         0.30000E+00
         0.30000E+00
         0.30000E+00
         0.30000E+00
         0.30000E+00
         0.30000E+00
         0.30000E+00
         0.30000E+00
         0.30000E+00
         0.30000E+00
         0.30000E+00
         0.30000E+00
         0.30000E+00
         0.30000E+00
         0.30000E+00
         0.30000E+00
         0.30000E+00
         0.30000E+00
         0.30000E+00
         0.30000E+00
         0.30000E+00
         0.30000E+00
         0.30000E+00
         0.30000E+00
         0.30000E+00
         0.30000E+00
         0.30000E+00
         0.30000E+00
         0.30000E+00
         0.30000E+00
         0.30000E+00
         0.30000E+00
         0.30000E+00
         0.30000E+00
         0.30000E+00
         0.30000E+00
         0.30000E+00
         0.30000E+00
         0.30000E+00
         0.30000E+00
         0.30000E+00
         0.30000E+00
         0.30000E+00
         0.30000E+00
         0.30000E+00
         0.30000E+00
         0.30000E+00
         0.30000E+00
         0.30000E+00
         0.30000E+00
         0.30000E+00
         0.30000E+00
         0.30000E+00
         0.30000E+00
         0.30000E+00
         0.30000E+00
         0.30000E+00
         0.30000E+00
         0.30000E+00
         0.30000E+00
         0.30000E+00
         0.30000E+00
         0.30000E+00
         0.30000E+00
         0.30000E+00
         0.30000E+00
         0.30000E+00
         0.30000E+00
         0.30000E+00
         0.30000E+00
         0.30000E+00
  
SCALARS                 Youngs_modulus  double 1
LOOKUP_TABLE default
         0.78200E+11
         0.78200E+11
         0.78200E+11
         0.78200E+11
         0.78200E+11
         0.78200E+11
         0.78200E+11
         0.78200E+11
         0.78200E+11
         0.78200E+11
         0.78200E+11
         0.78200E+11
         0.78200E+11
         0.78200E+11
         0.78200E+11
         0.78200E+11
         0.78200E+11
         0.78200E+11
         0.78200E+11
         0.78200E+11
         0.78200E+11
         0.78200E+11
         0.78200E+11
         0.78200E+11
         0.78200E+11
         0.78200E+11
         0.78200E+11
         0.78200E+11
         0.78200E+11
         0.78200E+11
         0.78200E+11
         0.78200E+11
         0.78200E+11
         0.78200E+11
         0.78200E+11
         0.78200E+11
         0.78200E+11
         0.78200E+11
         0.78200E+11
         0.78200E+11
         0.78200E+11
         0.78200E+11
         0.78200E+11
         0.78200E+11
         0.78200E+11
         0.78200E+11
         0.78200E+11
         0.78200E+11
         0.78200E+11
         0.78200E+11
         0.78200E+11
         0.78200E+11
         0.78200E+11
         0.78200E+11
         0.78200E+11
         0.78200E+11
         0.78200E+11
         0.78200E+11
         0.78200E+11
         0.78200E+11
         0.78200E+11
         0.78200E+11
         0.78200E+11
         0.78200E+11
         0.78200E+11
         0.78200E+11
         0.78200E+11
         0.78200E+11
         0.78200E+11
         0.78200E+11
         0.78200E+11
         0.78200E+11
         0.78200E+11
         0.78200E+11
         0.78200E+11
         0.78200E+11
         0.78200E+11
         0.78200E+11
         0.78200E+11
         0.78200E+11
         0.78200E+11
         0.78200E+11
         0.78200E+11
         0.78200E+11
         0.78200E+11
         0.78200E+11
         0.78200E+11
         0.78200E+11
         0.78200E+11
         0.78200E+11
         0.78200E+11
         0.78200E+11
         0.78200E+11
         0.78200E+11
         0.78200E+11
         0.78200E+11
         0.78200E+11
         0.78200E+11
         0.78200E+11
         0.78200E+11
         0.78200E+11
         0.78200E+11
         0.78200E+11
         0.78200E+11
         0.78200E+11
         0.78200E+11
         0.78200E+11
         0.78200E+11
         0.78200E+11
         0.78200E+11
         0.78200E+11
         0.78200E+11
         0.78200E+11
         0.78200E+11
         0.78200E+11
         0.78200E+11
         0.78200E+11
         0.78200E+11
         0.78200E+11
         0.78200E+11
         0.78200E+11
         0.78200E+11
         0.78200E+11
         0.78200E+11
         0.78200E+11
         0.78200E+11
         0.78200E+11
         0.78200E+11
         0.78200E+11
         0.78200E+11
         0.78200E+11
         0.78200E+11
         0.78200E+11
         0.78200E+11
         0.78200E+11
         0.78200E+11
         0.78200E+11
         0.78200E+11
         0.78200E+11
         0.78200E+11
         0.78200E+11
         0.78200E+11
         0.78200E+11
         0.78200E+11
         0.78200E+11
         0.78200E+11
         0.78200E+11
         0.78200E+11
         0.78200E+11
         0.78200E+11
         0.78200E+11
         0.78200E+11
         0.78200E+11
         0.78200E+11
         0.78200E+11
         0.78200E+11
         0.78200E+11
         0.78200E+11
         0.78200E+11
         0.78200E+11
         0.78200E+11
         0.78200E+11
         0.78200E+11
         0.78200E+11
         0.78200E+11
         0.78200E+11
         0.78200E+11
         0.78200E+11
         0.78200E+11
         0.78200E+11
         0.78200E+11
         0.78200E+11
         0.78200E+11
         0.78200E+11
         0.78200E+11
         0.78200E+11
         0.78200E+11
         0.78200E+11
         0.78200E+11
         0.78200E+11
         0.78200E+11
         0.78200E+11
         0.78200E+11
         0.78200E+11
         0.78200E+11
         0.78200E+11
         0.78200E+11
         0.78200E+11
         0.78200E+11
         0.78200E+11
         0.78200E+11
         0.78200E+11
         0.78200E+11
         0.78200E+11
         0.78200E+11
         0.78200E+11
         0.78200E+11
         0.78200E+11
         0.78200E+11
         0.78200E+11
         0.78200E+11
         0.78200E+11
         0.78200E+11
         0.78200E+11
         0.78200E+11
         0.78200E+11
         0.78200E+11
         0.78200E+11
         0.78200E+11
         0.78200E+11
         0.78200E+11
         0.78200E+11
         0.78200E+11
         0.78200E+11
         0.78200E+11
         0.78200E+11
         0.78200E+11
         0.78200E+11
         0.78200E+11
         0.78200E+11
         0.78200E+11
         0.78200E+11
         0.78200E+11
         0.78200E+11
         0.78200E+11
         0.78200E+11
         0.78200E+11
         0.78200E+11
         0.78200E+11
         0.78200E+11
         0.78200E+11
         0.78200E+11
         0.78200E+11
         0.78200E+11
         0.78200E+11
         0.78200E+11
         0.78200E+11
         0.78200E+11
         0.78200E+11
         0.78200E+11
         0.78200E+11
         0.78200E+11
         0.78200E+11
         0.78200E+11
         0.78200E+11
         0.78200E+11
         0.78200E+11
         0.78200E+11
         0.78200E+11
         0.78200E+11
         0.78200E+11
         0.78200E+11
         0.78200E+11
         0.78200E+11
         0.78200E+11
         0.78200E+11
         0.78200E+11
         0.78200E+11
         0.78200E+11
         0.78200E+11
         0.78200E+11
         0.78200E+11
         0.78200E+11
         0.78200E+11
         0.78200E+11
         0.78200E+11
         0.78200E+11
         0.78200E+11
         0.78200E+11
         0.78200E+11
         0.78200E+11
         0.78200E+11
         0.78200E+11
         0.78200E+11
         0.78200E+11
         0.78200E+11
         0.78200E+11
         0.78200E+11
         0.78200E+11
         0.78200E+11
         0.78200E+11
         0.78200E+11
         0.78200E+11
         0.78200E+11
         0.78200E+11
         0.78200E+11
         0.78200E+11
         0.78200E+11
         0.78200E+11
         0.78200E+11
         0.78200E+11
         0.78200E+11
         0.78200E+11
         0.78200E+11
         0.78200E+11
         0.78200E+11
         0.78200E+11
         0.78200E+11
         0.78200E+11
         0.78200E+11
         0.78200E+11
         0.78200E+11
         0.78200E+11
         0.78200E+11
         0.78200E+11
         0.78200E+11
         0.78200E+11
         0.78200E+11
         0.78200E+11
         0.78200E+11
         0.78200E+11
         0.78200E+11
         0.78200E+11
         0.78200E+11
         0.78200E+11
         0.78200E+11
         0.78200E+11
         0.78200E+11
         0.78200E+11
         0.78200E+11
         0.78200E+11
         0.78200E+11
         0.78200E+11
         0.78200E+11
         0.78200E+11
         0.78200E+11
         0.78200E+11
         0.78200E+11
         0.78200E+11
         0.78200E+11
         0.78200E+11
         0.78200E+11
         0.78200E+11
         0.78200E+11
         0.78200E+11
         0.78200E+11
         0.78200E+11
         0.78200E+11
         0.78200E+11
         0.78200E+11
         0.78200E+11
         0.78200E+11
         0.78200E+11
         0.78200E+11
         0.78200E+11
         0.78200E+11
         0.78200E+11
         0.78200E+11
         0.78200E+11
         0.78200E+11
         0.78200E+11
         0.78200E+11
         0.78200E+11
         0.78200E+11
         0.78200E+11
         0.78200E+11
         0.78200E+11
         0.78200E+11
         0.78200E+11
         0.78200E+11
         0.78200E+11
         0.78200E+11
         0.78200E+11
         0.78200E+11
         0.78200E+11
         0.78200E+11
         0.78200E+11
         0.78200E+11
         0.78200E+11
         0.78200E+11
         0.78200E+11
         0.78200E+11
         0.78200E+11
         0.78200E+11
         0.78200E+11
         0.78200E+11
         0.78200E+11
         0.78200E+11
         0.78200E+11
         0.78200E+11
         0.78200E+11
         0.78200E+11
         0.78200E+11
         0.78200E+11
         0.78200E+11
         0.78200E+11
         0.78200E+11
         0.78200E+11
         0.78200E+11
         0.78200E+11
         0.78200E+11
         0.78200E+11
         0.78200E+11
         0.78200E+11
         0.78200E+11
         0.78200E+11
         0.78200E+11
         0.78200E+11
         0.78200E+11
         0.78200E+11
         0.78200E+11
         0.78200E+11
         0.78200E+11
         0.78200E+11
         0.78200E+11
         0.78200E+11
         0.78200E+11
         0.78200E+11
         0.78200E+11
         0.78200E+11
         0.78200E+11
         0.78200E+11
         0.78200E+11
         0.78200E+11
         0.78200E+11
         0.78200E+11
         0.78200E+11
         0.78200E+11
         0.78200E+11
         0.78200E+11
         0.78200E+11
         0.78200E+11
         0.78200E+11
         0.78200E+11
         0.78200E+11
         0.78200E+11
         0.78200E+11
         0.78200E+11
         0.78200E+11
         0.78200E+11
         0.78200E+11
         0.78200E+11
         0.78200E+11
         0.78200E+11
         0.78200E+11
         0.78200E+11
         0.78200E+11
         0.78200E+11
         0.78200E+11
         0.78200E+11
         0.78200E+11
         0.78200E+11
         0.78200E+11
         0.78200E+11
         0.78200E+11
         0.78200E+11
         0.78200E+11
         0.78200E+11
         0.78200E+11
         0.78200E+11
         0.78200E+11
         0.78200E+11
         0.78200E+11
         0.78200E+11
         0.78200E+11
         0.78200E+11
         0.78200E+11
         0.78200E+11
         0.78200E+11
         0.78200E+11
         0.78200E+11
         0.78200E+11
         0.78200E+11
         0.78200E+11
         0.78200E+11
         0.78200E+11
         0.78200E+11
         0.78200E+11
         0.78200E+11
         0.78200E+11
         0.78200E+11
         0.78200E+11
         0.78200E+11
         0.78200E+11
         0.78200E+11
         0.78200E+11
         0.78200E+11
         0.78200E+11
         0.78200E+11
         0.78200E+11
         0.78200E+11
         0.78200E+11
         0.78200E+11
         0.78200E+11
         0.78200E+11
         0.78200E+11
         0.78200E+11
         0.78200E+11
         0.78200E+11
         0.78200E+11
         0.78200E+11
         0.78200E+11
         0.78200E+11
         0.78200E+11
         0.78200E+11
         0.78200E+11
         0.78200E+11
         0.78200E+11
         0.78200E+11
         0.78200E+11
         0.78200E+11
         0.78200E+11
         0.78200E+11
         0.78200E+11
         0.78200E+11
         0.78200E+11
         0.78200E+11
         0.78200E+11
         0.78200E+11
         0.78200E+11
         0.78200E+11
         0.78200E+11
         0.78200E+11
         0.78200E+11
         0.78200E+11
         0.78200E+11
         0.78200E+11
         0.78200E+11
         0.78200E+11
         0.78200E+11
         0.78200E+11
         0.78200E+11
         0.78200E+11
         0.78200E+11
         0.78200E+11
         0.78200E+11
         0.78200E+11
         0.78200E+11
         0.78200E+11
         0.78200E+11
         0.78200E+11
         0.78200E+11
         0.78200E+11
         0.78200E+11
         0.78200E+11
         0.78200E+11
         0.78200E+11
         0.78200E+11
         0.78200E+11
         0.78200E+11
         0.78200E+11
         0.78200E+11
         0.78200E+11
         0.78200E+11
         0.78200E+11
         0.78200E+11
         0.78200E+11
         0.78200E+11
         0.78200E+11
         0.78200E+11
         0.78200E+11
         0.78200E+11
         0.78200E+11
         0.78200E+11
         0.78200E+11
         0.78200E+11
         0.78200E+11
         0.78200E+11
         0.78200E+11
         0.78200E+11
         0.78200E+11
         0.78200E+11
         0.78200E+11
         0.78200E+11
         0.78200E+11
         0.78200E+11
         0.78200E+11
         0.78200E+11
         0.78200E+11
         0.78200E+11
         0.78200E+11
         0.78200E+11
         0.78200E+11
         0.78200E+11
         0.78200E+11
         0.78200E+11
         0.78200E+11
         0.78200E+11
         0.78200E+11
         0.78200E+11
         0.78200E+11
         0.78200E+11
         0.78200E+11
         0.78200E+11
         0.78200E+11
         0.78200E+11
         0.78200E+11
         0.78200E+11
         0.78200E+11
         0.78200E+11
         0.78200E+11
         0.78200E+11
         0.78200E+11
         0.78200E+11
         0.78200E+11
         0.78200E+11
         0.78200E+11
         0.78200E+11
         0.78200E+11
         0.78200E+11
         0.78200E+11
         0.78200E+11
         0.78200E+11
         0.78200E+11
         0.78200E+11
         0.78200E+11
         0.78200E+11
         0.78200E+11
         0.78200E+11
         0.78200E+11
         0.78200E+11
         0.78200E+11
         0.78200E+11
         0.78200E+11
         0.78200E+11
         0.78200E+11
         0.78200E+11
         0.78200E+11
         0.78200E+11
         0.78200E+11
         0.78200E+11
         0.78200E+11
         0.78200E+11
         0.78200E+11
         0.78200E+11
         0.78200E+11
         0.78200E+11
         0.78200E+11
         0.78200E+11
         0.78200E+11
         0.78200E+11
         0.78200E+11
         0.78200E+11
         0.78200E+11
         0.78200E+11
         0.78200E+11
         0.78200E+11
         0.78200E+11
         0.78200E+11
         0.78200E+11
         0.78200E+11
         0.78200E+11
         0.78200E+11
         0.78200E+11
         0.78200E+11
         0.78200E+11
         0.78200E+11
         0.78200E+11
         0.78200E+11
         0.78200E+11
         0.78200E+11
         0.78200E+11
         0.78200E+11
         0.78200E+11
         0.78200E+11
         0.78200E+11
         0.78200E+11
         0.78200E+11
         0.78200E+11
         0.78200E+11
         0.78200E+11
         0.78200E+11
         0.78200E+11
         0.78200E+11
         0.78200E+11
         0.78200E+11
         0.78200E+11
         0.78200E+11
         0.78200E+11
         0.78200E+11
         0.78200E+11
         0.78200E+11
         0.78200E+11
         0.78200E+11
         0.78200E+11
         0.78200E+11
         0.78200E+11
         0.78200E+11
         0.78200E+11
         0.78200E+11
         0.78200E+11
         0.78200E+11
         0.78200E+11
         0.78200E+11
         0.78200E+11
         0.78200E+11
         0.78200E+11
         0.78200E+11
         0.78200E+11
         0.78200E+11
         0.78200E+11
         0.78200E+11
         0.78200E+11
         0.78200E+11
         0.78200E+11
         0.78200E+11
         0.78200E+11
         0.78200E+11
         0.78200E+11
         0.78200E+11
         0.78200E+11
         0.78200E+11
         0.78200E+11
         0.78200E+11
         0.78200E+11
         0.78200E+11
         0.78200E+11
         0.78200E+11
         0.78200E+11
         0.78200E+11
         0.78200E+11
         0.78200E+11
         0.78200E+11
         0.78200E+11
         0.78200E+11
         0.78200E+11
         0.78200E+11
         0.78200E+11
         0.78200E+11
         0.78200E+11
         0.78200E+11
         0.78200E+11
         0.78200E+11
         0.78200E+11
         0.78200E+11
         0.78200E+11
         0.78200E+11
         0.78200E+11
         0.78200E+11
         0.78200E+11
         0.78200E+11
         0.78200E+11
         0.78200E+11
         0.78200E+11
         0.78200E+11
         0.78200E+11
         0.78200E+11
         0.78200E+11
         0.78200E+11
         0.78200E+11
         0.78200E+11
         0.78200E+11
         0.78200E+11
         0.78200E+11
         0.78200E+11
         0.78200E+11
         0.78200E+11
         0.78200E+11
         0.78200E+11
         0.78200E+11
         0.78200E+11
         0.78200E+11
         0.78200E+11
         0.78200E+11
         0.78200E+11
         0.78200E+11
         0.78200E+11
         0.78200E+11
         0.78200E+11
         0.78200E+11
         0.78200E+11
         0.78200E+11
         0.78200E+11
         0.78200E+11
         0.78200E+11
         0.78200E+11
         0.78200E+11
         0.78200E+11
         0.78200E+11
         0.78200E+11
         0.78200E+11
         0.78200E+11
         0.78200E+11
         0.78200E+11
         0.78200E+11
         0.78200E+11
         0.78200E+11
         0.78200E+11
         0.78200E+11
         0.78200E+11
         0.78200E+11
         0.78200E+11
         0.78200E+11
         0.78200E+11
         0.78200E+11
         0.78200E+11
         0.78200E+11
         0.78200E+11
         0.78200E+11
         0.78200E+11
         0.78200E+11
         0.78200E+11
         0.78200E+11
         0.78200E+11
         0.78200E+11
         0.78200E+11
         0.78200E+11
         0.78200E+11
         0.78200E+11
         0.78200E+11
         0.78200E+11
         0.78200E+11
         0.78200E+11
         0.78200E+11
         0.78200E+11
         0.78200E+11
         0.78200E+11
         0.78200E+11
         0.78200E+11
         0.78200E+11
         0.78200E+11
         0.78200E+11
         0.78200E+11
         0.78200E+11
         0.78200E+11
         0.78200E+11
         0.78200E+11
         0.78200E+11
         0.78200E+11
         0.78200E+11
         0.78200E+11
         0.78200E+11
         0.78200E+11
         0.78200E+11
         0.78200E+11
         0.78200E+11
         0.78200E+11
         0.78200E+11
         0.78200E+11
         0.78200E+11
         0.78200E+11
         0.78200E+11
         0.78200E+11
         0.78200E+11
         0.78200E+11
         0.78200E+11
         0.78200E+11
         0.78200E+11
         0.78200E+11
         0.78200E+11
         0.78200E+11
         0.78200E+11
         0.78200E+11
         0.78200E+11
         0.78200E+11
         0.78200E+11
         0.78200E+11
         0.78200E+11
         0.78200E+11
         0.78200E+11
         0.78200E+11
         0.78200E+11
         0.78200E+11
         0.78200E+11
         0.78200E+11
         0.78200E+11
         0.78200E+11
         0.78200E+11
         0.78200E+11
         0.78200E+11
         0.78200E+11
         0.78200E+11
         0.78200E+11
         0.78200E+11
         0.78200E+11
         0.78200E+11
         0.78200E+11
         0.78200E+11
         0.78200E+11
         0.78200E+11
         0.78200E+11
         0.78200E+11
         0.78200E+11
         0.78200E+11
         0.78200E+11
         0.78200E+11
         0.78200E+11
         0.78200E+11
         0.78200E+11
         0.78200E+11
         0.78200E+11
         0.78200E+11
         0.78200E+11
         0.78200E+11
         0.78200E+11
         0.78200E+11
         0.78200E+11
         0.78200E+11
         0.78200E+11
         0.78200E+11
         0.78200E+11
         0.78200E+11
         0.78200E+11
         0.78200E+11
         0.78200E+11
         0.78200E+11
         0.78200E+11
         0.78200E+11
         0.78200E+11
         0.78200E+11
         0.78200E+11
         0.78200E+11
         0.78200E+11
         0.78200E+11
         0.78200E+11
         0.78200E+11
         0.78200E+11
         0.78200E+11
         0.78200E+11
         0.78200E+11
         0.78200E+11
         0.78200E+11
         0.78200E+11
         0.78200E+11
         0.78200E+11
         0.78200E+11
         0.78200E+11
         0.78200E+11
         0.78200E+11
         0.78200E+11
         0.78200E+11
         0.78200E+11
         0.78200E+11
         0.78200E+11
         0.78200E+11
         0.78200E+11
         0.78200E+11
         0.78200E+11
         0.78200E+11
         0.78200E+11
         0.78200E+11
         0.78200E+11
         0.78200E+11
         0.78200E+11
         0.78200E+11
         0.78200E+11
         0.78200E+11
         0.78200E+11
         0.78200E+11
         0.78200E+11
         0.78200E+11
         0.78200E+11
         0.78200E+11
         0.78200E+11
         0.78200E+11
         0.78200E+11
         0.78200E+11
         0.78200E+11
         0.78200E+11
         0.78200E+11
         0.78200E+11
         0.78200E+11
         0.78200E+11
         0.78200E+11
         0.78200E+11
         0.78200E+11
         0.78200E+11
         0.78200E+11
         0.78200E+11
         0.78200E+11
         0.78200E+11
         0.78200E+11
         0.78200E+11
         0.78200E+11
         0.78200E+11
         0.78200E+11
         0.78200E+11
         0.78200E+11
         0.78200E+11
         0.78200E+11
         0.78200E+11
         0.78200E+11
         0.78200E+11
         0.78200E+11
         0.78200E+11
         0.78200E+11
         0.78200E+11
         0.78200E+11
         0.78200E+11
         0.78200E+11
         0.78200E+11
         0.78200E+11
         0.78200E+11
         0.78200E+11
         0.78200E+11
         0.78200E+11
         0.78200E+11
         0.78200E+11
         0.78200E+11
         0.78200E+11
         0.78200E+11
         0.78200E+11
         0.78200E+11
         0.78200E+11
         0.78200E+11
         0.78200E+11
         0.78200E+11
         0.78200E+11
         0.78200E+11
         0.78200E+11
         0.78200E+11
         0.78200E+11
         0.78200E+11
         0.78200E+11
         0.78200E+11
         0.78200E+11
         0.78200E+11
         0.78200E+11
         0.78200E+11
         0.78200E+11
         0.78200E+11
         0.78200E+11
         0.78200E+11
         0.78200E+11
         0.78200E+11
         0.78200E+11
         0.78200E+11
         0.78200E+11
         0.78200E+11
         0.78200E+11
         0.78200E+11
         0.78200E+11
         0.78200E+11
         0.78200E+11
         0.78200E+11
         0.78200E+11
         0.78200E+11
         0.78200E+11
         0.78200E+11
         0.78200E+11
         0.78200E+11
         0.78200E+11
         0.78200E+11
         0.78200E+11
         0.78200E+11
         0.78200E+11
         0.78200E+11
         0.78200E+11
         0.78200E+11
         0.78200E+11
         0.78200E+11
         0.78200E+11
         0.78200E+11
         0.78200E+11
         0.78200E+11
         0.78200E+11
         0.78200E+11
         0.78200E+11
         0.78200E+11
         0.78200E+11
         0.78200E+11
         0.78200E+11
         0.78200E+11
         0.78200E+11
         0.78200E+11
         0.78200E+11
         0.78200E+11
         0.78200E+11
         0.78200E+11
         0.78200E+11
         0.78200E+11
         0.78200E+11
         0.78200E+11
         0.78200E+11
         0.78200E+11
         0.78200E+11
         0.78200E+11
         0.78200E+11
         0.78200E+11
         0.78200E+11
         0.78200E+11
         0.78200E+11
         0.78200E+11
         0.78200E+11
         0.78200E+11
         0.78200E+11
         0.78200E+11
         0.78200E+11
         0.78200E+11
         0.78200E+11
         0.78200E+11
         0.78200E+11
         0.78200E+11
         0.78200E+11
         0.78200E+11
         0.78200E+11
         0.78200E+11
         0.78200E+11
         0.78200E+11
         0.78200E+11
         0.78200E+11
         0.78200E+11
         0.78200E+11
         0.78200E+11
         0.78200E+11
         0.78200E+11
         0.78200E+11
         0.78200E+11
         0.78200E+11
         0.78200E+11
         0.78200E+11
         0.78200E+11
         0.78200E+11
         0.78200E+11
         0.78200E+11
         0.78200E+11
         0.78200E+11
         0.78200E+11
         0.78200E+11
         0.78200E+11
         0.78200E+11
         0.78200E+11
         0.78200E+11
         0.78200E+11
         0.78200E+11
         0.78200E+11
         0.78200E+11
         0.78200E+11
         0.78200E+11
         0.78200E+11
         0.78200E+11
         0.78200E+11
         0.78200E+11
         0.78200E+11
         0.78200E+11
         0.78200E+11
         0.78200E+11
         0.78200E+11
         0.78200E+11
         0.78200E+11
         0.78200E+11
         0.78200E+11
         0.78200E+11
         0.78200E+11
         0.78200E+11
         0.78200E+11
         0.78200E+11
         0.78200E+11
         0.78200E+11
         0.78200E+11
         0.78200E+11
         0.78200E+11
         0.78200E+11
         0.78200E+11
         0.78200E+11
         0.78200E+11
         0.78200E+11
         0.78200E+11
         0.78200E+11
         0.78200E+11
         0.78200E+11
         0.78200E+11
         0.78200E+11
         0.78200E+11
         0.78200E+11
         0.78200E+11
         0.78200E+11
         0.78200E+11
         0.78200E+11
         0.78200E+11
         0.78200E+11
         0.78200E+11
         0.78200E+11
         0.78200E+11
         0.78200E+11
         0.78200E+11
         0.78200E+11
         0.78200E+11
         0.78200E+11
         0.78200E+11
         0.78200E+11
         0.78200E+11
         0.78200E+11
         0.78200E+11
         0.78200E+11
         0.78200E+11
         0.78200E+11
         0.78200E+11
         0.78200E+11
         0.78200E+11
         0.78200E+11
         0.78200E+11
         0.78200E+11
         0.78200E+11
         0.78200E+11
         0.78200E+11
         0.78200E+11
         0.78200E+11
         0.78200E+11
         0.78200E+11
         0.78200E+11
         0.78200E+11
         0.78200E+11
         0.78200E+11
         0.78200E+11
         0.78200E+11
         0.78200E+11
         0.78200E+11
         0.78200E+11
         0.78200E+11
         0.78200E+11
         0.78200E+11
         0.78200E+11
         0.78200E+11
         0.78200E+11
         0.78200E+11
         0.78200E+11
         0.78200E+11
         0.78200E+11
         0.78200E+11
         0.78200E+11
         0.78200E+11
         0.78200E+11
         0.78200E+11
         0.78200E+11
         0.78200E+11
         0.78200E+11
         0.78200E+11
         0.78200E+11
         0.78200E+11
         0.78200E+11
         0.78200E+11
         0.78200E+11
         0.78200E+11
         0.78200E+11
         0.78200E+11
         0.78200E+11
         0.78200E+11
         0.78200E+11
         0.78200E+11
         0.78200E+11
         0.78200E+11
         0.78200E+11
         0.78200E+11
         0.78200E+11
         0.78200E+11
         0.78200E+11
         0.78200E+11
         0.78200E+11
         0.78200E+11
         0.78200E+11
         0.78200E+11
         0.78200E+11
         0.78200E+11
         0.78200E+11
         0.78200E+11
         0.78200E+11
         0.78200E+11
         0.78200E+11
         0.78200E+11
         0.78200E+11
         0.78200E+11
         0.78200E+11
         0.78200E+11
         0.78200E+11
         0.78200E+11
         0.78200E+11
         0.78200E+11
         0.78200E+11
         0.78200E+11
         0.78200E+11
         0.78200E+11
         0.78200E+11
         0.78200E+11
         0.78200E+11
         0.78200E+11
         0.78200E+11
         0.78200E+11
         0.78200E+11
         0.78200E+11
         0.78200E+11
         0.78200E+11
         0.78200E+11
         0.78200E+11
         0.78200E+11
         0.78200E+11
         0.78200E+11
         0.78200E+11
         0.78200E+11
         0.78200E+11
         0.78200E+11
         0.78200E+11
         0.78200E+11
         0.78200E+11
         0.78200E+11
         0.78200E+11
         0.78200E+11
         0.78200E+11
         0.78200E+11
         0.78200E+11
         0.78200E+11
         0.78200E+11
         0.78200E+11
         0.78200E+11
         0.78200E+11
         0.78200E+11
         0.78200E+11
         0.78200E+11
         0.78200E+11
         0.78200E+11
         0.78200E+11
         0.78200E+11
         0.78200E+11
         0.78200E+11
         0.78200E+11
         0.78200E+11
         0.78200E+11
         0.78200E+11
         0.78200E+11
         0.78200E+11
         0.78200E+11
         0.78200E+11
         0.78200E+11
         0.78200E+11
         0.78200E+11
         0.78200E+11
         0.78200E+11
         0.78200E+11
         0.78200E+11
         0.78200E+11
         0.78200E+11
         0.78200E+11
         0.78200E+11
         0.78200E+11
         0.78200E+11
         0.78200E+11
         0.78200E+11
         0.78200E+11
         0.78200E+11
         0.78200E+11
         0.78200E+11
         0.78200E+11
         0.78200E+11
         0.78200E+11
         0.78200E+11
         0.78200E+11
         0.78200E+11
         0.78200E+11
         0.78200E+11
         0.78200E+11
         0.78200E+11
         0.78200E+11
         0.78200E+11
         0.78200E+11
         0.78200E+11
         0.78200E+11
         0.78200E+11
         0.78200E+11
         0.78200E+11
         0.78200E+11
         0.78200E+11
         0.78200E+11
         0.78200E+11
         0.78200E+11
         0.78200E+11
         0.78200E+11
         0.78200E+11
         0.78200E+11
         0.78200E+11
         0.78200E+11
         0.78200E+11
         0.78200E+11
         0.78200E+11
         0.78200E+11
         0.78200E+11
         0.78200E+11
         0.78200E+11
         0.78200E+11
         0.78200E+11
         0.78200E+11
         0.78200E+11
         0.78200E+11
         0.78200E+11
         0.78200E+11
         0.78200E+11
         0.78200E+11
         0.78200E+11
         0.78200E+11
         0.78200E+11
         0.78200E+11
         0.78200E+11
         0.78200E+11
         0.78200E+11
         0.78200E+11
         0.78200E+11
         0.78200E+11
         0.78200E+11
         0.78200E+11
         0.78200E+11
         0.78200E+11
         0.78200E+11
         0.78200E+11
         0.78200E+11
         0.78200E+11
         0.78200E+11
         0.78200E+11
         0.78200E+11
         0.78200E+11
         0.78200E+11
         0.78200E+11
         0.78200E+11
         0.78200E+11
         0.78200E+11
         0.78200E+11
         0.78200E+11
         0.78200E+11
         0.78200E+11
         0.78200E+11
         0.78200E+11
         0.78200E+11
         0.78200E+11
         0.78200E+11
         0.78200E+11
         0.78200E+11
         0.78200E+11
         0.78200E+11
         0.78200E+11
         0.78200E+11
         0.78200E+11
         0.78200E+11
         0.78200E+11
         0.78200E+11
         0.78200E+11
         0.78200E+11
         0.78200E+11
         0.78200E+11
         0.78200E+11
         0.78200E+11
         0.78200E+11
         0.78200E+11
         0.78200E+11
         0.78200E+11
         0.78200E+11
         0.78200E+11
         0.78200E+11
         0.78200E+11
         0.78200E+11
         0.78200E+11
         0.78200E+11
         0.78200E+11
         0.78200E+11
         0.78200E+11
         0.78200E+11
         0.78200E+11
         0.78200E+11
         0.78200E+11
         0.78200E+11
         0.78200E+11
         0.78200E+11
         0.78200E+11
         0.78200E+11
         0.78200E+11
         0.78200E+11
         0.78200E+11
         0.78200E+11
         0.78200E+11
         0.78200E+11
         0.78200E+11
         0.78200E+11
         0.78200E+11
         0.78200E+11
         0.78200E+11
         0.78200E+11
         0.78200E+11
         0.78200E+11
         0.78200E+11
         0.78200E+11
         0.78200E+11
         0.78200E+11
         0.78200E+11
         0.78200E+11
         0.78200E+11
         0.78200E+11
         0.78200E+11
         0.78200E+11
         0.78200E+11
         0.78200E+11
         0.78200E+11
         0.78200E+11
         0.78200E+11
         0.78200E+11
         0.78200E+11
         0.78200E+11
         0.78200E+11
         0.78200E+11
         0.78200E+11
         0.78200E+11
         0.78200E+11
         0.78200E+11
         0.78200E+11
         0.78200E+11
         0.78200E+11
         0.78200E+11
         0.78200E+11
         0.78200E+11
         0.78200E+11
         0.78200E+11
         0.78200E+11
         0.78200E+11
         0.78200E+11
         0.78200E+11
         0.78200E+11
         0.78200E+11
         0.78200E+11
         0.78200E+11
         0.78200E+11
         0.78200E+11
         0.78200E+11
         0.78200E+11
         0.78200E+11
         0.78200E+11
         0.78200E+11
         0.78200E+11
         0.78200E+11
         0.78200E+11
         0.78200E+11
         0.78200E+11
         0.78200E+11
         0.78200E+11
         0.78200E+11
         0.78200E+11
         0.78200E+11
         0.78200E+11
         0.78200E+11
         0.78200E+11
         0.78200E+11
         0.78200E+11
         0.78200E+11
         0.78200E+11
         0.78200E+11
         0.78200E+11
         0.78200E+11
         0.78200E+11
         0.78200E+11
         0.78200E+11
         0.78200E+11
         0.78200E+11
         0.78200E+11
         0.78200E+11
         0.78200E+11
         0.78200E+11
         0.78200E+11
         0.78200E+11
         0.78200E+11
         0.78200E+11
         0.78200E+11
         0.78200E+11
         0.78200E+11
         0.78200E+11
         0.78200E+11
         0.78200E+11
         0.78200E+11
         0.78200E+11
         0.78200E+11
         0.78200E+11
         0.78200E+11
         0.78200E+11
         0.78200E+11
         0.78200E+11
         0.78200E+11
         0.78200E+11
         0.78200E+11
         0.78200E+11
         0.78200E+11
         0.78200E+11
         0.78200E+11
         0.78200E+11
         0.78200E+11
         0.78200E+11
         0.78200E+11
         0.78200E+11
         0.78200E+11
         0.78200E+11
         0.78200E+11
         0.78200E+11
         0.78200E+11
         0.78200E+11
         0.78200E+11
         0.78200E+11
         0.78200E+11
         0.78200E+11
         0.78200E+11
         0.78200E+11
         0.78200E+11
         0.78200E+11
         0.78200E+11
         0.78200E+11
         0.78200E+11
         0.78200E+11
         0.78200E+11
         0.78200E+11
         0.78200E+11
         0.78200E+11
         0.78200E+11
         0.78200E+11
         0.78200E+11
         0.78200E+11
         0.78200E+11
         0.78200E+11
         0.78200E+11
         0.78200E+11
         0.78200E+11
         0.78200E+11
         0.78200E+11
         0.78200E+11
         0.78200E+11
         0.78200E+11
         0.78200E+11
         0.78200E+11
         0.78200E+11
         0.78200E+11
         0.78200E+11
         0.78200E+11
         0.78200E+11
         0.78200E+11
         0.78200E+11
         0.78200E+11
         0.78200E+11
         0.78200E+11
         0.78200E+11
         0.78200E+11
         0.78200E+11
         0.78200E+11
         0.78200E+11
         0.78200E+11
         0.78200E+11
         0.78200E+11
         0.78200E+11
         0.78200E+11
         0.78200E+11
         0.78200E+11
         0.78200E+11
         0.78200E+11
         0.78200E+11
         0.78200E+11
         0.78200E+11
         0.78200E+11
         0.78200E+11
         0.78200E+11
         0.78200E+11
         0.78200E+11
         0.78200E+11
         0.78200E+11
         0.78200E+11
         0.78200E+11
         0.78200E+11
         0.78200E+11
         0.78200E+11
         0.78200E+11
         0.78200E+11
         0.78200E+11
         0.78200E+11
         0.78200E+11
         0.78200E+11
         0.78200E+11
         0.78200E+11
         0.78200E+11
         0.78200E+11
         0.78200E+11
         0.78200E+11
         0.78200E+11
         0.78200E+11
         0.78200E+11
         0.78200E+11
         0.78200E+11
         0.78200E+11
         0.78200E+11
         0.78200E+11
         0.78200E+11
         0.78200E+11
         0.78200E+11
         0.78200E+11
         0.78200E+11
         0.78200E+11
         0.78200E+11
         0.78200E+11
         0.78200E+11
         0.78200E+11
         0.78200E+11
         0.78200E+11
         0.78200E+11
         0.78200E+11
         0.78200E+11
         0.78200E+11
         0.78200E+11
         0.78200E+11
         0.78200E+11
         0.78200E+11
         0.78200E+11
         0.78200E+11
         0.78200E+11
         0.78200E+11
         0.78200E+11
         0.78200E+11
         0.78200E+11
         0.78200E+11
         0.78200E+11
         0.78200E+11
         0.78200E+11
         0.78200E+11
         0.78200E+11
         0.78200E+11
         0.78200E+11
         0.78200E+11
         0.78200E+11
         0.78200E+11
         0.78200E+11
         0.78200E+11
         0.78200E+11
         0.78200E+11
         0.78200E+11
         0.78200E+11
         0.78200E+11
         0.78200E+11
         0.78200E+11
         0.78200E+11
         0.78200E+11
         0.78200E+11
         0.78200E+11
         0.78200E+11
         0.78200E+11
         0.78200E+11
         0.78200E+11
         0.78200E+11
         0.78200E+11
         0.78200E+11
         0.78200E+11
         0.78200E+11
         0.78200E+11
         0.78200E+11
         0.78200E+11
         0.78200E+11
         0.78200E+11
         0.78200E+11
         0.78200E+11
         0.78200E+11
         0.78200E+11
         0.78200E+11
         0.78200E+11
         0.78200E+11
         0.78200E+11
         0.78200E+11
         0.78200E+11
         0.78200E+11
         0.78200E+11
         0.78200E+11
         0.78200E+11
         0.78200E+11
         0.78200E+11
         0.78200E+11
         0.78200E+11
         0.78200E+11
         0.78200E+11
         0.78200E+11
         0.78200E+11
         0.78200E+11
         0.78200E+11
         0.78200E+11
         0.78200E+11
         0.78200E+11
         0.78200E+11
         0.78200E+11
         0.78200E+11
         0.78200E+11
         0.78200E+11
         0.78200E+11
         0.78200E+11
         0.78200E+11
         0.78200E+11
         0.78200E+11
         0.78200E+11
         0.78200E+11
         0.78200E+11
         0.78200E+11
         0.78200E+11
         0.78200E+11
         0.78200E+11
         0.78200E+11
         0.78200E+11
         0.78200E+11
         0.78200E+11
         0.78200E+11
         0.78200E+11
         0.78200E+11
         0.78200E+11
         0.78200E+11
         0.78200E+11
         0.78200E+11
         0.78200E+11
         0.78200E+11
         0.78200E+11
         0.78200E+11
         0.78200E+11
         0.78200E+11
         0.78200E+11
         0.78200E+11
         0.78200E+11
         0.78200E+11
         0.78200E+11
         0.78200E+11
         0.78200E+11
         0.78200E+11
         0.78200E+11
         0.78200E+11
         0.78200E+11
         0.78200E+11
         0.78200E+11
         0.78200E+11
         0.78200E+11
         0.78200E+11
         0.78200E+11
         0.78200E+11
         0.78200E+11
         0.78200E+11
         0.78200E+11
         0.78200E+11
         0.78200E+11
         0.78200E+11
         0.78200E+11
         0.78200E+11
         0.78200E+11
         0.78200E+11
         0.78200E+11
         0.78200E+11
         0.78200E+11
         0.78200E+11
         0.78200E+11
         0.78200E+11
         0.78200E+11
         0.78200E+11
         0.78200E+11
         0.78200E+11
         0.78200E+11
         0.78200E+11
         0.78200E+11
         0.78200E+11
         0.78200E+11
         0.78200E+11
         0.78200E+11
         0.78200E+11
         0.78200E+11
         0.78200E+11
         0.78200E+11
         0.78200E+11
         0.78200E+11
         0.78200E+11
         0.78200E+11
         0.78200E+11
         0.78200E+11
         0.78200E+11
         0.78200E+11
         0.78200E+11
         0.78200E+11
         0.78200E+11
         0.78200E+11
         0.78200E+11
         0.78200E+11
         0.78200E+11
         0.78200E+11
         0.78200E+11
         0.78200E+11
         0.78200E+11
         0.78200E+11
         0.78200E+11
         0.78200E+11
         0.78200E+11
         0.78200E+11
         0.78200E+11
         0.78200E+11
         0.78200E+11
         0.78200E+11
         0.78200E+11
         0.78200E+11
         0.78200E+11
         0.78200E+11
         0.78200E+11
         0.78200E+11
         0.78200E+11
         0.78200E+11
         0.78200E+11
         0.78200E+11
         0.78200E+11
         0.78200E+11
         0.78200E+11
         0.78200E+11
         0.78200E+11
         0.78200E+11
         0.78200E+11
         0.78200E+11
         0.78200E+11
         0.78200E+11
         0.78200E+11
         0.78200E+11
         0.78200E+11
         0.78200E+11
         0.78200E+11
         0.78200E+11
         0.78200E+11
         0.78200E+11
         0.78200E+11
         0.78200E+11
         0.78200E+11
         0.78200E+11
         0.78200E+11
         0.78200E+11
         0.78200E+11
         0.78200E+11
         0.78200E+11
         0.78200E+11
         0.78200E+11
         0.78200E+11
         0.78200E+11
         0.78200E+11
         0.78200E+11
         0.78200E+11
         0.78200E+11
         0.78200E+11
         0.78200E+11
         0.78200E+11
         0.78200E+11
         0.78200E+11
         0.78200E+11
         0.78200E+11
         0.78200E+11
         0.78200E+11
         0.78200E+11
         0.78200E+11
         0.78200E+11
         0.78200E+11
         0.78200E+11
         0.78200E+11
         0.78200E+11
         0.78200E+11
         0.78200E+11
         0.78200E+11
         0.78200E+11
         0.78200E+11
         0.78200E+11
         0.78200E+11
         0.78200E+11
         0.78200E+11
         0.78200E+11
         0.78200E+11
         0.78200E+11
         0.78200E+11
         0.78200E+11
         0.78200E+11
         0.78200E+11
         0.78200E+11
         0.78200E+11
  
SCALARS                        density  double 1
LOOKUP_TABLE default
         0.27000E+04
         0.27000E+04
         0.27000E+04
         0.27000E+04
         0.27000E+04
         0.27000E+04
         0.27000E+04
         0.27000E+04
         0.27000E+04
         0.27000E+04
         0.27000E+04
         0.27000E+04
         0.27000E+04
         0.27000E+04
         0.27000E+04
         0.27000E+04
         0.27000E+04
         0.27000E+04
         0.27000E+04
         0.27000E+04
         0.27000E+04
         0.27000E+04
         0.27000E+04
         0.27000E+04
         0.27000E+04
         0.27000E+04
         0.27000E+04
         0.27000E+04
         0.27000E+04
         0.27000E+04
         0.27000E+04
         0.27000E+04
         0.27000E+04
         0.27000E+04
         0.27000E+04
         0.27000E+04
         0.27000E+04
         0.27000E+04
         0.27000E+04
         0.27000E+04
         0.27000E+04
         0.27000E+04
         0.27000E+04
         0.27000E+04
         0.27000E+04
         0.27000E+04
         0.27000E+04
         0.27000E+04
         0.27000E+04
         0.27000E+04
         0.27000E+04
         0.27000E+04
         0.27000E+04
         0.27000E+04
         0.27000E+04
         0.27000E+04
         0.27000E+04
         0.27000E+04
         0.27000E+04
         0.27000E+04
         0.27000E+04
         0.27000E+04
         0.27000E+04
         0.27000E+04
         0.27000E+04
         0.27000E+04
         0.27000E+04
         0.27000E+04
         0.27000E+04
         0.27000E+04
         0.27000E+04
         0.27000E+04
         0.27000E+04
         0.27000E+04
         0.27000E+04
         0.27000E+04
         0.27000E+04
         0.27000E+04
         0.27000E+04
         0.27000E+04
         0.27000E+04
         0.27000E+04
         0.27000E+04
         0.27000E+04
         0.27000E+04
         0.27000E+04
         0.27000E+04
         0.27000E+04
         0.27000E+04
         0.27000E+04
         0.27000E+04
         0.27000E+04
         0.27000E+04
         0.27000E+04
         0.27000E+04
         0.27000E+04
         0.27000E+04
         0.27000E+04
         0.27000E+04
         0.27000E+04
         0.27000E+04
         0.27000E+04
         0.27000E+04
         0.27000E+04
         0.27000E+04
         0.27000E+04
         0.27000E+04
         0.27000E+04
         0.27000E+04
         0.27000E+04
         0.27000E+04
         0.27000E+04
         0.27000E+04
         0.27000E+04
         0.27000E+04
         0.27000E+04
         0.27000E+04
         0.27000E+04
         0.27000E+04
         0.27000E+04
         0.27000E+04
         0.27000E+04
         0.27000E+04
         0.27000E+04
         0.27000E+04
         0.27000E+04
         0.27000E+04
         0.27000E+04
         0.27000E+04
         0.27000E+04
         0.27000E+04
         0.27000E+04
         0.27000E+04
         0.27000E+04
         0.27000E+04
         0.27000E+04
         0.27000E+04
         0.27000E+04
         0.27000E+04
         0.27000E+04
         0.27000E+04
         0.27000E+04
         0.27000E+04
         0.27000E+04
         0.27000E+04
         0.27000E+04
         0.27000E+04
         0.27000E+04
         0.27000E+04
         0.27000E+04
         0.27000E+04
         0.27000E+04
         0.27000E+04
         0.27000E+04
         0.27000E+04
         0.27000E+04
         0.27000E+04
         0.27000E+04
         0.27000E+04
         0.27000E+04
         0.27000E+04
         0.27000E+04
         0.27000E+04
         0.27000E+04
         0.27000E+04
         0.27000E+04
         0.27000E+04
         0.27000E+04
         0.27000E+04
         0.27000E+04
         0.27000E+04
         0.27000E+04
         0.27000E+04
         0.27000E+04
         0.27000E+04
         0.27000E+04
         0.27000E+04
         0.27000E+04
         0.27000E+04
         0.27000E+04
         0.27000E+04
         0.27000E+04
         0.27000E+04
         0.27000E+04
         0.27000E+04
         0.27000E+04
         0.27000E+04
         0.27000E+04
         0.27000E+04
         0.27000E+04
         0.27000E+04
         0.27000E+04
         0.27000E+04
         0.27000E+04
         0.27000E+04
         0.27000E+04
         0.27000E+04
         0.27000E+04
         0.27000E+04
         0.27000E+04
         0.27000E+04
         0.27000E+04
         0.27000E+04
         0.27000E+04
         0.27000E+04
         0.27000E+04
         0.27000E+04
         0.27000E+04
         0.27000E+04
         0.27000E+04
         0.27000E+04
         0.27000E+04
         0.27000E+04
         0.27000E+04
         0.27000E+04
         0.27000E+04
         0.27000E+04
         0.27000E+04
         0.27000E+04
         0.27000E+04
         0.27000E+04
         0.27000E+04
         0.27000E+04
         0.27000E+04
         0.27000E+04
         0.27000E+04
         0.27000E+04
         0.27000E+04
         0.27000E+04
         0.27000E+04
         0.27000E+04
         0.27000E+04
         0.27000E+04
         0.27000E+04
         0.27000E+04
         0.27000E+04
         0.27000E+04
         0.27000E+04
         0.27000E+04
         0.27000E+04
         0.27000E+04
         0.27000E+04
         0.27000E+04
         0.27000E+04
         0.27000E+04
         0.27000E+04
         0.27000E+04
         0.27000E+04
         0.27000E+04
         0.27000E+04
         0.27000E+04
         0.27000E+04
         0.27000E+04
         0.27000E+04
         0.27000E+04
         0.27000E+04
         0.27000E+04
         0.27000E+04
         0.27000E+04
         0.27000E+04
         0.27000E+04
         0.27000E+04
         0.27000E+04
         0.27000E+04
         0.27000E+04
         0.27000E+04
         0.27000E+04
         0.27000E+04
         0.27000E+04
         0.27000E+04
         0.27000E+04
         0.27000E+04
         0.27000E+04
         0.27000E+04
         0.27000E+04
         0.27000E+04
         0.27000E+04
         0.27000E+04
         0.27000E+04
         0.27000E+04
         0.27000E+04
         0.27000E+04
         0.27000E+04
         0.27000E+04
         0.27000E+04
         0.27000E+04
         0.27000E+04
         0.27000E+04
         0.27000E+04
         0.27000E+04
         0.27000E+04
         0.27000E+04
         0.27000E+04
         0.27000E+04
         0.27000E+04
         0.27000E+04
         0.27000E+04
         0.27000E+04
         0.27000E+04
         0.27000E+04
         0.27000E+04
         0.27000E+04
         0.27000E+04
         0.27000E+04
         0.27000E+04
         0.27000E+04
         0.27000E+04
         0.27000E+04
         0.27000E+04
         0.27000E+04
         0.27000E+04
         0.27000E+04
         0.27000E+04
         0.27000E+04
         0.27000E+04
         0.27000E+04
         0.27000E+04
         0.27000E+04
         0.27000E+04
         0.27000E+04
         0.27000E+04
         0.27000E+04
         0.27000E+04
         0.27000E+04
         0.27000E+04
         0.27000E+04
         0.27000E+04
         0.27000E+04
         0.27000E+04
         0.27000E+04
         0.27000E+04
         0.27000E+04
         0.27000E+04
         0.27000E+04
         0.27000E+04
         0.27000E+04
         0.27000E+04
         0.27000E+04
         0.27000E+04
         0.27000E+04
         0.27000E+04
         0.27000E+04
         0.27000E+04
         0.27000E+04
         0.27000E+04
         0.27000E+04
         0.27000E+04
         0.27000E+04
         0.27000E+04
         0.27000E+04
         0.27000E+04
         0.27000E+04
         0.27000E+04
         0.27000E+04
         0.27000E+04
         0.27000E+04
         0.27000E+04
         0.27000E+04
         0.27000E+04
         0.27000E+04
         0.27000E+04
         0.27000E+04
         0.27000E+04
         0.27000E+04
         0.27000E+04
         0.27000E+04
         0.27000E+04
         0.27000E+04
         0.27000E+04
         0.27000E+04
         0.27000E+04
         0.27000E+04
         0.27000E+04
         0.27000E+04
         0.27000E+04
         0.27000E+04
         0.27000E+04
         0.27000E+04
         0.27000E+04
         0.27000E+04
         0.27000E+04
         0.27000E+04
         0.27000E+04
         0.27000E+04
         0.27000E+04
         0.27000E+04
         0.27000E+04
         0.27000E+04
         0.27000E+04
         0.27000E+04
         0.27000E+04
         0.27000E+04
         0.27000E+04
         0.27000E+04
         0.27000E+04
         0.27000E+04
         0.27000E+04
         0.27000E+04
         0.27000E+04
         0.27000E+04
         0.27000E+04
         0.27000E+04
         0.27000E+04
         0.27000E+04
         0.27000E+04
         0.27000E+04
         0.27000E+04
         0.27000E+04
         0.27000E+04
         0.27000E+04
         0.27000E+04
         0.27000E+04
         0.27000E+04
         0.27000E+04
         0.27000E+04
         0.27000E+04
         0.27000E+04
         0.27000E+04
         0.27000E+04
         0.27000E+04
         0.27000E+04
         0.27000E+04
         0.27000E+04
         0.27000E+04
         0.27000E+04
         0.27000E+04
         0.27000E+04
         0.27000E+04
         0.27000E+04
         0.27000E+04
         0.27000E+04
         0.27000E+04
         0.27000E+04
         0.27000E+04
         0.27000E+04
         0.27000E+04
         0.27000E+04
         0.27000E+04
         0.27000E+04
         0.27000E+04
         0.27000E+04
         0.27000E+04
         0.27000E+04
         0.27000E+04
         0.27000E+04
         0.27000E+04
         0.27000E+04
         0.27000E+04
         0.27000E+04
         0.27000E+04
         0.27000E+04
         0.27000E+04
         0.27000E+04
         0.27000E+04
         0.27000E+04
         0.27000E+04
         0.27000E+04
         0.27000E+04
         0.27000E+04
         0.27000E+04
         0.27000E+04
         0.27000E+04
         0.27000E+04
         0.27000E+04
         0.27000E+04
         0.27000E+04
         0.27000E+04
         0.27000E+04
         0.27000E+04
         0.27000E+04
         0.27000E+04
         0.27000E+04
         0.27000E+04
         0.27000E+04
         0.27000E+04
         0.27000E+04
         0.27000E+04
         0.27000E+04
         0.27000E+04
         0.27000E+04
         0.27000E+04
         0.27000E+04
         0.27000E+04
         0.27000E+04
         0.27000E+04
         0.27000E+04
         0.27000E+04
         0.27000E+04
         0.27000E+04
         0.27000E+04
         0.27000E+04
         0.27000E+04
         0.27000E+04
         0.27000E+04
         0.27000E+04
         0.27000E+04
         0.27000E+04
         0.27000E+04
         0.27000E+04
         0.27000E+04
         0.27000E+04
         0.27000E+04
         0.27000E+04
         0.27000E+04
         0.27000E+04
         0.27000E+04
         0.27000E+04
         0.27000E+04
         0.27000E+04
         0.27000E+04
         0.27000E+04
         0.27000E+04
         0.27000E+04
         0.27000E+04
         0.27000E+04
         0.27000E+04
         0.27000E+04
         0.27000E+04
         0.27000E+04
         0.27000E+04
         0.27000E+04
         0.27000E+04
         0.27000E+04
         0.27000E+04
         0.27000E+04
         0.27000E+04
         0.27000E+04
         0.27000E+04
         0.27000E+04
         0.27000E+04
         0.27000E+04
         0.27000E+04
         0.27000E+04
         0.27000E+04
         0.27000E+04
         0.27000E+04
         0.27000E+04
         0.27000E+04
         0.27000E+04
         0.27000E+04
         0.27000E+04
         0.27000E+04
         0.27000E+04
         0.27000E+04
         0.27000E+04
         0.27000E+04
         0.27000E+04
         0.27000E+04
         0.27000E+04
         0.27000E+04
         0.27000E+04
         0.27000E+04
         0.27000E+04
         0.27000E+04
         0.27000E+04
         0.27000E+04
         0.27000E+04
         0.27000E+04
         0.27000E+04
         0.27000E+04
         0.27000E+04
         0.27000E+04
         0.27000E+04
         0.27000E+04
         0.27000E+04
         0.27000E+04
         0.27000E+04
         0.27000E+04
         0.27000E+04
         0.27000E+04
         0.27000E+04
         0.27000E+04
         0.27000E+04
         0.27000E+04
         0.27000E+04
         0.27000E+04
         0.27000E+04
         0.27000E+04
         0.27000E+04
         0.27000E+04
         0.27000E+04
         0.27000E+04
         0.27000E+04
         0.27000E+04
         0.27000E+04
         0.27000E+04
         0.27000E+04
         0.27000E+04
         0.27000E+04
         0.27000E+04
         0.27000E+04
         0.27000E+04
         0.27000E+04
         0.27000E+04
         0.27000E+04
         0.27000E+04
         0.27000E+04
         0.27000E+04
         0.27000E+04
         0.27000E+04
         0.27000E+04
         0.27000E+04
         0.27000E+04
         0.27000E+04
         0.27000E+04
         0.27000E+04
         0.27000E+04
         0.27000E+04
         0.27000E+04
         0.27000E+04
         0.27000E+04
         0.27000E+04
         0.27000E+04
         0.27000E+04
         0.27000E+04
         0.27000E+04
         0.27000E+04
         0.27000E+04
         0.27000E+04
         0.27000E+04
         0.27000E+04
         0.27000E+04
         0.27000E+04
         0.27000E+04
         0.27000E+04
         0.27000E+04
         0.27000E+04
         0.27000E+04
         0.27000E+04
         0.27000E+04
         0.27000E+04
         0.27000E+04
         0.27000E+04
         0.27000E+04
         0.27000E+04
         0.27000E+04
         0.27000E+04
         0.27000E+04
         0.27000E+04
         0.27000E+04
         0.27000E+04
         0.27000E+04
         0.27000E+04
         0.27000E+04
         0.27000E+04
         0.27000E+04
         0.27000E+04
         0.27000E+04
         0.27000E+04
         0.27000E+04
         0.27000E+04
         0.27000E+04
         0.27000E+04
         0.27000E+04
         0.27000E+04
         0.27000E+04
         0.27000E+04
         0.27000E+04
         0.27000E+04
         0.27000E+04
         0.27000E+04
         0.27000E+04
         0.27000E+04
         0.27000E+04
         0.27000E+04
         0.27000E+04
         0.27000E+04
         0.27000E+04
         0.27000E+04
         0.27000E+04
         0.27000E+04
         0.27000E+04
         0.27000E+04
         0.27000E+04
         0.27000E+04
         0.27000E+04
         0.27000E+04
         0.27000E+04
         0.27000E+04
         0.27000E+04
         0.27000E+04
         0.27000E+04
         0.27000E+04
         0.27000E+04
         0.27000E+04
         0.27000E+04
         0.27000E+04
         0.27000E+04
         0.27000E+04
         0.27000E+04
         0.27000E+04
         0.27000E+04
         0.27000E+04
         0.27000E+04
         0.27000E+04
         0.27000E+04
         0.27000E+04
         0.27000E+04
         0.27000E+04
         0.27000E+04
         0.27000E+04
         0.27000E+04
         0.27000E+04
         0.27000E+04
         0.27000E+04
         0.27000E+04
         0.27000E+04
         0.27000E+04
         0.27000E+04
         0.27000E+04
         0.27000E+04
         0.27000E+04
         0.27000E+04
         0.27000E+04
         0.27000E+04
         0.27000E+04
         0.27000E+04
         0.27000E+04
         0.27000E+04
         0.27000E+04
         0.27000E+04
         0.27000E+04
         0.27000E+04
         0.27000E+04
         0.27000E+04
         0.27000E+04
         0.27000E+04
         0.27000E+04
         0.27000E+04
         0.27000E+04
         0.27000E+04
         0.27000E+04
         0.27000E+04
         0.27000E+04
         0.27000E+04
         0.27000E+04
         0.27000E+04
         0.27000E+04
         0.27000E+04
         0.27000E+04
         0.27000E+04
         0.27000E+04
         0.27000E+04
         0.27000E+04
         0.27000E+04
         0.27000E+04
         0.27000E+04
         0.27000E+04
         0.27000E+04
         0.27000E+04
         0.27000E+04
         0.27000E+04
         0.27000E+04
         0.27000E+04
         0.27000E+04
         0.27000E+04
         0.27000E+04
         0.27000E+04
         0.27000E+04
         0.27000E+04
         0.27000E+04
         0.27000E+04
         0.27000E+04
         0.27000E+04
         0.27000E+04
         0.27000E+04
         0.27000E+04
         0.27000E+04
         0.27000E+04
         0.27000E+04
         0.27000E+04
         0.27000E+04
         0.27000E+04
         0.27000E+04
         0.27000E+04
         0.27000E+04
         0.27000E+04
         0.27000E+04
         0.27000E+04
         0.27000E+04
         0.27000E+04
         0.27000E+04
         0.27000E+04
         0.27000E+04
         0.27000E+04
         0.27000E+04
         0.27000E+04
         0.27000E+04
         0.27000E+04
         0.27000E+04
         0.27000E+04
         0.27000E+04
         0.27000E+04
         0.27000E+04
         0.27000E+04
         0.27000E+04
         0.27000E+04
         0.27000E+04
         0.27000E+04
         0.27000E+04
         0.27000E+04
         0.27000E+04
         0.27000E+04
         0.27000E+04
         0.27000E+04
         0.27000E+04
         0.27000E+04
         0.27000E+04
         0.27000E+04
         0.27000E+04
         0.27000E+04
         0.27000E+04
         0.27000E+04
         0.27000E+04
         0.27000E+04
         0.27000E+04
         0.27000E+04
         0.27000E+04
         0.27000E+04
         0.27000E+04
         0.27000E+04
         0.27000E+04
         0.27000E+04
         0.27000E+04
         0.27000E+04
         0.27000E+04
         0.27000E+04
         0.27000E+04
         0.27000E+04
         0.27000E+04
         0.27000E+04
         0.27000E+04
         0.27000E+04
         0.27000E+04
         0.27000E+04
         0.27000E+04
         0.27000E+04
         0.27000E+04
         0.27000E+04
         0.27000E+04
         0.27000E+04
         0.27000E+04
         0.27000E+04
         0.27000E+04
         0.27000E+04
         0.27000E+04
         0.27000E+04
         0.27000E+04
         0.27000E+04
         0.27000E+04
         0.27000E+04
         0.27000E+04
         0.27000E+04
         0.27000E+04
         0.27000E+04
         0.27000E+04
         0.27000E+04
         0.27000E+04
         0.27000E+04
         0.27000E+04
         0.27000E+04
         0.27000E+04
         0.27000E+04
         0.27000E+04
         0.27000E+04
         0.27000E+04
         0.27000E+04
         0.27000E+04
         0.27000E+04
         0.27000E+04
         0.27000E+04
         0.27000E+04
         0.27000E+04
         0.27000E+04
         0.27000E+04
         0.27000E+04
         0.27000E+04
         0.27000E+04
         0.27000E+04
         0.27000E+04
         0.27000E+04
         0.27000E+04
         0.27000E+04
         0.27000E+04
         0.27000E+04
         0.27000E+04
         0.27000E+04
         0.27000E+04
         0.27000E+04
         0.27000E+04
         0.27000E+04
         0.27000E+04
         0.27000E+04
         0.27000E+04
         0.27000E+04
         0.27000E+04
         0.27000E+04
         0.27000E+04
         0.27000E+04
         0.27000E+04
         0.27000E+04
         0.27000E+04
         0.27000E+04
         0.27000E+04
         0.27000E+04
         0.27000E+04
         0.27000E+04
         0.27000E+04
         0.27000E+04
         0.27000E+04
         0.27000E+04
         0.27000E+04
         0.27000E+04
         0.27000E+04
         0.27000E+04
         0.27000E+04
         0.27000E+04
         0.27000E+04
         0.27000E+04
         0.27000E+04
         0.27000E+04
         0.27000E+04
         0.27000E+04
         0.27000E+04
         0.27000E+04
         0.27000E+04
         0.27000E+04
         0.27000E+04
         0.27000E+04
         0.27000E+04
         0.27000E+04
         0.27000E+04
         0.27000E+04
         0.27000E+04
         0.27000E+04
         0.27000E+04
         0.27000E+04
         0.27000E+04
         0.27000E+04
         0.27000E+04
         0.27000E+04
         0.27000E+04
         0.27000E+04
         0.27000E+04
         0.27000E+04
         0.27000E+04
         0.27000E+04
         0.27000E+04
         0.27000E+04
         0.27000E+04
         0.27000E+04
         0.27000E+04
         0.27000E+04
         0.27000E+04
         0.27000E+04
         0.27000E+04
         0.27000E+04
         0.27000E+04
         0.27000E+04
         0.27000E+04
         0.27000E+04
         0.27000E+04
         0.27000E+04
         0.27000E+04
         0.27000E+04
         0.27000E+04
         0.27000E+04
         0.27000E+04
         0.27000E+04
         0.27000E+04
         0.27000E+04
         0.27000E+04
         0.27000E+04
         0.27000E+04
         0.27000E+04
         0.27000E+04
         0.27000E+04
         0.27000E+04
         0.27000E+04
         0.27000E+04
         0.27000E+04
         0.27000E+04
         0.27000E+04
         0.27000E+04
         0.27000E+04
         0.27000E+04
         0.27000E+04
         0.27000E+04
         0.27000E+04
         0.27000E+04
         0.27000E+04
         0.27000E+04
         0.27000E+04
         0.27000E+04
         0.27000E+04
         0.27000E+04
         0.27000E+04
         0.27000E+04
         0.27000E+04
         0.27000E+04
         0.27000E+04
         0.27000E+04
         0.27000E+04
         0.27000E+04
         0.27000E+04
         0.27000E+04
         0.27000E+04
         0.27000E+04
         0.27000E+04
         0.27000E+04
         0.27000E+04
         0.27000E+04
         0.27000E+04
         0.27000E+04
         0.27000E+04
         0.27000E+04
         0.27000E+04
         0.27000E+04
         0.27000E+04
         0.27000E+04
         0.27000E+04
         0.27000E+04
         0.27000E+04
         0.27000E+04
         0.27000E+04
         0.27000E+04
         0.27000E+04
         0.27000E+04
         0.27000E+04
         0.27000E+04
         0.27000E+04
         0.27000E+04
         0.27000E+04
         0.27000E+04
         0.27000E+04
         0.27000E+04
         0.27000E+04
         0.27000E+04
         0.27000E+04
         0.27000E+04
         0.27000E+04
         0.27000E+04
         0.27000E+04
         0.27000E+04
         0.27000E+04
         0.27000E+04
         0.27000E+04
         0.27000E+04
         0.27000E+04
         0.27000E+04
         0.27000E+04
         0.27000E+04
         0.27000E+04
         0.27000E+04
         0.27000E+04
         0.27000E+04
         0.27000E+04
         0.27000E+04
         0.27000E+04
         0.27000E+04
         0.27000E+04
         0.27000E+04
         0.27000E+04
         0.27000E+04
         0.27000E+04
         0.27000E+04
         0.27000E+04
         0.27000E+04
         0.27000E+04
         0.27000E+04
         0.27000E+04
         0.27000E+04
         0.27000E+04
         0.27000E+04
         0.27000E+04
         0.27000E+04
         0.27000E+04
         0.27000E+04
         0.27000E+04
         0.27000E+04
         0.27000E+04
         0.27000E+04
         0.27000E+04
         0.27000E+04
         0.27000E+04
         0.27000E+04
         0.27000E+04
         0.27000E+04
         0.27000E+04
         0.27000E+04
         0.27000E+04
         0.27000E+04
         0.27000E+04
         0.27000E+04
         0.27000E+04
         0.27000E+04
         0.27000E+04
         0.27000E+04
         0.27000E+04
         0.27000E+04
         0.27000E+04
         0.27000E+04
         0.27000E+04
         0.27000E+04
         0.27000E+04
         0.27000E+04
         0.27000E+04
         0.27000E+04
         0.27000E+04
         0.27000E+04
         0.27000E+04
         0.27000E+04
         0.27000E+04
         0.27000E+04
         0.27000E+04
         0.27000E+04
         0.27000E+04
         0.27000E+04
         0.27000E+04
         0.27000E+04
         0.27000E+04
         0.27000E+04
         0.27000E+04
         0.27000E+04
         0.27000E+04
         0.27000E+04
         0.27000E+04
         0.27000E+04
         0.27000E+04
         0.27000E+04
         0.27000E+04
         0.27000E+04
         0.27000E+04
         0.27000E+04
         0.27000E+04
         0.27000E+04
         0.27000E+04
         0.27000E+04
         0.27000E+04
         0.27000E+04
         0.27000E+04
         0.27000E+04
         0.27000E+04
         0.27000E+04
         0.27000E+04
         0.27000E+04
         0.27000E+04
         0.27000E+04
         0.27000E+04
         0.27000E+04
         0.27000E+04
         0.27000E+04
         0.27000E+04
         0.27000E+04
         0.27000E+04
         0.27000E+04
         0.27000E+04
         0.27000E+04
         0.27000E+04
         0.27000E+04
         0.27000E+04
         0.27000E+04
         0.27000E+04
         0.27000E+04
         0.27000E+04
         0.27000E+04
         0.27000E+04
         0.27000E+04
         0.27000E+04
         0.27000E+04
         0.27000E+04
         0.27000E+04
         0.27000E+04
         0.27000E+04
         0.27000E+04
         0.27000E+04
         0.27000E+04
         0.27000E+04
         0.27000E+04
         0.27000E+04
         0.27000E+04
         0.27000E+04
         0.27000E+04
         0.27000E+04
         0.27000E+04
         0.27000E+04
         0.27000E+04
         0.27000E+04
         0.27000E+04
         0.27000E+04
         0.27000E+04
         0.27000E+04
         0.27000E+04
         0.27000E+04
         0.27000E+04
         0.27000E+04
         0.27000E+04
         0.27000E+04
         0.27000E+04
         0.27000E+04
         0.27000E+04
         0.27000E+04
         0.27000E+04
         0.27000E+04
         0.27000E+04
         0.27000E+04
         0.27000E+04
         0.27000E+04
         0.27000E+04
         0.27000E+04
         0.27000E+04
         0.27000E+04
         0.27000E+04
         0.27000E+04
         0.27000E+04
         0.27000E+04
         0.27000E+04
         0.27000E+04
         0.27000E+04
         0.27000E+04
         0.27000E+04
         0.27000E+04
         0.27000E+04
         0.27000E+04
         0.27000E+04
         0.27000E+04
         0.27000E+04
         0.27000E+04
         0.27000E+04
         0.27000E+04
         0.27000E+04
         0.27000E+04
         0.27000E+04
         0.27000E+04
         0.27000E+04
         0.27000E+04
         0.27000E+04
         0.27000E+04
         0.27000E+04
         0.27000E+04
         0.27000E+04
         0.27000E+04
         0.27000E+04
         0.27000E+04
         0.27000E+04
         0.27000E+04
         0.27000E+04
         0.27000E+04
         0.27000E+04
         0.27000E+04
         0.27000E+04
         0.27000E+04
         0.27000E+04
         0.27000E+04
         0.27000E+04
         0.27000E+04
         0.27000E+04
         0.27000E+04
         0.27000E+04
         0.27000E+04
         0.27000E+04
         0.27000E+04
         0.27000E+04
         0.27000E+04
         0.27000E+04
         0.27000E+04
         0.27000E+04
         0.27000E+04
         0.27000E+04
         0.27000E+04
         0.27000E+04
         0.27000E+04
         0.27000E+04
         0.27000E+04
         0.27000E+04
         0.27000E+04
         0.27000E+04
         0.27000E+04
         0.27000E+04
         0.27000E+04
         0.27000E+04
         0.27000E+04
         0.27000E+04
         0.27000E+04
         0.27000E+04
         0.27000E+04
         0.27000E+04
         0.27000E+04
         0.27000E+04
         0.27000E+04
         0.27000E+04
         0.27000E+04
         0.27000E+04
         0.27000E+04
         0.27000E+04
         0.27000E+04
         0.27000E+04
         0.27000E+04
         0.27000E+04
         0.27000E+04
         0.27000E+04
         0.27000E+04
         0.27000E+04
         0.27000E+04
         0.27000E+04
         0.27000E+04
         0.27000E+04
         0.27000E+04
         0.27000E+04
         0.27000E+04
         0.27000E+04
         0.27000E+04
         0.27000E+04
         0.27000E+04
         0.27000E+04
         0.27000E+04
         0.27000E+04
         0.27000E+04
         0.27000E+04
         0.27000E+04
         0.27000E+04
         0.27000E+04
         0.27000E+04
         0.27000E+04
         0.27000E+04
         0.27000E+04
         0.27000E+04
         0.27000E+04
         0.27000E+04
         0.27000E+04
         0.27000E+04
         0.27000E+04
         0.27000E+04
         0.27000E+04
         0.27000E+04
         0.27000E+04
         0.27000E+04
         0.27000E+04
         0.27000E+04
         0.27000E+04
         0.27000E+04
         0.27000E+04
         0.27000E+04
         0.27000E+04
         0.27000E+04
         0.27000E+04
         0.27000E+04
         0.27000E+04
         0.27000E+04
         0.27000E+04
         0.27000E+04
         0.27000E+04
         0.27000E+04
         0.27000E+04
         0.27000E+04
         0.27000E+04
         0.27000E+04
         0.27000E+04
         0.27000E+04
         0.27000E+04
         0.27000E+04
         0.27000E+04
         0.27000E+04
         0.27000E+04
         0.27000E+04
         0.27000E+04
         0.27000E+04
         0.27000E+04
         0.27000E+04
         0.27000E+04
         0.27000E+04
         0.27000E+04
         0.27000E+04
         0.27000E+04
         0.27000E+04
         0.27000E+04
         0.27000E+04
         0.27000E+04
         0.27000E+04
         0.27000E+04
         0.27000E+04
         0.27000E+04
         0.27000E+04
         0.27000E+04
         0.27000E+04
         0.27000E+04
         0.27000E+04
         0.27000E+04
         0.27000E+04
         0.27000E+04
         0.27000E+04
         0.27000E+04
         0.27000E+04
         0.27000E+04
         0.27000E+04
         0.27000E+04
         0.27000E+04
         0.27000E+04
         0.27000E+04
         0.27000E+04
         0.27000E+04
         0.27000E+04
         0.27000E+04
         0.27000E+04
         0.27000E+04
         0.27000E+04
         0.27000E+04
         0.27000E+04
         0.27000E+04
         0.27000E+04
         0.27000E+04
         0.27000E+04
         0.27000E+04
         0.27000E+04
         0.27000E+04
         0.27000E+04
         0.27000E+04
         0.27000E+04
         0.27000E+04
         0.27000E+04
         0.27000E+04
         0.27000E+04
         0.27000E+04
         0.27000E+04
         0.27000E+04
         0.27000E+04
         0.27000E+04
         0.27000E+04
         0.27000E+04
         0.27000E+04
         0.27000E+04
         0.27000E+04
         0.27000E+04
         0.27000E+04
         0.27000E+04
         0.27000E+04
         0.27000E+04
         0.27000E+04
         0.27000E+04
         0.27000E+04
         0.27000E+04
         0.27000E+04
         0.27000E+04
         0.27000E+04
         0.27000E+04
         0.27000E+04
         0.27000E+04
         0.27000E+04
         0.27000E+04
         0.27000E+04
         0.27000E+04
         0.27000E+04
         0.27000E+04
         0.27000E+04
         0.27000E+04
         0.27000E+04
         0.27000E+04
         0.27000E+04
         0.27000E+04
         0.27000E+04
         0.27000E+04
         0.27000E+04
         0.27000E+04
         0.27000E+04
         0.27000E+04
         0.27000E+04
         0.27000E+04
         0.27000E+04
         0.27000E+04
         0.27000E+04
         0.27000E+04
         0.27000E+04
         0.27000E+04
         0.27000E+04
         0.27000E+04
         0.27000E+04
         0.27000E+04
         0.27000E+04
         0.27000E+04
         0.27000E+04
         0.27000E+04
         0.27000E+04
         0.27000E+04
         0.27000E+04
         0.27000E+04
         0.27000E+04
         0.27000E+04
         0.27000E+04
         0.27000E+04
         0.27000E+04
         0.27000E+04
         0.27000E+04
         0.27000E+04
         0.27000E+04
         0.27000E+04
         0.27000E+04
         0.27000E+04
         0.27000E+04
         0.27000E+04
         0.27000E+04
         0.27000E+04
         0.27000E+04
         0.27000E+04
         0.27000E+04
         0.27000E+04
         0.27000E+04
         0.27000E+04
         0.27000E+04
         0.27000E+04
         0.27000E+04
         0.27000E+04
         0.27000E+04
         0.27000E+04
         0.27000E+04
         0.27000E+04
         0.27000E+04
         0.27000E+04
         0.27000E+04
         0.27000E+04
         0.27000E+04
         0.27000E+04
         0.27000E+04
         0.27000E+04
         0.27000E+04
         0.27000E+04
         0.27000E+04
         0.27000E+04
         0.27000E+04
         0.27000E+04
         0.27000E+04
         0.27000E+04
         0.27000E+04
         0.27000E+04
         0.27000E+04
         0.27000E+04
         0.27000E+04
         0.27000E+04
         0.27000E+04
         0.27000E+04
         0.27000E+04
         0.27000E+04
         0.27000E+04
         0.27000E+04
         0.27000E+04
         0.27000E+04
         0.27000E+04
         0.27000E+04
         0.27000E+04
         0.27000E+04
         0.27000E+04
         0.27000E+04
         0.27000E+04
         0.27000E+04
         0.27000E+04
         0.27000E+04
         0.27000E+04
         0.27000E+04
         0.27000E+04
         0.27000E+04
         0.27000E+04
         0.27000E+04
         0.27000E+04
         0.27000E+04
         0.27000E+04
         0.27000E+04
         0.27000E+04
         0.27000E+04
         0.27000E+04
         0.27000E+04
         0.27000E+04
         0.27000E+04
         0.27000E+04
         0.27000E+04
         0.27000E+04
         0.27000E+04
         0.27000E+04
         0.27000E+04
         0.27000E+04
         0.27000E+04
         0.27000E+04
         0.27000E+04
         0.27000E+04
         0.27000E+04
         0.27000E+04
         0.27000E+04
         0.27000E+04
         0.27000E+04
         0.27000E+04
         0.27000E+04
         0.27000E+04
         0.27000E+04
         0.27000E+04
         0.27000E+04
         0.27000E+04
         0.27000E+04
         0.27000E+04
         0.27000E+04
         0.27000E+04
         0.27000E+04
         0.27000E+04
         0.27000E+04
         0.27000E+04
         0.27000E+04
         0.27000E+04
         0.27000E+04
         0.27000E+04
         0.27000E+04
         0.27000E+04
         0.27000E+04
         0.27000E+04
         0.27000E+04
         0.27000E+04
         0.27000E+04
         0.27000E+04
         0.27000E+04
         0.27000E+04
         0.27000E+04
         0.27000E+04
         0.27000E+04
         0.27000E+04
         0.27000E+04
         0.27000E+04
         0.27000E+04
         0.27000E+04
         0.27000E+04
         0.27000E+04
         0.27000E+04
         0.27000E+04
         0.27000E+04
         0.27000E+04
         0.27000E+04
         0.27000E+04
         0.27000E+04
         0.27000E+04
         0.27000E+04
         0.27000E+04
         0.27000E+04
         0.27000E+04
         0.27000E+04
         0.27000E+04
         0.27000E+04
         0.27000E+04
         0.27000E+04
         0.27000E+04
         0.27000E+04
         0.27000E+04
         0.27000E+04
         0.27000E+04
         0.27000E+04
         0.27000E+04
         0.27000E+04
         0.27000E+04
         0.27000E+04
         0.27000E+04
         0.27000E+04
         0.27000E+04
         0.27000E+04
         0.27000E+04
         0.27000E+04
         0.27000E+04
         0.27000E+04
         0.27000E+04
         0.27000E+04
         0.27000E+04
         0.27000E+04
         0.27000E+04
         0.27000E+04
         0.27000E+04
         0.27000E+04
         0.27000E+04
         0.27000E+04
         0.27000E+04
         0.27000E+04
         0.27000E+04
         0.27000E+04
         0.27000E+04
         0.27000E+04
         0.27000E+04
         0.27000E+04
         0.27000E+04
         0.27000E+04
         0.27000E+04
         0.27000E+04
         0.27000E+04
         0.27000E+04
         0.27000E+04
         0.27000E+04
         0.27000E+04
         0.27000E+04
         0.27000E+04
         0.27000E+04
         0.27000E+04
         0.27000E+04
         0.27000E+04
         0.27000E+04
         0.27000E+04
         0.27000E+04
         0.27000E+04
         0.27000E+04
         0.27000E+04
         0.27000E+04
         0.27000E+04
         0.27000E+04
         0.27000E+04
         0.27000E+04
         0.27000E+04
         0.27000E+04
         0.27000E+04
         0.27000E+04
         0.27000E+04
         0.27000E+04
         0.27000E+04
         0.27000E+04
         0.27000E+04
         0.27000E+04
         0.27000E+04
         0.27000E+04
         0.27000E+04
         0.27000E+04
         0.27000E+04
         0.27000E+04
         0.27000E+04
         0.27000E+04
         0.27000E+04
         0.27000E+04
         0.27000E+04
         0.27000E+04
         0.27000E+04
         0.27000E+04
         0.27000E+04
         0.27000E+04
         0.27000E+04
         0.27000E+04
         0.27000E+04
         0.27000E+04
         0.27000E+04
         0.27000E+04
         0.27000E+04
         0.27000E+04
         0.27000E+04
         0.27000E+04
         0.27000E+04
         0.27000E+04
         0.27000E+04
         0.27000E+04
         0.27000E+04
         0.27000E+04
         0.27000E+04
         0.27000E+04
         0.27000E+04
         0.27000E+04
         0.27000E+04
         0.27000E+04
         0.27000E+04
         0.27000E+04
         0.27000E+04
         0.27000E+04
         0.27000E+04
         0.27000E+04
         0.27000E+04
         0.27000E+04
         0.27000E+04
         0.27000E+04
         0.27000E+04
         0.27000E+04
         0.27000E+04
         0.27000E+04
         0.27000E+04
         0.27000E+04
         0.27000E+04
         0.27000E+04
         0.27000E+04
         0.27000E+04
         0.27000E+04
         0.27000E+04
         0.27000E+04
         0.27000E+04
         0.27000E+04
         0.27000E+04
         0.27000E+04
         0.27000E+04
         0.27000E+04
         0.27000E+04
         0.27000E+04
         0.27000E+04
         0.27000E+04
         0.27000E+04
         0.27000E+04
         0.27000E+04
         0.27000E+04
         0.27000E+04
         0.27000E+04
         0.27000E+04
         0.27000E+04
         0.27000E+04
         0.27000E+04
         0.27000E+04
         0.27000E+04
         0.27000E+04
         0.27000E+04
         0.27000E+04
         0.27000E+04
         0.27000E+04
         0.27000E+04
         0.27000E+04
         0.27000E+04
         0.27000E+04
         0.27000E+04
         0.27000E+04
         0.27000E+04
         0.27000E+04
         0.27000E+04
         0.27000E+04
         0.27000E+04
         0.27000E+04
         0.27000E+04
         0.27000E+04
         0.27000E+04
         0.27000E+04
         0.27000E+04
         0.27000E+04
         0.27000E+04
         0.27000E+04
         0.27000E+04
         0.27000E+04
         0.27000E+04
         0.27000E+04
         0.27000E+04
         0.27000E+04
         0.27000E+04
         0.27000E+04
         0.27000E+04
         0.27000E+04
         0.27000E+04
         0.27000E+04
         0.27000E+04
         0.27000E+04
         0.27000E+04
         0.27000E+04
         0.27000E+04
         0.27000E+04
         0.27000E+04
         0.27000E+04
         0.27000E+04
         0.27000E+04
         0.27000E+04
         0.27000E+04
         0.27000E+04
         0.27000E+04
         0.27000E+04
         0.27000E+04
         0.27000E+04
         0.27000E+04
         0.27000E+04
         0.27000E+04
         0.27000E+04
         0.27000E+04
         0.27000E+04
         0.27000E+04
         0.27000E+04
         0.27000E+04
         0.27000E+04
         0.27000E+04
         0.27000E+04
         0.27000E+04
         0.27000E+04
         0.27000E+04
         0.27000E+04
         0.27000E+04
         0.27000E+04
         0.27000E+04
         0.27000E+04
         0.27000E+04
         0.27000E+04
         0.27000E+04
         0.27000E+04
         0.27000E+04
         0.27000E+04
         0.27000E+04
         0.27000E+04
         0.27000E+04
         0.27000E+04
         0.27000E+04
         0.27000E+04
         0.27000E+04
         0.27000E+04
         0.27000E+04
         0.27000E+04
         0.27000E+04
         0.27000E+04
         0.27000E+04
         0.27000E+04
         0.27000E+04
         0.27000E+04
         0.27000E+04
         0.27000E+04
         0.27000E+04
         0.27000E+04
         0.27000E+04
         0.27000E+04
         0.27000E+04
         0.27000E+04
         0.27000E+04
         0.27000E+04
         0.27000E+04
         0.27000E+04
         0.27000E+04
         0.27000E+04
         0.27000E+04
         0.27000E+04
         0.27000E+04
         0.27000E+04
         0.27000E+04
         0.27000E+04
         0.27000E+04
         0.27000E+04
         0.27000E+04
         0.27000E+04
         0.27000E+04
         0.27000E+04
         0.27000E+04
         0.27000E+04
         0.27000E+04
         0.27000E+04
         0.27000E+04
         0.27000E+04
         0.27000E+04
         0.27000E+04
         0.27000E+04
         0.27000E+04
         0.27000E+04
         0.27000E+04
         0.27000E+04
         0.27000E+04
         0.27000E+04
         0.27000E+04
         0.27000E+04
         0.27000E+04
         0.27000E+04
         0.27000E+04
         0.27000E+04
         0.27000E+04
         0.27000E+04
         0.27000E+04
         0.27000E+04
         0.27000E+04
         0.27000E+04
         0.27000E+04
         0.27000E+04
         0.27000E+04
