# vtk DataFile Version 2.0
               (MEGA VTK FILE)
ASCII
DATASET UNSTRUCTURED_GRID
POINTS       1950    double
  0.10378E-02  0.67292E-03 -0.16625E-01
  0.17452E-02  0.12308E-02 -0.16615E-01
  0.23177E-02  0.59151E-03 -0.16614E-01
  0.16698E-02 -0.33775E-03 -0.16631E-01
  0.10379E-02  0.67237E-03 -0.11750E-01
  0.17453E-02  0.12301E-02 -0.11750E-01
  0.23178E-02  0.59098E-03 -0.11750E-01
  0.16700E-02 -0.33851E-03 -0.11750E-01
  0.30377E-02  0.14882E-03 -0.16597E-01
  0.27791E-02 -0.67643E-03 -0.16617E-01
  0.30377E-02  0.14846E-03 -0.11750E-01
  0.27788E-02 -0.67692E-03 -0.11750E-01
  0.12850E-02  0.18412E-02 -0.16605E-01
  0.65139E-03  0.14576E-02 -0.16618E-01
  0.12851E-02  0.18410E-02 -0.11750E-01
  0.65164E-03  0.14566E-02 -0.11750E-01
  0.12757E-03  0.29933E-03 -0.16625E-01
 -0.12822E-03  0.11672E-02 -0.16628E-01
  0.12783E-03  0.29819E-03 -0.11750E-01
 -0.12804E-03  0.11655E-02 -0.11750E-01
  0.94500E-03  0.22748E-02 -0.16598E-01
  0.11327E-02  0.28286E-02 -0.16590E-01
  0.17490E-02  0.24238E-02 -0.16594E-01
  0.94533E-03  0.22746E-02 -0.11750E-01
  0.11330E-02  0.28291E-02 -0.11750E-01
  0.17494E-02  0.24236E-02 -0.11750E-01
  0.40588E-03  0.21685E-02 -0.16615E-01
  0.39779E-03  0.29366E-02 -0.16609E-01
  0.40594E-03  0.21684E-02 -0.11750E-01
  0.39781E-03  0.29369E-02 -0.11750E-01
 -0.76303E-03 -0.10033E-02 -0.16633E-01
 -0.86604E-03  0.78969E-04 -0.16637E-01
  0.46119E-03 -0.70318E-03 -0.16630E-01
 -0.76268E-03 -0.10032E-02 -0.11750E-01
 -0.86593E-03  0.78160E-04 -0.11750E-01
  0.46164E-03 -0.70391E-03 -0.11750E-01
 -0.18300E-02 -0.71196E-03 -0.16614E-01
 -0.18440E-02  0.82749E-04 -0.16633E-01
 -0.18297E-02 -0.71210E-03 -0.11750E-01
 -0.18441E-02  0.82626E-04 -0.11750E-01
 -0.27238E-02 -0.77865E-03 -0.16609E-01
 -0.28028E-02  0.40713E-04 -0.16625E-01
 -0.27238E-02 -0.77882E-03 -0.11750E-01
 -0.28031E-02  0.40439E-04 -0.11750E-01
 -0.25365E-02 -0.15195E-02 -0.16594E-01
 -0.19287E-02 -0.13230E-02 -0.16602E-01
 -0.25363E-02 -0.15195E-02 -0.11750E-01
 -0.19283E-02 -0.13231E-02 -0.11750E-01
 -0.99363E-03  0.98847E-03 -0.16639E-01
 -0.99377E-03  0.98712E-03 -0.11750E-01
 -0.14380E-02 -0.17325E-02 -0.16612E-01
 -0.14377E-02 -0.17325E-02 -0.11750E-01
 -0.31574E-03  0.20220E-02 -0.16632E-01
 -0.31594E-03  0.20217E-02 -0.11750E-01
 -0.11068E-02  0.18615E-02 -0.16638E-01
 -0.11071E-02  0.18616E-02 -0.11750E-01
 -0.18845E-02  0.17175E-02 -0.16622E-01
 -0.18713E-02  0.90940E-03 -0.16634E-01
 -0.18846E-02  0.17175E-02 -0.11750E-01
 -0.18714E-02  0.90916E-03 -0.11750E-01
 -0.15871E-03 -0.19800E-02 -0.16629E-01
 -0.94089E-03 -0.23489E-02 -0.16612E-01
 -0.15844E-03 -0.19800E-02 -0.11750E-01
 -0.94029E-03 -0.23489E-02 -0.11750E-01
  0.78856E-03 -0.17074E-02 -0.16628E-01
  0.78922E-03 -0.17074E-02 -0.11750E-01
  0.17211E-02 -0.14894E-02 -0.16621E-01
  0.17211E-02 -0.14892E-02 -0.11750E-01
  0.32050E-02  0.76036E-03 -0.16570E-01
  0.28046E-02  0.12477E-02 -0.16591E-01
  0.32047E-02  0.75936E-03 -0.11750E-01
  0.28047E-02  0.12473E-02 -0.11750E-01
  0.23059E-02  0.18665E-02 -0.16598E-01
  0.23060E-02  0.18664E-02 -0.11750E-01
 -0.40614E-03  0.29038E-02 -0.16620E-01
 -0.40627E-03  0.29049E-02 -0.11750E-01
 -0.12092E-02  0.27207E-02 -0.16618E-01
 -0.12092E-02  0.27212E-02 -0.11750E-01
 -0.19448E-02  0.24642E-02 -0.16599E-01
 -0.19448E-02  0.24645E-02 -0.11750E-01
 -0.25029E-02  0.22359E-02 -0.16577E-01
 -0.26371E-02  0.16503E-02 -0.16604E-01
 -0.25029E-02  0.22359E-02 -0.11750E-01
 -0.26372E-02  0.16503E-02 -0.11750E-01
 -0.27671E-02  0.87493E-03 -0.16627E-01
 -0.27674E-02  0.87466E-03 -0.11750E-01
 -0.21123E-02 -0.21373E-02 -0.16596E-01
 -0.21122E-02 -0.21373E-02 -0.11750E-01
 -0.16087E-02 -0.26931E-02 -0.16588E-01
 -0.16087E-02 -0.26931E-02 -0.11750E-01
 -0.11939E-02 -0.31291E-02 -0.16568E-01
 -0.58641E-03 -0.30382E-02 -0.16595E-01
 -0.11937E-02 -0.31291E-02 -0.11750E-01
 -0.58606E-03 -0.30382E-02 -0.11750E-01
  0.20912E-03 -0.28748E-02 -0.16614E-01
  0.20952E-03 -0.28748E-02 -0.11750E-01
  0.10586E-02 -0.26423E-02 -0.16611E-01
  0.10589E-02 -0.26420E-02 -0.11750E-01
  0.18413E-02 -0.23707E-02 -0.16596E-01
  0.18413E-02 -0.23705E-02 -0.11750E-01
  0.24544E-02 -0.21445E-02 -0.16575E-01
  0.26022E-02 -0.15105E-02 -0.16600E-01
  0.24543E-02 -0.21439E-02 -0.11750E-01
  0.26021E-02 -0.15106E-02 -0.11750E-01
  0.37964E-02  0.93572E-03 -0.16515E-01
  0.39100E-02  0.00000E+00 -0.16524E-01
  0.37964E-02  0.93572E-03 -0.11750E-01
  0.39100E-02  0.00000E+00 -0.11750E-01
  0.34621E-02  0.18171E-02 -0.16523E-01
  0.34621E-02  0.18171E-02 -0.11750E-01
  0.29267E-02  0.25928E-02 -0.16516E-01
  0.29267E-02  0.25928E-02 -0.11750E-01
  0.22211E-02  0.32179E-02 -0.16517E-01
  0.22211E-02  0.32179E-02 -0.11750E-01
  0.13865E-02  0.36559E-02 -0.16516E-01
  0.13865E-02  0.36559E-02 -0.11750E-01
  0.47130E-03  0.38815E-02 -0.16521E-01
  0.47130E-03  0.38815E-02 -0.11750E-01
 -0.47130E-03  0.38815E-02 -0.16524E-01
 -0.47130E-03  0.38815E-02 -0.11750E-01
 -0.13865E-02  0.36559E-02 -0.16522E-01
 -0.13865E-02  0.36559E-02 -0.11750E-01
 -0.22211E-02  0.32179E-02 -0.16521E-01
 -0.22211E-02  0.32179E-02 -0.11750E-01
 -0.29267E-02  0.25928E-02 -0.16513E-01
 -0.29267E-02  0.25928E-02 -0.11750E-01
 -0.34621E-02  0.18171E-02 -0.16524E-01
 -0.34621E-02  0.18171E-02 -0.11750E-01
 -0.37964E-02  0.93572E-03 -0.16527E-01
 -0.37964E-02  0.93572E-03 -0.11750E-01
 -0.39100E-02  0.22152E-17 -0.16526E-01
 -0.39100E-02 -0.47884E-18 -0.11750E-01
 -0.37964E-02 -0.93572E-03 -0.16522E-01
 -0.37964E-02 -0.93572E-03 -0.11750E-01
 -0.34621E-02 -0.18171E-02 -0.16518E-01
 -0.34621E-02 -0.18171E-02 -0.11750E-01
 -0.29267E-02 -0.25928E-02 -0.16516E-01
 -0.29267E-02 -0.25928E-02 -0.11750E-01
 -0.22211E-02 -0.32179E-02 -0.16522E-01
 -0.22211E-02 -0.32179E-02 -0.11750E-01
 -0.13865E-02 -0.36559E-02 -0.16516E-01
 -0.13865E-02 -0.36559E-02 -0.11750E-01
 -0.47130E-03 -0.38815E-02 -0.16526E-01
 -0.47130E-03 -0.38815E-02 -0.11750E-01
  0.47130E-03 -0.38815E-02 -0.16522E-01
  0.47130E-03 -0.38815E-02 -0.11750E-01
  0.13865E-02 -0.36559E-02 -0.16519E-01
  0.13865E-02 -0.36559E-02 -0.11750E-01
  0.22211E-02 -0.32179E-02 -0.16525E-01
  0.22211E-02 -0.32179E-02 -0.11750E-01
  0.29267E-02 -0.25928E-02 -0.16517E-01
  0.29267E-02 -0.25928E-02 -0.11750E-01
  0.34621E-02 -0.18171E-02 -0.16525E-01
  0.34621E-02 -0.18171E-02 -0.11750E-01
  0.37964E-02 -0.93572E-03 -0.16525E-01
  0.37964E-02 -0.93572E-03 -0.11750E-01
  0.10376E-02  0.67348E-03 -0.18043E-01
  0.17450E-02  0.12314E-02 -0.18041E-01
  0.23175E-02  0.59203E-03 -0.18041E-01
  0.16696E-02 -0.33700E-03 -0.18043E-01
  0.30377E-02  0.14918E-03 -0.18038E-01
  0.27795E-02 -0.67594E-03 -0.18041E-01
  0.12849E-02  0.18414E-02 -0.18039E-01
  0.65115E-03  0.14586E-02 -0.18041E-01
  0.12731E-03  0.30048E-03 -0.18043E-01
 -0.12841E-03  0.11690E-02 -0.18043E-01
  0.94467E-03  0.22749E-02 -0.18039E-01
  0.11323E-02  0.28282E-02 -0.18037E-01
  0.17487E-02  0.24239E-02 -0.18038E-01
  0.40583E-03  0.21685E-02 -0.18041E-01
  0.39777E-03  0.29364E-02 -0.18040E-01
 -0.76338E-03 -0.10035E-02 -0.18043E-01
 -0.86615E-03  0.79778E-04 -0.18045E-01
  0.46074E-03 -0.70245E-03 -0.18043E-01
 -0.18303E-02 -0.71182E-03 -0.18041E-01
 -0.18439E-02  0.82873E-04 -0.18044E-01
 -0.27238E-02 -0.77848E-03 -0.18040E-01
 -0.28025E-02  0.40986E-04 -0.18043E-01
 -0.25366E-02 -0.15194E-02 -0.18038E-01
 -0.19292E-02 -0.13228E-02 -0.18039E-01
 -0.99349E-03  0.98983E-03 -0.18045E-01
 -0.14384E-02 -0.17324E-02 -0.18040E-01
 -0.31554E-03  0.20223E-02 -0.18044E-01
 -0.11064E-02  0.18614E-02 -0.18044E-01
 -0.18845E-02  0.17175E-02 -0.18042E-01
 -0.18712E-02  0.90964E-03 -0.18044E-01
 -0.15899E-03 -0.19800E-02 -0.18043E-01
 -0.94149E-03 -0.23489E-02 -0.18040E-01
  0.78790E-03 -0.17074E-02 -0.18043E-01
  0.17210E-02 -0.14896E-02 -0.18042E-01
  0.32053E-02  0.76137E-03 -0.18035E-01
  0.28046E-02  0.12481E-02 -0.18037E-01
  0.23058E-02  0.18665E-02 -0.18038E-01
 -0.40600E-03  0.29027E-02 -0.18042E-01
 -0.12092E-02  0.27202E-02 -0.18042E-01
 -0.19447E-02  0.24640E-02 -0.18038E-01
 -0.25028E-02  0.22359E-02 -0.18035E-01
 -0.26370E-02  0.16503E-02 -0.18039E-01
 -0.27668E-02  0.87519E-03 -0.18043E-01
 -0.21125E-02 -0.21373E-02 -0.18038E-01
 -0.16088E-02 -0.26932E-02 -0.18037E-01
 -0.11940E-02 -0.31291E-02 -0.18034E-01
 -0.58676E-03 -0.30382E-02 -0.18038E-01
  0.20871E-03 -0.28748E-02 -0.18041E-01
  0.10583E-02 -0.26426E-02 -0.18040E-01
  0.18413E-02 -0.23709E-02 -0.18038E-01
  0.24545E-02 -0.21450E-02 -0.18035E-01
  0.26022E-02 -0.15104E-02 -0.18039E-01
  0.37964E-02  0.93572E-03 -0.18029E-01
  0.39100E-02  0.00000E+00 -0.18030E-01
  0.34621E-02  0.18171E-02 -0.18030E-01
  0.29267E-02  0.25928E-02 -0.18029E-01
  0.22211E-02  0.32179E-02 -0.18029E-01
  0.13865E-02  0.36559E-02 -0.18029E-01
  0.47130E-03  0.38815E-02 -0.18030E-01
 -0.47130E-03  0.38815E-02 -0.18030E-01
 -0.13865E-02  0.36559E-02 -0.18030E-01
 -0.22211E-02  0.32179E-02 -0.18029E-01
 -0.29267E-02  0.25928E-02 -0.18028E-01
 -0.34621E-02  0.18171E-02 -0.18030E-01
 -0.37964E-02  0.93572E-03 -0.18031E-01
 -0.39100E-02 -0.47884E-18 -0.18031E-01
 -0.37964E-02 -0.93572E-03 -0.18030E-01
 -0.34621E-02 -0.18171E-02 -0.18029E-01
 -0.29267E-02 -0.25928E-02 -0.18029E-01
 -0.22211E-02 -0.32179E-02 -0.18030E-01
 -0.13865E-02 -0.36559E-02 -0.18029E-01
 -0.47130E-03 -0.38815E-02 -0.18031E-01
  0.47130E-03 -0.38815E-02 -0.18030E-01
  0.13865E-02 -0.36559E-02 -0.18030E-01
  0.22211E-02 -0.32179E-02 -0.18030E-01
  0.29267E-02 -0.25928E-02 -0.18029E-01
  0.34621E-02 -0.18171E-02 -0.18030E-01
  0.37964E-02 -0.93572E-03 -0.18031E-01
  0.10375E-02  0.67403E-03 -0.17260E-01
  0.17448E-02  0.12321E-02 -0.17260E-01
  0.23174E-02  0.59255E-03 -0.17260E-01
  0.16694E-02 -0.33624E-03 -0.17260E-01
  0.30377E-02  0.14955E-03 -0.17260E-01
  0.27798E-02 -0.67544E-03 -0.17260E-01
  0.12848E-02  0.18415E-02 -0.17260E-01
  0.65090E-03  0.14596E-02 -0.17260E-01
  0.12705E-03  0.30163E-03 -0.17260E-01
 -0.12859E-03  0.11707E-02 -0.17260E-01
  0.94434E-03  0.22750E-02 -0.17260E-01
  0.11320E-02  0.28277E-02 -0.17260E-01
  0.17483E-02  0.24241E-02 -0.17260E-01
  0.40577E-03  0.21685E-02 -0.17260E-01
  0.39776E-03  0.29361E-02 -0.17260E-01
 -0.76374E-03 -0.10036E-02 -0.17260E-01
 -0.86626E-03  0.80588E-04 -0.17260E-01
  0.46029E-03 -0.70173E-03 -0.17260E-01
 -0.18306E-02 -0.71168E-03 -0.17260E-01
 -0.18438E-02  0.82996E-04 -0.17260E-01
 -0.27238E-02 -0.77831E-03 -0.17260E-01
 -0.28022E-02  0.41259E-04 -0.17260E-01
 -0.25368E-02 -0.15194E-02 -0.17260E-01
 -0.19296E-02 -0.13227E-02 -0.17260E-01
 -0.99334E-03  0.99119E-03 -0.17260E-01
 -0.14387E-02 -0.17324E-02 -0.17260E-01
 -0.31534E-03  0.20226E-02 -0.17260E-01
 -0.11061E-02  0.18613E-02 -0.17260E-01
 -0.18844E-02  0.17175E-02 -0.17260E-01
 -0.18710E-02  0.90988E-03 -0.17260E-01
 -0.15926E-03 -0.19801E-02 -0.17260E-01
 -0.94209E-03 -0.23490E-02 -0.17260E-01
  0.78724E-03 -0.17074E-02 -0.17260E-01
  0.17210E-02 -0.14899E-02 -0.17260E-01
  0.32056E-02  0.76237E-03 -0.17260E-01
  0.28046E-02  0.12485E-02 -0.17260E-01
  0.23057E-02  0.18666E-02 -0.17260E-01
 -0.40586E-03  0.29017E-02 -0.17260E-01
 -0.12092E-02  0.27198E-02 -0.17260E-01
 -0.19447E-02  0.24638E-02 -0.17260E-01
 -0.25028E-02  0.22359E-02 -0.17260E-01
 -0.26369E-02  0.16503E-02 -0.17260E-01
 -0.27665E-02  0.87545E-03 -0.17260E-01
 -0.21126E-02 -0.21374E-02 -0.17260E-01
 -0.16088E-02 -0.26932E-02 -0.17260E-01
 -0.11941E-02 -0.31291E-02 -0.17260E-01
 -0.58711E-03 -0.30382E-02 -0.17260E-01
  0.20830E-03 -0.28748E-02 -0.17260E-01
  0.10580E-02 -0.26428E-02 -0.17260E-01
  0.18414E-02 -0.23711E-02 -0.17260E-01
  0.24546E-02 -0.21456E-02 -0.17260E-01
  0.26023E-02 -0.15103E-02 -0.17260E-01
  0.37964E-02  0.93572E-03 -0.17260E-01
  0.39100E-02  0.00000E+00 -0.17260E-01
  0.34621E-02  0.18171E-02 -0.17260E-01
  0.29267E-02  0.25928E-02 -0.17260E-01
  0.22211E-02  0.32179E-02 -0.17260E-01
  0.13865E-02  0.36559E-02 -0.17260E-01
  0.47130E-03  0.38815E-02 -0.17260E-01
 -0.47130E-03  0.38815E-02 -0.17260E-01
 -0.13865E-02  0.36559E-02 -0.17260E-01
 -0.22211E-02  0.32179E-02 -0.17260E-01
 -0.29267E-02  0.25928E-02 -0.17260E-01
 -0.34621E-02  0.18171E-02 -0.17260E-01
 -0.37964E-02  0.93572E-03 -0.17260E-01
 -0.39100E-02  0.39516E-17 -0.17260E-01
 -0.37964E-02 -0.93572E-03 -0.17260E-01
 -0.34621E-02 -0.18171E-02 -0.17260E-01
 -0.29267E-02 -0.25928E-02 -0.17260E-01
 -0.22211E-02 -0.32179E-02 -0.17260E-01
 -0.13865E-02 -0.36559E-02 -0.17260E-01
 -0.47130E-03 -0.38815E-02 -0.17260E-01
  0.47130E-03 -0.38815E-02 -0.17260E-01
  0.13865E-02 -0.36559E-02 -0.17260E-01
  0.22211E-02 -0.32179E-02 -0.17260E-01
  0.29267E-02 -0.25928E-02 -0.17260E-01
  0.34621E-02 -0.18171E-02 -0.17260E-01
  0.37964E-02 -0.93572E-03 -0.17260E-01
  0.10374E-02  0.67459E-03 -0.16281E-01
  0.17446E-02  0.12328E-02 -0.16281E-01
  0.23173E-02  0.59308E-03 -0.16281E-01
  0.16692E-02 -0.33549E-03 -0.16281E-01
  0.30376E-02  0.14991E-03 -0.16281E-01
  0.27801E-02 -0.67495E-03 -0.16281E-01
  0.12847E-02  0.18417E-02 -0.16281E-01
  0.65065E-03  0.14606E-02 -0.16281E-01
  0.12678E-03  0.30278E-03 -0.16281E-01
 -0.12878E-03  0.11725E-02 -0.16281E-01
  0.94401E-03  0.22752E-02 -0.16281E-01
  0.11316E-02  0.28273E-02 -0.16281E-01
  0.17479E-02  0.24242E-02 -0.16281E-01
  0.40572E-03  0.21686E-02 -0.16281E-01
  0.39774E-03  0.29359E-02 -0.16281E-01
 -0.76409E-03 -0.10038E-02 -0.16281E-01
 -0.86637E-03  0.81397E-04 -0.16281E-01
  0.45985E-03 -0.70100E-03 -0.16281E-01
 -0.18309E-02 -0.71154E-03 -0.16281E-01
 -0.18437E-02  0.83120E-04 -0.16281E-01
 -0.27237E-02 -0.77814E-03 -0.16281E-01
 -0.28020E-02  0.41533E-04 -0.16281E-01
 -0.25369E-02 -0.15193E-02 -0.16281E-01
 -0.19300E-02 -0.13227E-02 -0.16281E-01
 -0.99320E-03  0.99254E-03 -0.16281E-01
 -0.14391E-02 -0.17324E-02 -0.16281E-01
 -0.31514E-03  0.20228E-02 -0.16281E-01
 -0.11057E-02  0.18611E-02 -0.16281E-01
 -0.18844E-02  0.17175E-02 -0.16281E-01
 -0.18709E-02  0.91012E-03 -0.16281E-01
 -0.15954E-03 -0.19801E-02 -0.16281E-01
 -0.94269E-03 -0.23490E-02 -0.16281E-01
  0.78658E-03 -0.17074E-02 -0.16281E-01
  0.17209E-02 -0.14901E-02 -0.16281E-01
  0.32060E-02  0.76338E-03 -0.16281E-01
  0.28046E-02  0.12490E-02 -0.16281E-01
  0.23056E-02  0.18666E-02 -0.16281E-01
 -0.40572E-03  0.29006E-02 -0.16281E-01
 -0.12092E-02  0.27193E-02 -0.16281E-01
 -0.19446E-02  0.24636E-02 -0.16281E-01
 -0.25028E-02  0.22359E-02 -0.16281E-01
 -0.26368E-02  0.16503E-02 -0.16281E-01
 -0.27662E-02  0.87571E-03 -0.16281E-01
 -0.21128E-02 -0.21374E-02 -0.16281E-01
 -0.16088E-02 -0.26932E-02 -0.16281E-01
 -0.11942E-02 -0.31291E-02 -0.16281E-01
 -0.58746E-03 -0.30382E-02 -0.16281E-01
  0.20790E-03 -0.28748E-02 -0.16281E-01
  0.10577E-02 -0.26431E-02 -0.16281E-01
  0.18414E-02 -0.23713E-02 -0.16281E-01
  0.24548E-02 -0.21461E-02 -0.16281E-01
  0.26024E-02 -0.15102E-02 -0.16281E-01
  0.37964E-02  0.93572E-03 -0.16281E-01
  0.39100E-02  0.00000E+00 -0.16281E-01
  0.34621E-02  0.18171E-02 -0.16281E-01
  0.29267E-02  0.25928E-02 -0.16281E-01
  0.22211E-02  0.32179E-02 -0.16281E-01
  0.13865E-02  0.36559E-02 -0.16281E-01
  0.47130E-03  0.38815E-02 -0.16281E-01
 -0.47130E-03  0.38815E-02 -0.16281E-01
 -0.13865E-02  0.36559E-02 -0.16281E-01
 -0.22211E-02  0.32179E-02 -0.16281E-01
 -0.29267E-02  0.25928E-02 -0.16281E-01
 -0.34621E-02  0.18171E-02 -0.16281E-01
 -0.37964E-02  0.93572E-03 -0.16281E-01
 -0.39100E-02 -0.47884E-18 -0.16281E-01
 -0.37964E-02 -0.93572E-03 -0.16281E-01
 -0.34621E-02 -0.18171E-02 -0.16281E-01
 -0.29267E-02 -0.25928E-02 -0.16281E-01
 -0.22211E-02 -0.32179E-02 -0.16281E-01
 -0.13865E-02 -0.36559E-02 -0.16281E-01
 -0.47130E-03 -0.38815E-02 -0.16281E-01
  0.47130E-03 -0.38815E-02 -0.16281E-01
  0.13865E-02 -0.36559E-02 -0.16281E-01
  0.22211E-02 -0.32179E-02 -0.16281E-01
  0.29267E-02 -0.25928E-02 -0.16281E-01
  0.34621E-02 -0.18171E-02 -0.16281E-01
  0.37964E-02 -0.93572E-03 -0.16281E-01
  0.10373E-02  0.67514E-03 -0.15301E-01
  0.17445E-02  0.12334E-02 -0.15301E-01
  0.23172E-02  0.59360E-03 -0.15301E-01
  0.16689E-02 -0.33474E-03 -0.15301E-01
  0.30376E-02  0.15027E-03 -0.15301E-01
  0.27805E-02 -0.67446E-03 -0.15301E-01
  0.12846E-02  0.18419E-02 -0.15301E-01
  0.65041E-03  0.14616E-02 -0.15301E-01
  0.12652E-03  0.30393E-03 -0.15301E-01
 -0.12896E-03  0.11742E-02 -0.15301E-01
  0.94367E-03  0.22753E-02 -0.15301E-01
  0.11313E-02  0.28269E-02 -0.15301E-01
  0.17475E-02  0.24244E-02 -0.15301E-01
  0.40566E-03  0.21686E-02 -0.15301E-01
  0.39772E-03  0.29356E-02 -0.15301E-01
 -0.76444E-03 -0.10039E-02 -0.15301E-01
 -0.86648E-03  0.82206E-04 -0.15301E-01
  0.45940E-03 -0.70028E-03 -0.15301E-01
 -0.18312E-02 -0.71140E-03 -0.15301E-01
 -0.18436E-02  0.83243E-04 -0.15301E-01
 -0.27237E-02 -0.77797E-03 -0.15301E-01
 -0.28017E-02  0.41806E-04 -0.15301E-01
 -0.25371E-02 -0.15193E-02 -0.15301E-01
 -0.19305E-02 -0.13226E-02 -0.15301E-01
 -0.99305E-03  0.99390E-03 -0.15301E-01
 -0.14394E-02 -0.17323E-02 -0.15301E-01
 -0.31494E-03  0.20231E-02 -0.15301E-01
 -0.11054E-02  0.18610E-02 -0.15301E-01
 -0.18843E-02  0.17175E-02 -0.15301E-01
 -0.18708E-02  0.91036E-03 -0.15301E-01
 -0.15981E-03 -0.19801E-02 -0.15301E-01
 -0.94328E-03 -0.23490E-02 -0.15301E-01
  0.78592E-03 -0.17074E-02 -0.15301E-01
  0.17209E-02 -0.14904E-02 -0.15301E-01
  0.32063E-02  0.76439E-03 -0.15301E-01
  0.28045E-02  0.12494E-02 -0.15301E-01
  0.23055E-02  0.18666E-02 -0.15301E-01
 -0.40558E-03  0.28995E-02 -0.15301E-01
 -0.12092E-02  0.27188E-02 -0.15301E-01
 -0.19446E-02  0.24633E-02 -0.15301E-01
 -0.25027E-02  0.22359E-02 -0.15301E-01
 -0.26367E-02  0.16503E-02 -0.15301E-01
 -0.27658E-02  0.87597E-03 -0.15301E-01
 -0.21129E-02 -0.21374E-02 -0.15301E-01
 -0.16089E-02 -0.26932E-02 -0.15301E-01
 -0.11943E-02 -0.31291E-02 -0.15301E-01
 -0.58781E-03 -0.30382E-02 -0.15301E-01
  0.20749E-03 -0.28748E-02 -0.15301E-01
  0.10574E-02 -0.26434E-02 -0.15301E-01
  0.18415E-02 -0.23715E-02 -0.15301E-01
  0.24549E-02 -0.21467E-02 -0.15301E-01
  0.26025E-02 -0.15101E-02 -0.15301E-01
  0.37964E-02  0.93572E-03 -0.15301E-01
  0.39100E-02  0.00000E+00 -0.15301E-01
  0.34621E-02  0.18171E-02 -0.15301E-01
  0.29267E-02  0.25928E-02 -0.15301E-01
  0.22211E-02  0.32179E-02 -0.15301E-01
  0.13865E-02  0.36559E-02 -0.15301E-01
  0.47130E-03  0.38815E-02 -0.15301E-01
 -0.47130E-03  0.38815E-02 -0.15301E-01
 -0.13865E-02  0.36559E-02 -0.15301E-01
 -0.22211E-02  0.32179E-02 -0.15301E-01
 -0.29267E-02  0.25928E-02 -0.15301E-01
 -0.34621E-02  0.18171E-02 -0.15301E-01
 -0.37964E-02  0.93572E-03 -0.15301E-01
 -0.39100E-02 -0.47884E-18 -0.15301E-01
 -0.37964E-02 -0.93572E-03 -0.15301E-01
 -0.34621E-02 -0.18171E-02 -0.15301E-01
 -0.29267E-02 -0.25928E-02 -0.15301E-01
 -0.22211E-02 -0.32179E-02 -0.15301E-01
 -0.13865E-02 -0.36559E-02 -0.15301E-01
 -0.47130E-03 -0.38815E-02 -0.15301E-01
  0.47130E-03 -0.38815E-02 -0.15301E-01
  0.13865E-02 -0.36559E-02 -0.15301E-01
  0.22211E-02 -0.32179E-02 -0.15301E-01
  0.29267E-02 -0.25928E-02 -0.15301E-01
  0.34621E-02 -0.18171E-02 -0.15301E-01
  0.37964E-02 -0.93572E-03 -0.15301E-01
  0.10372E-02  0.67570E-03 -0.14322E-01
  0.17443E-02  0.12341E-02 -0.14322E-01
  0.23171E-02  0.59412E-03 -0.14322E-01
  0.16687E-02 -0.33398E-03 -0.14322E-01
  0.30376E-02  0.15064E-03 -0.14322E-01
  0.27808E-02 -0.67396E-03 -0.14322E-01
  0.12845E-02  0.18421E-02 -0.14322E-01
  0.65016E-03  0.14626E-02 -0.14322E-01
  0.12626E-03  0.30507E-03 -0.14322E-01
 -0.12915E-03  0.11760E-02 -0.14322E-01
  0.94334E-03  0.22754E-02 -0.14322E-01
  0.11310E-02  0.28264E-02 -0.14322E-01
  0.17471E-02  0.24245E-02 -0.14322E-01
  0.40561E-03  0.21686E-02 -0.14322E-01
  0.39770E-03  0.29353E-02 -0.14322E-01
 -0.76480E-03 -0.10040E-02 -0.14322E-01
 -0.86659E-03  0.83015E-04 -0.14322E-01
  0.45895E-03 -0.69955E-03 -0.14322E-01
 -0.18315E-02 -0.71126E-03 -0.14322E-01
 -0.18435E-02  0.83367E-04 -0.14322E-01
 -0.27237E-02 -0.77780E-03 -0.14322E-01
 -0.28014E-02  0.42080E-04 -0.14322E-01
 -0.25372E-02 -0.15192E-02 -0.14322E-01
 -0.19309E-02 -0.13224E-02 -0.14322E-01
 -0.99291E-03  0.99526E-03 -0.14322E-01
 -0.14398E-02 -0.17323E-02 -0.14322E-01
 -0.31474E-03  0.20234E-02 -0.14322E-01
 -0.11051E-02  0.18609E-02 -0.14322E-01
 -0.18843E-02  0.17175E-02 -0.14322E-01
 -0.18706E-02  0.91060E-03 -0.14322E-01
 -0.16009E-03 -0.19801E-02 -0.14322E-01
 -0.94388E-03 -0.23490E-02 -0.14322E-01
  0.78526E-03 -0.17074E-02 -0.14322E-01
  0.17208E-02 -0.14906E-02 -0.14322E-01
  0.32066E-02  0.76539E-03 -0.14322E-01
  0.28045E-02  0.12498E-02 -0.14322E-01
  0.23053E-02  0.18667E-02 -0.14322E-01
 -0.40545E-03  0.28984E-02 -0.14322E-01
 -0.12092E-02  0.27184E-02 -0.14322E-01
 -0.19446E-02  0.24631E-02 -0.14322E-01
 -0.25027E-02  0.22359E-02 -0.14322E-01
 -0.26366E-02  0.16503E-02 -0.14322E-01
 -0.27655E-02  0.87623E-03 -0.14322E-01
 -0.21130E-02 -0.21374E-02 -0.14322E-01
 -0.16089E-02 -0.26932E-02 -0.14322E-01
 -0.11944E-02 -0.31291E-02 -0.14322E-01
 -0.58816E-03 -0.30382E-02 -0.14322E-01
  0.20709E-03 -0.28748E-02 -0.14322E-01
  0.10571E-02 -0.26436E-02 -0.14322E-01
  0.18415E-02 -0.23717E-02 -0.14322E-01
  0.24550E-02 -0.21472E-02 -0.14322E-01
  0.26025E-02 -0.15100E-02 -0.14322E-01
  0.37964E-02  0.93572E-03 -0.14322E-01
  0.39100E-02  0.00000E+00 -0.14322E-01
  0.34621E-02  0.18171E-02 -0.14322E-01
  0.29267E-02  0.25928E-02 -0.14322E-01
  0.22211E-02  0.32179E-02 -0.14322E-01
  0.13865E-02  0.36559E-02 -0.14322E-01
  0.47130E-03  0.38815E-02 -0.14322E-01
 -0.47130E-03  0.38815E-02 -0.14322E-01
 -0.13865E-02  0.36559E-02 -0.14322E-01
 -0.22211E-02  0.32179E-02 -0.14322E-01
 -0.29267E-02  0.25928E-02 -0.14322E-01
 -0.34621E-02  0.18171E-02 -0.14322E-01
 -0.37964E-02  0.93572E-03 -0.14322E-01
 -0.39100E-02 -0.47884E-18 -0.14322E-01
 -0.37964E-02 -0.93572E-03 -0.14322E-01
 -0.34621E-02 -0.18171E-02 -0.14322E-01
 -0.29267E-02 -0.25928E-02 -0.14322E-01
 -0.22211E-02 -0.32179E-02 -0.14322E-01
 -0.13865E-02 -0.36559E-02 -0.14322E-01
 -0.47130E-03 -0.38815E-02 -0.14322E-01
  0.47130E-03 -0.38815E-02 -0.14322E-01
  0.13865E-02 -0.36559E-02 -0.14322E-01
  0.22211E-02 -0.32179E-02 -0.14322E-01
  0.29267E-02 -0.25928E-02 -0.14322E-01
  0.34621E-02 -0.18171E-02 -0.14322E-01
  0.37964E-02 -0.93572E-03 -0.14322E-01
  0.10371E-02  0.67625E-03 -0.13343E-01
  0.17441E-02  0.12348E-02 -0.13343E-01
  0.23169E-02  0.59465E-03 -0.13343E-01
  0.16685E-02 -0.33323E-03 -0.13343E-01
  0.30376E-02  0.15100E-03 -0.13343E-01
  0.27812E-02 -0.67347E-03 -0.13343E-01
  0.12844E-02  0.18423E-02 -0.13343E-01
  0.64992E-03  0.14636E-02 -0.13343E-01
  0.12600E-03  0.30622E-03 -0.13343E-01
 -0.12933E-03  0.11777E-02 -0.13343E-01
  0.94301E-03  0.22755E-02 -0.13343E-01
  0.11306E-02  0.28260E-02 -0.13343E-01
  0.17467E-02  0.24247E-02 -0.13343E-01
  0.40556E-03  0.21687E-02 -0.13343E-01
  0.39769E-03  0.29351E-02 -0.13343E-01
 -0.76515E-03 -0.10042E-02 -0.13343E-01
 -0.86670E-03  0.83825E-04 -0.13343E-01
  0.45850E-03 -0.69882E-03 -0.13343E-01
 -0.18318E-02 -0.71112E-03 -0.13343E-01
 -0.18434E-02  0.83490E-04 -0.13343E-01
 -0.27236E-02 -0.77763E-03 -0.13343E-01
 -0.28011E-02  0.42353E-04 -0.13343E-01
 -0.25374E-02 -0.15192E-02 -0.13343E-01
 -0.19313E-02 -0.13223E-02 -0.13343E-01
 -0.99277E-03  0.99661E-03 -0.13343E-01
 -0.14401E-02 -0.17322E-02 -0.13343E-01
 -0.31454E-03  0.20237E-02 -0.13343E-01
 -0.11047E-02  0.18607E-02 -0.13343E-01
 -0.18842E-02  0.17175E-02 -0.13343E-01
 -0.18705E-02  0.91084E-03 -0.13343E-01
 -0.16036E-03 -0.19801E-02 -0.13343E-01
 -0.94448E-03 -0.23491E-02 -0.13343E-01
  0.78460E-03 -0.17074E-02 -0.13343E-01
  0.17208E-02 -0.14909E-02 -0.13343E-01
  0.32070E-02  0.76640E-03 -0.13343E-01
  0.28045E-02  0.12503E-02 -0.13343E-01
  0.23052E-02  0.18667E-02 -0.13343E-01
 -0.40531E-03  0.28974E-02 -0.13343E-01
 -0.12092E-02  0.27179E-02 -0.13343E-01
 -0.19445E-02  0.24629E-02 -0.13343E-01
 -0.25027E-02  0.22359E-02 -0.13343E-01
 -0.26366E-02  0.16503E-02 -0.13343E-01
 -0.27652E-02  0.87650E-03 -0.13343E-01
 -0.21132E-02 -0.21374E-02 -0.13343E-01
 -0.16090E-02 -0.26933E-02 -0.13343E-01
 -0.11946E-02 -0.31291E-02 -0.13343E-01
 -0.58851E-03 -0.30382E-02 -0.13343E-01
  0.20668E-03 -0.28749E-02 -0.13343E-01
  0.10567E-02 -0.26439E-02 -0.13343E-01
  0.18416E-02 -0.23719E-02 -0.13343E-01
  0.24551E-02 -0.21478E-02 -0.13343E-01
  0.26026E-02 -0.15099E-02 -0.13343E-01
  0.37964E-02  0.93572E-03 -0.13343E-01
  0.39100E-02  0.00000E+00 -0.13343E-01
  0.34621E-02  0.18171E-02 -0.13343E-01
  0.29267E-02  0.25928E-02 -0.13343E-01
  0.22211E-02  0.32179E-02 -0.13343E-01
  0.13865E-02  0.36559E-02 -0.13343E-01
  0.47130E-03  0.38815E-02 -0.13343E-01
 -0.47130E-03  0.38815E-02 -0.13343E-01
 -0.13865E-02  0.36559E-02 -0.13343E-01
 -0.22211E-02  0.32179E-02 -0.13343E-01
 -0.29267E-02  0.25928E-02 -0.13343E-01
 -0.34621E-02  0.18171E-02 -0.13343E-01
 -0.37964E-02  0.93572E-03 -0.13343E-01
 -0.39100E-02 -0.47884E-18 -0.13343E-01
 -0.37964E-02 -0.93572E-03 -0.13343E-01
 -0.34621E-02 -0.18171E-02 -0.13343E-01
 -0.29267E-02 -0.25928E-02 -0.13343E-01
 -0.22211E-02 -0.32179E-02 -0.13343E-01
 -0.13865E-02 -0.36559E-02 -0.13343E-01
 -0.47130E-03 -0.38815E-02 -0.13343E-01
  0.47130E-03 -0.38815E-02 -0.13343E-01
  0.13865E-02 -0.36559E-02 -0.13343E-01
  0.22211E-02 -0.32179E-02 -0.13343E-01
  0.29267E-02 -0.25928E-02 -0.13343E-01
  0.34621E-02 -0.18171E-02 -0.13343E-01
  0.37964E-02 -0.93572E-03 -0.13343E-01
  0.10370E-02  0.67680E-03 -0.12364E-01
  0.17439E-02  0.12354E-02 -0.12364E-01
  0.23168E-02  0.59517E-03 -0.12364E-01
  0.16683E-02 -0.33247E-03 -0.12364E-01
  0.30375E-02  0.15136E-03 -0.12364E-01
  0.27815E-02 -0.67298E-03 -0.12364E-01
  0.12843E-02  0.18425E-02 -0.12364E-01
  0.64967E-03  0.14646E-02 -0.12364E-01
  0.12573E-03  0.30737E-03 -0.12364E-01
 -0.12952E-03  0.11795E-02 -0.12364E-01
  0.94268E-03  0.22757E-02 -0.12364E-01
  0.11303E-02  0.28255E-02 -0.12364E-01
  0.17463E-02  0.24248E-02 -0.12364E-01
  0.40550E-03  0.21687E-02 -0.12364E-01
  0.39767E-03  0.29348E-02 -0.12364E-01
 -0.76551E-03 -0.10043E-02 -0.12364E-01
 -0.86680E-03  0.84634E-04 -0.12364E-01
  0.45806E-03 -0.69810E-03 -0.12364E-01
 -0.18321E-02 -0.71098E-03 -0.12364E-01
 -0.18433E-02  0.83614E-04 -0.12364E-01
 -0.27236E-02 -0.77746E-03 -0.12364E-01
 -0.28009E-02  0.42626E-04 -0.12364E-01
 -0.25375E-02 -0.15191E-02 -0.12364E-01
 -0.19317E-02 -0.13223E-02 -0.12364E-01
 -0.99262E-03  0.99797E-03 -0.12364E-01
 -0.14405E-02 -0.17322E-02 -0.12364E-01
 -0.31434E-03  0.20240E-02 -0.12364E-01
 -0.11044E-02  0.18606E-02 -0.12364E-01
 -0.18842E-02  0.17175E-02 -0.12364E-01
 -0.18704E-02  0.91108E-03 -0.12364E-01
 -0.16064E-03 -0.19802E-02 -0.12364E-01
 -0.94508E-03 -0.23491E-02 -0.12364E-01
  0.78394E-03 -0.17074E-02 -0.12364E-01
  0.17208E-02 -0.14911E-02 -0.12364E-01
  0.32073E-02  0.76740E-03 -0.12364E-01
  0.28045E-02  0.12507E-02 -0.12364E-01
  0.23051E-02  0.18668E-02 -0.12364E-01
 -0.40517E-03  0.28963E-02 -0.12364E-01
 -0.12092E-02  0.27174E-02 -0.12364E-01
 -0.19445E-02  0.24627E-02 -0.12364E-01
 -0.25026E-02  0.22358E-02 -0.12364E-01
 -0.26365E-02  0.16503E-02 -0.12364E-01
 -0.27649E-02  0.87676E-03 -0.12364E-01
 -0.21133E-02 -0.21374E-02 -0.12364E-01
 -0.16090E-02 -0.26933E-02 -0.12364E-01
 -0.11947E-02 -0.31291E-02 -0.12364E-01
 -0.58886E-03 -0.30382E-02 -0.12364E-01
  0.20627E-03 -0.28749E-02 -0.12364E-01
  0.10564E-02 -0.26442E-02 -0.12364E-01
  0.18416E-02 -0.23721E-02 -0.12364E-01
  0.24553E-02 -0.21483E-02 -0.12364E-01
  0.26027E-02 -0.15097E-02 -0.12364E-01
  0.37964E-02  0.93572E-03 -0.12364E-01
  0.39100E-02  0.00000E+00 -0.12364E-01
  0.34621E-02  0.18171E-02 -0.12364E-01
  0.29267E-02  0.25928E-02 -0.12364E-01
  0.22211E-02  0.32179E-02 -0.12364E-01
  0.13865E-02  0.36559E-02 -0.12364E-01
  0.47130E-03  0.38815E-02 -0.12364E-01
 -0.47130E-03  0.38815E-02 -0.12364E-01
 -0.13865E-02  0.36559E-02 -0.12364E-01
 -0.22211E-02  0.32179E-02 -0.12364E-01
 -0.29267E-02  0.25928E-02 -0.12364E-01
 -0.34621E-02  0.18171E-02 -0.12364E-01
 -0.37964E-02  0.93572E-03 -0.12364E-01
 -0.39100E-02 -0.47884E-18 -0.12364E-01
 -0.37964E-02 -0.93572E-03 -0.12364E-01
 -0.34621E-02 -0.18171E-02 -0.12364E-01
 -0.29267E-02 -0.25928E-02 -0.12364E-01
 -0.22211E-02 -0.32179E-02 -0.12364E-01
 -0.13865E-02 -0.36559E-02 -0.12364E-01
 -0.47130E-03 -0.38815E-02 -0.12364E-01
  0.47130E-03 -0.38815E-02 -0.12364E-01
  0.13865E-02 -0.36559E-02 -0.12364E-01
  0.22211E-02 -0.32179E-02 -0.12364E-01
  0.29267E-02 -0.25928E-02 -0.12364E-01
  0.34621E-02 -0.18171E-02 -0.12364E-01
  0.37964E-02 -0.93572E-03 -0.12364E-01
  0.10368E-02  0.67736E-03 -0.11385E-01
  0.17438E-02  0.12361E-02 -0.11385E-01
  0.23167E-02  0.59570E-03 -0.11385E-01
  0.16681E-02 -0.33172E-03 -0.11385E-01
  0.30375E-02  0.15173E-03 -0.11385E-01
  0.27819E-02 -0.67248E-03 -0.11385E-01
  0.12842E-02  0.18427E-02 -0.11385E-01
  0.64943E-03  0.14656E-02 -0.11385E-01
  0.12547E-03  0.30852E-03 -0.11385E-01
 -0.12970E-03  0.11812E-02 -0.11385E-01
  0.94235E-03  0.22758E-02 -0.11385E-01
  0.11300E-02  0.28251E-02 -0.11385E-01
  0.17459E-02  0.24249E-02 -0.11385E-01
  0.40545E-03  0.21688E-02 -0.11385E-01
  0.39766E-03  0.29345E-02 -0.11385E-01
 -0.76586E-03 -0.10044E-02 -0.11385E-01
 -0.86691E-03  0.85443E-04 -0.11385E-01
  0.45761E-03 -0.69737E-03 -0.11385E-01
 -0.18324E-02 -0.71084E-03 -0.11385E-01
 -0.18432E-02  0.83737E-04 -0.11385E-01
 -0.27236E-02 -0.77729E-03 -0.11385E-01
 -0.28006E-02  0.42899E-04 -0.11385E-01
 -0.25377E-02 -0.15191E-02 -0.11385E-01
 -0.19322E-02 -0.13222E-02 -0.11385E-01
 -0.99248E-03  0.99932E-03 -0.11385E-01
 -0.14408E-02 -0.17322E-02 -0.11385E-01
 -0.31414E-03  0.20243E-02 -0.11385E-01
 -0.11040E-02  0.18605E-02 -0.11385E-01
 -0.18841E-02  0.17175E-02 -0.11385E-01
 -0.18703E-02  0.91132E-03 -0.11385E-01
 -0.16091E-03 -0.19802E-02 -0.11385E-01
 -0.94568E-03 -0.23491E-02 -0.11385E-01
  0.78328E-03 -0.17074E-02 -0.11385E-01
  0.17207E-02 -0.14914E-02 -0.11385E-01
  0.32076E-02  0.76841E-03 -0.11385E-01
  0.28044E-02  0.12511E-02 -0.11385E-01
  0.23050E-02  0.18668E-02 -0.11385E-01
 -0.40503E-03  0.28952E-02 -0.11385E-01
 -0.12092E-02  0.27170E-02 -0.11385E-01
 -0.19445E-02  0.24624E-02 -0.11385E-01
 -0.25026E-02  0.22358E-02 -0.11385E-01
 -0.26364E-02  0.16503E-02 -0.11385E-01
 -0.27646E-02  0.87702E-03 -0.11385E-01
 -0.21134E-02 -0.21374E-02 -0.11385E-01
 -0.16091E-02 -0.26933E-02 -0.11385E-01
 -0.11948E-02 -0.31291E-02 -0.11385E-01
 -0.58921E-03 -0.30382E-02 -0.11385E-01
  0.20587E-03 -0.28749E-02 -0.11385E-01
  0.10561E-02 -0.26444E-02 -0.11385E-01
  0.18416E-02 -0.23723E-02 -0.11385E-01
  0.24554E-02 -0.21489E-02 -0.11385E-01
  0.26027E-02 -0.15096E-02 -0.11385E-01
  0.37964E-02  0.93572E-03 -0.11385E-01
  0.39100E-02  0.00000E+00 -0.11385E-01
  0.34621E-02  0.18171E-02 -0.11385E-01
  0.29267E-02  0.25928E-02 -0.11385E-01
  0.22211E-02  0.32179E-02 -0.11385E-01
  0.13865E-02  0.36559E-02 -0.11385E-01
  0.47130E-03  0.38815E-02 -0.11385E-01
 -0.47130E-03  0.38815E-02 -0.11385E-01
 -0.13865E-02  0.36559E-02 -0.11385E-01
 -0.22211E-02  0.32179E-02 -0.11385E-01
 -0.29267E-02  0.25928E-02 -0.11385E-01
 -0.34621E-02  0.18171E-02 -0.11385E-01
 -0.37964E-02  0.93572E-03 -0.11385E-01
 -0.39100E-02 -0.47884E-18 -0.11385E-01
 -0.37964E-02 -0.93572E-03 -0.11385E-01
 -0.34621E-02 -0.18171E-02 -0.11385E-01
 -0.29267E-02 -0.25928E-02 -0.11385E-01
 -0.22211E-02 -0.32179E-02 -0.11385E-01
 -0.13865E-02 -0.36559E-02 -0.11385E-01
 -0.47130E-03 -0.38815E-02 -0.11385E-01
  0.47130E-03 -0.38815E-02 -0.11385E-01
  0.13865E-02 -0.36559E-02 -0.11385E-01
  0.22211E-02 -0.32179E-02 -0.11385E-01
  0.29267E-02 -0.25928E-02 -0.11385E-01
  0.34621E-02 -0.18171E-02 -0.11385E-01
  0.37964E-02 -0.93572E-03 -0.11385E-01
  0.10367E-02  0.67791E-03 -0.10406E-01
  0.17436E-02  0.12368E-02 -0.10406E-01
  0.23166E-02  0.59622E-03 -0.10406E-01
  0.16679E-02 -0.33096E-03 -0.10406E-01
  0.30375E-02  0.15209E-03 -0.10406E-01
  0.27822E-02 -0.67199E-03 -0.10406E-01
  0.12841E-02  0.18429E-02 -0.10406E-01
  0.64918E-03  0.14666E-02 -0.10406E-01
  0.12521E-03  0.30967E-03 -0.10406E-01
 -0.12989E-03  0.11830E-02 -0.10406E-01
  0.94202E-03  0.22759E-02 -0.10406E-01
  0.11296E-02  0.28247E-02 -0.10406E-01
  0.17455E-02  0.24251E-02 -0.10406E-01
  0.40539E-03  0.21688E-02 -0.10406E-01
  0.39764E-03  0.29343E-02 -0.10406E-01
 -0.76621E-03 -0.10046E-02 -0.10406E-01
 -0.86702E-03  0.86253E-04 -0.10406E-01
  0.45716E-03 -0.69665E-03 -0.10406E-01
 -0.18326E-02 -0.71070E-03 -0.10406E-01
 -0.18431E-02  0.83861E-04 -0.10406E-01
 -0.27235E-02 -0.77712E-03 -0.10406E-01
 -0.28003E-02  0.43173E-04 -0.10406E-01
 -0.25379E-02 -0.15190E-02 -0.10406E-01
 -0.19326E-02 -0.13220E-02 -0.10406E-01
 -0.99233E-03  0.10007E-02 -0.10406E-01
 -0.14412E-02 -0.17321E-02 -0.10406E-01
 -0.31394E-03  0.20245E-02 -0.10406E-01
 -0.11037E-02  0.18603E-02 -0.10406E-01
 -0.18841E-02  0.17175E-02 -0.10406E-01
 -0.18701E-02  0.91156E-03 -0.10406E-01
 -0.16119E-03 -0.19802E-02 -0.10406E-01
 -0.94628E-03 -0.23491E-02 -0.10406E-01
  0.78262E-03 -0.17074E-02 -0.10406E-01
  0.17207E-02 -0.14916E-02 -0.10406E-01
  0.32079E-02  0.76941E-03 -0.10406E-01
  0.28044E-02  0.12515E-02 -0.10406E-01
  0.23049E-02  0.18668E-02 -0.10406E-01
 -0.40490E-03  0.28942E-02 -0.10406E-01
 -0.12093E-02  0.27165E-02 -0.10406E-01
 -0.19444E-02  0.24622E-02 -0.10406E-01
 -0.25026E-02  0.22358E-02 -0.10406E-01
 -0.26363E-02  0.16503E-02 -0.10406E-01
 -0.27643E-02  0.87728E-03 -0.10406E-01
 -0.21136E-02 -0.21374E-02 -0.10406E-01
 -0.16091E-02 -0.26933E-02 -0.10406E-01
 -0.11949E-02 -0.31291E-02 -0.10406E-01
 -0.58956E-03 -0.30382E-02 -0.10406E-01
  0.20546E-03 -0.28749E-02 -0.10406E-01
  0.10558E-02 -0.26447E-02 -0.10406E-01
  0.18417E-02 -0.23725E-02 -0.10406E-01
  0.24555E-02 -0.21494E-02 -0.10406E-01
  0.26028E-02 -0.15095E-02 -0.10406E-01
  0.37964E-02  0.93572E-03 -0.10406E-01
  0.39100E-02  0.00000E+00 -0.10406E-01
  0.34621E-02  0.18171E-02 -0.10406E-01
  0.29267E-02  0.25928E-02 -0.10406E-01
  0.22211E-02  0.32179E-02 -0.10406E-01
  0.13865E-02  0.36559E-02 -0.10406E-01
  0.47130E-03  0.38815E-02 -0.10406E-01
 -0.47130E-03  0.38815E-02 -0.10406E-01
 -0.13865E-02  0.36559E-02 -0.10406E-01
 -0.22211E-02  0.32179E-02 -0.10406E-01
 -0.29267E-02  0.25928E-02 -0.10406E-01
 -0.34621E-02  0.18171E-02 -0.10406E-01
 -0.37964E-02  0.93572E-03 -0.10406E-01
 -0.39100E-02 -0.47884E-18 -0.10406E-01
 -0.37964E-02 -0.93572E-03 -0.10406E-01
 -0.34621E-02 -0.18171E-02 -0.10406E-01
 -0.29267E-02 -0.25928E-02 -0.10406E-01
 -0.22211E-02 -0.32179E-02 -0.10406E-01
 -0.13865E-02 -0.36559E-02 -0.10406E-01
 -0.47130E-03 -0.38815E-02 -0.10406E-01
  0.47130E-03 -0.38815E-02 -0.10406E-01
  0.13865E-02 -0.36559E-02 -0.10406E-01
  0.22211E-02 -0.32179E-02 -0.10406E-01
  0.29267E-02 -0.25928E-02 -0.10406E-01
  0.34621E-02 -0.18171E-02 -0.10406E-01
  0.37964E-02 -0.93572E-03 -0.10406E-01
  0.10366E-02  0.67847E-03 -0.94265E-02
  0.17434E-02  0.12374E-02 -0.94265E-02
  0.23164E-02  0.59674E-03 -0.94265E-02
  0.16677E-02 -0.33021E-03 -0.94265E-02
  0.30375E-02  0.15245E-03 -0.94265E-02
  0.27825E-02 -0.67150E-03 -0.94265E-02
  0.12840E-02  0.18430E-02 -0.94265E-02
  0.64894E-03  0.14676E-02 -0.94265E-02
  0.12495E-03  0.31081E-03 -0.94265E-02
 -0.13007E-03  0.11847E-02 -0.94265E-02
  0.94169E-03  0.22761E-02 -0.94265E-02
  0.11293E-02  0.28242E-02 -0.94265E-02
  0.17451E-02  0.24252E-02 -0.94265E-02
  0.40534E-03  0.21688E-02 -0.94265E-02
  0.39762E-03  0.29340E-02 -0.94265E-02
 -0.76657E-03 -0.10047E-02 -0.94265E-02
 -0.86713E-03  0.87062E-04 -0.94265E-02
  0.45671E-03 -0.69592E-03 -0.94265E-02
 -0.18329E-02 -0.71056E-03 -0.94265E-02
 -0.18430E-02  0.83985E-04 -0.94265E-02
 -0.27235E-02 -0.77695E-03 -0.94265E-02
 -0.28001E-02  0.43446E-04 -0.94265E-02
 -0.25380E-02 -0.15190E-02 -0.94265E-02
 -0.19330E-02 -0.13219E-02 -0.94265E-02
 -0.99219E-03  0.10020E-02 -0.94265E-02
 -0.14415E-02 -0.17321E-02 -0.94265E-02
 -0.31374E-03  0.20248E-02 -0.94265E-02
 -0.11033E-02  0.18602E-02 -0.94265E-02
 -0.18840E-02  0.17175E-02 -0.94265E-02
 -0.18700E-02  0.91180E-03 -0.94265E-02
 -0.16146E-03 -0.19803E-02 -0.94265E-02
 -0.94687E-03 -0.23491E-02 -0.94265E-02
  0.78195E-03 -0.17073E-02 -0.94265E-02
  0.17207E-02 -0.14919E-02 -0.94265E-02
  0.32083E-02  0.77042E-03 -0.94265E-02
  0.28044E-02  0.12520E-02 -0.94265E-02
  0.23048E-02  0.18669E-02 -0.94265E-02
 -0.40476E-03  0.28931E-02 -0.94265E-02
 -0.12093E-02  0.27160E-02 -0.94265E-02
 -0.19444E-02  0.24620E-02 -0.94265E-02
 -0.25026E-02  0.22358E-02 -0.94265E-02
 -0.26362E-02  0.16503E-02 -0.94265E-02
 -0.27640E-02  0.87754E-03 -0.94265E-02
 -0.21137E-02 -0.21374E-02 -0.94265E-02
 -0.16091E-02 -0.26933E-02 -0.94265E-02
 -0.11950E-02 -0.31291E-02 -0.94265E-02
 -0.58991E-03 -0.30382E-02 -0.94265E-02
  0.20505E-03 -0.28749E-02 -0.94265E-02
  0.10555E-02 -0.26450E-02 -0.94265E-02
  0.18417E-02 -0.23727E-02 -0.94265E-02
  0.24556E-02 -0.21500E-02 -0.94265E-02
  0.26029E-02 -0.15094E-02 -0.94265E-02
  0.37964E-02  0.93572E-03 -0.94265E-02
  0.39100E-02  0.00000E+00 -0.94265E-02
  0.34621E-02  0.18171E-02 -0.94265E-02
  0.29267E-02  0.25928E-02 -0.94265E-02
  0.22211E-02  0.32179E-02 -0.94265E-02
  0.13865E-02  0.36559E-02 -0.94265E-02
  0.47130E-03  0.38815E-02 -0.94265E-02
 -0.47130E-03  0.38815E-02 -0.94265E-02
 -0.13865E-02  0.36559E-02 -0.94265E-02
 -0.22211E-02  0.32179E-02 -0.94265E-02
 -0.29267E-02  0.25928E-02 -0.94265E-02
 -0.34621E-02  0.18171E-02 -0.94265E-02
 -0.37964E-02  0.93572E-03 -0.94265E-02
 -0.39100E-02  0.39516E-17 -0.94265E-02
 -0.37964E-02 -0.93572E-03 -0.94265E-02
 -0.34621E-02 -0.18171E-02 -0.94265E-02
 -0.29267E-02 -0.25928E-02 -0.94265E-02
 -0.22211E-02 -0.32179E-02 -0.94265E-02
 -0.13865E-02 -0.36559E-02 -0.94265E-02
 -0.47130E-03 -0.38815E-02 -0.94265E-02
  0.47130E-03 -0.38815E-02 -0.94265E-02
  0.13865E-02 -0.36559E-02 -0.94265E-02
  0.22211E-02 -0.32179E-02 -0.94265E-02
  0.29267E-02 -0.25928E-02 -0.94265E-02
  0.34621E-02 -0.18171E-02 -0.94265E-02
  0.37964E-02 -0.93572E-03 -0.94265E-02
  0.10365E-02  0.67902E-03 -0.84473E-02
  0.17432E-02  0.12381E-02 -0.84473E-02
  0.23163E-02  0.59727E-03 -0.84473E-02
  0.16675E-02 -0.32945E-03 -0.84473E-02
  0.30374E-02  0.15282E-03 -0.84473E-02
  0.27829E-02 -0.67100E-03 -0.84473E-02
  0.12839E-02  0.18432E-02 -0.84473E-02
  0.64869E-03  0.14686E-02 -0.84473E-02
  0.12468E-03  0.31196E-03 -0.84473E-02
 -0.13026E-03  0.11865E-02 -0.84473E-02
  0.94135E-03  0.22762E-02 -0.84473E-02
  0.11289E-02  0.28238E-02 -0.84473E-02
  0.17447E-02  0.24254E-02 -0.84473E-02
  0.40528E-03  0.21688E-02 -0.84473E-02
  0.39760E-03  0.29337E-02 -0.84473E-02
 -0.76692E-03 -0.10049E-02 -0.84473E-02
 -0.86724E-03  0.87871E-04 -0.84473E-02
  0.45626E-03 -0.69519E-03 -0.84473E-02
 -0.18332E-02 -0.71042E-03 -0.84473E-02
 -0.18430E-02  0.84108E-04 -0.84473E-02
 -0.27235E-02 -0.77678E-03 -0.84473E-02
 -0.27998E-02  0.43720E-04 -0.84473E-02
 -0.25382E-02 -0.15189E-02 -0.84473E-02
 -0.19334E-02 -0.13219E-02 -0.84473E-02
 -0.99205E-03  0.10034E-02 -0.84473E-02
 -0.14419E-02 -0.17320E-02 -0.84473E-02
 -0.31354E-03  0.20251E-02 -0.84473E-02
 -0.11030E-02  0.18601E-02 -0.84473E-02
 -0.18840E-02  0.17175E-02 -0.84473E-02
 -0.18699E-02  0.91204E-03 -0.84473E-02
 -0.16174E-03 -0.19803E-02 -0.84473E-02
 -0.94747E-03 -0.23492E-02 -0.84473E-02
  0.78129E-03 -0.17073E-02 -0.84473E-02
  0.17206E-02 -0.14921E-02 -0.84473E-02
  0.32086E-02  0.77142E-03 -0.84473E-02
  0.28044E-02  0.12524E-02 -0.84473E-02
  0.23047E-02  0.18669E-02 -0.84473E-02
 -0.40462E-03  0.28920E-02 -0.84473E-02
 -0.12093E-02  0.27155E-02 -0.84473E-02
 -0.19444E-02  0.24618E-02 -0.84473E-02
 -0.25025E-02  0.22358E-02 -0.84473E-02
 -0.26361E-02  0.16503E-02 -0.84473E-02
 -0.27637E-02  0.87781E-03 -0.84473E-02
 -0.21139E-02 -0.21374E-02 -0.84473E-02
 -0.16092E-02 -0.26934E-02 -0.84473E-02
 -0.11951E-02 -0.31291E-02 -0.84473E-02
 -0.59025E-03 -0.30382E-02 -0.84473E-02
  0.20465E-03 -0.28749E-02 -0.84473E-02
  0.10552E-02 -0.26452E-02 -0.84473E-02
  0.18418E-02 -0.23729E-02 -0.84473E-02
  0.24558E-02 -0.21505E-02 -0.84473E-02
  0.26030E-02 -0.15093E-02 -0.84473E-02
  0.37964E-02  0.93572E-03 -0.84473E-02
  0.39100E-02  0.00000E+00 -0.84473E-02
  0.34621E-02  0.18171E-02 -0.84473E-02
  0.29267E-02  0.25928E-02 -0.84473E-02
  0.22211E-02  0.32179E-02 -0.84473E-02
  0.13865E-02  0.36559E-02 -0.84473E-02
  0.47130E-03  0.38815E-02 -0.84473E-02
 -0.47130E-03  0.38815E-02 -0.84473E-02
 -0.13865E-02  0.36559E-02 -0.84473E-02
 -0.22211E-02  0.32179E-02 -0.84473E-02
 -0.29267E-02  0.25928E-02 -0.84473E-02
 -0.34621E-02  0.18171E-02 -0.84473E-02
 -0.37964E-02  0.93572E-03 -0.84473E-02
 -0.39100E-02 -0.47884E-18 -0.84473E-02
 -0.37964E-02 -0.93572E-03 -0.84473E-02
 -0.34621E-02 -0.18171E-02 -0.84473E-02
 -0.29267E-02 -0.25928E-02 -0.84473E-02
 -0.22211E-02 -0.32179E-02 -0.84473E-02
 -0.13865E-02 -0.36559E-02 -0.84473E-02
 -0.47130E-03 -0.38815E-02 -0.84473E-02
  0.47130E-03 -0.38815E-02 -0.84473E-02
  0.13865E-02 -0.36559E-02 -0.84473E-02
  0.22211E-02 -0.32179E-02 -0.84473E-02
  0.29267E-02 -0.25928E-02 -0.84473E-02
  0.34621E-02 -0.18171E-02 -0.84473E-02
  0.37964E-02 -0.93572E-03 -0.84473E-02
  0.10364E-02  0.67958E-03 -0.74681E-02
  0.17430E-02  0.12387E-02 -0.74681E-02
  0.23162E-02  0.59779E-03 -0.74681E-02
  0.16672E-02 -0.32870E-03 -0.74681E-02
  0.30374E-02  0.15318E-03 -0.74681E-02
  0.27832E-02 -0.67051E-03 -0.74681E-02
  0.12838E-02  0.18434E-02 -0.74681E-02
  0.64845E-03  0.14696E-02 -0.74681E-02
  0.12442E-03  0.31311E-03 -0.74681E-02
 -0.13044E-03  0.11882E-02 -0.74681E-02
  0.94102E-03  0.22763E-02 -0.74681E-02
  0.11286E-02  0.28233E-02 -0.74681E-02
  0.17443E-02  0.24255E-02 -0.74681E-02
  0.40523E-03  0.21689E-02 -0.74681E-02
  0.39759E-03  0.29335E-02 -0.74681E-02
 -0.76727E-03 -0.10050E-02 -0.74681E-02
 -0.86735E-03  0.88681E-04 -0.74681E-02
  0.45582E-03 -0.69447E-03 -0.74681E-02
 -0.18335E-02 -0.71028E-03 -0.74681E-02
 -0.18429E-02  0.84232E-04 -0.74681E-02
 -0.27235E-02 -0.77661E-03 -0.74681E-02
 -0.27995E-02  0.43993E-04 -0.74681E-02
 -0.25383E-02 -0.15189E-02 -0.74681E-02
 -0.19339E-02 -0.13218E-02 -0.74681E-02
 -0.99190E-03  0.10048E-02 -0.74681E-02
 -0.14422E-02 -0.17320E-02 -0.74681E-02
 -0.31334E-03  0.20254E-02 -0.74681E-02
 -0.11026E-02  0.18599E-02 -0.74681E-02
 -0.18839E-02  0.17175E-02 -0.74681E-02
 -0.18697E-02  0.91228E-03 -0.74681E-02
 -0.16201E-03 -0.19803E-02 -0.74681E-02
 -0.94807E-03 -0.23492E-02 -0.74681E-02
  0.78063E-03 -0.17073E-02 -0.74681E-02
  0.17206E-02 -0.14923E-02 -0.74681E-02
  0.32089E-02  0.77243E-03 -0.74681E-02
  0.28043E-02  0.12528E-02 -0.74681E-02
  0.23046E-02  0.18670E-02 -0.74681E-02
 -0.40448E-03  0.28910E-02 -0.74681E-02
 -0.12093E-02  0.27151E-02 -0.74681E-02
 -0.19443E-02  0.24615E-02 -0.74681E-02
 -0.25025E-02  0.22358E-02 -0.74681E-02
 -0.26360E-02  0.16503E-02 -0.74681E-02
 -0.27633E-02  0.87807E-03 -0.74681E-02
 -0.21140E-02 -0.21374E-02 -0.74681E-02
 -0.16092E-02 -0.26934E-02 -0.74681E-02
 -0.11953E-02 -0.31291E-02 -0.74681E-02
 -0.59060E-03 -0.30382E-02 -0.74681E-02
  0.20424E-03 -0.28749E-02 -0.74681E-02
  0.10549E-02 -0.26455E-02 -0.74681E-02
  0.18418E-02 -0.23732E-02 -0.74681E-02
  0.24559E-02 -0.21511E-02 -0.74681E-02
  0.26030E-02 -0.15092E-02 -0.74681E-02
  0.37964E-02  0.93572E-03 -0.74681E-02
  0.39100E-02  0.00000E+00 -0.74681E-02
  0.34621E-02  0.18171E-02 -0.74681E-02
  0.29267E-02  0.25928E-02 -0.74681E-02
  0.22211E-02  0.32179E-02 -0.74681E-02
  0.13865E-02  0.36559E-02 -0.74681E-02
  0.47130E-03  0.38815E-02 -0.74681E-02
 -0.47130E-03  0.38815E-02 -0.74681E-02
 -0.13865E-02  0.36559E-02 -0.74681E-02
 -0.22211E-02  0.32179E-02 -0.74681E-02
 -0.29267E-02  0.25928E-02 -0.74681E-02
 -0.34621E-02  0.18171E-02 -0.74681E-02
 -0.37964E-02  0.93572E-03 -0.74681E-02
 -0.39100E-02  0.22152E-17 -0.74681E-02
 -0.37964E-02 -0.93572E-03 -0.74681E-02
 -0.34621E-02 -0.18171E-02 -0.74681E-02
 -0.29267E-02 -0.25928E-02 -0.74681E-02
 -0.22211E-02 -0.32179E-02 -0.74681E-02
 -0.13865E-02 -0.36559E-02 -0.74681E-02
 -0.47130E-03 -0.38815E-02 -0.74681E-02
  0.47130E-03 -0.38815E-02 -0.74681E-02
  0.13865E-02 -0.36559E-02 -0.74681E-02
  0.22211E-02 -0.32179E-02 -0.74681E-02
  0.29267E-02 -0.25928E-02 -0.74681E-02
  0.34621E-02 -0.18171E-02 -0.74681E-02
  0.37964E-02 -0.93572E-03 -0.74681E-02
  0.10363E-02  0.68013E-03 -0.64890E-02
  0.17429E-02  0.12394E-02 -0.64890E-02
  0.23161E-02  0.59831E-03 -0.64890E-02
  0.16670E-02 -0.32794E-03 -0.64890E-02
  0.30374E-02  0.15354E-03 -0.64890E-02
  0.27836E-02 -0.67002E-03 -0.64890E-02
  0.12837E-02  0.18436E-02 -0.64890E-02
  0.64820E-03  0.14706E-02 -0.64890E-02
  0.12416E-03  0.31426E-03 -0.64890E-02
 -0.13063E-03  0.11900E-02 -0.64890E-02
  0.94069E-03  0.22765E-02 -0.64890E-02
  0.11282E-02  0.28229E-02 -0.64890E-02
  0.17439E-02  0.24257E-02 -0.64890E-02
  0.40518E-03  0.21689E-02 -0.64890E-02
  0.39757E-03  0.29332E-02 -0.64890E-02
 -0.76763E-03 -0.10051E-02 -0.64890E-02
 -0.86746E-03  0.89490E-04 -0.64890E-02
  0.45537E-03 -0.69374E-03 -0.64890E-02
 -0.18338E-02 -0.71013E-03 -0.64890E-02
 -0.18428E-02  0.84355E-04 -0.64890E-02
 -0.27234E-02 -0.77644E-03 -0.64890E-02
 -0.27992E-02  0.44266E-04 -0.64890E-02
 -0.25385E-02 -0.15188E-02 -0.64890E-02
 -0.19343E-02 -0.13216E-02 -0.64890E-02
 -0.99176E-03  0.10061E-02 -0.64890E-02
 -0.14425E-02 -0.17320E-02 -0.64890E-02
 -0.31314E-03  0.20257E-02 -0.64890E-02
 -0.11023E-02  0.18598E-02 -0.64890E-02
 -0.18839E-02  0.17175E-02 -0.64890E-02
 -0.18696E-02  0.91252E-03 -0.64890E-02
 -0.16229E-03 -0.19803E-02 -0.64890E-02
 -0.94867E-03 -0.23492E-02 -0.64890E-02
  0.77997E-03 -0.17073E-02 -0.64890E-02
  0.17205E-02 -0.14926E-02 -0.64890E-02
  0.32092E-02  0.77343E-03 -0.64890E-02
  0.28043E-02  0.12533E-02 -0.64890E-02
  0.23044E-02  0.18670E-02 -0.64890E-02
 -0.40434E-03  0.28899E-02 -0.64890E-02
 -0.12093E-02  0.27146E-02 -0.64890E-02
 -0.19443E-02  0.24613E-02 -0.64890E-02
 -0.25025E-02  0.22358E-02 -0.64890E-02
 -0.26359E-02  0.16503E-02 -0.64890E-02
 -0.27630E-02  0.87833E-03 -0.64890E-02
 -0.21141E-02 -0.21374E-02 -0.64890E-02
 -0.16093E-02 -0.26934E-02 -0.64890E-02
 -0.11954E-02 -0.31291E-02 -0.64890E-02
 -0.59095E-03 -0.30382E-02 -0.64890E-02
  0.20384E-03 -0.28750E-02 -0.64890E-02
  0.10546E-02 -0.26458E-02 -0.64890E-02
  0.18419E-02 -0.23734E-02 -0.64890E-02
  0.24560E-02 -0.21516E-02 -0.64890E-02
  0.26031E-02 -0.15091E-02 -0.64890E-02
  0.37964E-02  0.93572E-03 -0.64890E-02
  0.39100E-02  0.00000E+00 -0.64890E-02
  0.34621E-02  0.18171E-02 -0.64890E-02
  0.29267E-02  0.25928E-02 -0.64890E-02
  0.22211E-02  0.32179E-02 -0.64890E-02
  0.13865E-02  0.36559E-02 -0.64890E-02
  0.47130E-03  0.38815E-02 -0.64890E-02
 -0.47130E-03  0.38815E-02 -0.64890E-02
 -0.13865E-02  0.36559E-02 -0.64890E-02
 -0.22211E-02  0.32179E-02 -0.64890E-02
 -0.29267E-02  0.25928E-02 -0.64890E-02
 -0.34621E-02  0.18171E-02 -0.64890E-02
 -0.37964E-02  0.93572E-03 -0.64890E-02
 -0.39100E-02 -0.47884E-18 -0.64890E-02
 -0.37964E-02 -0.93572E-03 -0.64890E-02
 -0.34621E-02 -0.18171E-02 -0.64890E-02
 -0.29267E-02 -0.25928E-02 -0.64890E-02
 -0.22211E-02 -0.32179E-02 -0.64890E-02
 -0.13865E-02 -0.36559E-02 -0.64890E-02
 -0.47130E-03 -0.38815E-02 -0.64890E-02
  0.47130E-03 -0.38815E-02 -0.64890E-02
  0.13865E-02 -0.36559E-02 -0.64890E-02
  0.22211E-02 -0.32179E-02 -0.64890E-02
  0.29267E-02 -0.25928E-02 -0.64890E-02
  0.34621E-02 -0.18171E-02 -0.64890E-02
  0.37964E-02 -0.93572E-03 -0.64890E-02
  0.10362E-02  0.68068E-03 -0.55098E-02
  0.17427E-02  0.12401E-02 -0.55098E-02
  0.23160E-02  0.59884E-03 -0.55098E-02
  0.16668E-02 -0.32719E-03 -0.55098E-02
  0.30373E-02  0.15391E-03 -0.55098E-02
  0.27839E-02 -0.66953E-03 -0.55098E-02
  0.12836E-02  0.18438E-02 -0.55098E-02
  0.64796E-03  0.14716E-02 -0.55098E-02
  0.12390E-03  0.31541E-03 -0.55098E-02
 -0.13082E-03  0.11917E-02 -0.55098E-02
  0.94036E-03  0.22766E-02 -0.55098E-02
  0.11279E-02  0.28225E-02 -0.55098E-02
  0.17435E-02  0.24258E-02 -0.55098E-02
  0.40512E-03  0.21690E-02 -0.55098E-02
  0.39755E-03  0.29330E-02 -0.55098E-02
 -0.76798E-03 -0.10053E-02 -0.55098E-02
 -0.86756E-03  0.90299E-04 -0.55098E-02
  0.45492E-03 -0.69302E-03 -0.55098E-02
 -0.18341E-02 -0.70999E-03 -0.55098E-02
 -0.18427E-02  0.84479E-04 -0.55098E-02
 -0.27234E-02 -0.77627E-03 -0.55098E-02
 -0.27990E-02  0.44540E-04 -0.55098E-02
 -0.25386E-02 -0.15188E-02 -0.55098E-02
 -0.19347E-02 -0.13215E-02 -0.55098E-02
 -0.99161E-03  0.10075E-02 -0.55098E-02
 -0.14429E-02 -0.17319E-02 -0.55098E-02
 -0.31294E-03  0.20260E-02 -0.55098E-02
 -0.11019E-02  0.18597E-02 -0.55098E-02
 -0.18838E-02  0.17175E-02 -0.55098E-02
 -0.18695E-02  0.91276E-03 -0.55098E-02
 -0.16256E-03 -0.19804E-02 -0.55098E-02
 -0.94927E-03 -0.23493E-02 -0.55098E-02
  0.77931E-03 -0.17073E-02 -0.55098E-02
  0.17205E-02 -0.14928E-02 -0.55098E-02
  0.32096E-02  0.77444E-03 -0.55098E-02
  0.28043E-02  0.12537E-02 -0.55098E-02
  0.23043E-02  0.18670E-02 -0.55098E-02
 -0.40420E-03  0.28888E-02 -0.55098E-02
 -0.12093E-02  0.27141E-02 -0.55098E-02
 -0.19443E-02  0.24611E-02 -0.55098E-02
 -0.25024E-02  0.22358E-02 -0.55098E-02
 -0.26358E-02  0.16503E-02 -0.55098E-02
 -0.27627E-02  0.87859E-03 -0.55098E-02
 -0.21143E-02 -0.21374E-02 -0.55098E-02
 -0.16093E-02 -0.26934E-02 -0.55098E-02
 -0.11955E-02 -0.31291E-02 -0.55098E-02
 -0.59130E-03 -0.30382E-02 -0.55098E-02
  0.20343E-03 -0.28750E-02 -0.55098E-02
  0.10543E-02 -0.26460E-02 -0.55098E-02
  0.18419E-02 -0.23736E-02 -0.55098E-02
  0.24561E-02 -0.21521E-02 -0.55098E-02
  0.26032E-02 -0.15090E-02 -0.55098E-02
  0.37964E-02  0.93572E-03 -0.55098E-02
  0.39100E-02  0.00000E+00 -0.55098E-02
  0.34621E-02  0.18171E-02 -0.55098E-02
  0.29267E-02  0.25928E-02 -0.55098E-02
  0.22211E-02  0.32179E-02 -0.55098E-02
  0.13865E-02  0.36559E-02 -0.55098E-02
  0.47130E-03  0.38815E-02 -0.55098E-02
 -0.47130E-03  0.38815E-02 -0.55098E-02
 -0.13865E-02  0.36559E-02 -0.55098E-02
 -0.22211E-02  0.32179E-02 -0.55098E-02
 -0.29267E-02  0.25928E-02 -0.55098E-02
 -0.34621E-02  0.18171E-02 -0.55098E-02
 -0.37964E-02  0.93572E-03 -0.55098E-02
 -0.39100E-02  0.22152E-17 -0.55098E-02
 -0.37964E-02 -0.93572E-03 -0.55098E-02
 -0.34621E-02 -0.18171E-02 -0.55098E-02
 -0.29267E-02 -0.25928E-02 -0.55098E-02
 -0.22211E-02 -0.32179E-02 -0.55098E-02
 -0.13865E-02 -0.36559E-02 -0.55098E-02
 -0.47130E-03 -0.38815E-02 -0.55098E-02
  0.47130E-03 -0.38815E-02 -0.55098E-02
  0.13865E-02 -0.36559E-02 -0.55098E-02
  0.22211E-02 -0.32179E-02 -0.55098E-02
  0.29267E-02 -0.25928E-02 -0.55098E-02
  0.34621E-02 -0.18171E-02 -0.55098E-02
  0.37964E-02 -0.93572E-03 -0.55098E-02
  0.10360E-02  0.68124E-03 -0.45306E-02
  0.17425E-02  0.12407E-02 -0.45306E-02
  0.23158E-02  0.59936E-03 -0.45306E-02
  0.16666E-02 -0.32643E-03 -0.45306E-02
  0.30373E-02  0.15427E-03 -0.45306E-02
  0.27842E-02 -0.66903E-03 -0.45306E-02
  0.12835E-02  0.18440E-02 -0.45306E-02
  0.64771E-03  0.14727E-02 -0.45306E-02
  0.12363E-03  0.31656E-03 -0.45306E-02
 -0.13100E-03  0.11935E-02 -0.45306E-02
  0.94003E-03  0.22767E-02 -0.45306E-02
  0.11276E-02  0.28220E-02 -0.45306E-02
  0.17432E-02  0.24260E-02 -0.45306E-02
  0.40507E-03  0.21690E-02 -0.45306E-02
  0.39754E-03  0.29327E-02 -0.45306E-02
 -0.76834E-03 -0.10054E-02 -0.45306E-02
 -0.86767E-03  0.91108E-04 -0.45306E-02
  0.45447E-03 -0.69229E-03 -0.45306E-02
 -0.18344E-02 -0.70985E-03 -0.45306E-02
 -0.18426E-02  0.84602E-04 -0.45306E-02
 -0.27234E-02 -0.77610E-03 -0.45306E-02
 -0.27987E-02  0.44813E-04 -0.45306E-02
 -0.25388E-02 -0.15187E-02 -0.45306E-02
 -0.19352E-02 -0.13215E-02 -0.45306E-02
 -0.99147E-03  0.10088E-02 -0.45306E-02
 -0.14433E-02 -0.17319E-02 -0.45306E-02
 -0.31274E-03  0.20262E-02 -0.45306E-02
 -0.11016E-02  0.18595E-02 -0.45306E-02
 -0.18838E-02  0.17175E-02 -0.45306E-02
 -0.18694E-02  0.91300E-03 -0.45306E-02
 -0.16284E-03 -0.19804E-02 -0.45306E-02
 -0.94986E-03 -0.23493E-02 -0.45306E-02
  0.77865E-03 -0.17073E-02 -0.45306E-02
  0.17205E-02 -0.14931E-02 -0.45306E-02
  0.32099E-02  0.77544E-03 -0.45306E-02
  0.28042E-02  0.12541E-02 -0.45306E-02
  0.23042E-02  0.18671E-02 -0.45306E-02
 -0.40407E-03  0.28877E-02 -0.45306E-02
 -0.12093E-02  0.27137E-02 -0.45306E-02
 -0.19442E-02  0.24609E-02 -0.45306E-02
 -0.25024E-02  0.22358E-02 -0.45306E-02
 -0.26358E-02  0.16503E-02 -0.45306E-02
 -0.27624E-02  0.87885E-03 -0.45306E-02
 -0.21144E-02 -0.21374E-02 -0.45306E-02
 -0.16094E-02 -0.26934E-02 -0.45306E-02
 -0.11956E-02 -0.31291E-02 -0.45306E-02
 -0.59165E-03 -0.30382E-02 -0.45306E-02
  0.20302E-03 -0.28750E-02 -0.45306E-02
  0.10540E-02 -0.26463E-02 -0.45306E-02
  0.18419E-02 -0.23738E-02 -0.45306E-02
  0.24563E-02 -0.21527E-02 -0.45306E-02
  0.26033E-02 -0.15088E-02 -0.45306E-02
  0.37964E-02  0.93572E-03 -0.45306E-02
  0.39100E-02  0.00000E+00 -0.45306E-02
  0.34621E-02  0.18171E-02 -0.45306E-02
  0.29267E-02  0.25928E-02 -0.45306E-02
  0.22211E-02  0.32179E-02 -0.45306E-02
  0.13865E-02  0.36559E-02 -0.45306E-02
  0.47130E-03  0.38815E-02 -0.45306E-02
 -0.47130E-03  0.38815E-02 -0.45306E-02
 -0.13865E-02  0.36559E-02 -0.45306E-02
 -0.22211E-02  0.32179E-02 -0.45306E-02
 -0.29267E-02  0.25928E-02 -0.45306E-02
 -0.34621E-02  0.18171E-02 -0.45306E-02
 -0.37964E-02  0.93572E-03 -0.45306E-02
 -0.39100E-02 -0.47884E-18 -0.45306E-02
 -0.37964E-02 -0.93572E-03 -0.45306E-02
 -0.34621E-02 -0.18171E-02 -0.45306E-02
 -0.29267E-02 -0.25928E-02 -0.45306E-02
 -0.22211E-02 -0.32179E-02 -0.45306E-02
 -0.13865E-02 -0.36559E-02 -0.45306E-02
 -0.47130E-03 -0.38815E-02 -0.45306E-02
  0.47130E-03 -0.38815E-02 -0.45306E-02
  0.13865E-02 -0.36559E-02 -0.45306E-02
  0.22211E-02 -0.32179E-02 -0.45306E-02
  0.29267E-02 -0.25928E-02 -0.45306E-02
  0.34621E-02 -0.18171E-02 -0.45306E-02
  0.37964E-02 -0.93572E-03 -0.45306E-02
  0.10359E-02  0.68179E-03 -0.35515E-02
  0.17423E-02  0.12414E-02 -0.35515E-02
  0.23157E-02  0.59988E-03 -0.35515E-02
  0.16664E-02 -0.32568E-03 -0.35515E-02
  0.30373E-02  0.15463E-03 -0.35515E-02
  0.27846E-02 -0.66854E-03 -0.35515E-02
  0.12834E-02  0.18442E-02 -0.35515E-02
  0.64747E-03  0.14736E-02 -0.35515E-02
  0.12337E-03  0.31770E-03 -0.35515E-02
 -0.13118E-03  0.11952E-02 -0.35515E-02
  0.93970E-03  0.22768E-02 -0.35515E-02
  0.11272E-02  0.28216E-02 -0.35515E-02
  0.17428E-02  0.24261E-02 -0.35515E-02
  0.40501E-03  0.21690E-02 -0.35515E-02
  0.39752E-03  0.29324E-02 -0.35515E-02
 -0.76869E-03 -0.10056E-02 -0.35515E-02
 -0.86778E-03  0.91918E-04 -0.35515E-02
  0.45402E-03 -0.69156E-03 -0.35515E-02
 -0.18347E-02 -0.70971E-03 -0.35515E-02
 -0.18425E-02  0.84726E-04 -0.35515E-02
 -0.27234E-02 -0.77593E-03 -0.35515E-02
 -0.27984E-02  0.45086E-04 -0.35515E-02
 -0.25389E-02 -0.15187E-02 -0.35515E-02
 -0.19356E-02 -0.13213E-02 -0.35515E-02
 -0.99133E-03  0.10102E-02 -0.35515E-02
 -0.14436E-02 -0.17318E-02 -0.35515E-02
 -0.31254E-03  0.20265E-02 -0.35515E-02
 -0.11013E-02  0.18594E-02 -0.35515E-02
 -0.18837E-02  0.17175E-02 -0.35515E-02
 -0.18692E-02  0.91324E-03 -0.35515E-02
 -0.16311E-03 -0.19804E-02 -0.35515E-02
 -0.95046E-03 -0.23493E-02 -0.35515E-02
  0.77799E-03 -0.17073E-02 -0.35515E-02
  0.17204E-02 -0.14933E-02 -0.35515E-02
  0.32102E-02  0.77645E-03 -0.35515E-02
  0.28042E-02  0.12545E-02 -0.35515E-02
  0.23041E-02  0.18671E-02 -0.35515E-02
 -0.40393E-03  0.28867E-02 -0.35515E-02
 -0.12093E-02  0.27132E-02 -0.35515E-02
 -0.19442E-02  0.24606E-02 -0.35515E-02
 -0.25024E-02  0.22358E-02 -0.35515E-02
 -0.26357E-02  0.16503E-02 -0.35515E-02
 -0.27621E-02  0.87912E-03 -0.35515E-02
 -0.21146E-02 -0.21374E-02 -0.35515E-02
 -0.16094E-02 -0.26935E-02 -0.35515E-02
 -0.11957E-02 -0.31291E-02 -0.35515E-02
 -0.59200E-03 -0.30381E-02 -0.35515E-02
  0.20262E-03 -0.28750E-02 -0.35515E-02
  0.10536E-02 -0.26466E-02 -0.35515E-02
  0.18420E-02 -0.23740E-02 -0.35515E-02
  0.24564E-02 -0.21533E-02 -0.35515E-02
  0.26033E-02 -0.15087E-02 -0.35515E-02
  0.37964E-02  0.93572E-03 -0.35515E-02
  0.39100E-02  0.00000E+00 -0.35515E-02
  0.34621E-02  0.18171E-02 -0.35515E-02
  0.29267E-02  0.25928E-02 -0.35515E-02
  0.22211E-02  0.32179E-02 -0.35515E-02
  0.13865E-02  0.36559E-02 -0.35515E-02
  0.47130E-03  0.38815E-02 -0.35515E-02
 -0.47130E-03  0.38815E-02 -0.35515E-02
 -0.13865E-02  0.36559E-02 -0.35515E-02
 -0.22211E-02  0.32179E-02 -0.35515E-02
 -0.29267E-02  0.25928E-02 -0.35515E-02
 -0.34621E-02  0.18171E-02 -0.35515E-02
 -0.37964E-02  0.93572E-03 -0.35515E-02
 -0.39100E-02 -0.47884E-18 -0.35515E-02
 -0.37964E-02 -0.93572E-03 -0.35515E-02
 -0.34621E-02 -0.18171E-02 -0.35515E-02
 -0.29267E-02 -0.25928E-02 -0.35515E-02
 -0.22211E-02 -0.32179E-02 -0.35515E-02
 -0.13865E-02 -0.36559E-02 -0.35515E-02
 -0.47130E-03 -0.38815E-02 -0.35515E-02
  0.47130E-03 -0.38815E-02 -0.35515E-02
  0.13865E-02 -0.36559E-02 -0.35515E-02
  0.22211E-02 -0.32179E-02 -0.35515E-02
  0.29267E-02 -0.25928E-02 -0.35515E-02
  0.34621E-02 -0.18171E-02 -0.35515E-02
  0.37964E-02 -0.93572E-03 -0.35515E-02
  0.10358E-02  0.68235E-03 -0.25723E-02
  0.17422E-02  0.12421E-02 -0.25723E-02
  0.23156E-02  0.60041E-03 -0.25723E-02
  0.16662E-02 -0.32493E-03 -0.25723E-02
  0.30373E-02  0.15500E-03 -0.25723E-02
  0.27849E-02 -0.66805E-03 -0.25723E-02
  0.12833E-02  0.18444E-02 -0.25723E-02
  0.64722E-03  0.14747E-02 -0.25723E-02
  0.12311E-03  0.31885E-03 -0.25723E-02
 -0.13137E-03  0.11970E-02 -0.25723E-02
  0.93937E-03  0.22770E-02 -0.25723E-02
  0.11269E-02  0.28211E-02 -0.25723E-02
  0.17424E-02  0.24262E-02 -0.25723E-02
  0.40496E-03  0.21691E-02 -0.25723E-02
  0.39750E-03  0.29322E-02 -0.25723E-02
 -0.76904E-03 -0.10057E-02 -0.25723E-02
 -0.86789E-03  0.92727E-04 -0.25723E-02
  0.45358E-03 -0.69084E-03 -0.25723E-02
 -0.18350E-02 -0.70957E-03 -0.25723E-02
 -0.18424E-02  0.84849E-04 -0.25723E-02
 -0.27233E-02 -0.77576E-03 -0.25723E-02
 -0.27981E-02  0.45359E-04 -0.25723E-02
 -0.25391E-02 -0.15186E-02 -0.25723E-02
 -0.19360E-02 -0.13212E-02 -0.25723E-02
 -0.99118E-03  0.10115E-02 -0.25723E-02
 -0.14440E-02 -0.17318E-02 -0.25723E-02
 -0.31234E-03  0.20268E-02 -0.25723E-02
 -0.11009E-02  0.18593E-02 -0.25723E-02
 -0.18836E-02  0.17175E-02 -0.25723E-02
 -0.18691E-02  0.91347E-03 -0.25723E-02
 -0.16339E-03 -0.19804E-02 -0.25723E-02
 -0.95106E-03 -0.23493E-02 -0.25723E-02
  0.77733E-03 -0.17073E-02 -0.25723E-02
  0.17204E-02 -0.14936E-02 -0.25723E-02
  0.32105E-02  0.77745E-03 -0.25723E-02
  0.28042E-02  0.12550E-02 -0.25723E-02
  0.23040E-02  0.18671E-02 -0.25723E-02
 -0.40379E-03  0.28856E-02 -0.25723E-02
 -0.12093E-02  0.27127E-02 -0.25723E-02
 -0.19441E-02  0.24604E-02 -0.25723E-02
 -0.25023E-02  0.22358E-02 -0.25723E-02
 -0.26356E-02  0.16503E-02 -0.25723E-02
 -0.27618E-02  0.87938E-03 -0.25723E-02
 -0.21147E-02 -0.21374E-02 -0.25723E-02
 -0.16094E-02 -0.26935E-02 -0.25723E-02
 -0.11958E-02 -0.31291E-02 -0.25723E-02
 -0.59235E-03 -0.30381E-02 -0.25723E-02
  0.20221E-03 -0.28750E-02 -0.25723E-02
  0.10533E-02 -0.26468E-02 -0.25723E-02
  0.18420E-02 -0.23742E-02 -0.25723E-02
  0.24565E-02 -0.21538E-02 -0.25723E-02
  0.26034E-02 -0.15086E-02 -0.25723E-02
  0.37964E-02  0.93572E-03 -0.25723E-02
  0.39100E-02  0.00000E+00 -0.25723E-02
  0.34621E-02  0.18171E-02 -0.25723E-02
  0.29267E-02  0.25928E-02 -0.25723E-02
  0.22211E-02  0.32179E-02 -0.25723E-02
  0.13865E-02  0.36559E-02 -0.25723E-02
  0.47130E-03  0.38815E-02 -0.25723E-02
 -0.47130E-03  0.38815E-02 -0.25723E-02
 -0.13865E-02  0.36559E-02 -0.25723E-02
 -0.22211E-02  0.32179E-02 -0.25723E-02
 -0.29267E-02  0.25928E-02 -0.25723E-02
 -0.34621E-02  0.18171E-02 -0.25723E-02
 -0.37964E-02  0.93572E-03 -0.25723E-02
 -0.39100E-02 -0.47884E-18 -0.25723E-02
 -0.37964E-02 -0.93572E-03 -0.25723E-02
 -0.34621E-02 -0.18171E-02 -0.25723E-02
 -0.29267E-02 -0.25928E-02 -0.25723E-02
 -0.22211E-02 -0.32179E-02 -0.25723E-02
 -0.13865E-02 -0.36559E-02 -0.25723E-02
 -0.47130E-03 -0.38815E-02 -0.25723E-02
  0.47130E-03 -0.38815E-02 -0.25723E-02
  0.13865E-02 -0.36559E-02 -0.25723E-02
  0.22211E-02 -0.32179E-02 -0.25723E-02
  0.29267E-02 -0.25928E-02 -0.25723E-02
  0.34621E-02 -0.18171E-02 -0.25723E-02
  0.37964E-02 -0.93572E-03 -0.25723E-02
  0.10357E-02  0.68290E-03 -0.15931E-02
  0.17420E-02  0.12427E-02 -0.15931E-02
  0.23155E-02  0.60093E-03 -0.15931E-02
  0.16660E-02 -0.32417E-03 -0.15931E-02
  0.30372E-02  0.15536E-03 -0.15931E-02
  0.27853E-02 -0.66755E-03 -0.15931E-02
  0.12832E-02  0.18445E-02 -0.15931E-02
  0.64698E-03  0.14757E-02 -0.15931E-02
  0.12285E-03  0.32000E-03 -0.15931E-02
 -0.13155E-03  0.11987E-02 -0.15931E-02
  0.93903E-03  0.22771E-02 -0.15931E-02
  0.11266E-02  0.28207E-02 -0.15931E-02
  0.17420E-02  0.24264E-02 -0.15931E-02
  0.40490E-03  0.21691E-02 -0.15931E-02
  0.39749E-03  0.29319E-02 -0.15931E-02
 -0.76940E-03 -0.10058E-02 -0.15931E-02
 -0.86800E-03  0.93536E-04 -0.15931E-02
  0.45313E-03 -0.69011E-03 -0.15931E-02
 -0.18353E-02 -0.70943E-03 -0.15931E-02
 -0.18423E-02  0.84973E-04 -0.15931E-02
 -0.27233E-02 -0.77559E-03 -0.15931E-02
 -0.27979E-02  0.45633E-04 -0.15931E-02
 -0.25393E-02 -0.15186E-02 -0.15931E-02
 -0.19365E-02 -0.13212E-02 -0.15931E-02
 -0.99104E-03  0.10129E-02 -0.15931E-02
 -0.14443E-02 -0.17318E-02 -0.15931E-02
 -0.31214E-03  0.20271E-02 -0.15931E-02
 -0.11006E-02  0.18592E-02 -0.15931E-02
 -0.18836E-02  0.17175E-02 -0.15931E-02
 -0.18690E-02  0.91371E-03 -0.15931E-02
 -0.16366E-03 -0.19805E-02 -0.15931E-02
 -0.95166E-03 -0.23493E-02 -0.15931E-02
  0.77667E-03 -0.17073E-02 -0.15931E-02
  0.17203E-02 -0.14938E-02 -0.15931E-02
  0.32109E-02  0.77846E-03 -0.15931E-02
  0.28042E-02  0.12554E-02 -0.15931E-02
  0.23039E-02  0.18672E-02 -0.15931E-02
 -0.40365E-03  0.28845E-02 -0.15931E-02
 -0.12093E-02  0.27122E-02 -0.15931E-02
 -0.19441E-02  0.24602E-02 -0.15931E-02
 -0.25023E-02  0.22358E-02 -0.15931E-02
 -0.26355E-02  0.16502E-02 -0.15931E-02
 -0.27615E-02  0.87964E-03 -0.15931E-02
 -0.21148E-02 -0.21374E-02 -0.15931E-02
 -0.16095E-02 -0.26935E-02 -0.15931E-02
 -0.11960E-02 -0.31291E-02 -0.15931E-02
 -0.59270E-03 -0.30381E-02 -0.15931E-02
  0.20180E-03 -0.28750E-02 -0.15931E-02
  0.10530E-02 -0.26471E-02 -0.15931E-02
  0.18421E-02 -0.23744E-02 -0.15931E-02
  0.24566E-02 -0.21543E-02 -0.15931E-02
  0.26035E-02 -0.15085E-02 -0.15931E-02
  0.37964E-02  0.93572E-03 -0.15931E-02
  0.39100E-02  0.00000E+00 -0.15931E-02
  0.34621E-02  0.18171E-02 -0.15931E-02
  0.29267E-02  0.25928E-02 -0.15931E-02
  0.22211E-02  0.32179E-02 -0.15931E-02
  0.13865E-02  0.36559E-02 -0.15931E-02
  0.47130E-03  0.38815E-02 -0.15931E-02
 -0.47130E-03  0.38815E-02 -0.15931E-02
 -0.13865E-02  0.36559E-02 -0.15931E-02
 -0.22211E-02  0.32179E-02 -0.15931E-02
 -0.29267E-02  0.25928E-02 -0.15931E-02
 -0.34621E-02  0.18171E-02 -0.15931E-02
 -0.37964E-02  0.93572E-03 -0.15931E-02
 -0.39100E-02 -0.47884E-18 -0.15931E-02
 -0.37964E-02 -0.93572E-03 -0.15931E-02
 -0.34621E-02 -0.18171E-02 -0.15931E-02
 -0.29267E-02 -0.25928E-02 -0.15931E-02
 -0.22211E-02 -0.32179E-02 -0.15931E-02
 -0.13865E-02 -0.36559E-02 -0.15931E-02
 -0.47130E-03 -0.38815E-02 -0.15931E-02
  0.47130E-03 -0.38815E-02 -0.15931E-02
  0.13865E-02 -0.36559E-02 -0.15931E-02
  0.22211E-02 -0.32179E-02 -0.15931E-02
  0.29267E-02 -0.25928E-02 -0.15931E-02
  0.34621E-02 -0.18171E-02 -0.15931E-02
  0.37964E-02 -0.93572E-03 -0.15931E-02
  0.10356E-02  0.68346E-03 -0.61397E-03
  0.17418E-02  0.12434E-02 -0.61397E-03
  0.23153E-02  0.60145E-03 -0.61397E-03
  0.16657E-02 -0.32342E-03 -0.61397E-03
  0.30372E-02  0.15572E-03 -0.61397E-03
  0.27856E-02 -0.66706E-03 -0.61397E-03
  0.12830E-02  0.18447E-02 -0.61397E-03
  0.64673E-03  0.14767E-02 -0.61397E-03
  0.12259E-03  0.32115E-03 -0.61397E-03
 -0.13174E-03  0.12005E-02 -0.61397E-03
  0.93870E-03  0.22772E-02 -0.61397E-03
  0.11262E-02  0.28203E-02 -0.61397E-03
  0.17416E-02  0.24265E-02 -0.61397E-03
  0.40485E-03  0.21691E-02 -0.61397E-03
  0.39747E-03  0.29316E-02 -0.61397E-03
 -0.76975E-03 -0.10060E-02 -0.61397E-03
 -0.86811E-03  0.94345E-04 -0.61397E-03
  0.45268E-03 -0.68939E-03 -0.61397E-03
 -0.18356E-02 -0.70929E-03 -0.61397E-03
 -0.18422E-02  0.85096E-04 -0.61397E-03
 -0.27233E-02 -0.77542E-03 -0.61397E-03
 -0.27976E-02  0.45906E-04 -0.61397E-03
 -0.25394E-02 -0.15185E-02 -0.61397E-03
 -0.19369E-02 -0.13211E-02 -0.61397E-03
 -0.99090E-03  0.10142E-02 -0.61397E-03
 -0.14446E-02 -0.17317E-02 -0.61397E-03
 -0.31194E-03  0.20274E-02 -0.61397E-03
 -0.11002E-02  0.18590E-02 -0.61397E-03
 -0.18835E-02  0.17175E-02 -0.61397E-03
 -0.18689E-02  0.91395E-03 -0.61397E-03
 -0.16394E-03 -0.19805E-02 -0.61397E-03
 -0.95226E-03 -0.23494E-02 -0.61397E-03
  0.77601E-03 -0.17073E-02 -0.61397E-03
  0.17203E-02 -0.14941E-02 -0.61397E-03
  0.32112E-02  0.77946E-03 -0.61397E-03
  0.28042E-02  0.12558E-02 -0.61397E-03
  0.23038E-02  0.18672E-02 -0.61397E-03
 -0.40352E-03  0.28835E-02 -0.61397E-03
 -0.12093E-02  0.27118E-02 -0.61397E-03
 -0.19441E-02  0.24600E-02 -0.61397E-03
 -0.25023E-02  0.22358E-02 -0.61397E-03
 -0.26354E-02  0.16502E-02 -0.61397E-03
 -0.27612E-02  0.87990E-03 -0.61397E-03
 -0.21150E-02 -0.21374E-02 -0.61397E-03
 -0.16095E-02 -0.26935E-02 -0.61397E-03
 -0.11961E-02 -0.31291E-02 -0.61397E-03
 -0.59305E-03 -0.30381E-02 -0.61397E-03
  0.20140E-03 -0.28750E-02 -0.61397E-03
  0.10527E-02 -0.26474E-02 -0.61397E-03
  0.18421E-02 -0.23746E-02 -0.61397E-03
  0.24568E-02 -0.21549E-02 -0.61397E-03
  0.26036E-02 -0.15084E-02 -0.61397E-03
  0.37964E-02  0.93572E-03 -0.61397E-03
  0.39100E-02  0.00000E+00 -0.61397E-03
  0.34621E-02  0.18171E-02 -0.61397E-03
  0.29267E-02  0.25928E-02 -0.61397E-03
  0.22211E-02  0.32179E-02 -0.61397E-03
  0.13865E-02  0.36559E-02 -0.61397E-03
  0.47130E-03  0.38815E-02 -0.61397E-03
 -0.47130E-03  0.38815E-02 -0.61397E-03
 -0.13865E-02  0.36559E-02 -0.61397E-03
 -0.22211E-02  0.32179E-02 -0.61397E-03
 -0.29267E-02  0.25928E-02 -0.61397E-03
 -0.34621E-02  0.18171E-02 -0.61397E-03
 -0.37964E-02  0.93572E-03 -0.61397E-03
 -0.39100E-02  0.22152E-17 -0.61397E-03
 -0.37964E-02 -0.93572E-03 -0.61397E-03
 -0.34621E-02 -0.18171E-02 -0.61397E-03
 -0.29267E-02 -0.25928E-02 -0.61397E-03
 -0.22211E-02 -0.32179E-02 -0.61397E-03
 -0.13865E-02 -0.36559E-02 -0.61397E-03
 -0.47130E-03 -0.38815E-02 -0.61397E-03
  0.47130E-03 -0.38815E-02 -0.61397E-03
  0.13865E-02 -0.36559E-02 -0.61397E-03
  0.22211E-02 -0.32179E-02 -0.61397E-03
  0.29267E-02 -0.25928E-02 -0.61397E-03
  0.34621E-02 -0.18171E-02 -0.61397E-03
  0.37964E-02 -0.93572E-03 -0.61397E-03
  0.10355E-02  0.68401E-03  0.36520E-03
  0.17416E-02  0.12440E-02  0.36520E-03
  0.23152E-02  0.60198E-03  0.36520E-03
  0.16655E-02 -0.32266E-03  0.36520E-03
  0.30372E-02  0.15609E-03  0.36520E-03
  0.27860E-02 -0.66657E-03  0.36520E-03
  0.12829E-02  0.18449E-02  0.36520E-03
  0.64649E-03  0.14777E-02  0.36520E-03
  0.12232E-03  0.32230E-03  0.36520E-03
 -0.13193E-03  0.12022E-02  0.36520E-03
  0.93837E-03  0.22774E-02  0.36520E-03
  0.11259E-02  0.28198E-02  0.36520E-03
  0.17412E-02  0.24267E-02  0.36520E-03
  0.40480E-03  0.21692E-02  0.36520E-03
  0.39745E-03  0.29314E-02  0.36520E-03
 -0.77011E-03 -0.10061E-02  0.36520E-03
 -0.86822E-03  0.95155E-04  0.36520E-03
  0.45223E-03 -0.68866E-03  0.36520E-03
 -0.18359E-02 -0.70915E-03  0.36520E-03
 -0.18421E-02  0.85220E-04  0.36520E-03
 -0.27232E-02 -0.77525E-03  0.36520E-03
 -0.27973E-02  0.46180E-04  0.36520E-03
 -0.25396E-02 -0.15185E-02  0.36520E-03
 -0.19373E-02 -0.13210E-02  0.36520E-03
 -0.99075E-03  0.10156E-02  0.36520E-03
 -0.14450E-02 -0.17317E-02  0.36520E-03
 -0.31173E-03  0.20277E-02  0.36520E-03
 -0.10999E-02  0.18589E-02  0.36520E-03
 -0.18835E-02  0.17175E-02  0.36520E-03
 -0.18687E-02  0.91419E-03  0.36520E-03
 -0.16421E-03 -0.19805E-02  0.36520E-03
 -0.95285E-03 -0.23494E-02  0.36520E-03
  0.77535E-03 -0.17073E-02  0.36520E-03
  0.17202E-02 -0.14943E-02  0.36520E-03
  0.32115E-02  0.78047E-03  0.36520E-03
  0.28041E-02  0.12563E-02  0.36520E-03
  0.23037E-02  0.18672E-02  0.36520E-03
 -0.40338E-03  0.28824E-02  0.36520E-03
 -0.12093E-02  0.27113E-02  0.36520E-03
 -0.19440E-02  0.24597E-02  0.36520E-03
 -0.25023E-02  0.22358E-02  0.36520E-03
 -0.26353E-02  0.16502E-02  0.36520E-03
 -0.27609E-02  0.88016E-03  0.36520E-03
 -0.21151E-02 -0.21374E-02  0.36520E-03
 -0.16096E-02 -0.26935E-02  0.36520E-03
 -0.11962E-02 -0.31291E-02  0.36520E-03
 -0.59340E-03 -0.30381E-02  0.36520E-03
  0.20099E-03 -0.28751E-02  0.36520E-03
  0.10524E-02 -0.26476E-02  0.36520E-03
  0.18422E-02 -0.23748E-02  0.36520E-03
  0.24569E-02 -0.21554E-02  0.36520E-03
  0.26036E-02 -0.15083E-02  0.36520E-03
  0.37964E-02  0.93572E-03  0.36520E-03
  0.39100E-02  0.00000E+00  0.36520E-03
  0.34621E-02  0.18171E-02  0.36520E-03
  0.29267E-02  0.25928E-02  0.36520E-03
  0.22211E-02  0.32179E-02  0.36520E-03
  0.13865E-02  0.36559E-02  0.36520E-03
  0.47130E-03  0.38815E-02  0.36520E-03
 -0.47130E-03  0.38815E-02  0.36520E-03
 -0.13865E-02  0.36559E-02  0.36520E-03
 -0.22211E-02  0.32179E-02  0.36520E-03
 -0.29267E-02  0.25928E-02  0.36520E-03
 -0.34621E-02  0.18171E-02  0.36520E-03
 -0.37964E-02  0.93572E-03  0.36520E-03
 -0.39100E-02 -0.47884E-18  0.36520E-03
 -0.37964E-02 -0.93572E-03  0.36520E-03
 -0.34621E-02 -0.18171E-02  0.36520E-03
 -0.29267E-02 -0.25928E-02  0.36520E-03
 -0.22211E-02 -0.32179E-02  0.36520E-03
 -0.13865E-02 -0.36559E-02  0.36520E-03
 -0.47130E-03 -0.38815E-02  0.36520E-03
  0.47130E-03 -0.38815E-02  0.36520E-03
  0.13865E-02 -0.36559E-02  0.36520E-03
  0.22211E-02 -0.32179E-02  0.36520E-03
  0.29267E-02 -0.25928E-02  0.36520E-03
  0.34621E-02 -0.18171E-02  0.36520E-03
  0.37964E-02 -0.93572E-03  0.36520E-03
  0.10354E-02  0.68457E-03  0.13444E-02
  0.17414E-02  0.12447E-02  0.13444E-02
  0.23151E-02  0.60250E-03  0.13444E-02
  0.16653E-02 -0.32191E-03  0.13444E-02
  0.30372E-02  0.15645E-03  0.13444E-02
  0.27863E-02 -0.66607E-03  0.13444E-02
  0.12829E-02  0.18451E-02  0.13444E-02
  0.64624E-03  0.14787E-02  0.13444E-02
  0.12206E-03  0.32345E-03  0.13444E-02
 -0.13211E-03  0.12040E-02  0.13444E-02
  0.93804E-03  0.22775E-02  0.13444E-02
  0.11255E-02  0.28194E-02  0.13444E-02
  0.17408E-02  0.24268E-02  0.13444E-02
  0.40474E-03  0.21692E-02  0.13444E-02
  0.39744E-03  0.29311E-02  0.13444E-02
 -0.77046E-03 -0.10062E-02  0.13444E-02
 -0.86832E-03  0.95964E-04  0.13444E-02
  0.45179E-03 -0.68793E-03  0.13444E-02
 -0.18362E-02 -0.70901E-03  0.13444E-02
 -0.18420E-02  0.85343E-04  0.13444E-02
 -0.27232E-02 -0.77507E-03  0.13444E-02
 -0.27970E-02  0.46453E-04  0.13444E-02
 -0.25397E-02 -0.15184E-02  0.13444E-02
 -0.19377E-02 -0.13209E-02  0.13444E-02
 -0.99061E-03  0.10169E-02  0.13444E-02
 -0.14453E-02 -0.17316E-02  0.13444E-02
 -0.31153E-03  0.20280E-02  0.13444E-02
 -0.10995E-02  0.18588E-02  0.13444E-02
 -0.18834E-02  0.17175E-02  0.13444E-02
 -0.18686E-02  0.91443E-03  0.13444E-02
 -0.16449E-03 -0.19806E-02  0.13444E-02
 -0.95345E-03 -0.23494E-02  0.13444E-02
  0.77469E-03 -0.17073E-02  0.13444E-02
  0.17202E-02 -0.14945E-02  0.13444E-02
  0.32119E-02  0.78148E-03  0.13444E-02
  0.28041E-02  0.12567E-02  0.13444E-02
  0.23036E-02  0.18673E-02  0.13444E-02
 -0.40324E-03  0.28813E-02  0.13444E-02
 -0.12093E-02  0.27108E-02  0.13444E-02
 -0.19440E-02  0.24595E-02  0.13444E-02
 -0.25022E-02  0.22358E-02  0.13444E-02
 -0.26352E-02  0.16502E-02  0.13444E-02
 -0.27606E-02  0.88043E-03  0.13444E-02
 -0.21152E-02 -0.21374E-02  0.13444E-02
 -0.16096E-02 -0.26936E-02  0.13444E-02
 -0.11963E-02 -0.31291E-02  0.13444E-02
 -0.59375E-03 -0.30381E-02  0.13444E-02
  0.20059E-03 -0.28751E-02  0.13444E-02
  0.10521E-02 -0.26479E-02  0.13444E-02
  0.18422E-02 -0.23750E-02  0.13444E-02
  0.24570E-02 -0.21560E-02  0.13444E-02
  0.26037E-02 -0.15082E-02  0.13444E-02
  0.37964E-02  0.93572E-03  0.13444E-02
  0.39100E-02  0.00000E+00  0.13444E-02
  0.34621E-02  0.18171E-02  0.13444E-02
  0.29267E-02  0.25928E-02  0.13444E-02
  0.22211E-02  0.32179E-02  0.13444E-02
  0.13865E-02  0.36559E-02  0.13444E-02
  0.47130E-03  0.38815E-02  0.13444E-02
 -0.47130E-03  0.38815E-02  0.13444E-02
 -0.13865E-02  0.36559E-02  0.13444E-02
 -0.22211E-02  0.32179E-02  0.13444E-02
 -0.29267E-02  0.25928E-02  0.13444E-02
 -0.34621E-02  0.18171E-02  0.13444E-02
 -0.37964E-02  0.93572E-03  0.13444E-02
 -0.39100E-02 -0.47884E-18  0.13444E-02
 -0.37964E-02 -0.93572E-03  0.13444E-02
 -0.34621E-02 -0.18171E-02  0.13444E-02
 -0.29267E-02 -0.25928E-02  0.13444E-02
 -0.22211E-02 -0.32179E-02  0.13444E-02
 -0.13865E-02 -0.36559E-02  0.13444E-02
 -0.47130E-03 -0.38815E-02  0.13444E-02
  0.47130E-03 -0.38815E-02  0.13444E-02
  0.13865E-02 -0.36559E-02  0.13444E-02
  0.22211E-02 -0.32179E-02  0.13444E-02
  0.29267E-02 -0.25928E-02  0.13444E-02
  0.34621E-02 -0.18171E-02  0.13444E-02
  0.37964E-02 -0.93572E-03  0.13444E-02
  0.10352E-02  0.68512E-03  0.23235E-02
  0.17413E-02  0.12454E-02  0.23235E-02
  0.23150E-02  0.60302E-03  0.23235E-02
  0.16651E-02 -0.32115E-03  0.23235E-02
  0.30371E-02  0.15681E-03  0.23235E-02
  0.27866E-02 -0.66558E-03  0.23235E-02
  0.12827E-02  0.18453E-02  0.23235E-02
  0.64600E-03  0.14797E-02  0.23235E-02
  0.12180E-03  0.32459E-03  0.23235E-02
 -0.13230E-03  0.12058E-02  0.23235E-02
  0.93771E-03  0.22776E-02  0.23235E-02
  0.11252E-02  0.28189E-02  0.23235E-02
  0.17404E-02  0.24270E-02  0.23235E-02
  0.40469E-03  0.21693E-02  0.23235E-02
  0.39742E-03  0.29308E-02  0.23235E-02
 -0.77081E-03 -0.10064E-02  0.23235E-02
 -0.86843E-03  0.96773E-04  0.23235E-02
  0.45134E-03 -0.68721E-03  0.23235E-02
 -0.18365E-02 -0.70887E-03  0.23235E-02
 -0.18419E-02  0.85467E-04  0.23235E-02
 -0.27232E-02 -0.77490E-03  0.23235E-02
 -0.27968E-02  0.46726E-04  0.23235E-02
 -0.25399E-02 -0.15184E-02  0.23235E-02
 -0.19382E-02 -0.13208E-02  0.23235E-02
 -0.99046E-03  0.10183E-02  0.23235E-02
 -0.14457E-02 -0.17316E-02  0.23235E-02
 -0.31133E-03  0.20283E-02  0.23235E-02
 -0.10992E-02  0.18586E-02  0.23235E-02
 -0.18834E-02  0.17175E-02  0.23235E-02
 -0.18685E-02  0.91467E-03  0.23235E-02
 -0.16476E-03 -0.19806E-02  0.23235E-02
 -0.95405E-03 -0.23494E-02  0.23235E-02
  0.77402E-03 -0.17073E-02  0.23235E-02
  0.17202E-02 -0.14948E-02  0.23235E-02
  0.32122E-02  0.78248E-03  0.23235E-02
  0.28041E-02  0.12571E-02  0.23235E-02
  0.23034E-02  0.18673E-02  0.23235E-02
 -0.40310E-03  0.28802E-02  0.23235E-02
 -0.12093E-02  0.27103E-02  0.23235E-02
 -0.19440E-02  0.24593E-02  0.23235E-02
 -0.25022E-02  0.22358E-02  0.23235E-02
 -0.26351E-02  0.16502E-02  0.23235E-02
 -0.27602E-02  0.88069E-03  0.23235E-02
 -0.21154E-02 -0.21374E-02  0.23235E-02
 -0.16097E-02 -0.26936E-02  0.23235E-02
 -0.11964E-02 -0.31291E-02  0.23235E-02
 -0.59409E-03 -0.30381E-02  0.23235E-02
  0.20018E-03 -0.28751E-02  0.23235E-02
  0.10518E-02 -0.26482E-02  0.23235E-02
  0.18422E-02 -0.23752E-02  0.23235E-02
  0.24571E-02 -0.21565E-02  0.23235E-02
  0.26038E-02 -0.15081E-02  0.23235E-02
  0.37964E-02  0.93572E-03  0.23235E-02
  0.39100E-02  0.00000E+00  0.23235E-02
  0.34621E-02  0.18171E-02  0.23235E-02
  0.29267E-02  0.25928E-02  0.23235E-02
  0.22211E-02  0.32179E-02  0.23235E-02
  0.13865E-02  0.36559E-02  0.23235E-02
  0.47130E-03  0.38815E-02  0.23235E-02
 -0.47130E-03  0.38815E-02  0.23235E-02
 -0.13865E-02  0.36559E-02  0.23235E-02
 -0.22211E-02  0.32179E-02  0.23235E-02
 -0.29267E-02  0.25928E-02  0.23235E-02
 -0.34621E-02  0.18171E-02  0.23235E-02
 -0.37964E-02  0.93572E-03  0.23235E-02
 -0.39100E-02 -0.47884E-18  0.23235E-02
 -0.37964E-02 -0.93572E-03  0.23235E-02
 -0.34621E-02 -0.18171E-02  0.23235E-02
 -0.29267E-02 -0.25928E-02  0.23235E-02
 -0.22211E-02 -0.32179E-02  0.23235E-02
 -0.13865E-02 -0.36559E-02  0.23235E-02
 -0.47130E-03 -0.38815E-02  0.23235E-02
  0.47130E-03 -0.38815E-02  0.23235E-02
  0.13865E-02 -0.36559E-02  0.23235E-02
  0.22211E-02 -0.32179E-02  0.23235E-02
  0.29267E-02 -0.25928E-02  0.23235E-02
  0.34621E-02 -0.18171E-02  0.23235E-02
  0.37964E-02 -0.93572E-03  0.23235E-02
  0.10351E-02  0.68567E-03  0.33027E-02
  0.17411E-02  0.12460E-02  0.33027E-02
  0.23149E-02  0.60355E-03  0.33027E-02
  0.16649E-02 -0.32040E-03  0.33027E-02
  0.30371E-02  0.15718E-03  0.33027E-02
  0.27870E-02 -0.66509E-03  0.33027E-02
  0.12826E-02  0.18455E-02  0.33027E-02
  0.64575E-03  0.14807E-02  0.33027E-02
  0.12154E-03  0.32574E-03  0.33027E-02
 -0.13248E-03  0.12075E-02  0.33027E-02
  0.93738E-03  0.22777E-02  0.33027E-02
  0.11249E-02  0.28185E-02  0.33027E-02
  0.17400E-02  0.24271E-02  0.33027E-02
  0.40463E-03  0.21693E-02  0.33027E-02
  0.39740E-03  0.29306E-02  0.33027E-02
 -0.77117E-03 -0.10065E-02  0.33027E-02
 -0.86854E-03  0.97583E-04  0.33027E-02
  0.45089E-03 -0.68648E-03  0.33027E-02
 -0.18368E-02 -0.70873E-03  0.33027E-02
 -0.18418E-02  0.85591E-04  0.33027E-02
 -0.27232E-02 -0.77474E-03  0.33027E-02
 -0.27965E-02  0.47000E-04  0.33027E-02
 -0.25400E-02 -0.15183E-02  0.33027E-02
 -0.19386E-02 -0.13207E-02  0.33027E-02
 -0.99032E-03  0.10197E-02  0.33027E-02
 -0.14460E-02 -0.17316E-02  0.33027E-02
 -0.31113E-03  0.20285E-02  0.33027E-02
 -0.10988E-02  0.18585E-02  0.33027E-02
 -0.18833E-02  0.17175E-02  0.33027E-02
 -0.18683E-02  0.91491E-03  0.33027E-02
 -0.16504E-03 -0.19806E-02  0.33027E-02
 -0.95465E-03 -0.23495E-02  0.33027E-02
  0.77336E-03 -0.17073E-02  0.33027E-02
  0.17201E-02 -0.14950E-02  0.33027E-02
  0.32125E-02  0.78348E-03  0.33027E-02
  0.28041E-02  0.12576E-02  0.33027E-02
  0.23033E-02  0.18674E-02  0.33027E-02
 -0.40296E-03  0.28792E-02  0.33027E-02
 -0.12093E-02  0.27099E-02  0.33027E-02
 -0.19439E-02  0.24591E-02  0.33027E-02
 -0.25022E-02  0.22358E-02  0.33027E-02
 -0.26350E-02  0.16502E-02  0.33027E-02
 -0.27599E-02  0.88095E-03  0.33027E-02
 -0.21155E-02 -0.21374E-02  0.33027E-02
 -0.16097E-02 -0.26936E-02  0.33027E-02
 -0.11965E-02 -0.31290E-02  0.33027E-02
 -0.59444E-03 -0.30381E-02  0.33027E-02
  0.19977E-03 -0.28751E-02  0.33027E-02
  0.10515E-02 -0.26484E-02  0.33027E-02
  0.18423E-02 -0.23754E-02  0.33027E-02
  0.24573E-02 -0.21571E-02  0.33027E-02
  0.26039E-02 -0.15080E-02  0.33027E-02
  0.37964E-02  0.93572E-03  0.33027E-02
  0.39100E-02  0.00000E+00  0.33027E-02
  0.34621E-02  0.18171E-02  0.33027E-02
  0.29267E-02  0.25928E-02  0.33027E-02
  0.22211E-02  0.32179E-02  0.33027E-02
  0.13865E-02  0.36559E-02  0.33027E-02
  0.47130E-03  0.38815E-02  0.33027E-02
 -0.47130E-03  0.38815E-02  0.33027E-02
 -0.13865E-02  0.36559E-02  0.33027E-02
 -0.22211E-02  0.32179E-02  0.33027E-02
 -0.29267E-02  0.25928E-02  0.33027E-02
 -0.34621E-02  0.18171E-02  0.33027E-02
 -0.37964E-02  0.93572E-03  0.33027E-02
 -0.39100E-02  0.47884E-18  0.33027E-02
 -0.37964E-02 -0.93572E-03  0.33027E-02
 -0.34621E-02 -0.18171E-02  0.33027E-02
 -0.29267E-02 -0.25928E-02  0.33027E-02
 -0.22211E-02 -0.32179E-02  0.33027E-02
 -0.13865E-02 -0.36559E-02  0.33027E-02
 -0.47130E-03 -0.38815E-02  0.33027E-02
  0.47130E-03 -0.38815E-02  0.33027E-02
  0.13865E-02 -0.36559E-02  0.33027E-02
  0.22211E-02 -0.32179E-02  0.33027E-02
  0.29267E-02 -0.25928E-02  0.33027E-02
  0.34621E-02 -0.18171E-02  0.33027E-02
  0.37964E-02 -0.93572E-03  0.33027E-02
  
CELLS       3486               17724
       1       0
       1       1
       1       2
       1       3
       1       4
       1       5
       1       6
       1       7
       1       8
       1       9
       1      10
       1      11
       1      12
       1      13
       1      14
       1      15
       1      16
       1      17
       1      18
       1      19
       1      20
       1      21
       1      22
       1      23
       1      24
       1      25
       1      26
       1      27
       1      28
       1      29
       1      30
       1      31
       1      32
       1      33
       1      34
       1      35
       1      36
       1      37
       1      38
       1      39
       1      40
       1      41
       1      42
       1      43
       1      44
       1      45
       1      46
       1      47
       1      48
       1      49
       1      50
       1      51
       1      52
       1      53
       1      54
       1      55
       1      56
       1      57
       1      58
       1      59
       1      60
       1      61
       1      62
       1      63
       1      64
       1      65
       1      66
       1      67
       1      68
       1      69
       1      70
       1      71
       1      72
       1      73
       1      74
       1      75
       1      76
       1      77
       1      78
       1      79
       1      80
       1      81
       1      82
       1      83
       1      84
       1      85
       1      86
       1      87
       1      88
       1      89
       1      90
       1      91
       1      92
       1      93
       1      94
       1      95
       1      96
       1      97
       1      98
       1      99
       1     100
       1     101
       1     102
       1     103
       1     104
       1     105
       1     106
       1     107
       1     108
       1     109
       1     110
       1     111
       1     112
       1     113
       1     114
       1     115
       1     116
       1     117
       1     118
       1     119
       1     120
       1     121
       1     122
       1     123
       1     124
       1     125
       1     126
       1     127
       1     128
       1     129
       1     130
       1     131
       1     132
       1     133
       1     134
       1     135
       1     136
       1     137
       1     138
       1     139
       1     140
       1     141
       1     142
       1     143
       1     144
       1     145
       1     146
       1     147
       1     148
       1     149
       1     150
       1     151
       1     152
       1     153
       1     154
       1     155
       1     156
       1     157
       1     158
       1     159
       1     160
       1     161
       1     162
       1     163
       1     164
       1     165
       1     166
       1     167
       1     168
       1     169
       1     170
       1     171
       1     172
       1     173
       1     174
       1     175
       1     176
       1     177
       1     178
       1     179
       1     180
       1     181
       1     182
       1     183
       1     184
       1     185
       1     186
       1     187
       1     188
       1     189
       1     190
       1     191
       1     192
       1     193
       1     194
       1     195
       1     196
       1     197
       1     198
       1     199
       1     200
       1     201
       1     202
       1     203
       1     204
       1     205
       1     206
       1     207
       1     208
       1     209
       1     210
       1     211
       1     212
       1     213
       1     214
       1     215
       1     216
       1     217
       1     218
       1     219
       1     220
       1     221
       1     222
       1     223
       1     224
       1     225
       1     226
       1     227
       1     228
       1     229
       1     230
       1     231
       1     232
       1     233
       1     234
       1     235
       1     236
       1     237
       1     238
       1     239
       1     240
       1     241
       1     242
       1     243
       1     244
       1     245
       1     246
       1     247
       1     248
       1     249
       1     250
       1     251
       1     252
       1     253
       1     254
       1     255
       1     256
       1     257
       1     258
       1     259
       1     260
       1     261
       1     262
       1     263
       1     264
       1     265
       1     266
       1     267
       1     268
       1     269
       1     270
       1     271
       1     272
       1     273
       1     274
       1     275
       1     276
       1     277
       1     278
       1     279
       1     280
       1     281
       1     282
       1     283
       1     284
       1     285
       1     286
       1     287
       1     288
       1     289
       1     290
       1     291
       1     292
       1     293
       1     294
       1     295
       1     296
       1     297
       1     298
       1     299
       1     300
       1     301
       1     302
       1     303
       1     304
       1     305
       1     306
       1     307
       1     308
       1     309
       1     310
       1     311
       1     312
       1     313
       1     314
       1     315
       1     316
       1     317
       1     318
       1     319
       1     320
       1     321
       1     322
       1     323
       1     324
       1     325
       1     326
       1     327
       1     328
       1     329
       1     330
       1     331
       1     332
       1     333
       1     334
       1     335
       1     336
       1     337
       1     338
       1     339
       1     340
       1     341
       1     342
       1     343
       1     344
       1     345
       1     346
       1     347
       1     348
       1     349
       1     350
       1     351
       1     352
       1     353
       1     354
       1     355
       1     356
       1     357
       1     358
       1     359
       1     360
       1     361
       1     362
       1     363
       1     364
       1     365
       1     366
       1     367
       1     368
       1     369
       1     370
       1     371
       1     372
       1     373
       1     374
       1     375
       1     376
       1     377
       1     378
       1     379
       1     380
       1     381
       1     382
       1     383
       1     384
       1     385
       1     386
       1     387
       1     388
       1     389
       1     390
       1     391
       1     392
       1     393
       1     394
       1     395
       1     396
       1     397
       1     398
       1     399
       1     400
       1     401
       1     402
       1     403
       1     404
       1     405
       1     406
       1     407
       1     408
       1     409
       1     410
       1     411
       1     412
       1     413
       1     414
       1     415
       1     416
       1     417
       1     418
       1     419
       1     420
       1     421
       1     422
       1     423
       1     424
       1     425
       1     426
       1     427
       1     428
       1     429
       1     430
       1     431
       1     432
       1     433
       1     434
       1     435
       1     436
       1     437
       1     438
       1     439
       1     440
       1     441
       1     442
       1     443
       1     444
       1     445
       1     446
       1     447
       1     448
       1     449
       1     450
       1     451
       1     452
       1     453
       1     454
       1     455
       1     456
       1     457
       1     458
       1     459
       1     460
       1     461
       1     462
       1     463
       1     464
       1     465
       1     466
       1     467
       1     468
       1     469
       1     470
       1     471
       1     472
       1     473
       1     474
       1     475
       1     476
       1     477
       1     478
       1     479
       1     480
       1     481
       1     482
       1     483
       1     484
       1     485
       1     486
       1     487
       1     488
       1     489
       1     490
       1     491
       1     492
       1     493
       1     494
       1     495
       1     496
       1     497
       1     498
       1     499
       1     500
       1     501
       1     502
       1     503
       1     504
       1     505
       1     506
       1     507
       1     508
       1     509
       1     510
       1     511
       1     512
       1     513
       1     514
       1     515
       1     516
       1     517
       1     518
       1     519
       1     520
       1     521
       1     522
       1     523
       1     524
       1     525
       1     526
       1     527
       1     528
       1     529
       1     530
       1     531
       1     532
       1     533
       1     534
       1     535
       1     536
       1     537
       1     538
       1     539
       1     540
       1     541
       1     542
       1     543
       1     544
       1     545
       1     546
       1     547
       1     548
       1     549
       1     550
       1     551
       1     552
       1     553
       1     554
       1     555
       1     556
       1     557
       1     558
       1     559
       1     560
       1     561
       1     562
       1     563
       1     564
       1     565
       1     566
       1     567
       1     568
       1     569
       1     570
       1     571
       1     572
       1     573
       1     574
       1     575
       1     576
       1     577
       1     578
       1     579
       1     580
       1     581
       1     582
       1     583
       1     584
       1     585
       1     586
       1     587
       1     588
       1     589
       1     590
       1     591
       1     592
       1     593
       1     594
       1     595
       1     596
       1     597
       1     598
       1     599
       1     600
       1     601
       1     602
       1     603
       1     604
       1     605
       1     606
       1     607
       1     608
       1     609
       1     610
       1     611
       1     612
       1     613
       1     614
       1     615
       1     616
       1     617
       1     618
       1     619
       1     620
       1     621
       1     622
       1     623
       1     624
       1     625
       1     626
       1     627
       1     628
       1     629
       1     630
       1     631
       1     632
       1     633
       1     634
       1     635
       1     636
       1     637
       1     638
       1     639
       1     640
       1     641
       1     642
       1     643
       1     644
       1     645
       1     646
       1     647
       1     648
       1     649
       1     650
       1     651
       1     652
       1     653
       1     654
       1     655
       1     656
       1     657
       1     658
       1     659
       1     660
       1     661
       1     662
       1     663
       1     664
       1     665
       1     666
       1     667
       1     668
       1     669
       1     670
       1     671
       1     672
       1     673
       1     674
       1     675
       1     676
       1     677
       1     678
       1     679
       1     680
       1     681
       1     682
       1     683
       1     684
       1     685
       1     686
       1     687
       1     688
       1     689
       1     690
       1     691
       1     692
       1     693
       1     694
       1     695
       1     696
       1     697
       1     698
       1     699
       1     700
       1     701
       1     702
       1     703
       1     704
       1     705
       1     706
       1     707
       1     708
       1     709
       1     710
       1     711
       1     712
       1     713
       1     714
       1     715
       1     716
       1     717
       1     718
       1     719
       1     720
       1     721
       1     722
       1     723
       1     724
       1     725
       1     726
       1     727
       1     728
       1     729
       1     730
       1     731
       1     732
       1     733
       1     734
       1     735
       1     736
       1     737
       1     738
       1     739
       1     740
       1     741
       1     742
       1     743
       1     744
       1     745
       1     746
       1     747
       1     748
       1     749
       1     750
       1     751
       1     752
       1     753
       1     754
       1     755
       1     756
       1     757
       1     758
       1     759
       1     760
       1     761
       1     762
       1     763
       1     764
       1     765
       1     766
       1     767
       1     768
       1     769
       1     770
       1     771
       1     772
       1     773
       1     774
       1     775
       1     776
       1     777
       1     778
       1     779
       1     780
       1     781
       1     782
       1     783
       1     784
       1     785
       1     786
       1     787
       1     788
       1     789
       1     790
       1     791
       1     792
       1     793
       1     794
       1     795
       1     796
       1     797
       1     798
       1     799
       1     800
       1     801
       1     802
       1     803
       1     804
       1     805
       1     806
       1     807
       1     808
       1     809
       1     810
       1     811
       1     812
       1     813
       1     814
       1     815
       1     816
       1     817
       1     818
       1     819
       1     820
       1     821
       1     822
       1     823
       1     824
       1     825
       1     826
       1     827
       1     828
       1     829
       1     830
       1     831
       1     832
       1     833
       1     834
       1     835
       1     836
       1     837
       1     838
       1     839
       1     840
       1     841
       1     842
       1     843
       1     844
       1     845
       1     846
       1     847
       1     848
       1     849
       1     850
       1     851
       1     852
       1     853
       1     854
       1     855
       1     856
       1     857
       1     858
       1     859
       1     860
       1     861
       1     862
       1     863
       1     864
       1     865
       1     866
       1     867
       1     868
       1     869
       1     870
       1     871
       1     872
       1     873
       1     874
       1     875
       1     876
       1     877
       1     878
       1     879
       1     880
       1     881
       1     882
       1     883
       1     884
       1     885
       1     886
       1     887
       1     888
       1     889
       1     890
       1     891
       1     892
       1     893
       1     894
       1     895
       1     896
       1     897
       1     898
       1     899
       1     900
       1     901
       1     902
       1     903
       1     904
       1     905
       1     906
       1     907
       1     908
       1     909
       1     910
       1     911
       1     912
       1     913
       1     914
       1     915
       1     916
       1     917
       1     918
       1     919
       1     920
       1     921
       1     922
       1     923
       1     924
       1     925
       1     926
       1     927
       1     928
       1     929
       1     930
       1     931
       1     932
       1     933
       1     934
       1     935
       1     936
       1     937
       1     938
       1     939
       1     940
       1     941
       1     942
       1     943
       1     944
       1     945
       1     946
       1     947
       1     948
       1     949
       1     950
       1     951
       1     952
       1     953
       1     954
       1     955
       1     956
       1     957
       1     958
       1     959
       1     960
       1     961
       1     962
       1     963
       1     964
       1     965
       1     966
       1     967
       1     968
       1     969
       1     970
       1     971
       1     972
       1     973
       1     974
       1     975
       1     976
       1     977
       1     978
       1     979
       1     980
       1     981
       1     982
       1     983
       1     984
       1     985
       1     986
       1     987
       1     988
       1     989
       1     990
       1     991
       1     992
       1     993
       1     994
       1     995
       1     996
       1     997
       1     998
       1     999
       1    1000
       1    1001
       1    1002
       1    1003
       1    1004
       1    1005
       1    1006
       1    1007
       1    1008
       1    1009
       1    1010
       1    1011
       1    1012
       1    1013
       1    1014
       1    1015
       1    1016
       1    1017
       1    1018
       1    1019
       1    1020
       1    1021
       1    1022
       1    1023
       1    1024
       1    1025
       1    1026
       1    1027
       1    1028
       1    1029
       1    1030
       1    1031
       1    1032
       1    1033
       1    1034
       1    1035
       1    1036
       1    1037
       1    1038
       1    1039
       1    1040
       1    1041
       1    1042
       1    1043
       1    1044
       1    1045
       1    1046
       1    1047
       1    1048
       1    1049
       1    1050
       1    1051
       1    1052
       1    1053
       1    1054
       1    1055
       1    1056
       1    1057
       1    1058
       1    1059
       1    1060
       1    1061
       1    1062
       1    1063
       1    1064
       1    1065
       1    1066
       1    1067
       1    1068
       1    1069
       1    1070
       1    1071
       1    1072
       1    1073
       1    1074
       1    1075
       1    1076
       1    1077
       1    1078
       1    1079
       1    1080
       1    1081
       1    1082
       1    1083
       1    1084
       1    1085
       1    1086
       1    1087
       1    1088
       1    1089
       1    1090
       1    1091
       1    1092
       1    1093
       1    1094
       1    1095
       1    1096
       1    1097
       1    1098
       1    1099
       1    1100
       1    1101
       1    1102
       1    1103
       1    1104
       1    1105
       1    1106
       1    1107
       1    1108
       1    1109
       1    1110
       1    1111
       1    1112
       1    1113
       1    1114
       1    1115
       1    1116
       1    1117
       1    1118
       1    1119
       1    1120
       1    1121
       1    1122
       1    1123
       1    1124
       1    1125
       1    1126
       1    1127
       1    1128
       1    1129
       1    1130
       1    1131
       1    1132
       1    1133
       1    1134
       1    1135
       1    1136
       1    1137
       1    1138
       1    1139
       1    1140
       1    1141
       1    1142
       1    1143
       1    1144
       1    1145
       1    1146
       1    1147
       1    1148
       1    1149
       1    1150
       1    1151
       1    1152
       1    1153
       1    1154
       1    1155
       1    1156
       1    1157
       1    1158
       1    1159
       1    1160
       1    1161
       1    1162
       1    1163
       1    1164
       1    1165
       1    1166
       1    1167
       1    1168
       1    1169
       1    1170
       1    1171
       1    1172
       1    1173
       1    1174
       1    1175
       1    1176
       1    1177
       1    1178
       1    1179
       1    1180
       1    1181
       1    1182
       1    1183
       1    1184
       1    1185
       1    1186
       1    1187
       1    1188
       1    1189
       1    1190
       1    1191
       1    1192
       1    1193
       1    1194
       1    1195
       1    1196
       1    1197
       1    1198
       1    1199
       1    1200
       1    1201
       1    1202
       1    1203
       1    1204
       1    1205
       1    1206
       1    1207
       1    1208
       1    1209
       1    1210
       1    1211
       1    1212
       1    1213
       1    1214
       1    1215
       1    1216
       1    1217
       1    1218
       1    1219
       1    1220
       1    1221
       1    1222
       1    1223
       1    1224
       1    1225
       1    1226
       1    1227
       1    1228
       1    1229
       1    1230
       1    1231
       1    1232
       1    1233
       1    1234
       1    1235
       1    1236
       1    1237
       1    1238
       1    1239
       1    1240
       1    1241
       1    1242
       1    1243
       1    1244
       1    1245
       1    1246
       1    1247
       1    1248
       1    1249
       1    1250
       1    1251
       1    1252
       1    1253
       1    1254
       1    1255
       1    1256
       1    1257
       1    1258
       1    1259
       1    1260
       1    1261
       1    1262
       1    1263
       1    1264
       1    1265
       1    1266
       1    1267
       1    1268
       1    1269
       1    1270
       1    1271
       1    1272
       1    1273
       1    1274
       1    1275
       1    1276
       1    1277
       1    1278
       1    1279
       1    1280
       1    1281
       1    1282
       1    1283
       1    1284
       1    1285
       1    1286
       1    1287
       1    1288
       1    1289
       1    1290
       1    1291
       1    1292
       1    1293
       1    1294
       1    1295
       1    1296
       1    1297
       1    1298
       1    1299
       1    1300
       1    1301
       1    1302
       1    1303
       1    1304
       1    1305
       1    1306
       1    1307
       1    1308
       1    1309
       1    1310
       1    1311
       1    1312
       1    1313
       1    1314
       1    1315
       1    1316
       1    1317
       1    1318
       1    1319
       1    1320
       1    1321
       1    1322
       1    1323
       1    1324
       1    1325
       1    1326
       1    1327
       1    1328
       1    1329
       1    1330
       1    1331
       1    1332
       1    1333
       1    1334
       1    1335
       1    1336
       1    1337
       1    1338
       1    1339
       1    1340
       1    1341
       1    1342
       1    1343
       1    1344
       1    1345
       1    1346
       1    1347
       1    1348
       1    1349
       1    1350
       1    1351
       1    1352
       1    1353
       1    1354
       1    1355
       1    1356
       1    1357
       1    1358
       1    1359
       1    1360
       1    1361
       1    1362
       1    1363
       1    1364
       1    1365
       1    1366
       1    1367
       1    1368
       1    1369
       1    1370
       1    1371
       1    1372
       1    1373
       1    1374
       1    1375
       1    1376
       1    1377
       1    1378
       1    1379
       1    1380
       1    1381
       1    1382
       1    1383
       1    1384
       1    1385
       1    1386
       1    1387
       1    1388
       1    1389
       1    1390
       1    1391
       1    1392
       1    1393
       1    1394
       1    1395
       1    1396
       1    1397
       1    1398
       1    1399
       1    1400
       1    1401
       1    1402
       1    1403
       1    1404
       1    1405
       1    1406
       1    1407
       1    1408
       1    1409
       1    1410
       1    1411
       1    1412
       1    1413
       1    1414
       1    1415
       1    1416
       1    1417
       1    1418
       1    1419
       1    1420
       1    1421
       1    1422
       1    1423
       1    1424
       1    1425
       1    1426
       1    1427
       1    1428
       1    1429
       1    1430
       1    1431
       1    1432
       1    1433
       1    1434
       1    1435
       1    1436
       1    1437
       1    1438
       1    1439
       1    1440
       1    1441
       1    1442
       1    1443
       1    1444
       1    1445
       1    1446
       1    1447
       1    1448
       1    1449
       1    1450
       1    1451
       1    1452
       1    1453
       1    1454
       1    1455
       1    1456
       1    1457
       1    1458
       1    1459
       1    1460
       1    1461
       1    1462
       1    1463
       1    1464
       1    1465
       1    1466
       1    1467
       1    1468
       1    1469
       1    1470
       1    1471
       1    1472
       1    1473
       1    1474
       1    1475
       1    1476
       1    1477
       1    1478
       1    1479
       1    1480
       1    1481
       1    1482
       1    1483
       1    1484
       1    1485
       1    1486
       1    1487
       1    1488
       1    1489
       1    1490
       1    1491
       1    1492
       1    1493
       1    1494
       1    1495
       1    1496
       1    1497
       1    1498
       1    1499
       1    1500
       1    1501
       1    1502
       1    1503
       1    1504
       1    1505
       1    1506
       1    1507
       1    1508
       1    1509
       1    1510
       1    1511
       1    1512
       1    1513
       1    1514
       1    1515
       1    1516
       1    1517
       1    1518
       1    1519
       1    1520
       1    1521
       1    1522
       1    1523
       1    1524
       1    1525
       1    1526
       1    1527
       1    1528
       1    1529
       1    1530
       1    1531
       1    1532
       1    1533
       1    1534
       1    1535
       1    1536
       1    1537
       1    1538
       1    1539
       1    1540
       1    1541
       1    1542
       1    1543
       1    1544
       1    1545
       1    1546
       1    1547
       1    1548
       1    1549
       1    1550
       1    1551
       1    1552
       1    1553
       1    1554
       1    1555
       1    1556
       1    1557
       1    1558
       1    1559
       1    1560
       1    1561
       1    1562
       1    1563
       1    1564
       1    1565
       1    1566
       1    1567
       1    1568
       1    1569
       1    1570
       1    1571
       1    1572
       1    1573
       1    1574
       1    1575
       1    1576
       1    1577
       1    1578
       1    1579
       1    1580
       1    1581
       1    1582
       1    1583
       1    1584
       1    1585
       1    1586
       1    1587
       1    1588
       1    1589
       1    1590
       1    1591
       1    1592
       1    1593
       1    1594
       1    1595
       1    1596
       1    1597
       1    1598
       1    1599
       1    1600
       1    1601
       1    1602
       1    1603
       1    1604
       1    1605
       1    1606
       1    1607
       1    1608
       1    1609
       1    1610
       1    1611
       1    1612
       1    1613
       1    1614
       1    1615
       1    1616
       1    1617
       1    1618
       1    1619
       1    1620
       1    1621
       1    1622
       1    1623
       1    1624
       1    1625
       1    1626
       1    1627
       1    1628
       1    1629
       1    1630
       1    1631
       1    1632
       1    1633
       1    1634
       1    1635
       1    1636
       1    1637
       1    1638
       1    1639
       1    1640
       1    1641
       1    1642
       1    1643
       1    1644
       1    1645
       1    1646
       1    1647
       1    1648
       1    1649
       1    1650
       1    1651
       1    1652
       1    1653
       1    1654
       1    1655
       1    1656
       1    1657
       1    1658
       1    1659
       1    1660
       1    1661
       1    1662
       1    1663
       1    1664
       1    1665
       1    1666
       1    1667
       1    1668
       1    1669
       1    1670
       1    1671
       1    1672
       1    1673
       1    1674
       1    1675
       1    1676
       1    1677
       1    1678
       1    1679
       1    1680
       1    1681
       1    1682
       1    1683
       1    1684
       1    1685
       1    1686
       1    1687
       1    1688
       1    1689
       1    1690
       1    1691
       1    1692
       1    1693
       1    1694
       1    1695
       1    1696
       1    1697
       1    1698
       1    1699
       1    1700
       1    1701
       1    1702
       1    1703
       1    1704
       1    1705
       1    1706
       1    1707
       1    1708
       1    1709
       1    1710
       1    1711
       1    1712
       1    1713
       1    1714
       1    1715
       1    1716
       1    1717
       1    1718
       1    1719
       1    1720
       1    1721
       1    1722
       1    1723
       1    1724
       1    1725
       1    1726
       1    1727
       1    1728
       1    1729
       1    1730
       1    1731
       1    1732
       1    1733
       1    1734
       1    1735
       1    1736
       1    1737
       1    1738
       1    1739
       1    1740
       1    1741
       1    1742
       1    1743
       1    1744
       1    1745
       1    1746
       1    1747
       1    1748
       1    1749
       1    1750
       1    1751
       1    1752
       1    1753
       1    1754
       1    1755
       1    1756
       1    1757
       1    1758
       1    1759
       1    1760
       1    1761
       1    1762
       1    1763
       1    1764
       1    1765
       1    1766
       1    1767
       1    1768
       1    1769
       1    1770
       1    1771
       1    1772
       1    1773
       1    1774
       1    1775
       1    1776
       1    1777
       1    1778
       1    1779
       1    1780
       1    1781
       1    1782
       1    1783
       1    1784
       1    1785
       1    1786
       1    1787
       1    1788
       1    1789
       1    1790
       1    1791
       1    1792
       1    1793
       1    1794
       1    1795
       1    1796
       1    1797
       1    1798
       1    1799
       1    1800
       1    1801
       1    1802
       1    1803
       1    1804
       1    1805
       1    1806
       1    1807
       1    1808
       1    1809
       1    1810
       1    1811
       1    1812
       1    1813
       1    1814
       1    1815
       1    1816
       1    1817
       1    1818
       1    1819
       1    1820
       1    1821
       1    1822
       1    1823
       1    1824
       1    1825
       1    1826
       1    1827
       1    1828
       1    1829
       1    1830
       1    1831
       1    1832
       1    1833
       1    1834
       1    1835
       1    1836
       1    1837
       1    1838
       1    1839
       1    1840
       1    1841
       1    1842
       1    1843
       1    1844
       1    1845
       1    1846
       1    1847
       1    1848
       1    1849
       1    1850
       1    1851
       1    1852
       1    1853
       1    1854
       1    1855
       1    1856
       1    1857
       1    1858
       1    1859
       1    1860
       1    1861
       1    1862
       1    1863
       1    1864
       1    1865
       1    1866
       1    1867
       1    1868
       1    1869
       1    1870
       1    1871
       1    1872
       1    1873
       1    1874
       1    1875
       1    1876
       1    1877
       1    1878
       1    1879
       1    1880
       1    1881
       1    1882
       1    1883
       1    1884
       1    1885
       1    1886
       1    1887
       1    1888
       1    1889
       1    1890
       1    1891
       1    1892
       1    1893
       1    1894
       1    1895
       1    1896
       1    1897
       1    1898
       1    1899
       1    1900
       1    1901
       1    1902
       1    1903
       1    1904
       1    1905
       1    1906
       1    1907
       1    1908
       1    1909
       1    1910
       1    1911
       1    1912
       1    1913
       1    1914
       1    1915
       1    1916
       1    1917
       1    1918
       1    1919
       1    1920
       1    1921
       1    1922
       1    1923
       1    1924
       1    1925
       1    1926
       1    1927
       1    1928
       1    1929
       1    1930
       1    1931
       1    1932
       1    1933
       1    1934
       1    1935
       1    1936
       1    1937
       1    1938
       1    1939
       1    1940
       1    1941
       1    1942
       1    1943
       1    1944
       1    1945
       1    1946
       1    1947
       1    1948
       1    1949
       8       0       1       2       3       4       5       6       7
       8       2       8       9       3       6      10      11       7
       8      12       1       0      13      14       5       4      15
       8       0      16      17      13       4      18      19      15
       8      20      21      22      12      23      24      25      14
       8      26      27      21      20      28      29      24      23
       8      13      26      20      12      15      28      23      14
       8      30      31      16      32      33      34      18      35
       8      36      37      31      30      38      39      34      33
       8      40      41      37      36      42      43      39      38
       8      44      40      36      45      46      42      38      47
       8      48      17      16      31      49      19      18      34
       8      30      50      45      36      33      51      47      38
       8       0       3      32      16       4       7      35      18
       8      52      26      13      17      53      28      15      19
       8      54      52      17      48      55      53      19      49
       8      56      54      48      57      58      55      49      59
       8      37      57      48      31      39      59      49      34
       8      60      61      50      30      62      63      51      33
       8      64      60      30      32      65      62      33      35
       8      66      64      32       3      67      65      35       7
       8      68       8       2      69      70      10       6      71
       8      72      69       2       1      73      71       6       5
       8      22      72       1      12      25      73       5      14
       8      74      27      26      52      75      29      28      53
       8      76      74      52      54      77      75      53      55
       8      78      76      54      56      79      77      55      58
       8      80      78      56      81      82      79      58      83
       8      84      81      56      57      85      83      58      59
       8      41      84      57      37      43      85      59      39
       8      86      44      45      50      87      46      47      51
       8      88      86      50      61      89      87      51      63
       8      90      88      61      91      92      89      63      93
       8      94      91      61      60      95      93      63      62
       8      96      94      60      64      97      95      62      65
       8      98      96      64      66      99      97      65      67
       8     100      98      66     101     102      99      67     103
       8       9     101      66       3      11     103      67       7
       8     104     105       8      68     106     107      10      70
       8     108     104      68      69     109     106      70      71
       8     110     108      69      72     111     109      71      73
       8     112     110      72      22     113     111      73      25
       8     114     112      22      21     115     113      25      24
       8     116     114      21      27     117     115      24      29
       8     118     116      27      74     119     117      29      75
       8     120     118      74      76     121     119      75      77
       8     122     120      76      78     123     121      77      79
       8     124     122      78      80     125     123      79      82
       8     126     124      80      81     127     125      82      83
       8     128     126      81      84     129     127      83      85
       8     130     128      84      41     131     129      85      43
       8     132     130      41      40     133     131      43      42
       8     134     132      40      44     135     133      42      46
       8     136     134      44      86     137     135      46      87
       8     138     136      86      88     139     137      87      89
       8     140     138      88      90     141     139      89      92
       8     142     140      90      91     143     141      92      93
       8     144     142      91      94     145     143      93      95
       8     146     144      94      96     147     145      95      97
       8     148     146      96      98     149     147      97      99
       8     150     148      98     100     151     149      99     102
       8     152     150     100     101     153     151     102     103
       8     154     152     101       9     155     153     103      11
       8     105     154       9       8     107     155      11      10
       8     156     157     158     159       0       1       2       3
       8     158     160     161     159       2       8       9       3
       8     162     157     156     163      12       1       0      13
       8     156     164     165     163       0      16      17      13
       8     166     167     168     162      20      21      22      12
       8     169     170     167     166      26      27      21      20
       8     163     169     166     162      13      26      20      12
       8     171     172     164     173      30      31      16      32
       8     174     175     172     171      36      37      31      30
       8     176     177     175     174      40      41      37      36
       8     178     176     174     179      44      40      36      45
       8     180     165     164     172      48      17      16      31
       8     171     181     179     174      30      50      45      36
       8     156     159     173     164       0       3      32      16
       8     182     169     163     165      52      26      13      17
       8     183     182     165     180      54      52      17      48
       8     184     183     180     185      56      54      48      57
       8     175     185     180     172      37      57      48      31
       8     186     187     181     171      60      61      50      30
       8     188     186     171     173      64      60      30      32
       8     189     188     173     159      66      64      32       3
       8     190     160     158     191      68       8       2      69
       8     192     191     158     157      72      69       2       1
       8     168     192     157     162      22      72       1      12
       8     193     170     169     182      74      27      26      52
       8     194     193     182     183      76      74      52      54
       8     195     194     183     184      78      76      54      56
       8     196     195     184     197      80      78      56      81
       8     198     197     184     185      84      81      56      57
       8     177     198     185     175      41      84      57      37
       8     199     178     179     181      86      44      45      50
       8     200     199     181     187      88      86      50      61
       8     201     200     187     202      90      88      61      91
       8     203     202     187     186      94      91      61      60
       8     204     203     186     188      96      94      60      64
       8     205     204     188     189      98      96      64      66
       8     206     205     189     207     100      98      66     101
       8     161     207     189     159       9     101      66       3
       8     208     209     160     190     104     105       8      68
       8     210     208     190     191     108     104      68      69
       8     211     210     191     192     110     108      69      72
       8     212     211     192     168     112     110      72      22
       8     213     212     168     167     114     112      22      21
       8     214     213     167     170     116     114      21      27
       8     215     214     170     193     118     116      27      74
       8     216     215     193     194     120     118      74      76
       8     217     216     194     195     122     120      76      78
       8     218     217     195     196     124     122      78      80
       8     219     218     196     197     126     124      80      81
       8     220     219     197     198     128     126      81      84
       8     221     220     198     177     130     128      84      41
       8     222     221     177     176     132     130      41      40
       8     223     222     176     178     134     132      40      44
       8     224     223     178     199     136     134      44      86
       8     225     224     199     200     138     136      86      88
       8     226     225     200     201     140     138      88      90
       8     227     226     201     202     142     140      90      91
       8     228     227     202     203     144     142      91      94
       8     229     228     203     204     146     144      94      96
       8     230     229     204     205     148     146      96      98
       8     231     230     205     206     150     148      98     100
       8     232     231     206     207     152     150     100     101
       8     233     232     207     161     154     152     101       9
       8     209     233     161     160     105     154       9       8
       8     234     235     236     237     156     157     158     159
       8     236     238     239     237     158     160     161     159
       8     240     235     234     241     162     157     156     163
       8     234     242     243     241     156     164     165     163
       8     244     245     246     240     166     167     168     162
       8     247     248     245     244     169     170     167     166
       8     241     247     244     240     163     169     166     162
       8     249     250     242     251     171     172     164     173
       8     252     253     250     249     174     175     172     171
       8     254     255     253     252     176     177     175     174
       8     256     254     252     257     178     176     174     179
       8     258     243     242     250     180     165     164     172
       8     249     259     257     252     171     181     179     174
       8     234     237     251     242     156     159     173     164
       8     260     247     241     243     182     169     163     165
       8     261     260     243     258     183     182     165     180
       8     262     261     258     263     184     183     180     185
       8     253     263     258     250     175     185     180     172
       8     264     265     259     249     186     187     181     171
       8     266     264     249     251     188     186     171     173
       8     267     266     251     237     189     188     173     159
       8     268     238     236     269     190     160     158     191
       8     270     269     236     235     192     191     158     157
       8     246     270     235     240     168     192     157     162
       8     271     248     247     260     193     170     169     182
       8     272     271     260     261     194     193     182     183
       8     273     272     261     262     195     194     183     184
       8     274     273     262     275     196     195     184     197
       8     276     275     262     263     198     197     184     185
       8     255     276     263     253     177     198     185     175
       8     277     256     257     259     199     178     179     181
       8     278     277     259     265     200     199     181     187
       8     279     278     265     280     201     200     187     202
       8     281     280     265     264     203     202     187     186
       8     282     281     264     266     204     203     186     188
       8     283     282     266     267     205     204     188     189
       8     284     283     267     285     206     205     189     207
       8     239     285     267     237     161     207     189     159
       8     286     287     238     268     208     209     160     190
       8     288     286     268     269     210     208     190     191
       8     289     288     269     270     211     210     191     192
       8     290     289     270     246     212     211     192     168
       8     291     290     246     245     213     212     168     167
       8     292     291     245     248     214     213     167     170
       8     293     292     248     271     215     214     170     193
       8     294     293     271     272     216     215     193     194
       8     295     294     272     273     217     216     194     195
       8     296     295     273     274     218     217     195     196
       8     297     296     274     275     219     218     196     197
       8     298     297     275     276     220     219     197     198
       8     299     298     276     255     221     220     198     177
       8     300     299     255     254     222     221     177     176
       8     301     300     254     256     223     222     176     178
       8     302     301     256     277     224     223     178     199
       8     303     302     277     278     225     224     199     200
       8     304     303     278     279     226     225     200     201
       8     305     304     279     280     227     226     201     202
       8     306     305     280     281     228     227     202     203
       8     307     306     281     282     229     228     203     204
       8     308     307     282     283     230     229     204     205
       8     309     308     283     284     231     230     205     206
       8     310     309     284     285     232     231     206     207
       8     311     310     285     239     233     232     207     161
       8     287     311     239     238     209     233     161     160
       8     312     313     314     315     234     235     236     237
       8     314     316     317     315     236     238     239     237
       8     318     313     312     319     240     235     234     241
       8     312     320     321     319     234     242     243     241
       8     322     323     324     318     244     245     246     240
       8     325     326     323     322     247     248     245     244
       8     319     325     322     318     241     247     244     240
       8     327     328     320     329     249     250     242     251
       8     330     331     328     327     252     253     250     249
       8     332     333     331     330     254     255     253     252
       8     334     332     330     335     256     254     252     257
       8     336     321     320     328     258     243     242     250
       8     327     337     335     330     249     259     257     252
       8     312     315     329     320     234     237     251     242
       8     338     325     319     321     260     247     241     243
       8     339     338     321     336     261     260     243     258
       8     340     339     336     341     262     261     258     263
       8     331     341     336     328     253     263     258     250
       8     342     343     337     327     264     265     259     249
       8     344     342     327     329     266     264     249     251
       8     345     344     329     315     267     266     251     237
       8     346     316     314     347     268     238     236     269
       8     348     347     314     313     270     269     236     235
       8     324     348     313     318     246     270     235     240
       8     349     326     325     338     271     248     247     260
       8     350     349     338     339     272     271     260     261
       8     351     350     339     340     273     272     261     262
       8     352     351     340     353     274     273     262     275
       8     354     353     340     341     276     275     262     263
       8     333     354     341     331     255     276     263     253
       8     355     334     335     337     277     256     257     259
       8     356     355     337     343     278     277     259     265
       8     357     356     343     358     279     278     265     280
       8     359     358     343     342     281     280     265     264
       8     360     359     342     344     282     281     264     266
       8     361     360     344     345     283     282     266     267
       8     362     361     345     363     284     283     267     285
       8     317     363     345     315     239     285     267     237
       8     364     365     316     346     286     287     238     268
       8     366     364     346     347     288     286     268     269
       8     367     366     347     348     289     288     269     270
       8     368     367     348     324     290     289     270     246
       8     369     368     324     323     291     290     246     245
       8     370     369     323     326     292     291     245     248
       8     371     370     326     349     293     292     248     271
       8     372     371     349     350     294     293     271     272
       8     373     372     350     351     295     294     272     273
       8     374     373     351     352     296     295     273     274
       8     375     374     352     353     297     296     274     275
       8     376     375     353     354     298     297     275     276
       8     377     376     354     333     299     298     276     255
       8     378     377     333     332     300     299     255     254
       8     379     378     332     334     301     300     254     256
       8     380     379     334     355     302     301     256     277
       8     381     380     355     356     303     302     277     278
       8     382     381     356     357     304     303     278     279
       8     383     382     357     358     305     304     279     280
       8     384     383     358     359     306     305     280     281
       8     385     384     359     360     307     306     281     282
       8     386     385     360     361     308     307     282     283
       8     387     386     361     362     309     308     283     284
       8     388     387     362     363     310     309     284     285
       8     389     388     363     317     311     310     285     239
       8     365     389     317     316     287     311     239     238
       8     390     391     392     393     312     313     314     315
       8     392     394     395     393     314     316     317     315
       8     396     391     390     397     318     313     312     319
       8     390     398     399     397     312     320     321     319
       8     400     401     402     396     322     323     324     318
       8     403     404     401     400     325     326     323     322
       8     397     403     400     396     319     325     322     318
       8     405     406     398     407     327     328     320     329
       8     408     409     406     405     330     331     328     327
       8     410     411     409     408     332     333     331     330
       8     412     410     408     413     334     332     330     335
       8     414     399     398     406     336     321     320     328
       8     405     415     413     408     327     337     335     330
       8     390     393     407     398     312     315     329     320
       8     416     403     397     399     338     325     319     321
       8     417     416     399     414     339     338     321     336
       8     418     417     414     419     340     339     336     341
       8     409     419     414     406     331     341     336     328
       8     420     421     415     405     342     343     337     327
       8     422     420     405     407     344     342     327     329
       8     423     422     407     393     345     344     329     315
       8     424     394     392     425     346     316     314     347
       8     426     425     392     391     348     347     314     313
       8     402     426     391     396     324     348     313     318
       8     427     404     403     416     349     326     325     338
       8     428     427     416     417     350     349     338     339
       8     429     428     417     418     351     350     339     340
       8     430     429     418     431     352     351     340     353
       8     432     431     418     419     354     353     340     341
       8     411     432     419     409     333     354     341     331
       8     433     412     413     415     355     334     335     337
       8     434     433     415     421     356     355     337     343
       8     435     434     421     436     357     356     343     358
       8     437     436     421     420     359     358     343     342
       8     438     437     420     422     360     359     342     344
       8     439     438     422     423     361     360     344     345
       8     440     439     423     441     362     361     345     363
       8     395     441     423     393     317     363     345     315
       8     442     443     394     424     364     365     316     346
       8     444     442     424     425     366     364     346     347
       8     445     444     425     426     367     366     347     348
       8     446     445     426     402     368     367     348     324
       8     447     446     402     401     369     368     324     323
       8     448     447     401     404     370     369     323     326
       8     449     448     404     427     371     370     326     349
       8     450     449     427     428     372     371     349     350
       8     451     450     428     429     373     372     350     351
       8     452     451     429     430     374     373     351     352
       8     453     452     430     431     375     374     352     353
       8     454     453     431     432     376     375     353     354
       8     455     454     432     411     377     376     354     333
       8     456     455     411     410     378     377     333     332
       8     457     456     410     412     379     378     332     334
       8     458     457     412     433     380     379     334     355
       8     459     458     433     434     381     380     355     356
       8     460     459     434     435     382     381     356     357
       8     461     460     435     436     383     382     357     358
       8     462     461     436     437     384     383     358     359
       8     463     462     437     438     385     384     359     360
       8     464     463     438     439     386     385     360     361
       8     465     464     439     440     387     386     361     362
       8     466     465     440     441     388     387     362     363
       8     467     466     441     395     389     388     363     317
       8     443     467     395     394     365     389     317     316
       8     468     469     470     471     390     391     392     393
       8     470     472     473     471     392     394     395     393
       8     474     469     468     475     396     391     390     397
       8     468     476     477     475     390     398     399     397
       8     478     479     480     474     400     401     402     396
       8     481     482     479     478     403     404     401     400
       8     475     481     478     474     397     403     400     396
       8     483     484     476     485     405     406     398     407
       8     486     487     484     483     408     409     406     405
       8     488     489     487     486     410     411     409     408
       8     490     488     486     491     412     410     408     413
       8     492     477     476     484     414     399     398     406
       8     483     493     491     486     405     415     413     408
       8     468     471     485     476     390     393     407     398
       8     494     481     475     477     416     403     397     399
       8     495     494     477     492     417     416     399     414
       8     496     495     492     497     418     417     414     419
       8     487     497     492     484     409     419     414     406
       8     498     499     493     483     420     421     415     405
       8     500     498     483     485     422     420     405     407
       8     501     500     485     471     423     422     407     393
       8     502     472     470     503     424     394     392     425
       8     504     503     470     469     426     425     392     391
       8     480     504     469     474     402     426     391     396
       8     505     482     481     494     427     404     403     416
       8     506     505     494     495     428     427     416     417
       8     507     506     495     496     429     428     417     418
       8     508     507     496     509     430     429     418     431
       8     510     509     496     497     432     431     418     419
       8     489     510     497     487     411     432     419     409
       8     511     490     491     493     433     412     413     415
       8     512     511     493     499     434     433     415     421
       8     513     512     499     514     435     434     421     436
       8     515     514     499     498     437     436     421     420
       8     516     515     498     500     438     437     420     422
       8     517     516     500     501     439     438     422     423
       8     518     517     501     519     440     439     423     441
       8     473     519     501     471     395     441     423     393
       8     520     521     472     502     442     443     394     424
       8     522     520     502     503     444     442     424     425
       8     523     522     503     504     445     444     425     426
       8     524     523     504     480     446     445     426     402
       8     525     524     480     479     447     446     402     401
       8     526     525     479     482     448     447     401     404
       8     527     526     482     505     449     448     404     427
       8     528     527     505     506     450     449     427     428
       8     529     528     506     507     451     450     428     429
       8     530     529     507     508     452     451     429     430
       8     531     530     508     509     453     452     430     431
       8     532     531     509     510     454     453     431     432
       8     533     532     510     489     455     454     432     411
       8     534     533     489     488     456     455     411     410
       8     535     534     488     490     457     456     410     412
       8     536     535     490     511     458     457     412     433
       8     537     536     511     512     459     458     433     434
       8     538     537     512     513     460     459     434     435
       8     539     538     513     514     461     460     435     436
       8     540     539     514     515     462     461     436     437
       8     541     540     515     516     463     462     437     438
       8     542     541     516     517     464     463     438     439
       8     543     542     517     518     465     464     439     440
       8     544     543     518     519     466     465     440     441
       8     545     544     519     473     467     466     441     395
       8     521     545     473     472     443     467     395     394
       8     546     547     548     549     468     469     470     471
       8     548     550     551     549     470     472     473     471
       8     552     547     546     553     474     469     468     475
       8     546     554     555     553     468     476     477     475
       8     556     557     558     552     478     479     480     474
       8     559     560     557     556     481     482     479     478
       8     553     559     556     552     475     481     478     474
       8     561     562     554     563     483     484     476     485
       8     564     565     562     561     486     487     484     483
       8     566     567     565     564     488     489     487     486
       8     568     566     564     569     490     488     486     491
       8     570     555     554     562     492     477     476     484
       8     561     571     569     564     483     493     491     486
       8     546     549     563     554     468     471     485     476
       8     572     559     553     555     494     481     475     477
       8     573     572     555     570     495     494     477     492
       8     574     573     570     575     496     495     492     497
       8     565     575     570     562     487     497     492     484
       8     576     577     571     561     498     499     493     483
       8     578     576     561     563     500     498     483     485
       8     579     578     563     549     501     500     485     471
       8     580     550     548     581     502     472     470     503
       8     582     581     548     547     504     503     470     469
       8     558     582     547     552     480     504     469     474
       8     583     560     559     572     505     482     481     494
       8     584     583     572     573     506     505     494     495
       8     585     584     573     574     507     506     495     496
       8     586     585     574     587     508     507     496     509
       8     588     587     574     575     510     509     496     497
       8     567     588     575     565     489     510     497     487
       8     589     568     569     571     511     490     491     493
       8     590     589     571     577     512     511     493     499
       8     591     590     577     592     513     512     499     514
       8     593     592     577     576     515     514     499     498
       8     594     593     576     578     516     515     498     500
       8     595     594     578     579     517     516     500     501
       8     596     595     579     597     518     517     501     519
       8     551     597     579     549     473     519     501     471
       8     598     599     550     580     520     521     472     502
       8     600     598     580     581     522     520     502     503
       8     601     600     581     582     523     522     503     504
       8     602     601     582     558     524     523     504     480
       8     603     602     558     557     525     524     480     479
       8     604     603     557     560     526     525     479     482
       8     605     604     560     583     527     526     482     505
       8     606     605     583     584     528     527     505     506
       8     607     606     584     585     529     528     506     507
       8     608     607     585     586     530     529     507     508
       8     609     608     586     587     531     530     508     509
       8     610     609     587     588     532     531     509     510
       8     611     610     588     567     533     532     510     489
       8     612     611     567     566     534     533     489     488
       8     613     612     566     568     535     534     488     490
       8     614     613     568     589     536     535     490     511
       8     615     614     589     590     537     536     511     512
       8     616     615     590     591     538     537     512     513
       8     617     616     591     592     539     538     513     514
       8     618     617     592     593     540     539     514     515
       8     619     618     593     594     541     540     515     516
       8     620     619     594     595     542     541     516     517
       8     621     620     595     596     543     542     517     518
       8     622     621     596     597     544     543     518     519
       8     623     622     597     551     545     544     519     473
       8     599     623     551     550     521     545     473     472
       8     624     625     626     627     546     547     548     549
       8     626     628     629     627     548     550     551     549
       8     630     625     624     631     552     547     546     553
       8     624     632     633     631     546     554     555     553
       8     634     635     636     630     556     557     558     552
       8     637     638     635     634     559     560     557     556
       8     631     637     634     630     553     559     556     552
       8     639     640     632     641     561     562     554     563
       8     642     643     640     639     564     565     562     561
       8     644     645     643     642     566     567     565     564
       8     646     644     642     647     568     566     564     569
       8     648     633     632     640     570     555     554     562
       8     639     649     647     642     561     571     569     564
       8     624     627     641     632     546     549     563     554
       8     650     637     631     633     572     559     553     555
       8     651     650     633     648     573     572     555     570
       8     652     651     648     653     574     573     570     575
       8     643     653     648     640     565     575     570     562
       8     654     655     649     639     576     577     571     561
       8     656     654     639     641     578     576     561     563
       8     657     656     641     627     579     578     563     549
       8     658     628     626     659     580     550     548     581
       8     660     659     626     625     582     581     548     547
       8     636     660     625     630     558     582     547     552
       8     661     638     637     650     583     560     559     572
       8     662     661     650     651     584     583     572     573
       8     663     662     651     652     585     584     573     574
       8     664     663     652     665     586     585     574     587
       8     666     665     652     653     588     587     574     575
       8     645     666     653     643     567     588     575     565
       8     667     646     647     649     589     568     569     571
       8     668     667     649     655     590     589     571     577
       8     669     668     655     670     591     590     577     592
       8     671     670     655     654     593     592     577     576
       8     672     671     654     656     594     593     576     578
       8     673     672     656     657     595     594     578     579
       8     674     673     657     675     596     595     579     597
       8     629     675     657     627     551     597     579     549
       8     676     677     628     658     598     599     550     580
       8     678     676     658     659     600     598     580     581
       8     679     678     659     660     601     600     581     582
       8     680     679     660     636     602     601     582     558
       8     681     680     636     635     603     602     558     557
       8     682     681     635     638     604     603     557     560
       8     683     682     638     661     605     604     560     583
       8     684     683     661     662     606     605     583     584
       8     685     684     662     663     607     606     584     585
       8     686     685     663     664     608     607     585     586
       8     687     686     664     665     609     608     586     587
       8     688     687     665     666     610     609     587     588
       8     689     688     666     645     611     610     588     567
       8     690     689     645     644     612     611     567     566
       8     691     690     644     646     613     612     566     568
       8     692     691     646     667     614     613     568     589
       8     693     692     667     668     615     614     589     590
       8     694     693     668     669     616     615     590     591
       8     695     694     669     670     617     616     591     592
       8     696     695     670     671     618     617     592     593
       8     697     696     671     672     619     618     593     594
       8     698     697     672     673     620     619     594     595
       8     699     698     673     674     621     620     595     596
       8     700     699     674     675     622     621     596     597
       8     701     700     675     629     623     622     597     551
       8     677     701     629     628     599     623     551     550
       8     702     703     704     705     624     625     626     627
       8     704     706     707     705     626     628     629     627
       8     708     703     702     709     630     625     624     631
       8     702     710     711     709     624     632     633     631
       8     712     713     714     708     634     635     636     630
       8     715     716     713     712     637     638     635     634
       8     709     715     712     708     631     637     634     630
       8     717     718     710     719     639     640     632     641
       8     720     721     718     717     642     643     640     639
       8     722     723     721     720     644     645     643     642
       8     724     722     720     725     646     644     642     647
       8     726     711     710     718     648     633     632     640
       8     717     727     725     720     639     649     647     642
       8     702     705     719     710     624     627     641     632
       8     728     715     709     711     650     637     631     633
       8     729     728     711     726     651     650     633     648
       8     730     729     726     731     652     651     648     653
       8     721     731     726     718     643     653     648     640
       8     732     733     727     717     654     655     649     639
       8     734     732     717     719     656     654     639     641
       8     735     734     719     705     657     656     641     627
       8     736     706     704     737     658     628     626     659
       8     738     737     704     703     660     659     626     625
       8     714     738     703     708     636     660     625     630
       8     739     716     715     728     661     638     637     650
       8     740     739     728     729     662     661     650     651
       8     741     740     729     730     663     662     651     652
       8     742     741     730     743     664     663     652     665
       8     744     743     730     731     666     665     652     653
       8     723     744     731     721     645     666     653     643
       8     745     724     725     727     667     646     647     649
       8     746     745     727     733     668     667     649     655
       8     747     746     733     748     669     668     655     670
       8     749     748     733     732     671     670     655     654
       8     750     749     732     734     672     671     654     656
       8     751     750     734     735     673     672     656     657
       8     752     751     735     753     674     673     657     675
       8     707     753     735     705     629     675     657     627
       8     754     755     706     736     676     677     628     658
       8     756     754     736     737     678     676     658     659
       8     757     756     737     738     679     678     659     660
       8     758     757     738     714     680     679     660     636
       8     759     758     714     713     681     680     636     635
       8     760     759     713     716     682     681     635     638
       8     761     760     716     739     683     682     638     661
       8     762     761     739     740     684     683     661     662
       8     763     762     740     741     685     684     662     663
       8     764     763     741     742     686     685     663     664
       8     765     764     742     743     687     686     664     665
       8     766     765     743     744     688     687     665     666
       8     767     766     744     723     689     688     666     645
       8     768     767     723     722     690     689     645     644
       8     769     768     722     724     691     690     644     646
       8     770     769     724     745     692     691     646     667
       8     771     770     745     746     693     692     667     668
       8     772     771     746     747     694     693     668     669
       8     773     772     747     748     695     694     669     670
       8     774     773     748     749     696     695     670     671
       8     775     774     749     750     697     696     671     672
       8     776     775     750     751     698     697     672     673
       8     777     776     751     752     699     698     673     674
       8     778     777     752     753     700     699     674     675
       8     779     778     753     707     701     700     675     629
       8     755     779     707     706     677     701     629     628
       8     780     781     782     783     702     703     704     705
       8     782     784     785     783     704     706     707     705
       8     786     781     780     787     708     703     702     709
       8     780     788     789     787     702     710     711     709
       8     790     791     792     786     712     713     714     708
       8     793     794     791     790     715     716     713     712
       8     787     793     790     786     709     715     712     708
       8     795     796     788     797     717     718     710     719
       8     798     799     796     795     720     721     718     717
       8     800     801     799     798     722     723     721     720
       8     802     800     798     803     724     722     720     725
       8     804     789     788     796     726     711     710     718
       8     795     805     803     798     717     727     725     720
       8     780     783     797     788     702     705     719     710
       8     806     793     787     789     728     715     709     711
       8     807     806     789     804     729     728     711     726
       8     808     807     804     809     730     729     726     731
       8     799     809     804     796     721     731     726     718
       8     810     811     805     795     732     733     727     717
       8     812     810     795     797     734     732     717     719
       8     813     812     797     783     735     734     719     705
       8     814     784     782     815     736     706     704     737
       8     816     815     782     781     738     737     704     703
       8     792     816     781     786     714     738     703     708
       8     817     794     793     806     739     716     715     728
       8     818     817     806     807     740     739     728     729
       8     819     818     807     808     741     740     729     730
       8     820     819     808     821     742     741     730     743
       8     822     821     808     809     744     743     730     731
       8     801     822     809     799     723     744     731     721
       8     823     802     803     805     745     724     725     727
       8     824     823     805     811     746     745     727     733
       8     825     824     811     826     747     746     733     748
       8     827     826     811     810     749     748     733     732
       8     828     827     810     812     750     749     732     734
       8     829     828     812     813     751     750     734     735
       8     830     829     813     831     752     751     735     753
       8     785     831     813     783     707     753     735     705
       8     832     833     784     814     754     755     706     736
       8     834     832     814     815     756     754     736     737
       8     835     834     815     816     757     756     737     738
       8     836     835     816     792     758     757     738     714
       8     837     836     792     791     759     758     714     713
       8     838     837     791     794     760     759     713     716
       8     839     838     794     817     761     760     716     739
       8     840     839     817     818     762     761     739     740
       8     841     840     818     819     763     762     740     741
       8     842     841     819     820     764     763     741     742
       8     843     842     820     821     765     764     742     743
       8     844     843     821     822     766     765     743     744
       8     845     844     822     801     767     766     744     723
       8     846     845     801     800     768     767     723     722
       8     847     846     800     802     769     768     722     724
       8     848     847     802     823     770     769     724     745
       8     849     848     823     824     771     770     745     746
       8     850     849     824     825     772     771     746     747
       8     851     850     825     826     773     772     747     748
       8     852     851     826     827     774     773     748     749
       8     853     852     827     828     775     774     749     750
       8     854     853     828     829     776     775     750     751
       8     855     854     829     830     777     776     751     752
       8     856     855     830     831     778     777     752     753
       8     857     856     831     785     779     778     753     707
       8     833     857     785     784     755     779     707     706
       8     858     859     860     861     780     781     782     783
       8     860     862     863     861     782     784     785     783
       8     864     859     858     865     786     781     780     787
       8     858     866     867     865     780     788     789     787
       8     868     869     870     864     790     791     792     786
       8     871     872     869     868     793     794     791     790
       8     865     871     868     864     787     793     790     786
       8     873     874     866     875     795     796     788     797
       8     876     877     874     873     798     799     796     795
       8     878     879     877     876     800     801     799     798
       8     880     878     876     881     802     800     798     803
       8     882     867     866     874     804     789     788     796
       8     873     883     881     876     795     805     803     798
       8     858     861     875     866     780     783     797     788
       8     884     871     865     867     806     793     787     789
       8     885     884     867     882     807     806     789     804
       8     886     885     882     887     808     807     804     809
       8     877     887     882     874     799     809     804     796
       8     888     889     883     873     810     811     805     795
       8     890     888     873     875     812     810     795     797
       8     891     890     875     861     813     812     797     783
       8     892     862     860     893     814     784     782     815
       8     894     893     860     859     816     815     782     781
       8     870     894     859     864     792     816     781     786
       8     895     872     871     884     817     794     793     806
       8     896     895     884     885     818     817     806     807
       8     897     896     885     886     819     818     807     808
       8     898     897     886     899     820     819     808     821
       8     900     899     886     887     822     821     808     809
       8     879     900     887     877     801     822     809     799
       8     901     880     881     883     823     802     803     805
       8     902     901     883     889     824     823     805     811
       8     903     902     889     904     825     824     811     826
       8     905     904     889     888     827     826     811     810
       8     906     905     888     890     828     827     810     812
       8     907     906     890     891     829     828     812     813
       8     908     907     891     909     830     829     813     831
       8     863     909     891     861     785     831     813     783
       8     910     911     862     892     832     833     784     814
       8     912     910     892     893     834     832     814     815
       8     913     912     893     894     835     834     815     816
       8     914     913     894     870     836     835     816     792
       8     915     914     870     869     837     836     792     791
       8     916     915     869     872     838     837     791     794
       8     917     916     872     895     839     838     794     817
       8     918     917     895     896     840     839     817     818
       8     919     918     896     897     841     840     818     819
       8     920     919     897     898     842     841     819     820
       8     921     920     898     899     843     842     820     821
       8     922     921     899     900     844     843     821     822
       8     923     922     900     879     845     844     822     801
       8     924     923     879     878     846     845     801     800
       8     925     924     878     880     847     846     800     802
       8     926     925     880     901     848     847     802     823
       8     927     926     901     902     849     848     823     824
       8     928     927     902     903     850     849     824     825
       8     929     928     903     904     851     850     825     826
       8     930     929     904     905     852     851     826     827
       8     931     930     905     906     853     852     827     828
       8     932     931     906     907     854     853     828     829
       8     933     932     907     908     855     854     829     830
       8     934     933     908     909     856     855     830     831
       8     935     934     909     863     857     856     831     785
       8     911     935     863     862     833     857     785     784
       8     936     937     938     939     858     859     860     861
       8     938     940     941     939     860     862     863     861
       8     942     937     936     943     864     859     858     865
       8     936     944     945     943     858     866     867     865
       8     946     947     948     942     868     869     870     864
       8     949     950     947     946     871     872     869     868
       8     943     949     946     942     865     871     868     864
       8     951     952     944     953     873     874     866     875
       8     954     955     952     951     876     877     874     873
       8     956     957     955     954     878     879     877     876
       8     958     956     954     959     880     878     876     881
       8     960     945     944     952     882     867     866     874
       8     951     961     959     954     873     883     881     876
       8     936     939     953     944     858     861     875     866
       8     962     949     943     945     884     871     865     867
       8     963     962     945     960     885     884     867     882
       8     964     963     960     965     886     885     882     887
       8     955     965     960     952     877     887     882     874
       8     966     967     961     951     888     889     883     873
       8     968     966     951     953     890     888     873     875
       8     969     968     953     939     891     890     875     861
       8     970     940     938     971     892     862     860     893
       8     972     971     938     937     894     893     860     859
       8     948     972     937     942     870     894     859     864
       8     973     950     949     962     895     872     871     884
       8     974     973     962     963     896     895     884     885
       8     975     974     963     964     897     896     885     886
       8     976     975     964     977     898     897     886     899
       8     978     977     964     965     900     899     886     887
       8     957     978     965     955     879     900     887     877
       8     979     958     959     961     901     880     881     883
       8     980     979     961     967     902     901     883     889
       8     981     980     967     982     903     902     889     904
       8     983     982     967     966     905     904     889     888
       8     984     983     966     968     906     905     888     890
       8     985     984     968     969     907     906     890     891
       8     986     985     969     987     908     907     891     909
       8     941     987     969     939     863     909     891     861
       8     988     989     940     970     910     911     862     892
       8     990     988     970     971     912     910     892     893
       8     991     990     971     972     913     912     893     894
       8     992     991     972     948     914     913     894     870
       8     993     992     948     947     915     914     870     869
       8     994     993     947     950     916     915     869     872
       8     995     994     950     973     917     916     872     895
       8     996     995     973     974     918     917     895     896
       8     997     996     974     975     919     918     896     897
       8     998     997     975     976     920     919     897     898
       8     999     998     976     977     921     920     898     899
       8    1000     999     977     978     922     921     899     900
       8    1001    1000     978     957     923     922     900     879
       8    1002    1001     957     956     924     923     879     878
       8    1003    1002     956     958     925     924     878     880
       8    1004    1003     958     979     926     925     880     901
       8    1005    1004     979     980     927     926     901     902
       8    1006    1005     980     981     928     927     902     903
       8    1007    1006     981     982     929     928     903     904
       8    1008    1007     982     983     930     929     904     905
       8    1009    1008     983     984     931     930     905     906
       8    1010    1009     984     985     932     931     906     907
       8    1011    1010     985     986     933     932     907     908
       8    1012    1011     986     987     934     933     908     909
       8    1013    1012     987     941     935     934     909     863
       8     989    1013     941     940     911     935     863     862
       8    1014    1015    1016    1017     936     937     938     939
       8    1016    1018    1019    1017     938     940     941     939
       8    1020    1015    1014    1021     942     937     936     943
       8    1014    1022    1023    1021     936     944     945     943
       8    1024    1025    1026    1020     946     947     948     942
       8    1027    1028    1025    1024     949     950     947     946
       8    1021    1027    1024    1020     943     949     946     942
       8    1029    1030    1022    1031     951     952     944     953
       8    1032    1033    1030    1029     954     955     952     951
       8    1034    1035    1033    1032     956     957     955     954
       8    1036    1034    1032    1037     958     956     954     959
       8    1038    1023    1022    1030     960     945     944     952
       8    1029    1039    1037    1032     951     961     959     954
       8    1014    1017    1031    1022     936     939     953     944
       8    1040    1027    1021    1023     962     949     943     945
       8    1041    1040    1023    1038     963     962     945     960
       8    1042    1041    1038    1043     964     963     960     965
       8    1033    1043    1038    1030     955     965     960     952
       8    1044    1045    1039    1029     966     967     961     951
       8    1046    1044    1029    1031     968     966     951     953
       8    1047    1046    1031    1017     969     968     953     939
       8    1048    1018    1016    1049     970     940     938     971
       8    1050    1049    1016    1015     972     971     938     937
       8    1026    1050    1015    1020     948     972     937     942
       8    1051    1028    1027    1040     973     950     949     962
       8    1052    1051    1040    1041     974     973     962     963
       8    1053    1052    1041    1042     975     974     963     964
       8    1054    1053    1042    1055     976     975     964     977
       8    1056    1055    1042    1043     978     977     964     965
       8    1035    1056    1043    1033     957     978     965     955
       8    1057    1036    1037    1039     979     958     959     961
       8    1058    1057    1039    1045     980     979     961     967
       8    1059    1058    1045    1060     981     980     967     982
       8    1061    1060    1045    1044     983     982     967     966
       8    1062    1061    1044    1046     984     983     966     968
       8    1063    1062    1046    1047     985     984     968     969
       8    1064    1063    1047    1065     986     985     969     987
       8    1019    1065    1047    1017     941     987     969     939
       8    1066    1067    1018    1048     988     989     940     970
       8    1068    1066    1048    1049     990     988     970     971
       8    1069    1068    1049    1050     991     990     971     972
       8    1070    1069    1050    1026     992     991     972     948
       8    1071    1070    1026    1025     993     992     948     947
       8    1072    1071    1025    1028     994     993     947     950
       8    1073    1072    1028    1051     995     994     950     973
       8    1074    1073    1051    1052     996     995     973     974
       8    1075    1074    1052    1053     997     996     974     975
       8    1076    1075    1053    1054     998     997     975     976
       8    1077    1076    1054    1055     999     998     976     977
       8    1078    1077    1055    1056    1000     999     977     978
       8    1079    1078    1056    1035    1001    1000     978     957
       8    1080    1079    1035    1034    1002    1001     957     956
       8    1081    1080    1034    1036    1003    1002     956     958
       8    1082    1081    1036    1057    1004    1003     958     979
       8    1083    1082    1057    1058    1005    1004     979     980
       8    1084    1083    1058    1059    1006    1005     980     981
       8    1085    1084    1059    1060    1007    1006     981     982
       8    1086    1085    1060    1061    1008    1007     982     983
       8    1087    1086    1061    1062    1009    1008     983     984
       8    1088    1087    1062    1063    1010    1009     984     985
       8    1089    1088    1063    1064    1011    1010     985     986
       8    1090    1089    1064    1065    1012    1011     986     987
       8    1091    1090    1065    1019    1013    1012     987     941
       8    1067    1091    1019    1018     989    1013     941     940
       8    1092    1093    1094    1095    1014    1015    1016    1017
       8    1094    1096    1097    1095    1016    1018    1019    1017
       8    1098    1093    1092    1099    1020    1015    1014    1021
       8    1092    1100    1101    1099    1014    1022    1023    1021
       8    1102    1103    1104    1098    1024    1025    1026    1020
       8    1105    1106    1103    1102    1027    1028    1025    1024
       8    1099    1105    1102    1098    1021    1027    1024    1020
       8    1107    1108    1100    1109    1029    1030    1022    1031
       8    1110    1111    1108    1107    1032    1033    1030    1029
       8    1112    1113    1111    1110    1034    1035    1033    1032
       8    1114    1112    1110    1115    1036    1034    1032    1037
       8    1116    1101    1100    1108    1038    1023    1022    1030
       8    1107    1117    1115    1110    1029    1039    1037    1032
       8    1092    1095    1109    1100    1014    1017    1031    1022
       8    1118    1105    1099    1101    1040    1027    1021    1023
       8    1119    1118    1101    1116    1041    1040    1023    1038
       8    1120    1119    1116    1121    1042    1041    1038    1043
       8    1111    1121    1116    1108    1033    1043    1038    1030
       8    1122    1123    1117    1107    1044    1045    1039    1029
       8    1124    1122    1107    1109    1046    1044    1029    1031
       8    1125    1124    1109    1095    1047    1046    1031    1017
       8    1126    1096    1094    1127    1048    1018    1016    1049
       8    1128    1127    1094    1093    1050    1049    1016    1015
       8    1104    1128    1093    1098    1026    1050    1015    1020
       8    1129    1106    1105    1118    1051    1028    1027    1040
       8    1130    1129    1118    1119    1052    1051    1040    1041
       8    1131    1130    1119    1120    1053    1052    1041    1042
       8    1132    1131    1120    1133    1054    1053    1042    1055
       8    1134    1133    1120    1121    1056    1055    1042    1043
       8    1113    1134    1121    1111    1035    1056    1043    1033
       8    1135    1114    1115    1117    1057    1036    1037    1039
       8    1136    1135    1117    1123    1058    1057    1039    1045
       8    1137    1136    1123    1138    1059    1058    1045    1060
       8    1139    1138    1123    1122    1061    1060    1045    1044
       8    1140    1139    1122    1124    1062    1061    1044    1046
       8    1141    1140    1124    1125    1063    1062    1046    1047
       8    1142    1141    1125    1143    1064    1063    1047    1065
       8    1097    1143    1125    1095    1019    1065    1047    1017
       8    1144    1145    1096    1126    1066    1067    1018    1048
       8    1146    1144    1126    1127    1068    1066    1048    1049
       8    1147    1146    1127    1128    1069    1068    1049    1050
       8    1148    1147    1128    1104    1070    1069    1050    1026
       8    1149    1148    1104    1103    1071    1070    1026    1025
       8    1150    1149    1103    1106    1072    1071    1025    1028
       8    1151    1150    1106    1129    1073    1072    1028    1051
       8    1152    1151    1129    1130    1074    1073    1051    1052
       8    1153    1152    1130    1131    1075    1074    1052    1053
       8    1154    1153    1131    1132    1076    1075    1053    1054
       8    1155    1154    1132    1133    1077    1076    1054    1055
       8    1156    1155    1133    1134    1078    1077    1055    1056
       8    1157    1156    1134    1113    1079    1078    1056    1035
       8    1158    1157    1113    1112    1080    1079    1035    1034
       8    1159    1158    1112    1114    1081    1080    1034    1036
       8    1160    1159    1114    1135    1082    1081    1036    1057
       8    1161    1160    1135    1136    1083    1082    1057    1058
       8    1162    1161    1136    1137    1084    1083    1058    1059
       8    1163    1162    1137    1138    1085    1084    1059    1060
       8    1164    1163    1138    1139    1086    1085    1060    1061
       8    1165    1164    1139    1140    1087    1086    1061    1062
       8    1166    1165    1140    1141    1088    1087    1062    1063
       8    1167    1166    1141    1142    1089    1088    1063    1064
       8    1168    1167    1142    1143    1090    1089    1064    1065
       8    1169    1168    1143    1097    1091    1090    1065    1019
       8    1145    1169    1097    1096    1067    1091    1019    1018
       8    1170    1171    1172    1173    1092    1093    1094    1095
       8    1172    1174    1175    1173    1094    1096    1097    1095
       8    1176    1171    1170    1177    1098    1093    1092    1099
       8    1170    1178    1179    1177    1092    1100    1101    1099
       8    1180    1181    1182    1176    1102    1103    1104    1098
       8    1183    1184    1181    1180    1105    1106    1103    1102
       8    1177    1183    1180    1176    1099    1105    1102    1098
       8    1185    1186    1178    1187    1107    1108    1100    1109
       8    1188    1189    1186    1185    1110    1111    1108    1107
       8    1190    1191    1189    1188    1112    1113    1111    1110
       8    1192    1190    1188    1193    1114    1112    1110    1115
       8    1194    1179    1178    1186    1116    1101    1100    1108
       8    1185    1195    1193    1188    1107    1117    1115    1110
       8    1170    1173    1187    1178    1092    1095    1109    1100
       8    1196    1183    1177    1179    1118    1105    1099    1101
       8    1197    1196    1179    1194    1119    1118    1101    1116
       8    1198    1197    1194    1199    1120    1119    1116    1121
       8    1189    1199    1194    1186    1111    1121    1116    1108
       8    1200    1201    1195    1185    1122    1123    1117    1107
       8    1202    1200    1185    1187    1124    1122    1107    1109
       8    1203    1202    1187    1173    1125    1124    1109    1095
       8    1204    1174    1172    1205    1126    1096    1094    1127
       8    1206    1205    1172    1171    1128    1127    1094    1093
       8    1182    1206    1171    1176    1104    1128    1093    1098
       8    1207    1184    1183    1196    1129    1106    1105    1118
       8    1208    1207    1196    1197    1130    1129    1118    1119
       8    1209    1208    1197    1198    1131    1130    1119    1120
       8    1210    1209    1198    1211    1132    1131    1120    1133
       8    1212    1211    1198    1199    1134    1133    1120    1121
       8    1191    1212    1199    1189    1113    1134    1121    1111
       8    1213    1192    1193    1195    1135    1114    1115    1117
       8    1214    1213    1195    1201    1136    1135    1117    1123
       8    1215    1214    1201    1216    1137    1136    1123    1138
       8    1217    1216    1201    1200    1139    1138    1123    1122
       8    1218    1217    1200    1202    1140    1139    1122    1124
       8    1219    1218    1202    1203    1141    1140    1124    1125
       8    1220    1219    1203    1221    1142    1141    1125    1143
       8    1175    1221    1203    1173    1097    1143    1125    1095
       8    1222    1223    1174    1204    1144    1145    1096    1126
       8    1224    1222    1204    1205    1146    1144    1126    1127
       8    1225    1224    1205    1206    1147    1146    1127    1128
       8    1226    1225    1206    1182    1148    1147    1128    1104
       8    1227    1226    1182    1181    1149    1148    1104    1103
       8    1228    1227    1181    1184    1150    1149    1103    1106
       8    1229    1228    1184    1207    1151    1150    1106    1129
       8    1230    1229    1207    1208    1152    1151    1129    1130
       8    1231    1230    1208    1209    1153    1152    1130    1131
       8    1232    1231    1209    1210    1154    1153    1131    1132
       8    1233    1232    1210    1211    1155    1154    1132    1133
       8    1234    1233    1211    1212    1156    1155    1133    1134
       8    1235    1234    1212    1191    1157    1156    1134    1113
       8    1236    1235    1191    1190    1158    1157    1113    1112
       8    1237    1236    1190    1192    1159    1158    1112    1114
       8    1238    1237    1192    1213    1160    1159    1114    1135
       8    1239    1238    1213    1214    1161    1160    1135    1136
       8    1240    1239    1214    1215    1162    1161    1136    1137
       8    1241    1240    1215    1216    1163    1162    1137    1138
       8    1242    1241    1216    1217    1164    1163    1138    1139
       8    1243    1242    1217    1218    1165    1164    1139    1140
       8    1244    1243    1218    1219    1166    1165    1140    1141
       8    1245    1244    1219    1220    1167    1166    1141    1142
       8    1246    1245    1220    1221    1168    1167    1142    1143
       8    1247    1246    1221    1175    1169    1168    1143    1097
       8    1223    1247    1175    1174    1145    1169    1097    1096
       8    1248    1249    1250    1251    1170    1171    1172    1173
       8    1250    1252    1253    1251    1172    1174    1175    1173
       8    1254    1249    1248    1255    1176    1171    1170    1177
       8    1248    1256    1257    1255    1170    1178    1179    1177
       8    1258    1259    1260    1254    1180    1181    1182    1176
       8    1261    1262    1259    1258    1183    1184    1181    1180
       8    1255    1261    1258    1254    1177    1183    1180    1176
       8    1263    1264    1256    1265    1185    1186    1178    1187
       8    1266    1267    1264    1263    1188    1189    1186    1185
       8    1268    1269    1267    1266    1190    1191    1189    1188
       8    1270    1268    1266    1271    1192    1190    1188    1193
       8    1272    1257    1256    1264    1194    1179    1178    1186
       8    1263    1273    1271    1266    1185    1195    1193    1188
       8    1248    1251    1265    1256    1170    1173    1187    1178
       8    1274    1261    1255    1257    1196    1183    1177    1179
       8    1275    1274    1257    1272    1197    1196    1179    1194
       8    1276    1275    1272    1277    1198    1197    1194    1199
       8    1267    1277    1272    1264    1189    1199    1194    1186
       8    1278    1279    1273    1263    1200    1201    1195    1185
       8    1280    1278    1263    1265    1202    1200    1185    1187
       8    1281    1280    1265    1251    1203    1202    1187    1173
       8    1282    1252    1250    1283    1204    1174    1172    1205
       8    1284    1283    1250    1249    1206    1205    1172    1171
       8    1260    1284    1249    1254    1182    1206    1171    1176
       8    1285    1262    1261    1274    1207    1184    1183    1196
       8    1286    1285    1274    1275    1208    1207    1196    1197
       8    1287    1286    1275    1276    1209    1208    1197    1198
       8    1288    1287    1276    1289    1210    1209    1198    1211
       8    1290    1289    1276    1277    1212    1211    1198    1199
       8    1269    1290    1277    1267    1191    1212    1199    1189
       8    1291    1270    1271    1273    1213    1192    1193    1195
       8    1292    1291    1273    1279    1214    1213    1195    1201
       8    1293    1292    1279    1294    1215    1214    1201    1216
       8    1295    1294    1279    1278    1217    1216    1201    1200
       8    1296    1295    1278    1280    1218    1217    1200    1202
       8    1297    1296    1280    1281    1219    1218    1202    1203
       8    1298    1297    1281    1299    1220    1219    1203    1221
       8    1253    1299    1281    1251    1175    1221    1203    1173
       8    1300    1301    1252    1282    1222    1223    1174    1204
       8    1302    1300    1282    1283    1224    1222    1204    1205
       8    1303    1302    1283    1284    1225    1224    1205    1206
       8    1304    1303    1284    1260    1226    1225    1206    1182
       8    1305    1304    1260    1259    1227    1226    1182    1181
       8    1306    1305    1259    1262    1228    1227    1181    1184
       8    1307    1306    1262    1285    1229    1228    1184    1207
       8    1308    1307    1285    1286    1230    1229    1207    1208
       8    1309    1308    1286    1287    1231    1230    1208    1209
       8    1310    1309    1287    1288    1232    1231    1209    1210
       8    1311    1310    1288    1289    1233    1232    1210    1211
       8    1312    1311    1289    1290    1234    1233    1211    1212
       8    1313    1312    1290    1269    1235    1234    1212    1191
       8    1314    1313    1269    1268    1236    1235    1191    1190
       8    1315    1314    1268    1270    1237    1236    1190    1192
       8    1316    1315    1270    1291    1238    1237    1192    1213
       8    1317    1316    1291    1292    1239    1238    1213    1214
       8    1318    1317    1292    1293    1240    1239    1214    1215
       8    1319    1318    1293    1294    1241    1240    1215    1216
       8    1320    1319    1294    1295    1242    1241    1216    1217
       8    1321    1320    1295    1296    1243    1242    1217    1218
       8    1322    1321    1296    1297    1244    1243    1218    1219
       8    1323    1322    1297    1298    1245    1244    1219    1220
       8    1324    1323    1298    1299    1246    1245    1220    1221
       8    1325    1324    1299    1253    1247    1246    1221    1175
       8    1301    1325    1253    1252    1223    1247    1175    1174
       8    1326    1327    1328    1329    1248    1249    1250    1251
       8    1328    1330    1331    1329    1250    1252    1253    1251
       8    1332    1327    1326    1333    1254    1249    1248    1255
       8    1326    1334    1335    1333    1248    1256    1257    1255
       8    1336    1337    1338    1332    1258    1259    1260    1254
       8    1339    1340    1337    1336    1261    1262    1259    1258
       8    1333    1339    1336    1332    1255    1261    1258    1254
       8    1341    1342    1334    1343    1263    1264    1256    1265
       8    1344    1345    1342    1341    1266    1267    1264    1263
       8    1346    1347    1345    1344    1268    1269    1267    1266
       8    1348    1346    1344    1349    1270    1268    1266    1271
       8    1350    1335    1334    1342    1272    1257    1256    1264
       8    1341    1351    1349    1344    1263    1273    1271    1266
       8    1326    1329    1343    1334    1248    1251    1265    1256
       8    1352    1339    1333    1335    1274    1261    1255    1257
       8    1353    1352    1335    1350    1275    1274    1257    1272
       8    1354    1353    1350    1355    1276    1275    1272    1277
       8    1345    1355    1350    1342    1267    1277    1272    1264
       8    1356    1357    1351    1341    1278    1279    1273    1263
       8    1358    1356    1341    1343    1280    1278    1263    1265
       8    1359    1358    1343    1329    1281    1280    1265    1251
       8    1360    1330    1328    1361    1282    1252    1250    1283
       8    1362    1361    1328    1327    1284    1283    1250    1249
       8    1338    1362    1327    1332    1260    1284    1249    1254
       8    1363    1340    1339    1352    1285    1262    1261    1274
       8    1364    1363    1352    1353    1286    1285    1274    1275
       8    1365    1364    1353    1354    1287    1286    1275    1276
       8    1366    1365    1354    1367    1288    1287    1276    1289
       8    1368    1367    1354    1355    1290    1289    1276    1277
       8    1347    1368    1355    1345    1269    1290    1277    1267
       8    1369    1348    1349    1351    1291    1270    1271    1273
       8    1370    1369    1351    1357    1292    1291    1273    1279
       8    1371    1370    1357    1372    1293    1292    1279    1294
       8    1373    1372    1357    1356    1295    1294    1279    1278
       8    1374    1373    1356    1358    1296    1295    1278    1280
       8    1375    1374    1358    1359    1297    1296    1280    1281
       8    1376    1375    1359    1377    1298    1297    1281    1299
       8    1331    1377    1359    1329    1253    1299    1281    1251
       8    1378    1379    1330    1360    1300    1301    1252    1282
       8    1380    1378    1360    1361    1302    1300    1282    1283
       8    1381    1380    1361    1362    1303    1302    1283    1284
       8    1382    1381    1362    1338    1304    1303    1284    1260
       8    1383    1382    1338    1337    1305    1304    1260    1259
       8    1384    1383    1337    1340    1306    1305    1259    1262
       8    1385    1384    1340    1363    1307    1306    1262    1285
       8    1386    1385    1363    1364    1308    1307    1285    1286
       8    1387    1386    1364    1365    1309    1308    1286    1287
       8    1388    1387    1365    1366    1310    1309    1287    1288
       8    1389    1388    1366    1367    1311    1310    1288    1289
       8    1390    1389    1367    1368    1312    1311    1289    1290
       8    1391    1390    1368    1347    1313    1312    1290    1269
       8    1392    1391    1347    1346    1314    1313    1269    1268
       8    1393    1392    1346    1348    1315    1314    1268    1270
       8    1394    1393    1348    1369    1316    1315    1270    1291
       8    1395    1394    1369    1370    1317    1316    1291    1292
       8    1396    1395    1370    1371    1318    1317    1292    1293
       8    1397    1396    1371    1372    1319    1318    1293    1294
       8    1398    1397    1372    1373    1320    1319    1294    1295
       8    1399    1398    1373    1374    1321    1320    1295    1296
       8    1400    1399    1374    1375    1322    1321    1296    1297
       8    1401    1400    1375    1376    1323    1322    1297    1298
       8    1402    1401    1376    1377    1324    1323    1298    1299
       8    1403    1402    1377    1331    1325    1324    1299    1253
       8    1379    1403    1331    1330    1301    1325    1253    1252
       8    1404    1405    1406    1407    1326    1327    1328    1329
       8    1406    1408    1409    1407    1328    1330    1331    1329
       8    1410    1405    1404    1411    1332    1327    1326    1333
       8    1404    1412    1413    1411    1326    1334    1335    1333
       8    1414    1415    1416    1410    1336    1337    1338    1332
       8    1417    1418    1415    1414    1339    1340    1337    1336
       8    1411    1417    1414    1410    1333    1339    1336    1332
       8    1419    1420    1412    1421    1341    1342    1334    1343
       8    1422    1423    1420    1419    1344    1345    1342    1341
       8    1424    1425    1423    1422    1346    1347    1345    1344
       8    1426    1424    1422    1427    1348    1346    1344    1349
       8    1428    1413    1412    1420    1350    1335    1334    1342
       8    1419    1429    1427    1422    1341    1351    1349    1344
       8    1404    1407    1421    1412    1326    1329    1343    1334
       8    1430    1417    1411    1413    1352    1339    1333    1335
       8    1431    1430    1413    1428    1353    1352    1335    1350
       8    1432    1431    1428    1433    1354    1353    1350    1355
       8    1423    1433    1428    1420    1345    1355    1350    1342
       8    1434    1435    1429    1419    1356    1357    1351    1341
       8    1436    1434    1419    1421    1358    1356    1341    1343
       8    1437    1436    1421    1407    1359    1358    1343    1329
       8    1438    1408    1406    1439    1360    1330    1328    1361
       8    1440    1439    1406    1405    1362    1361    1328    1327
       8    1416    1440    1405    1410    1338    1362    1327    1332
       8    1441    1418    1417    1430    1363    1340    1339    1352
       8    1442    1441    1430    1431    1364    1363    1352    1353
       8    1443    1442    1431    1432    1365    1364    1353    1354
       8    1444    1443    1432    1445    1366    1365    1354    1367
       8    1446    1445    1432    1433    1368    1367    1354    1355
       8    1425    1446    1433    1423    1347    1368    1355    1345
       8    1447    1426    1427    1429    1369    1348    1349    1351
       8    1448    1447    1429    1435    1370    1369    1351    1357
       8    1449    1448    1435    1450    1371    1370    1357    1372
       8    1451    1450    1435    1434    1373    1372    1357    1356
       8    1452    1451    1434    1436    1374    1373    1356    1358
       8    1453    1452    1436    1437    1375    1374    1358    1359
       8    1454    1453    1437    1455    1376    1375    1359    1377
       8    1409    1455    1437    1407    1331    1377    1359    1329
       8    1456    1457    1408    1438    1378    1379    1330    1360
       8    1458    1456    1438    1439    1380    1378    1360    1361
       8    1459    1458    1439    1440    1381    1380    1361    1362
       8    1460    1459    1440    1416    1382    1381    1362    1338
       8    1461    1460    1416    1415    1383    1382    1338    1337
       8    1462    1461    1415    1418    1384    1383    1337    1340
       8    1463    1462    1418    1441    1385    1384    1340    1363
       8    1464    1463    1441    1442    1386    1385    1363    1364
       8    1465    1464    1442    1443    1387    1386    1364    1365
       8    1466    1465    1443    1444    1388    1387    1365    1366
       8    1467    1466    1444    1445    1389    1388    1366    1367
       8    1468    1467    1445    1446    1390    1389    1367    1368
       8    1469    1468    1446    1425    1391    1390    1368    1347
       8    1470    1469    1425    1424    1392    1391    1347    1346
       8    1471    1470    1424    1426    1393    1392    1346    1348
       8    1472    1471    1426    1447    1394    1393    1348    1369
       8    1473    1472    1447    1448    1395    1394    1369    1370
       8    1474    1473    1448    1449    1396    1395    1370    1371
       8    1475    1474    1449    1450    1397    1396    1371    1372
       8    1476    1475    1450    1451    1398    1397    1372    1373
       8    1477    1476    1451    1452    1399    1398    1373    1374
       8    1478    1477    1452    1453    1400    1399    1374    1375
       8    1479    1478    1453    1454    1401    1400    1375    1376
       8    1480    1479    1454    1455    1402    1401    1376    1377
       8    1481    1480    1455    1409    1403    1402    1377    1331
       8    1457    1481    1409    1408    1379    1403    1331    1330
       8    1482    1483    1484    1485    1404    1405    1406    1407
       8    1484    1486    1487    1485    1406    1408    1409    1407
       8    1488    1483    1482    1489    1410    1405    1404    1411
       8    1482    1490    1491    1489    1404    1412    1413    1411
       8    1492    1493    1494    1488    1414    1415    1416    1410
       8    1495    1496    1493    1492    1417    1418    1415    1414
       8    1489    1495    1492    1488    1411    1417    1414    1410
       8    1497    1498    1490    1499    1419    1420    1412    1421
       8    1500    1501    1498    1497    1422    1423    1420    1419
       8    1502    1503    1501    1500    1424    1425    1423    1422
       8    1504    1502    1500    1505    1426    1424    1422    1427
       8    1506    1491    1490    1498    1428    1413    1412    1420
       8    1497    1507    1505    1500    1419    1429    1427    1422
       8    1482    1485    1499    1490    1404    1407    1421    1412
       8    1508    1495    1489    1491    1430    1417    1411    1413
       8    1509    1508    1491    1506    1431    1430    1413    1428
       8    1510    1509    1506    1511    1432    1431    1428    1433
       8    1501    1511    1506    1498    1423    1433    1428    1420
       8    1512    1513    1507    1497    1434    1435    1429    1419
       8    1514    1512    1497    1499    1436    1434    1419    1421
       8    1515    1514    1499    1485    1437    1436    1421    1407
       8    1516    1486    1484    1517    1438    1408    1406    1439
       8    1518    1517    1484    1483    1440    1439    1406    1405
       8    1494    1518    1483    1488    1416    1440    1405    1410
       8    1519    1496    1495    1508    1441    1418    1417    1430
       8    1520    1519    1508    1509    1442    1441    1430    1431
       8    1521    1520    1509    1510    1443    1442    1431    1432
       8    1522    1521    1510    1523    1444    1443    1432    1445
       8    1524    1523    1510    1511    1446    1445    1432    1433
       8    1503    1524    1511    1501    1425    1446    1433    1423
       8    1525    1504    1505    1507    1447    1426    1427    1429
       8    1526    1525    1507    1513    1448    1447    1429    1435
       8    1527    1526    1513    1528    1449    1448    1435    1450
       8    1529    1528    1513    1512    1451    1450    1435    1434
       8    1530    1529    1512    1514    1452    1451    1434    1436
       8    1531    1530    1514    1515    1453    1452    1436    1437
       8    1532    1531    1515    1533    1454    1453    1437    1455
       8    1487    1533    1515    1485    1409    1455    1437    1407
       8    1534    1535    1486    1516    1456    1457    1408    1438
       8    1536    1534    1516    1517    1458    1456    1438    1439
       8    1537    1536    1517    1518    1459    1458    1439    1440
       8    1538    1537    1518    1494    1460    1459    1440    1416
       8    1539    1538    1494    1493    1461    1460    1416    1415
       8    1540    1539    1493    1496    1462    1461    1415    1418
       8    1541    1540    1496    1519    1463    1462    1418    1441
       8    1542    1541    1519    1520    1464    1463    1441    1442
       8    1543    1542    1520    1521    1465    1464    1442    1443
       8    1544    1543    1521    1522    1466    1465    1443    1444
       8    1545    1544    1522    1523    1467    1466    1444    1445
       8    1546    1545    1523    1524    1468    1467    1445    1446
       8    1547    1546    1524    1503    1469    1468    1446    1425
       8    1548    1547    1503    1502    1470    1469    1425    1424
       8    1549    1548    1502    1504    1471    1470    1424    1426
       8    1550    1549    1504    1525    1472    1471    1426    1447
       8    1551    1550    1525    1526    1473    1472    1447    1448
       8    1552    1551    1526    1527    1474    1473    1448    1449
       8    1553    1552    1527    1528    1475    1474    1449    1450
       8    1554    1553    1528    1529    1476    1475    1450    1451
       8    1555    1554    1529    1530    1477    1476    1451    1452
       8    1556    1555    1530    1531    1478    1477    1452    1453
       8    1557    1556    1531    1532    1479    1478    1453    1454
       8    1558    1557    1532    1533    1480    1479    1454    1455
       8    1559    1558    1533    1487    1481    1480    1455    1409
       8    1535    1559    1487    1486    1457    1481    1409    1408
       8    1560    1561    1562    1563    1482    1483    1484    1485
       8    1562    1564    1565    1563    1484    1486    1487    1485
       8    1566    1561    1560    1567    1488    1483    1482    1489
       8    1560    1568    1569    1567    1482    1490    1491    1489
       8    1570    1571    1572    1566    1492    1493    1494    1488
       8    1573    1574    1571    1570    1495    1496    1493    1492
       8    1567    1573    1570    1566    1489    1495    1492    1488
       8    1575    1576    1568    1577    1497    1498    1490    1499
       8    1578    1579    1576    1575    1500    1501    1498    1497
       8    1580    1581    1579    1578    1502    1503    1501    1500
       8    1582    1580    1578    1583    1504    1502    1500    1505
       8    1584    1569    1568    1576    1506    1491    1490    1498
       8    1575    1585    1583    1578    1497    1507    1505    1500
       8    1560    1563    1577    1568    1482    1485    1499    1490
       8    1586    1573    1567    1569    1508    1495    1489    1491
       8    1587    1586    1569    1584    1509    1508    1491    1506
       8    1588    1587    1584    1589    1510    1509    1506    1511
       8    1579    1589    1584    1576    1501    1511    1506    1498
       8    1590    1591    1585    1575    1512    1513    1507    1497
       8    1592    1590    1575    1577    1514    1512    1497    1499
       8    1593    1592    1577    1563    1515    1514    1499    1485
       8    1594    1564    1562    1595    1516    1486    1484    1517
       8    1596    1595    1562    1561    1518    1517    1484    1483
       8    1572    1596    1561    1566    1494    1518    1483    1488
       8    1597    1574    1573    1586    1519    1496    1495    1508
       8    1598    1597    1586    1587    1520    1519    1508    1509
       8    1599    1598    1587    1588    1521    1520    1509    1510
       8    1600    1599    1588    1601    1522    1521    1510    1523
       8    1602    1601    1588    1589    1524    1523    1510    1511
       8    1581    1602    1589    1579    1503    1524    1511    1501
       8    1603    1582    1583    1585    1525    1504    1505    1507
       8    1604    1603    1585    1591    1526    1525    1507    1513
       8    1605    1604    1591    1606    1527    1526    1513    1528
       8    1607    1606    1591    1590    1529    1528    1513    1512
       8    1608    1607    1590    1592    1530    1529    1512    1514
       8    1609    1608    1592    1593    1531    1530    1514    1515
       8    1610    1609    1593    1611    1532    1531    1515    1533
       8    1565    1611    1593    1563    1487    1533    1515    1485
       8    1612    1613    1564    1594    1534    1535    1486    1516
       8    1614    1612    1594    1595    1536    1534    1516    1517
       8    1615    1614    1595    1596    1537    1536    1517    1518
       8    1616    1615    1596    1572    1538    1537    1518    1494
       8    1617    1616    1572    1571    1539    1538    1494    1493
       8    1618    1617    1571    1574    1540    1539    1493    1496
       8    1619    1618    1574    1597    1541    1540    1496    1519
       8    1620    1619    1597    1598    1542    1541    1519    1520
       8    1621    1620    1598    1599    1543    1542    1520    1521
       8    1622    1621    1599    1600    1544    1543    1521    1522
       8    1623    1622    1600    1601    1545    1544    1522    1523
       8    1624    1623    1601    1602    1546    1545    1523    1524
       8    1625    1624    1602    1581    1547    1546    1524    1503
       8    1626    1625    1581    1580    1548    1547    1503    1502
       8    1627    1626    1580    1582    1549    1548    1502    1504
       8    1628    1627    1582    1603    1550    1549    1504    1525
       8    1629    1628    1603    1604    1551    1550    1525    1526
       8    1630    1629    1604    1605    1552    1551    1526    1527
       8    1631    1630    1605    1606    1553    1552    1527    1528
       8    1632    1631    1606    1607    1554    1553    1528    1529
       8    1633    1632    1607    1608    1555    1554    1529    1530
       8    1634    1633    1608    1609    1556    1555    1530    1531
       8    1635    1634    1609    1610    1557    1556    1531    1532
       8    1636    1635    1610    1611    1558    1557    1532    1533
       8    1637    1636    1611    1565    1559    1558    1533    1487
       8    1613    1637    1565    1564    1535    1559    1487    1486
       8    1638    1639    1640    1641    1560    1561    1562    1563
       8    1640    1642    1643    1641    1562    1564    1565    1563
       8    1644    1639    1638    1645    1566    1561    1560    1567
       8    1638    1646    1647    1645    1560    1568    1569    1567
       8    1648    1649    1650    1644    1570    1571    1572    1566
       8    1651    1652    1649    1648    1573    1574    1571    1570
       8    1645    1651    1648    1644    1567    1573    1570    1566
       8    1653    1654    1646    1655    1575    1576    1568    1577
       8    1656    1657    1654    1653    1578    1579    1576    1575
       8    1658    1659    1657    1656    1580    1581    1579    1578
       8    1660    1658    1656    1661    1582    1580    1578    1583
       8    1662    1647    1646    1654    1584    1569    1568    1576
       8    1653    1663    1661    1656    1575    1585    1583    1578
       8    1638    1641    1655    1646    1560    1563    1577    1568
       8    1664    1651    1645    1647    1586    1573    1567    1569
       8    1665    1664    1647    1662    1587    1586    1569    1584
       8    1666    1665    1662    1667    1588    1587    1584    1589
       8    1657    1667    1662    1654    1579    1589    1584    1576
       8    1668    1669    1663    1653    1590    1591    1585    1575
       8    1670    1668    1653    1655    1592    1590    1575    1577
       8    1671    1670    1655    1641    1593    1592    1577    1563
       8    1672    1642    1640    1673    1594    1564    1562    1595
       8    1674    1673    1640    1639    1596    1595    1562    1561
       8    1650    1674    1639    1644    1572    1596    1561    1566
       8    1675    1652    1651    1664    1597    1574    1573    1586
       8    1676    1675    1664    1665    1598    1597    1586    1587
       8    1677    1676    1665    1666    1599    1598    1587    1588
       8    1678    1677    1666    1679    1600    1599    1588    1601
       8    1680    1679    1666    1667    1602    1601    1588    1589
       8    1659    1680    1667    1657    1581    1602    1589    1579
       8    1681    1660    1661    1663    1603    1582    1583    1585
       8    1682    1681    1663    1669    1604    1603    1585    1591
       8    1683    1682    1669    1684    1605    1604    1591    1606
       8    1685    1684    1669    1668    1607    1606    1591    1590
       8    1686    1685    1668    1670    1608    1607    1590    1592
       8    1687    1686    1670    1671    1609    1608    1592    1593
       8    1688    1687    1671    1689    1610    1609    1593    1611
       8    1643    1689    1671    1641    1565    1611    1593    1563
       8    1690    1691    1642    1672    1612    1613    1564    1594
       8    1692    1690    1672    1673    1614    1612    1594    1595
       8    1693    1692    1673    1674    1615    1614    1595    1596
       8    1694    1693    1674    1650    1616    1615    1596    1572
       8    1695    1694    1650    1649    1617    1616    1572    1571
       8    1696    1695    1649    1652    1618    1617    1571    1574
       8    1697    1696    1652    1675    1619    1618    1574    1597
       8    1698    1697    1675    1676    1620    1619    1597    1598
       8    1699    1698    1676    1677    1621    1620    1598    1599
       8    1700    1699    1677    1678    1622    1621    1599    1600
       8    1701    1700    1678    1679    1623    1622    1600    1601
       8    1702    1701    1679    1680    1624    1623    1601    1602
       8    1703    1702    1680    1659    1625    1624    1602    1581
       8    1704    1703    1659    1658    1626    1625    1581    1580
       8    1705    1704    1658    1660    1627    1626    1580    1582
       8    1706    1705    1660    1681    1628    1627    1582    1603
       8    1707    1706    1681    1682    1629    1628    1603    1604
       8    1708    1707    1682    1683    1630    1629    1604    1605
       8    1709    1708    1683    1684    1631    1630    1605    1606
       8    1710    1709    1684    1685    1632    1631    1606    1607
       8    1711    1710    1685    1686    1633    1632    1607    1608
       8    1712    1711    1686    1687    1634    1633    1608    1609
       8    1713    1712    1687    1688    1635    1634    1609    1610
       8    1714    1713    1688    1689    1636    1635    1610    1611
       8    1715    1714    1689    1643    1637    1636    1611    1565
       8    1691    1715    1643    1642    1613    1637    1565    1564
       8    1716    1717    1718    1719    1638    1639    1640    1641
       8    1718    1720    1721    1719    1640    1642    1643    1641
       8    1722    1717    1716    1723    1644    1639    1638    1645
       8    1716    1724    1725    1723    1638    1646    1647    1645
       8    1726    1727    1728    1722    1648    1649    1650    1644
       8    1729    1730    1727    1726    1651    1652    1649    1648
       8    1723    1729    1726    1722    1645    1651    1648    1644
       8    1731    1732    1724    1733    1653    1654    1646    1655
       8    1734    1735    1732    1731    1656    1657    1654    1653
       8    1736    1737    1735    1734    1658    1659    1657    1656
       8    1738    1736    1734    1739    1660    1658    1656    1661
       8    1740    1725    1724    1732    1662    1647    1646    1654
       8    1731    1741    1739    1734    1653    1663    1661    1656
       8    1716    1719    1733    1724    1638    1641    1655    1646
       8    1742    1729    1723    1725    1664    1651    1645    1647
       8    1743    1742    1725    1740    1665    1664    1647    1662
       8    1744    1743    1740    1745    1666    1665    1662    1667
       8    1735    1745    1740    1732    1657    1667    1662    1654
       8    1746    1747    1741    1731    1668    1669    1663    1653
       8    1748    1746    1731    1733    1670    1668    1653    1655
       8    1749    1748    1733    1719    1671    1670    1655    1641
       8    1750    1720    1718    1751    1672    1642    1640    1673
       8    1752    1751    1718    1717    1674    1673    1640    1639
       8    1728    1752    1717    1722    1650    1674    1639    1644
       8    1753    1730    1729    1742    1675    1652    1651    1664
       8    1754    1753    1742    1743    1676    1675    1664    1665
       8    1755    1754    1743    1744    1677    1676    1665    1666
       8    1756    1755    1744    1757    1678    1677    1666    1679
       8    1758    1757    1744    1745    1680    1679    1666    1667
       8    1737    1758    1745    1735    1659    1680    1667    1657
       8    1759    1738    1739    1741    1681    1660    1661    1663
       8    1760    1759    1741    1747    1682    1681    1663    1669
       8    1761    1760    1747    1762    1683    1682    1669    1684
       8    1763    1762    1747    1746    1685    1684    1669    1668
       8    1764    1763    1746    1748    1686    1685    1668    1670
       8    1765    1764    1748    1749    1687    1686    1670    1671
       8    1766    1765    1749    1767    1688    1687    1671    1689
       8    1721    1767    1749    1719    1643    1689    1671    1641
       8    1768    1769    1720    1750    1690    1691    1642    1672
       8    1770    1768    1750    1751    1692    1690    1672    1673
       8    1771    1770    1751    1752    1693    1692    1673    1674
       8    1772    1771    1752    1728    1694    1693    1674    1650
       8    1773    1772    1728    1727    1695    1694    1650    1649
       8    1774    1773    1727    1730    1696    1695    1649    1652
       8    1775    1774    1730    1753    1697    1696    1652    1675
       8    1776    1775    1753    1754    1698    1697    1675    1676
       8    1777    1776    1754    1755    1699    1698    1676    1677
       8    1778    1777    1755    1756    1700    1699    1677    1678
       8    1779    1778    1756    1757    1701    1700    1678    1679
       8    1780    1779    1757    1758    1702    1701    1679    1680
       8    1781    1780    1758    1737    1703    1702    1680    1659
       8    1782    1781    1737    1736    1704    1703    1659    1658
       8    1783    1782    1736    1738    1705    1704    1658    1660
       8    1784    1783    1738    1759    1706    1705    1660    1681
       8    1785    1784    1759    1760    1707    1706    1681    1682
       8    1786    1785    1760    1761    1708    1707    1682    1683
       8    1787    1786    1761    1762    1709    1708    1683    1684
       8    1788    1787    1762    1763    1710    1709    1684    1685
       8    1789    1788    1763    1764    1711    1710    1685    1686
       8    1790    1789    1764    1765    1712    1711    1686    1687
       8    1791    1790    1765    1766    1713    1712    1687    1688
       8    1792    1791    1766    1767    1714    1713    1688    1689
       8    1793    1792    1767    1721    1715    1714    1689    1643
       8    1769    1793    1721    1720    1691    1715    1643    1642
       8    1794    1795    1796    1797    1716    1717    1718    1719
       8    1796    1798    1799    1797    1718    1720    1721    1719
       8    1800    1795    1794    1801    1722    1717    1716    1723
       8    1794    1802    1803    1801    1716    1724    1725    1723
       8    1804    1805    1806    1800    1726    1727    1728    1722
       8    1807    1808    1805    1804    1729    1730    1727    1726
       8    1801    1807    1804    1800    1723    1729    1726    1722
       8    1809    1810    1802    1811    1731    1732    1724    1733
       8    1812    1813    1810    1809    1734    1735    1732    1731
       8    1814    1815    1813    1812    1736    1737    1735    1734
       8    1816    1814    1812    1817    1738    1736    1734    1739
       8    1818    1803    1802    1810    1740    1725    1724    1732
       8    1809    1819    1817    1812    1731    1741    1739    1734
       8    1794    1797    1811    1802    1716    1719    1733    1724
       8    1820    1807    1801    1803    1742    1729    1723    1725
       8    1821    1820    1803    1818    1743    1742    1725    1740
       8    1822    1821    1818    1823    1744    1743    1740    1745
       8    1813    1823    1818    1810    1735    1745    1740    1732
       8    1824    1825    1819    1809    1746    1747    1741    1731
       8    1826    1824    1809    1811    1748    1746    1731    1733
       8    1827    1826    1811    1797    1749    1748    1733    1719
       8    1828    1798    1796    1829    1750    1720    1718    1751
       8    1830    1829    1796    1795    1752    1751    1718    1717
       8    1806    1830    1795    1800    1728    1752    1717    1722
       8    1831    1808    1807    1820    1753    1730    1729    1742
       8    1832    1831    1820    1821    1754    1753    1742    1743
       8    1833    1832    1821    1822    1755    1754    1743    1744
       8    1834    1833    1822    1835    1756    1755    1744    1757
       8    1836    1835    1822    1823    1758    1757    1744    1745
       8    1815    1836    1823    1813    1737    1758    1745    1735
       8    1837    1816    1817    1819    1759    1738    1739    1741
       8    1838    1837    1819    1825    1760    1759    1741    1747
       8    1839    1838    1825    1840    1761    1760    1747    1762
       8    1841    1840    1825    1824    1763    1762    1747    1746
       8    1842    1841    1824    1826    1764    1763    1746    1748
       8    1843    1842    1826    1827    1765    1764    1748    1749
       8    1844    1843    1827    1845    1766    1765    1749    1767
       8    1799    1845    1827    1797    1721    1767    1749    1719
       8    1846    1847    1798    1828    1768    1769    1720    1750
       8    1848    1846    1828    1829    1770    1768    1750    1751
       8    1849    1848    1829    1830    1771    1770    1751    1752
       8    1850    1849    1830    1806    1772    1771    1752    1728
       8    1851    1850    1806    1805    1773    1772    1728    1727
       8    1852    1851    1805    1808    1774    1773    1727    1730
       8    1853    1852    1808    1831    1775    1774    1730    1753
       8    1854    1853    1831    1832    1776    1775    1753    1754
       8    1855    1854    1832    1833    1777    1776    1754    1755
       8    1856    1855    1833    1834    1778    1777    1755    1756
       8    1857    1856    1834    1835    1779    1778    1756    1757
       8    1858    1857    1835    1836    1780    1779    1757    1758
       8    1859    1858    1836    1815    1781    1780    1758    1737
       8    1860    1859    1815    1814    1782    1781    1737    1736
       8    1861    1860    1814    1816    1783    1782    1736    1738
       8    1862    1861    1816    1837    1784    1783    1738    1759
       8    1863    1862    1837    1838    1785    1784    1759    1760
       8    1864    1863    1838    1839    1786    1785    1760    1761
       8    1865    1864    1839    1840    1787    1786    1761    1762
       8    1866    1865    1840    1841    1788    1787    1762    1763
       8    1867    1866    1841    1842    1789    1788    1763    1764
       8    1868    1867    1842    1843    1790    1789    1764    1765
       8    1869    1868    1843    1844    1791    1790    1765    1766
       8    1870    1869    1844    1845    1792    1791    1766    1767
       8    1871    1870    1845    1799    1793    1792    1767    1721
       8    1847    1871    1799    1798    1769    1793    1721    1720
       8    1872    1873    1874    1875    1794    1795    1796    1797
       8    1874    1876    1877    1875    1796    1798    1799    1797
       8    1878    1873    1872    1879    1800    1795    1794    1801
       8    1872    1880    1881    1879    1794    1802    1803    1801
       8    1882    1883    1884    1878    1804    1805    1806    1800
       8    1885    1886    1883    1882    1807    1808    1805    1804
       8    1879    1885    1882    1878    1801    1807    1804    1800
       8    1887    1888    1880    1889    1809    1810    1802    1811
       8    1890    1891    1888    1887    1812    1813    1810    1809
       8    1892    1893    1891    1890    1814    1815    1813    1812
       8    1894    1892    1890    1895    1816    1814    1812    1817
       8    1896    1881    1880    1888    1818    1803    1802    1810
       8    1887    1897    1895    1890    1809    1819    1817    1812
       8    1872    1875    1889    1880    1794    1797    1811    1802
       8    1898    1885    1879    1881    1820    1807    1801    1803
       8    1899    1898    1881    1896    1821    1820    1803    1818
       8    1900    1899    1896    1901    1822    1821    1818    1823
       8    1891    1901    1896    1888    1813    1823    1818    1810
       8    1902    1903    1897    1887    1824    1825    1819    1809
       8    1904    1902    1887    1889    1826    1824    1809    1811
       8    1905    1904    1889    1875    1827    1826    1811    1797
       8    1906    1876    1874    1907    1828    1798    1796    1829
       8    1908    1907    1874    1873    1830    1829    1796    1795
       8    1884    1908    1873    1878    1806    1830    1795    1800
       8    1909    1886    1885    1898    1831    1808    1807    1820
       8    1910    1909    1898    1899    1832    1831    1820    1821
       8    1911    1910    1899    1900    1833    1832    1821    1822
       8    1912    1911    1900    1913    1834    1833    1822    1835
       8    1914    1913    1900    1901    1836    1835    1822    1823
       8    1893    1914    1901    1891    1815    1836    1823    1813
       8    1915    1894    1895    1897    1837    1816    1817    1819
       8    1916    1915    1897    1903    1838    1837    1819    1825
       8    1917    1916    1903    1918    1839    1838    1825    1840
       8    1919    1918    1903    1902    1841    1840    1825    1824
       8    1920    1919    1902    1904    1842    1841    1824    1826
       8    1921    1920    1904    1905    1843    1842    1826    1827
       8    1922    1921    1905    1923    1844    1843    1827    1845
       8    1877    1923    1905    1875    1799    1845    1827    1797
       8    1924    1925    1876    1906    1846    1847    1798    1828
       8    1926    1924    1906    1907    1848    1846    1828    1829
       8    1927    1926    1907    1908    1849    1848    1829    1830
       8    1928    1927    1908    1884    1850    1849    1830    1806
       8    1929    1928    1884    1883    1851    1850    1806    1805
       8    1930    1929    1883    1886    1852    1851    1805    1808
       8    1931    1930    1886    1909    1853    1852    1808    1831
       8    1932    1931    1909    1910    1854    1853    1831    1832
       8    1933    1932    1910    1911    1855    1854    1832    1833
       8    1934    1933    1911    1912    1856    1855    1833    1834
       8    1935    1934    1912    1913    1857    1856    1834    1835
       8    1936    1935    1913    1914    1858    1857    1835    1836
       8    1937    1936    1914    1893    1859    1858    1836    1815
       8    1938    1937    1893    1892    1860    1859    1815    1814
       8    1939    1938    1892    1894    1861    1860    1814    1816
       8    1940    1939    1894    1915    1862    1861    1816    1837
       8    1941    1940    1915    1916    1863    1862    1837    1838
       8    1942    1941    1916    1917    1864    1863    1838    1839
       8    1943    1942    1917    1918    1865    1864    1839    1840
       8    1944    1943    1918    1919    1866    1865    1840    1841
       8    1945    1944    1919    1920    1867    1866    1841    1842
       8    1946    1945    1920    1921    1868    1867    1842    1843
       8    1947    1946    1921    1922    1869    1868    1843    1844
       8    1948    1947    1922    1923    1870    1869    1844    1845
       8    1949    1948    1923    1877    1871    1870    1845    1799
       8    1925    1949    1877    1876    1847    1871    1799    1798
  
CELL_TYPES    3486
       1
       1
       1
       1
       1
       1
       1
       1
       1
       1
       1
       1
       1
       1
       1
       1
       1
       1
       1
       1
       1
       1
       1
       1
       1
       1
       1
       1
       1
       1
       1
       1
       1
       1
       1
       1
       1
       1
       1
       1
       1
       1
       1
       1
       1
       1
       1
       1
       1
       1
       1
       1
       1
       1
       1
       1
       1
       1
       1
       1
       1
       1
       1
       1
       1
       1
       1
       1
       1
       1
       1
       1
       1
       1
       1
       1
       1
       1
       1
       1
       1
       1
       1
       1
       1
       1
       1
       1
       1
       1
       1
       1
       1
       1
       1
       1
       1
       1
       1
       1
       1
       1
       1
       1
       1
       1
       1
       1
       1
       1
       1
       1
       1
       1
       1
       1
       1
       1
       1
       1
       1
       1
       1
       1
       1
       1
       1
       1
       1
       1
       1
       1
       1
       1
       1
       1
       1
       1
       1
       1
       1
       1
       1
       1
       1
       1
       1
       1
       1
       1
       1
       1
       1
       1
       1
       1
       1
       1
       1
       1
       1
       1
       1
       1
       1
       1
       1
       1
       1
       1
       1
       1
       1
       1
       1
       1
       1
       1
       1
       1
       1
       1
       1
       1
       1
       1
       1
       1
       1
       1
       1
       1
       1
       1
       1
       1
       1
       1
       1
       1
       1
       1
       1
       1
       1
       1
       1
       1
       1
       1
       1
       1
       1
       1
       1
       1
       1
       1
       1
       1
       1
       1
       1
       1
       1
       1
       1
       1
       1
       1
       1
       1
       1
       1
       1
       1
       1
       1
       1
       1
       1
       1
       1
       1
       1
       1
       1
       1
       1
       1
       1
       1
       1
       1
       1
       1
       1
       1
       1
       1
       1
       1
       1
       1
       1
       1
       1
       1
       1
       1
       1
       1
       1
       1
       1
       1
       1
       1
       1
       1
       1
       1
       1
       1
       1
       1
       1
       1
       1
       1
       1
       1
       1
       1
       1
       1
       1
       1
       1
       1
       1
       1
       1
       1
       1
       1
       1
       1
       1
       1
       1
       1
       1
       1
       1
       1
       1
       1
       1
       1
       1
       1
       1
       1
       1
       1
       1
       1
       1
       1
       1
       1
       1
       1
       1
       1
       1
       1
       1
       1
       1
       1
       1
       1
       1
       1
       1
       1
       1
       1
       1
       1
       1
       1
       1
       1
       1
       1
       1
       1
       1
       1
       1
       1
       1
       1
       1
       1
       1
       1
       1
       1
       1
       1
       1
       1
       1
       1
       1
       1
       1
       1
       1
       1
       1
       1
       1
       1
       1
       1
       1
       1
       1
       1
       1
       1
       1
       1
       1
       1
       1
       1
       1
       1
       1
       1
       1
       1
       1
       1
       1
       1
       1
       1
       1
       1
       1
       1
       1
       1
       1
       1
       1
       1
       1
       1
       1
       1
       1
       1
       1
       1
       1
       1
       1
       1
       1
       1
       1
       1
       1
       1
       1
       1
       1
       1
       1
       1
       1
       1
       1
       1
       1
       1
       1
       1
       1
       1
       1
       1
       1
       1
       1
       1
       1
       1
       1
       1
       1
       1
       1
       1
       1
       1
       1
       1
       1
       1
       1
       1
       1
       1
       1
       1
       1
       1
       1
       1
       1
       1
       1
       1
       1
       1
       1
       1
       1
       1
       1
       1
       1
       1
       1
       1
       1
       1
       1
       1
       1
       1
       1
       1
       1
       1
       1
       1
       1
       1
       1
       1
       1
       1
       1
       1
       1
       1
       1
       1
       1
       1
       1
       1
       1
       1
       1
       1
       1
       1
       1
       1
       1
       1
       1
       1
       1
       1
       1
       1
       1
       1
       1
       1
       1
       1
       1
       1
       1
       1
       1
       1
       1
       1
       1
       1
       1
       1
       1
       1
       1
       1
       1
       1
       1
       1
       1
       1
       1
       1
       1
       1
       1
       1
       1
       1
       1
       1
       1
       1
       1
       1
       1
       1
       1
       1
       1
       1
       1
       1
       1
       1
       1
       1
       1
       1
       1
       1
       1
       1
       1
       1
       1
       1
       1
       1
       1
       1
       1
       1
       1
       1
       1
       1
       1
       1
       1
       1
       1
       1
       1
       1
       1
       1
       1
       1
       1
       1
       1
       1
       1
       1
       1
       1
       1
       1
       1
       1
       1
       1
       1
       1
       1
       1
       1
       1
       1
       1
       1
       1
       1
       1
       1
       1
       1
       1
       1
       1
       1
       1
       1
       1
       1
       1
       1
       1
       1
       1
       1
       1
       1
       1
       1
       1
       1
       1
       1
       1
       1
       1
       1
       1
       1
       1
       1
       1
       1
       1
       1
       1
       1
       1
       1
       1
       1
       1
       1
       1
       1
       1
       1
       1
       1
       1
       1
       1
       1
       1
       1
       1
       1
       1
       1
       1
       1
       1
       1
       1
       1
       1
       1
       1
       1
       1
       1
       1
       1
       1
       1
       1
       1
       1
       1
       1
       1
       1
       1
       1
       1
       1
       1
       1
       1
       1
       1
       1
       1
       1
       1
       1
       1
       1
       1
       1
       1
       1
       1
       1
       1
       1
       1
       1
       1
       1
       1
       1
       1
       1
       1
       1
       1
       1
       1
       1
       1
       1
       1
       1
       1
       1
       1
       1
       1
       1
       1
       1
       1
       1
       1
       1
       1
       1
       1
       1
       1
       1
       1
       1
       1
       1
       1
       1
       1
       1
       1
       1
       1
       1
       1
       1
       1
       1
       1
       1
       1
       1
       1
       1
       1
       1
       1
       1
       1
       1
       1
       1
       1
       1
       1
       1
       1
       1
       1
       1
       1
       1
       1
       1
       1
       1
       1
       1
       1
       1
       1
       1
       1
       1
       1
       1
       1
       1
       1
       1
       1
       1
       1
       1
       1
       1
       1
       1
       1
       1
       1
       1
       1
       1
       1
       1
       1
       1
       1
       1
       1
       1
       1
       1
       1
       1
       1
       1
       1
       1
       1
       1
       1
       1
       1
       1
       1
       1
       1
       1
       1
       1
       1
       1
       1
       1
       1
       1
       1
       1
       1
       1
       1
       1
       1
       1
       1
       1
       1
       1
       1
       1
       1
       1
       1
       1
       1
       1
       1
       1
       1
       1
       1
       1
       1
       1
       1
       1
       1
       1
       1
       1
       1
       1
       1
       1
       1
       1
       1
       1
       1
       1
       1
       1
       1
       1
       1
       1
       1
       1
       1
       1
       1
       1
       1
       1
       1
       1
       1
       1
       1
       1
       1
       1
       1
       1
       1
       1
       1
       1
       1
       1
       1
       1
       1
       1
       1
       1
       1
       1
       1
       1
       1
       1
       1
       1
       1
       1
       1
       1
       1
       1
       1
       1
       1
       1
       1
       1
       1
       1
       1
       1
       1
       1
       1
       1
       1
       1
       1
       1
       1
       1
       1
       1
       1
       1
       1
       1
       1
       1
       1
       1
       1
       1
       1
       1
       1
       1
       1
       1
       1
       1
       1
       1
       1
       1
       1
       1
       1
       1
       1
       1
       1
       1
       1
       1
       1
       1
       1
       1
       1
       1
       1
       1
       1
       1
       1
       1
       1
       1
       1
       1
       1
       1
       1
       1
       1
       1
       1
       1
       1
       1
       1
       1
       1
       1
       1
       1
       1
       1
       1
       1
       1
       1
       1
       1
       1
       1
       1
       1
       1
       1
       1
       1
       1
       1
       1
       1
       1
       1
       1
       1
       1
       1
       1
       1
       1
       1
       1
       1
       1
       1
       1
       1
       1
       1
       1
       1
       1
       1
       1
       1
       1
       1
       1
       1
       1
       1
       1
       1
       1
       1
       1
       1
       1
       1
       1
       1
       1
       1
       1
       1
       1
       1
       1
       1
       1
       1
       1
       1
       1
       1
       1
       1
       1
       1
       1
       1
       1
       1
       1
       1
       1
       1
       1
       1
       1
       1
       1
       1
       1
       1
       1
       1
       1
       1
       1
       1
       1
       1
       1
       1
       1
       1
       1
       1
       1
       1
       1
       1
       1
       1
       1
       1
       1
       1
       1
       1
       1
       1
       1
       1
       1
       1
       1
       1
       1
       1
       1
       1
       1
       1
       1
       1
       1
       1
       1
       1
       1
       1
       1
       1
       1
       1
       1
       1
       1
       1
       1
       1
       1
       1
       1
       1
       1
       1
       1
       1
       1
       1
       1
       1
       1
       1
       1
       1
       1
       1
       1
       1
       1
       1
       1
       1
       1
       1
       1
       1
       1
       1
       1
       1
       1
       1
       1
       1
       1
       1
       1
       1
       1
       1
       1
       1
       1
       1
       1
       1
       1
       1
       1
       1
       1
       1
       1
       1
       1
       1
       1
       1
       1
       1
       1
       1
       1
       1
       1
       1
       1
       1
       1
       1
       1
       1
       1
       1
       1
       1
       1
       1
       1
       1
       1
       1
       1
       1
       1
       1
       1
       1
       1
       1
       1
       1
       1
       1
       1
       1
       1
       1
       1
       1
       1
       1
       1
       1
       1
       1
       1
       1
       1
       1
       1
       1
       1
       1
       1
       1
       1
       1
       1
       1
       1
       1
       1
       1
       1
       1
       1
       1
       1
       1
       1
       1
       1
       1
       1
       1
       1
       1
       1
       1
       1
       1
       1
       1
       1
       1
       1
       1
       1
       1
       1
       1
       1
       1
       1
       1
       1
       1
       1
       1
       1
       1
       1
       1
       1
       1
       1
       1
       1
       1
       1
       1
       1
       1
       1
       1
       1
       1
       1
       1
       1
       1
       1
       1
       1
       1
       1
       1
       1
       1
       1
       1
       1
       1
       1
       1
       1
       1
       1
       1
       1
       1
       1
       1
       1
       1
       1
       1
       1
       1
       1
       1
       1
       1
       1
       1
       1
       1
       1
       1
       1
       1
       1
       1
       1
       1
       1
       1
       1
       1
       1
       1
       1
       1
       1
       1
       1
       1
       1
       1
       1
       1
       1
       1
       1
       1
       1
       1
       1
       1
       1
       1
       1
       1
       1
       1
       1
       1
       1
       1
       1
       1
       1
       1
       1
       1
       1
       1
       1
       1
       1
       1
       1
       1
       1
       1
       1
       1
       1
       1
       1
       1
       1
       1
       1
       1
       1
       1
       1
       1
       1
       1
       1
       1
       1
       1
       1
       1
       1
       1
       1
       1
       1
       1
       1
       1
       1
       1
       1
       1
       1
       1
       1
       1
       1
       1
       1
       1
       1
       1
       1
       1
       1
       1
       1
       1
       1
       1
       1
       1
       1
       1
       1
       1
       1
       1
       1
       1
       1
       1
       1
       1
       1
       1
       1
       1
       1
       1
       1
       1
       1
       1
       1
       1
       1
       1
       1
       1
       1
       1
       1
       1
       1
       1
       1
       1
       1
       1
       1
       1
       1
       1
       1
       1
       1
       1
       1
       1
       1
       1
       1
       1
       1
       1
       1
       1
       1
       1
       1
       1
       1
       1
       1
       1
       1
       1
       1
       1
       1
       1
       1
       1
       1
       1
       1
       1
       1
       1
       1
       1
       1
       1
       1
       1
       1
       1
       1
       1
       1
       1
       1
       1
       1
       1
       1
       1
       1
       1
       1
       1
       1
       1
       1
       1
       1
       1
       1
       1
       1
       1
       1
       1
       1
       1
       1
       1
       1
       1
       1
       1
       1
       1
       1
       1
       1
       1
       1
       1
       1
       1
       1
       1
       1
       1
       1
       1
       1
       1
       1
       1
       1
       1
       1
       1
       1
       1
       1
       1
       1
       1
       1
       1
       1
       1
       1
       1
       1
       1
       1
       1
       1
       1
       1
       1
       1
       1
       1
       1
       1
       1
       1
       1
       1
       1
       1
       1
       1
       1
       1
       1
       1
       1
       1
       1
       1
       1
       1
       1
       1
       1
       1
       1
       1
       1
       1
       1
       1
       1
       1
       1
       1
       1
       1
       1
       1
       1
       1
       1
       1
       1
       1
       1
       1
       1
       1
       1
       1
       1
       1
       1
       1
       1
       1
       1
       1
       1
       1
       1
       1
       1
       1
       1
       1
       1
       1
       1
       1
       1
       1
       1
       1
       1
       1
       1
       1
       1
       1
       1
       1
       1
       1
       1
       1
       1
       1
       1
       1
       1
       1
       1
       1
       1
       1
       1
       1
       1
       1
       1
       1
       1
       1
       1
       1
       1
       1
       1
       1
       1
       1
       1
       1
       1
       1
       1
       1
       1
       1
       1
       1
       1
       1
       1
       1
       1
       1
       1
       1
       1
       1
       1
       1
       1
       1
       1
       1
       1
       1
       1
       1
       1
       1
       1
       1
       1
       1
       1
       1
       1
       1
       1
       1
       1
       1
       1
       1
       1
       1
       1
       1
       1
       1
       1
       1
       1
       1
       1
       1
       1
       1
       1
       1
       1
       1
       1
       1
       1
       1
       1
       1
       1
       1
       1
       1
       1
       1
       1
       1
       1
       1
       1
       1
       1
       1
       1
       1
       1
       1
       1
       1
       1
       1
       1
       1
       1
       1
       1
      12
      12
      12
      12
      12
      12
      12
      12
      12
      12
      12
      12
      12
      12
      12
      12
      12
      12
      12
      12
      12
      12
      12
      12
      12
      12
      12
      12
      12
      12
      12
      12
      12
      12
      12
      12
      12
      12
      12
      12
      12
      12
      12
      12
      12
      12
      12
      12
      12
      12
      12
      12
      12
      12
      12
      12
      12
      12
      12
      12
      12
      12
      12
      12
      12
      12
      12
      12
      12
      12
      12
      12
      12
      12
      12
      12
      12
      12
      12
      12
      12
      12
      12
      12
      12
      12
      12
      12
      12
      12
      12
      12
      12
      12
      12
      12
      12
      12
      12
      12
      12
      12
      12
      12
      12
      12
      12
      12
      12
      12
      12
      12
      12
      12
      12
      12
      12
      12
      12
      12
      12
      12
      12
      12
      12
      12
      12
      12
      12
      12
      12
      12
      12
      12
      12
      12
      12
      12
      12
      12
      12
      12
      12
      12
      12
      12
      12
      12
      12
      12
      12
      12
      12
      12
      12
      12
      12
      12
      12
      12
      12
      12
      12
      12
      12
      12
      12
      12
      12
      12
      12
      12
      12
      12
      12
      12
      12
      12
      12
      12
      12
      12
      12
      12
      12
      12
      12
      12
      12
      12
      12
      12
      12
      12
      12
      12
      12
      12
      12
      12
      12
      12
      12
      12
      12
      12
      12
      12
      12
      12
      12
      12
      12
      12
      12
      12
      12
      12
      12
      12
      12
      12
      12
      12
      12
      12
      12
      12
      12
      12
      12
      12
      12
      12
      12
      12
      12
      12
      12
      12
      12
      12
      12
      12
      12
      12
      12
      12
      12
      12
      12
      12
      12
      12
      12
      12
      12
      12
      12
      12
      12
      12
      12
      12
      12
      12
      12
      12
      12
      12
      12
      12
      12
      12
      12
      12
      12
      12
      12
      12
      12
      12
      12
      12
      12
      12
      12
      12
      12
      12
      12
      12
      12
      12
      12
      12
      12
      12
      12
      12
      12
      12
      12
      12
      12
      12
      12
      12
      12
      12
      12
      12
      12
      12
      12
      12
      12
      12
      12
      12
      12
      12
      12
      12
      12
      12
      12
      12
      12
      12
      12
      12
      12
      12
      12
      12
      12
      12
      12
      12
      12
      12
      12
      12
      12
      12
      12
      12
      12
      12
      12
      12
      12
      12
      12
      12
      12
      12
      12
      12
      12
      12
      12
      12
      12
      12
      12
      12
      12
      12
      12
      12
      12
      12
      12
      12
      12
      12
      12
      12
      12
      12
      12
      12
      12
      12
      12
      12
      12
      12
      12
      12
      12
      12
      12
      12
      12
      12
      12
      12
      12
      12
      12
      12
      12
      12
      12
      12
      12
      12
      12
      12
      12
      12
      12
      12
      12
      12
      12
      12
      12
      12
      12
      12
      12
      12
      12
      12
      12
      12
      12
      12
      12
      12
      12
      12
      12
      12
      12
      12
      12
      12
      12
      12
      12
      12
      12
      12
      12
      12
      12
      12
      12
      12
      12
      12
      12
      12
      12
      12
      12
      12
      12
      12
      12
      12
      12
      12
      12
      12
      12
      12
      12
      12
      12
      12
      12
      12
      12
      12
      12
      12
      12
      12
      12
      12
      12
      12
      12
      12
      12
      12
      12
      12
      12
      12
      12
      12
      12
      12
      12
      12
      12
      12
      12
      12
      12
      12
      12
      12
      12
      12
      12
      12
      12
      12
      12
      12
      12
      12
      12
      12
      12
      12
      12
      12
      12
      12
      12
      12
      12
      12
      12
      12
      12
      12
      12
      12
      12
      12
      12
      12
      12
      12
      12
      12
      12
      12
      12
      12
      12
      12
      12
      12
      12
      12
      12
      12
      12
      12
      12
      12
      12
      12
      12
      12
      12
      12
      12
      12
      12
      12
      12
      12
      12
      12
      12
      12
      12
      12
      12
      12
      12
      12
      12
      12
      12
      12
      12
      12
      12
      12
      12
      12
      12
      12
      12
      12
      12
      12
      12
      12
      12
      12
      12
      12
      12
      12
      12
      12
      12
      12
      12
      12
      12
      12
      12
      12
      12
      12
      12
      12
      12
      12
      12
      12
      12
      12
      12
      12
      12
      12
      12
      12
      12
      12
      12
      12
      12
      12
      12
      12
      12
      12
      12
      12
      12
      12
      12
      12
      12
      12
      12
      12
      12
      12
      12
      12
      12
      12
      12
      12
      12
      12
      12
      12
      12
      12
      12
      12
      12
      12
      12
      12
      12
      12
      12
      12
      12
      12
      12
      12
      12
      12
      12
      12
      12
      12
      12
      12
      12
      12
      12
      12
      12
      12
      12
      12
      12
      12
      12
      12
      12
      12
      12
      12
      12
      12
      12
      12
      12
      12
      12
      12
      12
      12
      12
      12
      12
      12
      12
      12
      12
      12
      12
      12
      12
      12
      12
      12
      12
      12
      12
      12
      12
      12
      12
      12
      12
      12
      12
      12
      12
      12
      12
      12
      12
      12
      12
      12
      12
      12
      12
      12
      12
      12
      12
      12
      12
      12
      12
      12
      12
      12
      12
      12
      12
      12
      12
      12
      12
      12
      12
      12
      12
      12
      12
      12
      12
      12
      12
      12
      12
      12
      12
      12
      12
      12
      12
      12
      12
      12
      12
      12
      12
      12
      12
      12
      12
      12
      12
      12
      12
      12
      12
      12
      12
      12
      12
      12
      12
      12
      12
      12
      12
      12
      12
      12
      12
      12
      12
      12
      12
      12
      12
      12
      12
      12
      12
      12
      12
      12
      12
      12
      12
      12
      12
      12
      12
      12
      12
      12
      12
      12
      12
      12
      12
      12
      12
      12
      12
      12
      12
      12
      12
      12
      12
      12
      12
      12
      12
      12
      12
      12
      12
      12
      12
      12
      12
      12
      12
      12
      12
      12
      12
      12
      12
      12
      12
      12
      12
      12
      12
      12
      12
      12
      12
      12
      12
      12
      12
      12
      12
      12
      12
      12
      12
      12
      12
      12
      12
      12
      12
      12
      12
      12
      12
      12
      12
      12
      12
      12
      12
      12
      12
      12
      12
      12
      12
      12
      12
      12
      12
      12
      12
      12
      12
      12
      12
      12
      12
      12
      12
      12
      12
      12
      12
      12
      12
      12
      12
      12
      12
      12
      12
      12
      12
      12
      12
      12
      12
      12
      12
      12
      12
      12
      12
      12
      12
      12
      12
      12
      12
      12
      12
      12
      12
      12
      12
      12
      12
      12
      12
      12
      12
      12
      12
      12
      12
      12
      12
      12
      12
      12
      12
      12
      12
      12
      12
      12
      12
      12
      12
      12
      12
      12
      12
      12
      12
      12
      12
      12
      12
      12
      12
      12
      12
      12
      12
      12
      12
      12
      12
      12
      12
      12
      12
      12
      12
      12
      12
      12
      12
      12
      12
      12
      12
      12
      12
      12
      12
      12
      12
      12
      12
      12
      12
      12
      12
      12
      12
      12
      12
      12
      12
      12
      12
      12
      12
      12
      12
      12
      12
      12
      12
      12
      12
      12
      12
      12
      12
      12
      12
      12
      12
      12
      12
      12
      12
      12
      12
      12
      12
      12
      12
      12
      12
      12
      12
      12
      12
      12
      12
      12
      12
      12
      12
      12
      12
      12
      12
      12
      12
      12
      12
      12
      12
      12
      12
      12
      12
      12
      12
      12
      12
      12
      12
      12
      12
      12
      12
      12
      12
      12
      12
      12
      12
      12
      12
      12
      12
      12
      12
      12
      12
      12
      12
      12
      12
      12
      12
      12
      12
      12
      12
      12
      12
      12
      12
      12
      12
      12
      12
      12
      12
      12
      12
      12
      12
      12
      12
      12
      12
      12
      12
      12
      12
      12
      12
      12
      12
      12
      12
      12
      12
      12
      12
      12
      12
      12
      12
      12
      12
      12
      12
      12
      12
      12
      12
      12
      12
      12
      12
      12
      12
      12
      12
      12
      12
      12
      12
      12
      12
      12
      12
      12
      12
      12
      12
      12
      12
      12
      12
      12
      12
      12
      12
      12
      12
      12
      12
      12
      12
      12
      12
      12
      12
      12
      12
      12
      12
      12
      12
      12
      12
      12
      12
      12
      12
      12
      12
      12
      12
      12
      12
      12
      12
      12
      12
      12
      12
      12
      12
      12
      12
      12
      12
      12
      12
      12
      12
      12
      12
      12
      12
      12
      12
      12
      12
      12
      12
      12
      12
      12
      12
      12
      12
      12
      12
      12
      12
      12
      12
      12
      12
      12
      12
      12
      12
      12
      12
      12
      12
      12
      12
      12
      12
      12
      12
      12
      12
      12
      12
      12
      12
      12
      12
      12
      12
      12
      12
      12
      12
      12
      12
      12
      12
      12
      12
      12
      12
      12
      12
      12
      12
      12
      12
      12
      12
      12
      12
      12
      12
      12
      12
      12
      12
      12
      12
      12
      12
      12
      12
      12
      12
      12
      12
      12
      12
      12
      12
      12
      12
      12
      12
      12
      12
      12
      12
      12
      12
      12
      12
      12
      12
      12
      12
      12
      12
      12
      12
      12
      12
      12
      12
      12
      12
      12
      12
      12
      12
      12
      12
      12
      12
      12
      12
      12
      12
      12
      12
      12
      12
      12
      12
      12
      12
      12
      12
      12
      12
      12
      12
      12
      12
      12
      12
      12
      12
      12
      12
      12
      12
      12
      12
      12
      12
      12
      12
      12
      12
      12
      12
      12
      12
      12
      12
      12
      12
      12
      12
      12
      12
      12
      12
      12
      12
      12
      12
      12
      12
      12
      12
      12
      12
      12
      12
      12
      12
      12
      12
      12
      12
      12
      12
      12
      12
      12
      12
      12
      12
      12
      12
      12
      12
      12
      12
      12
      12
      12
      12
      12
      12
      12
      12
      12
      12
      12
      12
      12
      12
      12
      12
      12
      12
      12
      12
      12
      12
      12
      12
      12
      12
      12
      12
      12
      12
      12
      12
      12
      12
      12
      12
      12
      12
      12
      12
      12
      12
      12
      12
      12
      12
      12
      12
      12
      12
      12
      12
      12
      12
      12
      12
      12
      12
      12
      12
      12
      12
      12
      12
      12
      12
      12
      12
      12
      12
      12
      12
      12
      12
      12
      12
      12
      12
      12
  
  
POINT_DATA       1950
  
SCALARS                  material_type  double 1
LOOKUP_TABLE default
                   2
                   2
                   2
                   2
                   2
                   2
                   2
                   2
                   2
                   2
                   2
                   2
                   2
                   2
                   2
                   2
                   2
                   2
                   2
                   2
                   2
                   2
                   2
                   2
                   2
                   2
                   2
                   2
                   2
                   2
                   2
                   2
                   2
                   2
                   2
                   2
                   2
                   2
                   2
                   2
                   2
                   2
                   2
                   2
                   2
                   2
                   2
                   2
                   2
                   2
                   2
                   2
                   2
                   2
                   2
                   2
                   2
                   2
                   2
                   2
                   2
                   2
                   2
                   2
                   2
                   2
                   2
                   2
                   2
                   2
                   2
                   2
                   2
                   2
                   2
                   2
                   2
                   2
                   2
                   2
                   2
                   2
                   2
                   2
                   2
                   2
                   2
                   2
                   2
                   2
                   2
                   2
                   2
                   2
                   2
                   2
                   2
                   2
                   2
                   2
                   2
                   2
                   2
                   2
                   2
                   2
                   2
                   2
                   2
                   2
                   2
                   2
                   2
                   2
                   2
                   2
                   2
                   2
                   2
                   2
                   2
                   2
                   2
                   2
                   2
                   2
                   2
                   2
                   2
                   2
                   2
                   2
                   2
                   2
                   2
                   2
                   2
                   2
                   2
                   2
                   2
                   2
                   2
                   2
                   2
                   2
                   2
                   2
                   2
                   2
                   2
                   2
                   2
                   2
                   2
                   2
                   2
                   2
                   2
                   2
                   2
                   2
                   2
                   2
                   2
                   2
                   2
                   2
                   2
                   2
                   2
                   2
                   2
                   2
                   2
                   2
                   2
                   2
                   2
                   2
                   2
                   2
                   2
                   2
                   2
                   2
                   2
                   2
                   2
                   2
                   2
                   2
                   2
                   2
                   2
                   2
                   2
                   2
                   2
                   2
                   2
                   2
                   2
                   2
                   2
                   2
                   2
                   2
                   2
                   2
                   2
                   2
                   2
                   2
                   2
                   2
                   2
                   2
                   2
                   2
                   2
                   2
                   2
                   2
                   2
                   2
                   2
                   2
                   2
                   2
                   2
                   2
                   2
                   2
                   2
                   2
                   2
                   2
                   2
                   2
                   2
                   2
                   2
                   2
                   2
                   2
                   2
                   2
                   2
                   2
                   2
                   2
                   2
                   2
                   2
                   2
                   2
                   2
                   2
                   2
                   2
                   2
                   2
                   2
                   2
                   2
                   2
                   2
                   2
                   2
                   2
                   2
                   2
                   2
                   2
                   2
                   2
                   2
                   2
                   2
                   2
                   2
                   2
                   2
                   2
                   2
                   2
                   2
                   2
                   2
                   2
                   2
                   2
                   2
                   2
                   2
                   2
                   2
                   2
                   2
                   2
                   2
                   2
                   2
                   2
                   2
                   2
                   2
                   2
                   2
                   2
                   2
                   2
                   2
                   2
                   2
                   2
                   2
                   2
                   2
                   2
                   2
                   2
                   2
                   2
                   2
                   2
                   2
                   2
                   2
                   2
                   2
                   2
                   2
                   2
                   2
                   2
                   2
                   2
                   2
                   2
                   2
                   2
                   2
                   2
                   2
                   2
                   2
                   2
                   2
                   2
                   2
                   2
                   2
                   2
                   2
                   2
                   2
                   2
                   2
                   2
                   2
                   2
                   2
                   2
                   2
                   2
                   2
                   2
                   2
                   2
                   2
                   2
                   2
                   2
                   2
                   2
                   2
                   2
                   2
                   2
                   2
                   2
                   2
                   2
                   2
                   2
                   2
                   2
                   2
                   2
                   2
                   2
                   2
                   2
                   2
                   2
                   2
                   2
                   2
                   2
                   2
                   2
                   2
                   2
                   2
                   2
                   2
                   2
                   2
                   2
                   2
                   2
                   2
                   2
                   2
                   2
                   2
                   2
                   2
                   2
                   2
                   2
                   2
                   2
                   2
                   2
                   2
                   2
                   2
                   2
                   2
                   2
                   2
                   2
                   2
                   2
                   2
                   2
                   2
                   2
                   2
                   2
                   2
                   2
                   2
                   2
                   2
                   2
                   2
                   2
                   2
                   2
                   2
                   2
                   2
                   2
                   2
                   2
                   2
                   2
                   2
                   2
                   2
                   2
                   2
                   2
                   2
                   2
                   2
                   2
                   2
                   2
                   2
                   2
                   2
                   2
                   2
                   2
                   2
                   2
                   2
                   2
                   2
                   2
                   2
                   2
                   2
                   2
                   2
                   2
                   2
                   2
                   2
                   2
                   2
                   2
                   2
                   2
                   2
                   2
                   2
                   2
                   2
                   2
                   2
                   2
                   2
                   2
                   2
                   2
                   2
                   2
                   2
                   2
                   2
                   2
                   2
                   2
                   2
                   2
                   2
                   2
                   2
                   2
                   2
                   2
                   2
                   2
                   2
                   2
                   2
                   2
                   2
                   2
                   2
                   2
                   2
                   2
                   2
                   2
                   2
                   2
                   2
                   2
                   2
                   2
                   2
                   2
                   2
                   2
                   2
                   2
                   2
                   2
                   2
                   2
                   2
                   2
                   2
                   2
                   2
                   2
                   2
                   2
                   2
                   2
                   2
                   2
                   2
                   2
                   2
                   2
                   2
                   2
                   2
                   2
                   2
                   2
                   2
                   2
                   2
                   2
                   2
                   2
                   2
                   2
                   2
                   2
                   2
                   2
                   2
                   2
                   2
                   2
                   2
                   2
                   2
                   2
                   2
                   2
                   2
                   2
                   2
                   2
                   2
                   2
                   2
                   2
                   2
                   2
                   2
                   2
                   2
                   2
                   2
                   2
                   2
                   2
                   2
                   2
                   2
                   2
                   2
                   2
                   2
                   2
                   2
                   2
                   2
                   2
                   2
                   2
                   2
                   2
                   2
                   2
                   2
                   2
                   2
                   2
                   2
                   2
                   2
                   2
                   2
                   2
                   2
                   2
                   2
                   2
                   2
                   2
                   2
                   2
                   2
                   2
                   2
                   2
                   2
                   2
                   2
                   2
                   2
                   2
                   2
                   2
                   2
                   2
                   2
                   2
                   2
                   2
                   2
                   2
                   2
                   2
                   2
                   2
                   2
                   2
                   2
                   2
                   2
                   2
                   2
                   2
                   2
                   2
                   2
                   2
                   2
                   2
                   2
                   2
                   2
                   2
                   2
                   2
                   2
                   2
                   2
                   2
                   2
                   2
                   2
                   2
                   2
                   2
                   2
                   2
                   2
                   2
                   2
                   2
                   2
                   2
                   2
                   2
                   2
                   2
                   2
                   2
                   2
                   2
                   2
                   2
                   2
                   2
                   2
                   2
                   2
                   2
                   2
                   2
                   2
                   2
                   2
                   2
                   2
                   2
                   2
                   2
                   2
                   2
                   2
                   2
                   2
                   2
                   2
                   2
                   2
                   2
                   2
                   2
                   2
                   2
                   2
                   2
                   2
                   2
                   2
                   2
                   2
                   2
                   2
                   2
                   2
                   2
                   2
                   2
                   2
                   2
                   2
                   2
                   2
                   2
                   2
                   2
                   2
                   2
                   2
                   2
                   2
                   2
                   2
                   2
                   2
                   2
                   2
                   2
                   2
                   2
                   2
                   2
                   2
                   2
                   2
                   2
                   2
                   2
                   2
                   2
                   2
                   2
                   2
                   2
                   2
                   2
                   2
                   2
                   2
                   2
                   2
                   2
                   2
                   2
                   2
                   2
                   2
                   2
                   2
                   2
                   2
                   2
                   2
                   2
                   2
                   2
                   2
                   2
                   2
                   2
                   2
                   2
                   2
                   2
                   2
                   2
                   2
                   2
                   2
                   2
                   2
                   2
                   2
                   2
                   2
                   2
                   2
                   2
                   2
                   2
                   2
                   2
                   2
                   2
                   2
                   2
                   2
                   2
                   2
                   2
                   2
                   2
                   2
                   2
                   2
                   2
                   2
                   2
                   2
                   2
                   2
                   2
                   2
                   2
                   2
                   2
                   2
                   2
                   2
                   2
                   2
                   2
                   2
                   2
                   2
                   2
                   2
                   2
                   2
                   2
                   2
                   2
                   2
                   2
                   2
                   2
                   2
                   2
                   2
                   2
                   2
                   2
                   2
                   2
                   2
                   2
                   2
                   2
                   2
                   2
                   2
                   2
                   2
                   2
                   2
                   2
                   2
                   2
                   2
                   2
                   2
                   2
                   2
                   2
                   2
                   2
                   2
                   2
                   2
                   2
                   2
                   2
                   2
                   2
                   2
                   2
                   2
                   2
                   2
                   2
                   2
                   2
                   2
                   2
                   2
                   2
                   2
                   2
                   2
                   2
                   2
                   2
                   2
                   2
                   2
                   2
                   2
                   2
                   2
                   2
                   2
                   2
                   2
                   2
                   2
                   2
                   2
                   2
                   2
                   2
                   2
                   2
                   2
                   2
                   2
                   2
                   2
                   2
                   2
                   2
                   2
                   2
                   2
                   2
                   2
                   2
                   2
                   2
                   2
                   2
                   2
                   2
                   2
                   2
                   2
                   2
                   2
                   2
                   2
                   2
                   2
                   2
                   2
                   2
                   2
                   2
                   2
                   2
                   2
                   2
                   2
                   2
                   2
                   2
                   2
                   2
                   2
                   2
                   2
                   2
                   2
                   2
                   2
                   2
                   2
                   2
                   2
                   2
                   2
                   2
                   2
                   2
                   2
                   2
                   2
                   2
                   2
                   2
                   2
                   2
                   2
                   2
                   2
                   2
                   2
                   2
                   2
                   2
                   2
                   2
                   2
                   2
                   2
                   2
                   2
                   2
                   2
                   2
                   2
                   2
                   2
                   2
                   2
                   2
                   2
                   2
                   2
                   2
                   2
                   2
                   2
                   2
                   2
                   2
                   2
                   2
                   2
                   2
                   2
                   2
                   2
                   2
                   2
                   2
                   2
                   2
                   2
                   2
                   2
                   2
                   2
                   2
                   2
                   2
                   2
                   2
                   2
                   2
                   2
                   2
                   2
                   2
                   2
                   2
                   2
                   2
                   2
                   2
                   2
                   2
                   2
                   2
                   2
                   2
                   2
                   2
                   2
                   2
                   2
                   2
                   2
                   2
                   2
                   2
                   2
                   2
                   2
                   2
                   2
                   2
                   2
                   2
                   2
                   2
                   2
                   2
                   2
                   2
                   2
                   2
                   2
                   2
                   2
                   2
                   2
                   2
                   2
                   2
                   2
                   2
                   2
                   2
                   2
                   2
                   2
                   2
                   2
                   2
                   2
                   2
                   2
                   2
                   2
                   2
                   2
                   2
                   2
                   2
                   2
                   2
                   2
                   2
                   2
                   2
                   2
                   2
                   2
                   2
                   2
                   2
                   2
                   2
                   2
                   2
                   2
                   2
                   2
                   2
                   2
                   2
                   2
                   2
                   2
                   2
                   2
                   2
                   2
                   2
                   2
                   2
                   2
                   2
                   2
                   2
                   2
                   2
                   2
                   2
                   2
                   2
                   2
                   2
                   2
                   2
                   2
                   2
                   2
                   2
                   2
                   2
                   2
                   2
                   2
                   2
                   2
                   2
                   2
                   2
                   2
                   2
                   2
                   2
                   2
                   2
                   2
                   2
                   2
                   2
                   2
                   2
                   2
                   2
                   2
                   2
                   2
                   2
                   2
                   2
                   2
                   2
                   2
                   2
                   2
                   2
                   2
                   2
                   2
                   2
                   2
                   2
                   2
                   2
                   2
                   2
                   2
                   2
                   2
                   2
                   2
                   2
                   2
                   2
                   2
                   2
                   2
                   2
                   2
                   2
                   2
                   2
                   2
                   2
                   2
                   2
                   2
                   2
                   2
                   2
                   2
                   2
                   2
                   2
                   2
                   2
                   2
                   2
                   2
                   2
                   2
                   2
                   2
                   2
                   2
                   2
                   2
                   2
                   2
                   2
                   2
                   2
                   2
                   2
                   2
                   2
                   2
                   2
                   2
                   2
                   2
                   2
                   2
                   2
                   2
                   2
                   2
                   2
                   2
                   2
                   2
                   2
                   2
                   2
                   2
                   2
                   2
                   2
                   2
                   2
                   2
                   2
                   2
                   2
                   2
                   2
                   2
                   2
                   2
                   2
                   2
                   2
                   2
                   2
                   2
                   2
                   2
                   2
                   2
                   2
                   2
                   2
                   2
                   2
                   2
                   2
                   2
                   2
                   2
                   2
                   2
                   2
                   2
                   2
                   2
                   2
                   2
                   2
                   2
                   2
                   2
                   2
                   2
                   2
                   2
                   2
                   2
                   2
                   2
                   2
                   2
                   2
                   2
                   2
                   2
                   2
                   2
                   2
                   2
                   2
                   2
                   2
                   2
                   2
                   2
                   2
                   2
                   2
                   2
                   2
                   2
                   2
                   2
                   2
                   2
                   2
                   2
                   2
                   2
                   2
                   2
                   2
                   2
                   2
                   2
                   2
                   2
                   2
                   2
                   2
                   2
                   2
                   2
                   2
                   2
                   2
                   2
                   2
                   2
                   2
                   2
                   2
                   2
                   2
                   2
                   2
                   2
                   2
                   2
                   2
                   2
                   2
                   2
                   2
                   2
                   2
                   2
                   2
                   2
                   2
                   2
                   2
                   2
                   2
                   2
                   2
                   2
                   2
                   2
                   2
                   2
                   2
                   2
                   2
                   2
                   2
                   2
                   2
                   2
                   2
                   2
                   2
                   2
                   2
                   2
                   2
                   2
                   2
                   2
                   2
                   2
                   2
                   2
                   2
                   2
                   2
                   2
                   2
                   2
                   2
                   2
                   2
                   2
                   2
                   2
                   2
                   2
                   2
                   2
                   2
                   2
                   2
                   2
                   2
                   2
                   2
                   2
                   2
                   2
                   2
                   2
                   2
                   2
                   2
                   2
                   2
                   2
                   2
                   2
                   2
                   2
                   2
                   2
                   2
                   2
                   2
                   2
                   2
                   2
                   2
                   2
                   2
                   2
                   2
                   2
                   2
                   2
                   2
                   2
                   2
                   2
                   2
                   2
                   2
                   2
                   2
                   2
                   2
                   2
                   2
                   2
                   2
                   2
                   2
                   2
                   2
                   2
                   2
                   2
                   2
                   2
                   2
                   2
                   2
                   2
                   2
                   2
                   2
                   2
                   2
                   2
                   2
                   2
                   2
                   2
                   2
                   2
                   2
                   2
                   2
                   2
                   2
                   2
                   2
                   2
                   2
                   2
                   2
                   2
                   2
                   2
                   2
                   2
                   2
                   2
                   2
                   2
                   2
                   2
                   2
                   2
                   2
                   2
                   2
                   2
                   2
                   2
                   2
                   2
                   2
                   2
                   2
                   2
                   2
                   2
                   2
                   2
                   2
                   2
                   2
                   2
                   2
                   2
                   2
                   2
                   2
                   2
                   2
                   2
                   2
                   2
                   2
                   2
                   2
                   2
                   2
                   2
                   2
                   2
                   2
                   2
                   2
                   2
                   2
                   2
                   2
                   2
                   2
                   2
                   2
                   2
                   2
                   2
                   2
                   2
                   2
                   2
                   2
                   2
                   2
                   2
                   2
                   2
                   2
                   2
                   2
                   2
                   2
                   2
                   2
                   2
                   2
                   2
                   2
                   2
                   2
                   2
                   2
                   2
                   2
                   2
                   2
                   2
                   2
                   2
                   2
                   2
                   2
                   2
                   2
                   2
                   2
                   2
                   2
                   2
                   2
                   2
                   2
                   2
                   2
                   2
                   2
                   2
                   2
                   2
                   2
                   2
                   2
                   2
                   2
                   2
                   2
                   2
                   2
                   2
                   2
                   2
                   2
                   2
                   2
                   2
                   2
                   2
                   2
                   2
                   2
                   2
                   2
                   2
                   2
                   2
                   2
                   2
                   2
                   2
                   2
                   2
                   2
                   2
                   2
                   2
                   2
                   2
                   2
                   2
                   2
                   2
                   2
                   2
                   2
                   2
                   2
                   2
                   2
                   2
                   2
                   2
                   2
                   2
                   2
                   2
                   2
                   2
                   2
                   2
                   2
                   2
                   2
                   2
                   2
                   2
                   2
                   2
                   2
                   2
                   2
                   2
                   2
                   2
                   2
                   2
                   2
                   2
                   2
                   2
                   2
                   2
                   2
                   2
                   2
                   2
                   2
                   2
                   2
                   2
                   2
                   2
                   2
                   2
                   2
                   2
                   2
                   2
                   2
                   2
                   2
                   2
                   2
                   2
                   2
                   2
                   2
                   2
                   2
                   2
                   2
                   2
                   2
                   2
                   2
                   2
                   2
                   2
                   2
                   2
                   2
                   2
                   2
                   2
                   2
                   2
                   2
                   2
                   2
                   2
                   2
                   2
                   2
                   2
                   2
                   2
                   2
                   2
                   2
                   2
                   2
                   2
                   2
                   2
                   2
                   2
                   2
                   2
                   2
                   2
                   2
                   2
                   2
                   2
                   2
                   2
                   2
                   2
                   2
                   2
                   2
                   2
                   2
                   2
                   2
                   2
                   2
                   2
                   2
                   2
                   2
                   2
                   2
                   2
                   2
                   2
                   2
                   2
                   2
                   2
                   2
                   2
                   2
                   2
                   2
                   2
                   2
                   2
                   2
                   2
                   2
                   2
                   2
                   2
                   2
                   2
                   2
                   2
                   2
                   2
                   2
                   2
                   2
                   2
                   2
                   2
                   2
                   2
                   2
                   2
                   2
                   2
                   2
                   2
                   2
                   2
                   2
                   2
                   2
                   2
                   2
                   2
                   2
                   2
                   2
                   2
                   2
                   2
                   2
                   2
                   2
                   2
                   2
                   2
  
SCALARS                        node_id  double 1
LOOKUP_TABLE default
                   1
                   2
                   3
                   4
                   5
                   6
                   7
                   8
                   9
                  10
                  11
                  12
                  13
                  14
                  15
                  16
                  17
                  18
                  19
                  20
                  21
                  22
                  23
                  24
                  25
                  26
                  27
                  28
                  29
                  30
                  31
                  32
                  33
                  34
                  35
                  36
                  37
                  38
                  39
                  40
                  41
                  42
                  43
                  44
                  45
                  46
                  47
                  48
                  49
                  50
                  51
                  52
                  53
                  54
                  55
                  56
                  57
                  58
                  59
                  60
                  61
                  62
                  63
                  64
                  65
                  66
                  67
                  68
                  69
                  70
                  71
                  72
                  73
                  74
                  75
                  76
                  77
                  78
                  79
                  80
                  81
                  82
                  83
                  84
                  85
                  86
                  87
                  88
                  89
                  90
                  91
                  92
                  93
                  94
                  95
                  96
                  97
                  98
                  99
                 100
                 101
                 102
                 103
                 104
                 105
                 106
                 107
                 108
                 109
                 110
                 111
                 112
                 113
                 114
                 115
                 116
                 117
                 118
                 119
                 120
                 121
                 122
                 123
                 124
                 125
                 126
                 127
                 128
                 129
                 130
                 131
                 132
                 133
                 134
                 135
                 136
                 137
                 138
                 139
                 140
                 141
                 142
                 143
                 144
                 145
                 146
                 147
                 148
                 149
                 150
                 151
                 152
                 153
                 154
                 155
                 156
                 157
                 158
                 159
                 160
                 161
                 162
                 163
                 164
                 165
                 166
                 167
                 168
                 169
                 170
                 171
                 172
                 173
                 174
                 175
                 176
                 177
                 178
                 179
                 180
                 181
                 182
                 183
                 184
                 185
                 186
                 187
                 188
                 189
                 190
                 191
                 192
                 193
                 194
                 195
                 196
                 197
                 198
                 199
                 200
                 201
                 202
                 203
                 204
                 205
                 206
                 207
                 208
                 209
                 210
                 211
                 212
                 213
                 214
                 215
                 216
                 217
                 218
                 219
                 220
                 221
                 222
                 223
                 224
                 225
                 226
                 227
                 228
                 229
                 230
                 231
                 232
                 233
                 234
                 235
                 236
                 237
                 238
                 239
                 240
                 241
                 242
                 243
                 244
                 245
                 246
                 247
                 248
                 249
                 250
                 251
                 252
                 253
                 254
                 255
                 256
                 257
                 258
                 259
                 260
                 261
                 262
                 263
                 264
                 265
                 266
                 267
                 268
                 269
                 270
                 271
                 272
                 273
                 274
                 275
                 276
                 277
                 278
                 279
                 280
                 281
                 282
                 283
                 284
                 285
                 286
                 287
                 288
                 289
                 290
                 291
                 292
                 293
                 294
                 295
                 296
                 297
                 298
                 299
                 300
                 301
                 302
                 303
                 304
                 305
                 306
                 307
                 308
                 309
                 310
                 311
                 312
                 313
                 314
                 315
                 316
                 317
                 318
                 319
                 320
                 321
                 322
                 323
                 324
                 325
                 326
                 327
                 328
                 329
                 330
                 331
                 332
                 333
                 334
                 335
                 336
                 337
                 338
                 339
                 340
                 341
                 342
                 343
                 344
                 345
                 346
                 347
                 348
                 349
                 350
                 351
                 352
                 353
                 354
                 355
                 356
                 357
                 358
                 359
                 360
                 361
                 362
                 363
                 364
                 365
                 366
                 367
                 368
                 369
                 370
                 371
                 372
                 373
                 374
                 375
                 376
                 377
                 378
                 379
                 380
                 381
                 382
                 383
                 384
                 385
                 386
                 387
                 388
                 389
                 390
                 391
                 392
                 393
                 394
                 395
                 396
                 397
                 398
                 399
                 400
                 401
                 402
                 403
                 404
                 405
                 406
                 407
                 408
                 409
                 410
                 411
                 412
                 413
                 414
                 415
                 416
                 417
                 418
                 419
                 420
                 421
                 422
                 423
                 424
                 425
                 426
                 427
                 428
                 429
                 430
                 431
                 432
                 433
                 434
                 435
                 436
                 437
                 438
                 439
                 440
                 441
                 442
                 443
                 444
                 445
                 446
                 447
                 448
                 449
                 450
                 451
                 452
                 453
                 454
                 455
                 456
                 457
                 458
                 459
                 460
                 461
                 462
                 463
                 464
                 465
                 466
                 467
                 468
                 469
                 470
                 471
                 472
                 473
                 474
                 475
                 476
                 477
                 478
                 479
                 480
                 481
                 482
                 483
                 484
                 485
                 486
                 487
                 488
                 489
                 490
                 491
                 492
                 493
                 494
                 495
                 496
                 497
                 498
                 499
                 500
                 501
                 502
                 503
                 504
                 505
                 506
                 507
                 508
                 509
                 510
                 511
                 512
                 513
                 514
                 515
                 516
                 517
                 518
                 519
                 520
                 521
                 522
                 523
                 524
                 525
                 526
                 527
                 528
                 529
                 530
                 531
                 532
                 533
                 534
                 535
                 536
                 537
                 538
                 539
                 540
                 541
                 542
                 543
                 544
                 545
                 546
                 547
                 548
                 549
                 550
                 551
                 552
                 553
                 554
                 555
                 556
                 557
                 558
                 559
                 560
                 561
                 562
                 563
                 564
                 565
                 566
                 567
                 568
                 569
                 570
                 571
                 572
                 573
                 574
                 575
                 576
                 577
                 578
                 579
                 580
                 581
                 582
                 583
                 584
                 585
                 586
                 587
                 588
                 589
                 590
                 591
                 592
                 593
                 594
                 595
                 596
                 597
                 598
                 599
                 600
                 601
                 602
                 603
                 604
                 605
                 606
                 607
                 608
                 609
                 610
                 611
                 612
                 613
                 614
                 615
                 616
                 617
                 618
                 619
                 620
                 621
                 622
                 623
                 624
                 625
                 626
                 627
                 628
                 629
                 630
                 631
                 632
                 633
                 634
                 635
                 636
                 637
                 638
                 639
                 640
                 641
                 642
                 643
                 644
                 645
                 646
                 647
                 648
                 649
                 650
                 651
                 652
                 653
                 654
                 655
                 656
                 657
                 658
                 659
                 660
                 661
                 662
                 663
                 664
                 665
                 666
                 667
                 668
                 669
                 670
                 671
                 672
                 673
                 674
                 675
                 676
                 677
                 678
                 679
                 680
                 681
                 682
                 683
                 684
                 685
                 686
                 687
                 688
                 689
                 690
                 691
                 692
                 693
                 694
                 695
                 696
                 697
                 698
                 699
                 700
                 701
                 702
                 703
                 704
                 705
                 706
                 707
                 708
                 709
                 710
                 711
                 712
                 713
                 714
                 715
                 716
                 717
                 718
                 719
                 720
                 721
                 722
                 723
                 724
                 725
                 726
                 727
                 728
                 729
                 730
                 731
                 732
                 733
                 734
                 735
                 736
                 737
                 738
                 739
                 740
                 741
                 742
                 743
                 744
                 745
                 746
                 747
                 748
                 749
                 750
                 751
                 752
                 753
                 754
                 755
                 756
                 757
                 758
                 759
                 760
                 761
                 762
                 763
                 764
                 765
                 766
                 767
                 768
                 769
                 770
                 771
                 772
                 773
                 774
                 775
                 776
                 777
                 778
                 779
                 780
                 781
                 782
                 783
                 784
                 785
                 786
                 787
                 788
                 789
                 790
                 791
                 792
                 793
                 794
                 795
                 796
                 797
                 798
                 799
                 800
                 801
                 802
                 803
                 804
                 805
                 806
                 807
                 808
                 809
                 810
                 811
                 812
                 813
                 814
                 815
                 816
                 817
                 818
                 819
                 820
                 821
                 822
                 823
                 824
                 825
                 826
                 827
                 828
                 829
                 830
                 831
                 832
                 833
                 834
                 835
                 836
                 837
                 838
                 839
                 840
                 841
                 842
                 843
                 844
                 845
                 846
                 847
                 848
                 849
                 850
                 851
                 852
                 853
                 854
                 855
                 856
                 857
                 858
                 859
                 860
                 861
                 862
                 863
                 864
                 865
                 866
                 867
                 868
                 869
                 870
                 871
                 872
                 873
                 874
                 875
                 876
                 877
                 878
                 879
                 880
                 881
                 882
                 883
                 884
                 885
                 886
                 887
                 888
                 889
                 890
                 891
                 892
                 893
                 894
                 895
                 896
                 897
                 898
                 899
                 900
                 901
                 902
                 903
                 904
                 905
                 906
                 907
                 908
                 909
                 910
                 911
                 912
                 913
                 914
                 915
                 916
                 917
                 918
                 919
                 920
                 921
                 922
                 923
                 924
                 925
                 926
                 927
                 928
                 929
                 930
                 931
                 932
                 933
                 934
                 935
                 936
                 937
                 938
                 939
                 940
                 941
                 942
                 943
                 944
                 945
                 946
                 947
                 948
                 949
                 950
                 951
                 952
                 953
                 954
                 955
                 956
                 957
                 958
                 959
                 960
                 961
                 962
                 963
                 964
                 965
                 966
                 967
                 968
                 969
                 970
                 971
                 972
                 973
                 974
                 975
                 976
                 977
                 978
                 979
                 980
                 981
                 982
                 983
                 984
                 985
                 986
                 987
                 988
                 989
                 990
                 991
                 992
                 993
                 994
                 995
                 996
                 997
                 998
                 999
                1000
                1001
                1002
                1003
                1004
                1005
                1006
                1007
                1008
                1009
                1010
                1011
                1012
                1013
                1014
                1015
                1016
                1017
                1018
                1019
                1020
                1021
                1022
                1023
                1024
                1025
                1026
                1027
                1028
                1029
                1030
                1031
                1032
                1033
                1034
                1035
                1036
                1037
                1038
                1039
                1040
                1041
                1042
                1043
                1044
                1045
                1046
                1047
                1048
                1049
                1050
                1051
                1052
                1053
                1054
                1055
                1056
                1057
                1058
                1059
                1060
                1061
                1062
                1063
                1064
                1065
                1066
                1067
                1068
                1069
                1070
                1071
                1072
                1073
                1074
                1075
                1076
                1077
                1078
                1079
                1080
                1081
                1082
                1083
                1084
                1085
                1086
                1087
                1088
                1089
                1090
                1091
                1092
                1093
                1094
                1095
                1096
                1097
                1098
                1099
                1100
                1101
                1102
                1103
                1104
                1105
                1106
                1107
                1108
                1109
                1110
                1111
                1112
                1113
                1114
                1115
                1116
                1117
                1118
                1119
                1120
                1121
                1122
                1123
                1124
                1125
                1126
                1127
                1128
                1129
                1130
                1131
                1132
                1133
                1134
                1135
                1136
                1137
                1138
                1139
                1140
                1141
                1142
                1143
                1144
                1145
                1146
                1147
                1148
                1149
                1150
                1151
                1152
                1153
                1154
                1155
                1156
                1157
                1158
                1159
                1160
                1161
                1162
                1163
                1164
                1165
                1166
                1167
                1168
                1169
                1170
                1171
                1172
                1173
                1174
                1175
                1176
                1177
                1178
                1179
                1180
                1181
                1182
                1183
                1184
                1185
                1186
                1187
                1188
                1189
                1190
                1191
                1192
                1193
                1194
                1195
                1196
                1197
                1198
                1199
                1200
                1201
                1202
                1203
                1204
                1205
                1206
                1207
                1208
                1209
                1210
                1211
                1212
                1213
                1214
                1215
                1216
                1217
                1218
                1219
                1220
                1221
                1222
                1223
                1224
                1225
                1226
                1227
                1228
                1229
                1230
                1231
                1232
                1233
                1234
                1235
                1236
                1237
                1238
                1239
                1240
                1241
                1242
                1243
                1244
                1245
                1246
                1247
                1248
                1249
                1250
                1251
                1252
                1253
                1254
                1255
                1256
                1257
                1258
                1259
                1260
                1261
                1262
                1263
                1264
                1265
                1266
                1267
                1268
                1269
                1270
                1271
                1272
                1273
                1274
                1275
                1276
                1277
                1278
                1279
                1280
                1281
                1282
                1283
                1284
                1285
                1286
                1287
                1288
                1289
                1290
                1291
                1292
                1293
                1294
                1295
                1296
                1297
                1298
                1299
                1300
                1301
                1302
                1303
                1304
                1305
                1306
                1307
                1308
                1309
                1310
                1311
                1312
                1313
                1314
                1315
                1316
                1317
                1318
                1319
                1320
                1321
                1322
                1323
                1324
                1325
                1326
                1327
                1328
                1329
                1330
                1331
                1332
                1333
                1334
                1335
                1336
                1337
                1338
                1339
                1340
                1341
                1342
                1343
                1344
                1345
                1346
                1347
                1348
                1349
                1350
                1351
                1352
                1353
                1354
                1355
                1356
                1357
                1358
                1359
                1360
                1361
                1362
                1363
                1364
                1365
                1366
                1367
                1368
                1369
                1370
                1371
                1372
                1373
                1374
                1375
                1376
                1377
                1378
                1379
                1380
                1381
                1382
                1383
                1384
                1385
                1386
                1387
                1388
                1389
                1390
                1391
                1392
                1393
                1394
                1395
                1396
                1397
                1398
                1399
                1400
                1401
                1402
                1403
                1404
                1405
                1406
                1407
                1408
                1409
                1410
                1411
                1412
                1413
                1414
                1415
                1416
                1417
                1418
                1419
                1420
                1421
                1422
                1423
                1424
                1425
                1426
                1427
                1428
                1429
                1430
                1431
                1432
                1433
                1434
                1435
                1436
                1437
                1438
                1439
                1440
                1441
                1442
                1443
                1444
                1445
                1446
                1447
                1448
                1449
                1450
                1451
                1452
                1453
                1454
                1455
                1456
                1457
                1458
                1459
                1460
                1461
                1462
                1463
                1464
                1465
                1466
                1467
                1468
                1469
                1470
                1471
                1472
                1473
                1474
                1475
                1476
                1477
                1478
                1479
                1480
                1481
                1482
                1483
                1484
                1485
                1486
                1487
                1488
                1489
                1490
                1491
                1492
                1493
                1494
                1495
                1496
                1497
                1498
                1499
                1500
                1501
                1502
                1503
                1504
                1505
                1506
                1507
                1508
                1509
                1510
                1511
                1512
                1513
                1514
                1515
                1516
                1517
                1518
                1519
                1520
                1521
                1522
                1523
                1524
                1525
                1526
                1527
                1528
                1529
                1530
                1531
                1532
                1533
                1534
                1535
                1536
                1537
                1538
                1539
                1540
                1541
                1542
                1543
                1544
                1545
                1546
                1547
                1548
                1549
                1550
                1551
                1552
                1553
                1554
                1555
                1556
                1557
                1558
                1559
                1560
                1561
                1562
                1563
                1564
                1565
                1566
                1567
                1568
                1569
                1570
                1571
                1572
                1573
                1574
                1575
                1576
                1577
                1578
                1579
                1580
                1581
                1582
                1583
                1584
                1585
                1586
                1587
                1588
                1589
                1590
                1591
                1592
                1593
                1594
                1595
                1596
                1597
                1598
                1599
                1600
                1601
                1602
                1603
                1604
                1605
                1606
                1607
                1608
                1609
                1610
                1611
                1612
                1613
                1614
                1615
                1616
                1617
                1618
                1619
                1620
                1621
                1622
                1623
                1624
                1625
                1626
                1627
                1628
                1629
                1630
                1631
                1632
                1633
                1634
                1635
                1636
                1637
                1638
                1639
                1640
                1641
                1642
                1643
                1644
                1645
                1646
                1647
                1648
                1649
                1650
                1651
                1652
                1653
                1654
                1655
                1656
                1657
                1658
                1659
                1660
                1661
                1662
                1663
                1664
                1665
                1666
                1667
                1668
                1669
                1670
                1671
                1672
                1673
                1674
                1675
                1676
                1677
                1678
                1679
                1680
                1681
                1682
                1683
                1684
                1685
                1686
                1687
                1688
                1689
                1690
                1691
                1692
                1693
                1694
                1695
                1696
                1697
                1698
                1699
                1700
                1701
                1702
                1703
                1704
                1705
                1706
                1707
                1708
                1709
                1710
                1711
                1712
                1713
                1714
                1715
                1716
                1717
                1718
                1719
                1720
                1721
                1722
                1723
                1724
                1725
                1726
                1727
                1728
                1729
                1730
                1731
                1732
                1733
                1734
                1735
                1736
                1737
                1738
                1739
                1740
                1741
                1742
                1743
                1744
                1745
                1746
                1747
                1748
                1749
                1750
                1751
                1752
                1753
                1754
                1755
                1756
                1757
                1758
                1759
                1760
                1761
                1762
                1763
                1764
                1765
                1766
                1767
                1768
                1769
                1770
                1771
                1772
                1773
                1774
                1775
                1776
                1777
                1778
                1779
                1780
                1781
                1782
                1783
                1784
                1785
                1786
                1787
                1788
                1789
                1790
                1791
                1792
                1793
                1794
                1795
                1796
                1797
                1798
                1799
                1800
                1801
                1802
                1803
                1804
                1805
                1806
                1807
                1808
                1809
                1810
                1811
                1812
                1813
                1814
                1815
                1816
                1817
                1818
                1819
                1820
                1821
                1822
                1823
                1824
                1825
                1826
                1827
                1828
                1829
                1830
                1831
                1832
                1833
                1834
                1835
                1836
                1837
                1838
                1839
                1840
                1841
                1842
                1843
                1844
                1845
                1846
                1847
                1848
                1849
                1850
                1851
                1852
                1853
                1854
                1855
                1856
                1857
                1858
                1859
                1860
                1861
                1862
                1863
                1864
                1865
                1866
                1867
                1868
                1869
                1870
                1871
                1872
                1873
                1874
                1875
                1876
                1877
                1878
                1879
                1880
                1881
                1882
                1883
                1884
                1885
                1886
                1887
                1888
                1889
                1890
                1891
                1892
                1893
                1894
                1895
                1896
                1897
                1898
                1899
                1900
                1901
                1902
                1903
                1904
                1905
                1906
                1907
                1908
                1909
                1910
                1911
                1912
                1913
                1914
                1915
                1916
                1917
                1918
                1919
                1920
                1921
                1922
                1923
                1924
                1925
                1926
                1927
                1928
                1929
                1930
                1931
                1932
                1933
                1934
                1935
                1936
                1937
                1938
                1939
                1940
                1941
                1942
                1943
                1944
                1945
                1946
                1947
                1948
                1949
                1950
  
SCALARS                         bodyid  double 1
LOOKUP_TABLE default
                   1
                   1
                   1
                   1
                   1
                   1
                   1
                   1
                   1
                   1
                   1
                   1
                   1
                   1
                   1
                   1
                   1
                   1
                   1
                   1
                   1
                   1
                   1
                   1
                   1
                   1
                   1
                   1
                   1
                   1
                   1
                   1
                   1
                   1
                   1
                   1
                   1
                   1
                   1
                   1
                   1
                   1
                   1
                   1
                   1
                   1
                   1
                   1
                   1
                   1
                   1
                   1
                   1
                   1
                   1
                   1
                   1
                   1
                   1
                   1
                   1
                   1
                   1
                   1
                   1
                   1
                   1
                   1
                   1
                   1
                   1
                   1
                   1
                   1
                   1
                   1
                   1
                   1
                   1
                   1
                   1
                   1
                   1
                   1
                   1
                   1
                   1
                   1
                   1
                   1
                   1
                   1
                   1
                   1
                   1
                   1
                   1
                   1
                   1
                   1
                   1
                   1
                   1
                   1
                   1
                   1
                   1
                   1
                   1
                   1
                   1
                   1
                   1
                   1
                   1
                   1
                   1
                   1
                   1
                   1
                   1
                   1
                   1
                   1
                   1
                   1
                   1
                   1
                   1
                   1
                   1
                   1
                   1
                   1
                   1
                   1
                   1
                   1
                   1
                   1
                   1
                   1
                   1
                   1
                   1
                   1
                   1
                   1
                   1
                   1
                   1
                   1
                   1
                   1
                   1
                   1
                   1
                   1
                   1
                   1
                   1
                   1
                   1
                   1
                   1
                   1
                   1
                   1
                   1
                   1
                   1
                   1
                   1
                   1
                   1
                   1
                   1
                   1
                   1
                   1
                   1
                   1
                   1
                   1
                   1
                   1
                   1
                   1
                   1
                   1
                   1
                   1
                   1
                   1
                   1
                   1
                   1
                   1
                   1
                   1
                   1
                   1
                   1
                   1
                   1
                   1
                   1
                   1
                   1
                   1
                   1
                   1
                   1
                   1
                   1
                   1
                   1
                   1
                   1
                   1
                   1
                   1
                   1
                   1
                   1
                   1
                   1
                   1
                   1
                   1
                   1
                   1
                   1
                   1
                   1
                   1
                   1
                   1
                   1
                   1
                   1
                   1
                   1
                   1
                   1
                   1
                   1
                   1
                   1
                   1
                   1
                   1
                   1
                   1
                   1
                   1
                   1
                   1
                   1
                   1
                   1
                   1
                   1
                   1
                   1
                   1
                   1
                   1
                   1
                   1
                   1
                   1
                   1
                   1
                   1
                   1
                   1
                   1
                   1
                   1
                   1
                   1
                   1
                   1
                   1
                   1
                   1
                   1
                   1
                   1
                   1
                   1
                   1
                   1
                   1
                   1
                   1
                   1
                   1
                   1
                   1
                   1
                   1
                   1
                   1
                   1
                   1
                   1
                   1
                   1
                   1
                   1
                   1
                   1
                   1
                   1
                   1
                   1
                   1
                   1
                   1
                   1
                   1
                   1
                   1
                   1
                   1
                   1
                   1
                   1
                   1
                   1
                   1
                   1
                   1
                   1
                   1
                   1
                   1
                   1
                   1
                   1
                   1
                   1
                   1
                   1
                   1
                   1
                   1
                   1
                   1
                   1
                   1
                   1
                   1
                   1
                   1
                   1
                   1
                   1
                   1
                   1
                   1
                   1
                   1
                   1
                   1
                   1
                   1
                   1
                   1
                   1
                   1
                   1
                   1
                   1
                   1
                   1
                   1
                   1
                   1
                   1
                   1
                   1
                   1
                   1
                   1
                   1
                   1
                   1
                   1
                   1
                   1
                   1
                   1
                   1
                   1
                   1
                   1
                   1
                   1
                   1
                   1
                   1
                   1
                   1
                   1
                   1
                   1
                   1
                   1
                   1
                   1
                   1
                   1
                   1
                   1
                   1
                   1
                   1
                   1
                   1
                   1
                   1
                   1
                   1
                   1
                   1
                   1
                   1
                   1
                   1
                   1
                   1
                   1
                   1
                   1
                   1
                   1
                   1
                   1
                   1
                   1
                   1
                   1
                   1
                   1
                   1
                   1
                   1
                   1
                   1
                   1
                   1
                   1
                   1
                   1
                   1
                   1
                   1
                   1
                   1
                   1
                   1
                   1
                   1
                   1
                   1
                   1
                   1
                   1
                   1
                   1
                   1
                   1
                   1
                   1
                   1
                   1
                   1
                   1
                   1
                   1
                   1
                   1
                   1
                   1
                   1
                   1
                   1
                   1
                   1
                   1
                   1
                   1
                   1
                   1
                   1
                   1
                   1
                   1
                   1
                   1
                   1
                   1
                   1
                   1
                   1
                   1
                   1
                   1
                   1
                   1
                   1
                   1
                   1
                   1
                   1
                   1
                   1
                   1
                   1
                   1
                   1
                   1
                   1
                   1
                   1
                   1
                   1
                   1
                   1
                   1
                   1
                   1
                   1
                   1
                   1
                   1
                   1
                   1
                   1
                   1
                   1
                   1
                   1
                   1
                   1
                   1
                   1
                   1
                   1
                   1
                   1
                   1
                   1
                   1
                   1
                   1
                   1
                   1
                   1
                   1
                   1
                   1
                   1
                   1
                   1
                   1
                   1
                   1
                   1
                   1
                   1
                   1
                   1
                   1
                   1
                   1
                   1
                   1
                   1
                   1
                   1
                   1
                   1
                   1
                   1
                   1
                   1
                   1
                   1
                   1
                   1
                   1
                   1
                   1
                   1
                   1
                   1
                   1
                   1
                   1
                   1
                   1
                   1
                   1
                   1
                   1
                   1
                   1
                   1
                   1
                   1
                   1
                   1
                   1
                   1
                   1
                   1
                   1
                   1
                   1
                   1
                   1
                   1
                   1
                   1
                   1
                   1
                   1
                   1
                   1
                   1
                   1
                   1
                   1
                   1
                   1
                   1
                   1
                   1
                   1
                   1
                   1
                   1
                   1
                   1
                   1
                   1
                   1
                   1
                   1
                   1
                   1
                   1
                   1
                   1
                   1
                   1
                   1
                   1
                   1
                   1
                   1
                   1
                   1
                   1
                   1
                   1
                   1
                   1
                   1
                   1
                   1
                   1
                   1
                   1
                   1
                   1
                   1
                   1
                   1
                   1
                   1
                   1
                   1
                   1
                   1
                   1
                   1
                   1
                   1
                   1
                   1
                   1
                   1
                   1
                   1
                   1
                   1
                   1
                   1
                   1
                   1
                   1
                   1
                   1
                   1
                   1
                   1
                   1
                   1
                   1
                   1
                   1
                   1
                   1
                   1
                   1
                   1
                   1
                   1
                   1
                   1
                   1
                   1
                   1
                   1
                   1
                   1
                   1
                   1
                   1
                   1
                   1
                   1
                   1
                   1
                   1
                   1
                   1
                   1
                   1
                   1
                   1
                   1
                   1
                   1
                   1
                   1
                   1
                   1
                   1
                   1
                   1
                   1
                   1
                   1
                   1
                   1
                   1
                   1
                   1
                   1
                   1
                   1
                   1
                   1
                   1
                   1
                   1
                   1
                   1
                   1
                   1
                   1
                   1
                   1
                   1
                   1
                   1
                   1
                   1
                   1
                   1
                   1
                   1
                   1
                   1
                   1
                   1
                   1
                   1
                   1
                   1
                   1
                   1
                   1
                   1
                   1
                   1
                   1
                   1
                   1
                   1
                   1
                   1
                   1
                   1
                   1
                   1
                   1
                   1
                   1
                   1
                   1
                   1
                   1
                   1
                   1
                   1
                   1
                   1
                   1
                   1
                   1
                   1
                   1
                   1
                   1
                   1
                   1
                   1
                   1
                   1
                   1
                   1
                   1
                   1
                   1
                   1
                   1
                   1
                   1
                   1
                   1
                   1
                   1
                   1
                   1
                   1
                   1
                   1
                   1
                   1
                   1
                   1
                   1
                   1
                   1
                   1
                   1
                   1
                   1
                   1
                   1
                   1
                   1
                   1
                   1
                   1
                   1
                   1
                   1
                   1
                   1
                   1
                   1
                   1
                   1
                   1
                   1
                   1
                   1
                   1
                   1
                   1
                   1
                   1
                   1
                   1
                   1
                   1
                   1
                   1
                   1
                   1
                   1
                   1
                   1
                   1
                   1
                   1
                   1
                   1
                   1
                   1
                   1
                   1
                   1
                   1
                   1
                   1
                   1
                   1
                   1
                   1
                   1
                   1
                   1
                   1
                   1
                   1
                   1
                   1
                   1
                   1
                   1
                   1
                   1
                   1
                   1
                   1
                   1
                   1
                   1
                   1
                   1
                   1
                   1
                   1
                   1
                   1
                   1
                   1
                   1
                   1
                   1
                   1
                   1
                   1
                   1
                   1
                   1
                   1
                   1
                   1
                   1
                   1
                   1
                   1
                   1
                   1
                   1
                   1
                   1
                   1
                   1
                   1
                   1
                   1
                   1
                   1
                   1
                   1
                   1
                   1
                   1
                   1
                   1
                   1
                   1
                   1
                   1
                   1
                   1
                   1
                   1
                   1
                   1
                   1
                   1
                   1
                   1
                   1
                   1
                   1
                   1
                   1
                   1
                   1
                   1
                   1
                   1
                   1
                   1
                   1
                   1
                   1
                   1
                   1
                   1
                   1
                   1
                   1
                   1
                   1
                   1
                   1
                   1
                   1
                   1
                   1
                   1
                   1
                   1
                   1
                   1
                   1
                   1
                   1
                   1
                   1
                   1
                   1
                   1
                   1
                   1
                   1
                   1
                   1
                   1
                   1
                   1
                   1
                   1
                   1
                   1
                   1
                   1
                   1
                   1
                   1
                   1
                   1
                   1
                   1
                   1
                   1
                   1
                   1
                   1
                   1
                   1
                   1
                   1
                   1
                   1
                   1
                   1
                   1
                   1
                   1
                   1
                   1
                   1
                   1
                   1
                   1
                   1
                   1
                   1
                   1
                   1
                   1
                   1
                   1
                   1
                   1
                   1
                   1
                   1
                   1
                   1
                   1
                   1
                   1
                   1
                   1
                   1
                   1
                   1
                   1
                   1
                   1
                   1
                   1
                   1
                   1
                   1
                   1
                   1
                   1
                   1
                   1
                   1
                   1
                   1
                   1
                   1
                   1
                   1
                   1
                   1
                   1
                   1
                   1
                   1
                   1
                   1
                   1
                   1
                   1
                   1
                   1
                   1
                   1
                   1
                   1
                   1
                   1
                   1
                   1
                   1
                   1
                   1
                   1
                   1
                   1
                   1
                   1
                   1
                   1
                   1
                   1
                   1
                   1
                   1
                   1
                   1
                   1
                   1
                   1
                   1
                   1
                   1
                   1
                   1
                   1
                   1
                   1
                   1
                   1
                   1
                   1
                   1
                   1
                   1
                   1
                   1
                   1
                   1
                   1
                   1
                   1
                   1
                   1
                   1
                   1
                   1
                   1
                   1
                   1
                   1
                   1
                   1
                   1
                   1
                   1
                   1
                   1
                   1
                   1
                   1
                   1
                   1
                   1
                   1
                   1
                   1
                   1
                   1
                   1
                   1
                   1
                   1
                   1
                   1
                   1
                   1
                   1
                   1
                   1
                   1
                   1
                   1
                   1
                   1
                   1
                   1
                   1
                   1
                   1
                   1
                   1
                   1
                   1
                   1
                   1
                   1
                   1
                   1
                   1
                   1
                   1
                   1
                   1
                   1
                   1
                   1
                   1
                   1
                   1
                   1
                   1
                   1
                   1
                   1
                   1
                   1
                   1
                   1
                   1
                   1
                   1
                   1
                   1
                   1
                   1
                   1
                   1
                   1
                   1
                   1
                   1
                   1
                   1
                   1
                   1
                   1
                   1
                   1
                   1
                   1
                   1
                   1
                   1
                   1
                   1
                   1
                   1
                   1
                   1
                   1
                   1
                   1
                   1
                   1
                   1
                   1
                   1
                   1
                   1
                   1
                   1
                   1
                   1
                   1
                   1
                   1
                   1
                   1
                   1
                   1
                   1
                   1
                   1
                   1
                   1
                   1
                   1
                   1
                   1
                   1
                   1
                   1
                   1
                   1
                   1
                   1
                   1
                   1
                   1
                   1
                   1
                   1
                   1
                   1
                   1
                   1
                   1
                   1
                   1
                   1
                   1
                   1
                   1
                   1
                   1
                   1
                   1
                   1
                   1
                   1
                   1
                   1
                   1
                   1
                   1
                   1
                   1
                   1
                   1
                   1
                   1
                   1
                   1
                   1
                   1
                   1
                   1
                   1
                   1
                   1
                   1
                   1
                   1
                   1
                   1
                   1
                   1
                   1
                   1
                   1
                   1
                   1
                   1
                   1
                   1
                   1
                   1
                   1
                   1
                   1
                   1
                   1
                   1
                   1
                   1
                   1
                   1
                   1
                   1
                   1
                   1
                   1
                   1
                   1
                   1
                   1
                   1
                   1
                   1
                   1
                   1
                   1
                   1
                   1
                   1
                   1
                   1
                   1
                   1
                   1
                   1
                   1
                   1
                   1
                   1
                   1
                   1
                   1
                   1
                   1
                   1
                   1
                   1
                   1
                   1
                   1
                   1
                   1
                   1
                   1
                   1
                   1
                   1
                   1
                   1
                   1
                   1
                   1
                   1
                   1
                   1
                   1
                   1
                   1
                   1
                   1
                   1
                   1
                   1
                   1
                   1
                   1
                   1
                   1
                   1
                   1
                   1
                   1
                   1
                   1
                   1
                   1
                   1
                   1
                   1
                   1
                   1
                   1
                   1
                   1
                   1
                   1
                   1
                   1
                   1
                   1
                   1
                   1
                   1
                   1
                   1
                   1
                   1
                   1
                   1
                   1
                   1
                   1
                   1
                   1
                   1
                   1
                   1
                   1
                   1
                   1
                   1
                   1
                   1
                   1
                   1
                   1
                   1
                   1
                   1
                   1
                   1
                   1
                   1
                   1
                   1
                   1
                   1
                   1
                   1
                   1
                   1
                   1
                   1
                   1
                   1
                   1
                   1
                   1
                   1
                   1
                   1
                   1
                   1
                   1
                   1
                   1
                   1
                   1
                   1
                   1
                   1
                   1
                   1
                   1
                   1
                   1
                   1
                   1
                   1
                   1
                   1
                   1
                   1
                   1
                   1
                   1
                   1
                   1
                   1
                   1
                   1
                   1
                   1
                   1
                   1
                   1
                   1
                   1
                   1
                   1
                   1
                   1
                   1
                   1
                   1
                   1
                   1
                   1
                   1
                   1
                   1
                   1
                   1
                   1
                   1
                   1
                   1
                   1
                   1
                   1
                   1
                   1
                   1
                   1
                   1
                   1
                   1
                   1
                   1
                   1
                   1
                   1
                   1
                   1
                   1
                   1
                   1
                   1
                   1
                   1
                   1
                   1
                   1
                   1
                   1
                   1
                   1
                   1
                   1
                   1
                   1
                   1
                   1
                   1
                   1
                   1
                   1
                   1
                   1
                   1
                   1
                   1
                   1
                   1
                   1
                   1
                   1
                   1
                   1
                   1
                   1
                   1
                   1
                   1
                   1
                   1
                   1
                   1
                   1
                   1
                   1
                   1
                   1
                   1
                   1
                   1
                   1
                   1
                   1
                   1
                   1
                   1
                   1
                   1
                   1
                   1
                   1
                   1
                   1
                   1
                   1
                   1
                   1
                   1
                   1
                   1
                   1
                   1
                   1
                   1
                   1
                   1
                   1
                   1
                   1
                   1
                   1
                   1
                   1
                   1
                   1
                   1
                   1
                   1
                   1
                   1
                   1
                   1
                   1
                   1
                   1
                   1
                   1
                   1
                   1
                   1
                   1
                   1
                   1
                   1
                   1
                   1
                   1
                   1
                   1
                   1
                   1
                   1
                   1
                   1
                   1
                   1
                   1
                   1
                   1
                   1
                   1
                   1
                   1
                   1
                   1
                   1
                   1
                   1
                   1
                   1
                   1
                   1
                   1
                   1
                   1
                   1
                   1
                   1
                   1
                   1
                   1
                   1
                   1
                   1
                   1
                   1
                   1
                   1
                   1
                   1
                   1
                   1
                   1
                   1
                   1
                   1
                   1
                   1
                   1
                   1
                   1
                   1
                   1
                   1
                   1
                   1
                   1
                   1
                   1
                   1
                   1
                   1
                   1
                   1
                   1
                   1
                   1
                   1
                   1
                   1
                   1
                   1
                   1
                   1
                   1
                   1
                   1
                   1
                   1
                   1
                   1
                   1
                   1
                   1
                   1
                   1
                   1
                   1
                   1
                   1
                   1
                   1
                   1
                   1
                   1
                   1
                   1
                   1
                   1
                   1
                   1
                   1
                   1
                   1
                   1
                   1
                   1
                   1
                   1
                   1
                   1
                   1
                   1
                   1
                   1
                   1
                   1
                   1
                   1
                   1
                   1
                   1
                   1
                   1
                   1
                   1
                   1
                   1
                   1
                   1
                   1
                   1
                   1
                   1
                   1
                   1
                   1
                   1
                   1
                   1
                   1
                   1
                   1
                   1
                   1
                   1
                   1
                   1
                   1
                   1
                   1
                   1
                   1
                   1
                   1
                   1
                   1
                   1
                   1
                   1
                   1
                   1
                   1
                   1
                   1
                   1
                   1
                   1
                   1
                   1
                   1
                   1
                   1
                   1
                   1
                   1
                   1
                   1
                   1
                   1
                   1
                   1
                   1
                   1
                   1
                   1
                   1
                   1
                   1
                   1
                   1
                   1
                   1
                   1
                   1
                   1
                   1
                   1
                   1
                   1
                   1
                   1
                   1
                   1
                   1
                   1
                   1
                   1
                   1
                   1
                   1
                   1
                   1
                   1
                   1
                   1
                   1
                   1
                   1
                   1
                   1
                   1
                   1
  
SCALARS                  material_type  double 1
LOOKUP_TABLE default
                   2
                   2
                   2
                   2
                   2
                   2
                   2
                   2
                   2
                   2
                   2
                   2
                   2
                   2
                   2
                   2
                   2
                   2
                   2
                   2
                   2
                   2
                   2
                   2
                   2
                   2
                   2
                   2
                   2
                   2
                   2
                   2
                   2
                   2
                   2
                   2
                   2
                   2
                   2
                   2
                   2
                   2
                   2
                   2
                   2
                   2
                   2
                   2
                   2
                   2
                   2
                   2
                   2
                   2
                   2
                   2
                   2
                   2
                   2
                   2
                   2
                   2
                   2
                   2
                   2
                   2
                   2
                   2
                   2
                   2
                   2
                   2
                   2
                   2
                   2
                   2
                   2
                   2
                   2
                   2
                   2
                   2
                   2
                   2
                   2
                   2
                   2
                   2
                   2
                   2
                   2
                   2
                   2
                   2
                   2
                   2
                   2
                   2
                   2
                   2
                   2
                   2
                   2
                   2
                   2
                   2
                   2
                   2
                   2
                   2
                   2
                   2
                   2
                   2
                   2
                   2
                   2
                   2
                   2
                   2
                   2
                   2
                   2
                   2
                   2
                   2
                   2
                   2
                   2
                   2
                   2
                   2
                   2
                   2
                   2
                   2
                   2
                   2
                   2
                   2
                   2
                   2
                   2
                   2
                   2
                   2
                   2
                   2
                   2
                   2
                   2
                   2
                   2
                   2
                   2
                   2
                   2
                   2
                   2
                   2
                   2
                   2
                   2
                   2
                   2
                   2
                   2
                   2
                   2
                   2
                   2
                   2
                   2
                   2
                   2
                   2
                   2
                   2
                   2
                   2
                   2
                   2
                   2
                   2
                   2
                   2
                   2
                   2
                   2
                   2
                   2
                   2
                   2
                   2
                   2
                   2
                   2
                   2
                   2
                   2
                   2
                   2
                   2
                   2
                   2
                   2
                   2
                   2
                   2
                   2
                   2
                   2
                   2
                   2
                   2
                   2
                   2
                   2
                   2
                   2
                   2
                   2
                   2
                   2
                   2
                   2
                   2
                   2
                   2
                   2
                   2
                   2
                   2
                   2
                   2
                   2
                   2
                   2
                   2
                   2
                   2
                   2
                   2
                   2
                   2
                   2
                   2
                   2
                   2
                   2
                   2
                   2
                   2
                   2
                   2
                   2
                   2
                   2
                   2
                   2
                   2
                   2
                   2
                   2
                   2
                   2
                   2
                   2
                   2
                   2
                   2
                   2
                   2
                   2
                   2
                   2
                   2
                   2
                   2
                   2
                   2
                   2
                   2
                   2
                   2
                   2
                   2
                   2
                   2
                   2
                   2
                   2
                   2
                   2
                   2
                   2
                   2
                   2
                   2
                   2
                   2
                   2
                   2
                   2
                   2
                   2
                   2
                   2
                   2
                   2
                   2
                   2
                   2
                   2
                   2
                   2
                   2
                   2
                   2
                   2
                   2
                   2
                   2
                   2
                   2
                   2
                   2
                   2
                   2
                   2
                   2
                   2
                   2
                   2
                   2
                   2
                   2
                   2
                   2
                   2
                   2
                   2
                   2
                   2
                   2
                   2
                   2
                   2
                   2
                   2
                   2
                   2
                   2
                   2
                   2
                   2
                   2
                   2
                   2
                   2
                   2
                   2
                   2
                   2
                   2
                   2
                   2
                   2
                   2
                   2
                   2
                   2
                   2
                   2
                   2
                   2
                   2
                   2
                   2
                   2
                   2
                   2
                   2
                   2
                   2
                   2
                   2
                   2
                   2
                   2
                   2
                   2
                   2
                   2
                   2
                   2
                   2
                   2
                   2
                   2
                   2
                   2
                   2
                   2
                   2
                   2
                   2
                   2
                   2
                   2
                   2
                   2
                   2
                   2
                   2
                   2
                   2
                   2
                   2
                   2
                   2
                   2
                   2
                   2
                   2
                   2
                   2
                   2
                   2
                   2
                   2
                   2
                   2
                   2
                   2
                   2
                   2
                   2
                   2
                   2
                   2
                   2
                   2
                   2
                   2
                   2
                   2
                   2
                   2
                   2
                   2
                   2
                   2
                   2
                   2
                   2
                   2
                   2
                   2
                   2
                   2
                   2
                   2
                   2
                   2
                   2
                   2
                   2
                   2
                   2
                   2
                   2
                   2
                   2
                   2
                   2
                   2
                   2
                   2
                   2
                   2
                   2
                   2
                   2
                   2
                   2
                   2
                   2
                   2
                   2
                   2
                   2
                   2
                   2
                   2
                   2
                   2
                   2
                   2
                   2
                   2
                   2
                   2
                   2
                   2
                   2
                   2
                   2
                   2
                   2
                   2
                   2
                   2
                   2
                   2
                   2
                   2
                   2
                   2
                   2
                   2
                   2
                   2
                   2
                   2
                   2
                   2
                   2
                   2
                   2
                   2
                   2
                   2
                   2
                   2
                   2
                   2
                   2
                   2
                   2
                   2
                   2
                   2
                   2
                   2
                   2
                   2
                   2
                   2
                   2
                   2
                   2
                   2
                   2
                   2
                   2
                   2
                   2
                   2
                   2
                   2
                   2
                   2
                   2
                   2
                   2
                   2
                   2
                   2
                   2
                   2
                   2
                   2
                   2
                   2
                   2
                   2
                   2
                   2
                   2
                   2
                   2
                   2
                   2
                   2
                   2
                   2
                   2
                   2
                   2
                   2
                   2
                   2
                   2
                   2
                   2
                   2
                   2
                   2
                   2
                   2
                   2
                   2
                   2
                   2
                   2
                   2
                   2
                   2
                   2
                   2
                   2
                   2
                   2
                   2
                   2
                   2
                   2
                   2
                   2
                   2
                   2
                   2
                   2
                   2
                   2
                   2
                   2
                   2
                   2
                   2
                   2
                   2
                   2
                   2
                   2
                   2
                   2
                   2
                   2
                   2
                   2
                   2
                   2
                   2
                   2
                   2
                   2
                   2
                   2
                   2
                   2
                   2
                   2
                   2
                   2
                   2
                   2
                   2
                   2
                   2
                   2
                   2
                   2
                   2
                   2
                   2
                   2
                   2
                   2
                   2
                   2
                   2
                   2
                   2
                   2
                   2
                   2
                   2
                   2
                   2
                   2
                   2
                   2
                   2
                   2
                   2
                   2
                   2
                   2
                   2
                   2
                   2
                   2
                   2
                   2
                   2
                   2
                   2
                   2
                   2
                   2
                   2
                   2
                   2
                   2
                   2
                   2
                   2
                   2
                   2
                   2
                   2
                   2
                   2
                   2
                   2
                   2
                   2
                   2
                   2
                   2
                   2
                   2
                   2
                   2
                   2
                   2
                   2
                   2
                   2
                   2
                   2
                   2
                   2
                   2
                   2
                   2
                   2
                   2
                   2
                   2
                   2
                   2
                   2
                   2
                   2
                   2
                   2
                   2
                   2
                   2
                   2
                   2
                   2
                   2
                   2
                   2
                   2
                   2
                   2
                   2
                   2
                   2
                   2
                   2
                   2
                   2
                   2
                   2
                   2
                   2
                   2
                   2
                   2
                   2
                   2
                   2
                   2
                   2
                   2
                   2
                   2
                   2
                   2
                   2
                   2
                   2
                   2
                   2
                   2
                   2
                   2
                   2
                   2
                   2
                   2
                   2
                   2
                   2
                   2
                   2
                   2
                   2
                   2
                   2
                   2
                   2
                   2
                   2
                   2
                   2
                   2
                   2
                   2
                   2
                   2
                   2
                   2
                   2
                   2
                   2
                   2
                   2
                   2
                   2
                   2
                   2
                   2
                   2
                   2
                   2
                   2
                   2
                   2
                   2
                   2
                   2
                   2
                   2
                   2
                   2
                   2
                   2
                   2
                   2
                   2
                   2
                   2
                   2
                   2
                   2
                   2
                   2
                   2
                   2
                   2
                   2
                   2
                   2
                   2
                   2
                   2
                   2
                   2
                   2
                   2
                   2
                   2
                   2
                   2
                   2
                   2
                   2
                   2
                   2
                   2
                   2
                   2
                   2
                   2
                   2
                   2
                   2
                   2
                   2
                   2
                   2
                   2
                   2
                   2
                   2
                   2
                   2
                   2
                   2
                   2
                   2
                   2
                   2
                   2
                   2
                   2
                   2
                   2
                   2
                   2
                   2
                   2
                   2
                   2
                   2
                   2
                   2
                   2
                   2
                   2
                   2
                   2
                   2
                   2
                   2
                   2
                   2
                   2
                   2
                   2
                   2
                   2
                   2
                   2
                   2
                   2
                   2
                   2
                   2
                   2
                   2
                   2
                   2
                   2
                   2
                   2
                   2
                   2
                   2
                   2
                   2
                   2
                   2
                   2
                   2
                   2
                   2
                   2
                   2
                   2
                   2
                   2
                   2
                   2
                   2
                   2
                   2
                   2
                   2
                   2
                   2
                   2
                   2
                   2
                   2
                   2
                   2
                   2
                   2
                   2
                   2
                   2
                   2
                   2
                   2
                   2
                   2
                   2
                   2
                   2
                   2
                   2
                   2
                   2
                   2
                   2
                   2
                   2
                   2
                   2
                   2
                   2
                   2
                   2
                   2
                   2
                   2
                   2
                   2
                   2
                   2
                   2
                   2
                   2
                   2
                   2
                   2
                   2
                   2
                   2
                   2
                   2
                   2
                   2
                   2
                   2
                   2
                   2
                   2
                   2
                   2
                   2
                   2
                   2
                   2
                   2
                   2
                   2
                   2
                   2
                   2
                   2
                   2
                   2
                   2
                   2
                   2
                   2
                   2
                   2
                   2
                   2
                   2
                   2
                   2
                   2
                   2
                   2
                   2
                   2
                   2
                   2
                   2
                   2
                   2
                   2
                   2
                   2
                   2
                   2
                   2
                   2
                   2
                   2
                   2
                   2
                   2
                   2
                   2
                   2
                   2
                   2
                   2
                   2
                   2
                   2
                   2
                   2
                   2
                   2
                   2
                   2
                   2
                   2
                   2
                   2
                   2
                   2
                   2
                   2
                   2
                   2
                   2
                   2
                   2
                   2
                   2
                   2
                   2
                   2
                   2
                   2
                   2
                   2
                   2
                   2
                   2
                   2
                   2
                   2
                   2
                   2
                   2
                   2
                   2
                   2
                   2
                   2
                   2
                   2
                   2
                   2
                   2
                   2
                   2
                   2
                   2
                   2
                   2
                   2
                   2
                   2
                   2
                   2
                   2
                   2
                   2
                   2
                   2
                   2
                   2
                   2
                   2
                   2
                   2
                   2
                   2
                   2
                   2
                   2
                   2
                   2
                   2
                   2
                   2
                   2
                   2
                   2
                   2
                   2
                   2
                   2
                   2
                   2
                   2
                   2
                   2
                   2
                   2
                   2
                   2
                   2
                   2
                   2
                   2
                   2
                   2
                   2
                   2
                   2
                   2
                   2
                   2
                   2
                   2
                   2
                   2
                   2
                   2
                   2
                   2
                   2
                   2
                   2
                   2
                   2
                   2
                   2
                   2
                   2
                   2
                   2
                   2
                   2
                   2
                   2
                   2
                   2
                   2
                   2
                   2
                   2
                   2
                   2
                   2
                   2
                   2
                   2
                   2
                   2
                   2
                   2
                   2
                   2
                   2
                   2
                   2
                   2
                   2
                   2
                   2
                   2
                   2
                   2
                   2
                   2
                   2
                   2
                   2
                   2
                   2
                   2
                   2
                   2
                   2
                   2
                   2
                   2
                   2
                   2
                   2
                   2
                   2
                   2
                   2
                   2
                   2
                   2
                   2
                   2
                   2
                   2
                   2
                   2
                   2
                   2
                   2
                   2
                   2
                   2
                   2
                   2
                   2
                   2
                   2
                   2
                   2
                   2
                   2
                   2
                   2
                   2
                   2
                   2
                   2
                   2
                   2
                   2
                   2
                   2
                   2
                   2
                   2
                   2
                   2
                   2
                   2
                   2
                   2
                   2
                   2
                   2
                   2
                   2
                   2
                   2
                   2
                   2
                   2
                   2
                   2
                   2
                   2
                   2
                   2
                   2
                   2
                   2
                   2
                   2
                   2
                   2
                   2
                   2
                   2
                   2
                   2
                   2
                   2
                   2
                   2
                   2
                   2
                   2
                   2
                   2
                   2
                   2
                   2
                   2
                   2
                   2
                   2
                   2
                   2
                   2
                   2
                   2
                   2
                   2
                   2
                   2
                   2
                   2
                   2
                   2
                   2
                   2
                   2
                   2
                   2
                   2
                   2
                   2
                   2
                   2
                   2
                   2
                   2
                   2
                   2
                   2
                   2
                   2
                   2
                   2
                   2
                   2
                   2
                   2
                   2
                   2
                   2
                   2
                   2
                   2
                   2
                   2
                   2
                   2
                   2
                   2
                   2
                   2
                   2
                   2
                   2
                   2
                   2
                   2
                   2
                   2
                   2
                   2
                   2
                   2
                   2
                   2
                   2
                   2
                   2
                   2
                   2
                   2
                   2
                   2
                   2
                   2
                   2
                   2
                   2
                   2
                   2
                   2
                   2
                   2
                   2
                   2
                   2
                   2
                   2
                   2
                   2
                   2
                   2
                   2
                   2
                   2
                   2
                   2
                   2
                   2
                   2
                   2
                   2
                   2
                   2
                   2
                   2
                   2
                   2
                   2
                   2
                   2
                   2
                   2
                   2
                   2
                   2
                   2
                   2
                   2
                   2
                   2
                   2
                   2
                   2
                   2
                   2
                   2
                   2
                   2
                   2
                   2
                   2
                   2
                   2
                   2
                   2
                   2
                   2
                   2
                   2
                   2
                   2
                   2
                   2
                   2
                   2
                   2
                   2
                   2
                   2
                   2
                   2
                   2
                   2
                   2
                   2
                   2
                   2
                   2
                   2
                   2
                   2
                   2
                   2
                   2
                   2
                   2
                   2
                   2
                   2
                   2
                   2
                   2
                   2
                   2
                   2
                   2
                   2
                   2
                   2
                   2
                   2
                   2
                   2
                   2
                   2
                   2
                   2
                   2
                   2
                   2
                   2
                   2
                   2
                   2
                   2
                   2
                   2
                   2
                   2
                   2
                   2
                   2
                   2
                   2
                   2
                   2
                   2
                   2
                   2
                   2
                   2
                   2
                   2
                   2
                   2
                   2
                   2
                   2
                   2
                   2
                   2
                   2
                   2
                   2
                   2
                   2
                   2
                   2
                   2
                   2
                   2
                   2
                   2
                   2
                   2
                   2
                   2
                   2
                   2
                   2
                   2
                   2
                   2
                   2
                   2
                   2
                   2
                   2
                   2
                   2
                   2
                   2
                   2
                   2
                   2
                   2
                   2
                   2
                   2
                   2
                   2
                   2
                   2
                   2
                   2
                   2
                   2
                   2
                   2
                   2
                   2
                   2
                   2
                   2
                   2
                   2
                   2
                   2
                   2
                   2
                   2
                   2
                   2
                   2
                   2
                   2
                   2
                   2
                   2
                   2
                   2
                   2
                   2
                   2
                   2
                   2
                   2
                   2
                   2
                   2
                   2
                   2
                   2
                   2
                   2
                   2
                   2
                   2
                   2
                   2
                   2
                   2
                   2
                   2
                   2
                   2
                   2
                   2
                   2
                   2
                   2
                   2
                   2
                   2
                   2
                   2
                   2
                   2
                   2
                   2
                   2
                   2
                   2
                   2
                   2
                   2
                   2
                   2
                   2
                   2
                   2
                   2
                   2
                   2
                   2
                   2
                   2
                   2
                   2
                   2
                   2
                   2
                   2
                   2
                   2
                   2
                   2
                   2
                   2
                   2
                   2
                   2
                   2
                   2
                   2
                   2
                   2
                   2
                   2
                   2
                   2
                   2
                   2
                   2
                   2
                   2
                   2
                   2
                   2
                   2
                   2
                   2
                   2
                   2
                   2
                   2
                   2
                   2
                   2
                   2
                   2
                   2
                   2
                   2
                   2
                   2
                   2
                   2
                   2
                   2
                   2
                   2
                   2
                   2
                   2
                   2
                   2
                   2
                   2
                   2
                   2
                   2
                   2
                   2
                   2
                   2
                   2
                   2
                   2
                   2
                   2
                   2
                   2
                   2
                   2
                   2
                   2
                   2
                   2
                   2
                   2
                   2
                   2
                   2
                   2
                   2
                   2
                   2
                   2
                   2
                   2
                   2
                   2
                   2
                   2
                   2
                   2
                   2
                   2
                   2
                   2
                   2
                   2
                   2
                   2
                   2
                   2
                   2
                   2
                   2
                   2
                   2
                   2
                   2
                   2
                   2
                   2
                   2
                   2
                   2
                   2
                   2
                   2
                   2
                   2
                   2
                   2
                   2
                   2
                   2
                   2
                   2
                   2
                   2
                   2
                   2
                   2
                   2
                   2
                   2
                   2
                   2
                   2
                   2
                   2
                   2
                   2
                   2
                   2
                   2
                   2
                   2
                   2
                   2
                   2
                   2
                   2
                   2
                   2
                   2
                   2
                   2
                   2
                   2
                   2
                   2
                   2
                   2
                   2
                   2
                   2
                   2
                   2
                   2
                   2
                   2
                   2
                   2
                   2
                   2
                   2
                   2
                   2
                   2
                   2
                   2
                   2
                   2
                   2
                   2
                   2
                   2
                   2
                   2
                   2
                   2
                   2
                   2
                   2
                   2
                   2
                   2
                   2
                   2
                   2
                   2
                   2
                   2
                   2
                   2
                   2
                   2
                   2
                   2
                   2
                   2
                   2
                   2
                   2
                   2
                   2
                   2
                   2
                   2
                   2
                   2
                   2
                   2
                   2
                   2
                   2
                   2
                   2
                   2
                   2
                   2
                   2
                   2
                   2
                   2
                   2
                   2
                   2
                   2
                   2
                   2
                   2
                   2
                   2
  
SCALARS                       fixity_x  double 1
LOOKUP_TABLE default
                   0
                   0
                   0
                   0
                   0
                   0
                   0
                   0
                   0
                   0
                   0
                   0
                   0
                   0
                   0
                   0
                   0
                   0
                   0
                   0
                   0
                   0
                   0
                   0
                   0
                   0
                   0
                   0
                   0
                   0
                   0
                   0
                   0
                   0
                   0
                   0
                   0
                   0
                   0
                   0
                   0
                   0
                   0
                   0
                   0
                   0
                   0
                   0
                   0
                   0
                   0
                   0
                   0
                   0
                   0
                   0
                   0
                   0
                   0
                   0
                   0
                   0
                   0
                   0
                   0
                   0
                   0
                   0
                   0
                   0
                   0
                   0
                   0
                   0
                   0
                   0
                   0
                   0
                   0
                   0
                   0
                   0
                   0
                   0
                   0
                   0
                   0
                   0
                   0
                   0
                   0
                   0
                   0
                   0
                   0
                   0
                   0
                   0
                   0
                   0
                   0
                   0
                   0
                   0
                   0
                   0
                   0
                   0
                   0
                   0
                   0
                   0
                   0
                   0
                   0
                   0
                   0
                   0
                   0
                   0
                   0
                   0
                   0
                   0
                   0
                   0
                   0
                   0
                   0
                   0
                   0
                   0
                   0
                   0
                   0
                   0
                   0
                   0
                   0
                   0
                   0
                   0
                   0
                   0
                   0
                   0
                   0
                   0
                   0
                   0
                   0
                   0
                   0
                   0
                   0
                   0
                   0
                   0
                   0
                   0
                   0
                   0
                   0
                   0
                   0
                   0
                   0
                   0
                   0
                   0
                   0
                   0
                   0
                   0
                   0
                   0
                   0
                   0
                   0
                   0
                   0
                   0
                   0
                   0
                   0
                   0
                   0
                   0
                   0
                   0
                   0
                   0
                   0
                   0
                   0
                   0
                   0
                   0
                   0
                   0
                   0
                   0
                   0
                   0
                   0
                   0
                   0
                   0
                   0
                   0
                   0
                   0
                   0
                   0
                   0
                   0
                   0
                   0
                   0
                   0
                   0
                   0
                   0
                   0
                   0
                   0
                   0
                   0
                   0
                   0
                   0
                   0
                   0
                   0
                   0
                   0
                   0
                   0
                   0
                   0
                   0
                   0
                   0
                   0
                   0
                   0
                   0
                   0
                   0
                   0
                   0
                   0
                   0
                   0
                   0
                   0
                   0
                   0
                   0
                   0
                   0
                   0
                   0
                   0
                   0
                   0
                   0
                   0
                   0
                   0
                   0
                   0
                   0
                   0
                   0
                   0
                   0
                   0
                   0
                   0
                   0
                   0
                   0
                   0
                   0
                   0
                   0
                   0
                   0
                   0
                   0
                   0
                   0
                   0
                   0
                   0
                   0
                   0
                   0
                   0
                   0
                   0
                   0
                   0
                   0
                   0
                   0
                   0
                   0
                   0
                   0
                   0
                   0
                   0
                   0
                   0
                   0
                   0
                   0
                   0
                   0
                   0
                   0
                   0
                   0
                   0
                   0
                   0
                   0
                   0
                   0
                   0
                   0
                   0
                   0
                   0
                   0
                   0
                   0
                   0
                   0
                   0
                   0
                   0
                   0
                   0
                   0
                   0
                   0
                   0
                   0
                   0
                   0
                   0
                   0
                   0
                   0
                   0
                   0
                   0
                   0
                   0
                   0
                   0
                   0
                   0
                   0
                   0
                   0
                   0
                   0
                   0
                   0
                   0
                   0
                   0
                   0
                   0
                   0
                   0
                   0
                   0
                   0
                   0
                   0
                   0
                   0
                   0
                   0
                   0
                   0
                   0
                   0
                   0
                   0
                   0
                   0
                   0
                   0
                   0
                   0
                   0
                   0
                   0
                   0
                   0
                   0
                   0
                   0
                   0
                   0
                   0
                   0
                   0
                   0
                   0
                   0
                   0
                   0
                   0
                   0
                   0
                   0
                   0
                   0
                   0
                   0
                   0
                   0
                   0
                   0
                   0
                   0
                   0
                   0
                   0
                   0
                   0
                   0
                   0
                   0
                   0
                   0
                   0
                   0
                   0
                   0
                   0
                   0
                   0
                   0
                   0
                   0
                   0
                   0
                   0
                   0
                   0
                   0
                   0
                   0
                   0
                   0
                   0
                   0
                   0
                   0
                   0
                   0
                   0
                   0
                   0
                   0
                   0
                   0
                   0
                   0
                   0
                   0
                   0
                   0
                   0
                   0
                   0
                   0
                   0
                   0
                   0
                   0
                   0
                   0
                   0
                   0
                   0
                   0
                   0
                   0
                   0
                   0
                   0
                   0
                   0
                   0
                   0
                   0
                   0
                   0
                   0
                   0
                   0
                   0
                   0
                   0
                   0
                   0
                   0
                   0
                   0
                   0
                   0
                   0
                   0
                   0
                   0
                   0
                   0
                   0
                   0
                   0
                   0
                   0
                   0
                   0
                   0
                   0
                   0
                   0
                   0
                   0
                   0
                   0
                   0
                   0
                   0
                   0
                   0
                   0
                   0
                   0
                   0
                   0
                   0
                   0
                   0
                   0
                   0
                   0
                   0
                   0
                   0
                   0
                   0
                   0
                   0
                   0
                   0
                   0
                   0
                   0
                   0
                   0
                   0
                   0
                   0
                   0
                   0
                   0
                   0
                   0
                   0
                   0
                   0
                   0
                   0
                   0
                   0
                   0
                   0
                   0
                   0
                   0
                   0
                   0
                   0
                   0
                   0
                   0
                   0
                   0
                   0
                   0
                   0
                   0
                   0
                   0
                   0
                   0
                   0
                   0
                   0
                   0
                   0
                   0
                   0
                   0
                   0
                   0
                   0
                   0
                   0
                   0
                   0
                   0
                   0
                   0
                   0
                   0
                   0
                   0
                   0
                   0
                   0
                   0
                   0
                   0
                   0
                   0
                   0
                   0
                   0
                   0
                   0
                   0
                   0
                   0
                   0
                   0
                   0
                   0
                   0
                   0
                   0
                   0
                   0
                   0
                   0
                   0
                   0
                   0
                   0
                   0
                   0
                   0
                   0
                   0
                   0
                   0
                   0
                   0
                   0
                   0
                   0
                   0
                   0
                   0
                   0
                   0
                   0
                   0
                   0
                   0
                   0
                   0
                   0
                   0
                   0
                   0
                   0
                   0
                   0
                   0
                   0
                   0
                   0
                   0
                   0
                   0
                   0
                   0
                   0
                   0
                   0
                   0
                   0
                   0
                   0
                   0
                   0
                   0
                   0
                   0
                   0
                   0
                   0
                   0
                   0
                   0
                   0
                   0
                   0
                   0
                   0
                   0
                   0
                   0
                   0
                   0
                   0
                   0
                   0
                   0
                   0
                   0
                   0
                   0
                   0
                   0
                   0
                   0
                   0
                   0
                   0
                   0
                   0
                   0
                   0
                   0
                   0
                   0
                   0
                   0
                   0
                   0
                   0
                   0
                   0
                   0
                   0
                   0
                   0
                   0
                   0
                   0
                   0
                   0
                   0
                   0
                   0
                   0
                   0
                   0
                   0
                   0
                   0
                   0
                   0
                   0
                   0
                   0
                   0
                   0
                   0
                   0
                   0
                   0
                   0
                   0
                   0
                   0
                   0
                   0
                   0
                   0
                   0
                   0
                   0
                   0
                   0
                   0
                   0
                   0
                   0
                   0
                   0
                   0
                   0
                   0
                   0
                   0
                   0
                   0
                   0
                   0
                   0
                   0
                   0
                   0
                   0
                   0
                   0
                   0
                   0
                   0
                   0
                   0
                   0
                   0
                   0
                   0
                   0
                   0
                   0
                   0
                   0
                   0
                   0
                   0
                   0
                   0
                   0
                   0
                   0
                   0
                   0
                   0
                   0
                   0
                   0
                   0
                   0
                   0
                   0
                   0
                   0
                   0
                   0
                   0
                   0
                   0
                   0
                   0
                   0
                   0
                   0
                   0
                   0
                   0
                   0
                   0
                   0
                   0
                   0
                   0
                   0
                   0
                   0
                   0
                   0
                   0
                   0
                   0
                   0
                   0
                   0
                   0
                   0
                   0
                   0
                   0
                   0
                   0
                   0
                   0
                   0
                   0
                   0
                   0
                   0
                   0
                   0
                   0
                   0
                   0
                   0
                   0
                   0
                   0
                   0
                   0
                   0
                   0
                   0
                   0
                   0
                   0
                   0
                   0
                   0
                   0
                   0
                   0
                   0
                   0
                   0
                   0
                   0
                   0
                   0
                   0
                   0
                   0
                   0
                   0
                   0
                   0
                   0
                   0
                   0
                   0
                   0
                   0
                   0
                   0
                   0
                   0
                   0
                   0
                   0
                   0
                   0
                   0
                   0
                   0
                   0
                   0
                   0
                   0
                   0
                   0
                   0
                   0
                   0
                   0
                   0
                   0
                   0
                   0
                   0
                   0
                   0
                   0
                   0
                   0
                   0
                   0
                   0
                   0
                   0
                   0
                   0
                   0
                   0
                   0
                   0
                   0
                   0
                   0
                   0
                   0
                   0
                   0
                   0
                   0
                   0
                   0
                   0
                   0
                   0
                   0
                   0
                   0
                   0
                   0
                   0
                   0
                   0
                   0
                   0
                   0
                   0
                   0
                   0
                   0
                   0
                   0
                   0
                   0
                   0
                   0
                   0
                   0
                   0
                   0
                   0
                   0
                   0
                   0
                   0
                   0
                   0
                   0
                   0
                   0
                   0
                   0
                   0
                   0
                   0
                   0
                   0
                   0
                   0
                   0
                   0
                   0
                   0
                   0
                   0
                   0
                   0
                   0
                   0
                   0
                   0
                   0
                   0
                   0
                   0
                   0
                   0
                   0
                   0
                   0
                   0
                   0
                   0
                   0
                   0
                   0
                   0
                   0
                   0
                   0
                   0
                   0
                   0
                   0
                   0
                   0
                   0
                   0
                   0
                   0
                   0
                   0
                   0
                   0
                   0
                   0
                   0
                   0
                   0
                   0
                   0
                   0
                   0
                   0
                   0
                   0
                   0
                   0
                   0
                   0
                   0
                   0
                   0
                   0
                   0
                   0
                   0
                   0
                   0
                   0
                   0
                   0
                   0
                   0
                   0
                   0
                   0
                   0
                   0
                   0
                   0
                   0
                   0
                   0
                   0
                   0
                   0
                   0
                   0
                   0
                   0
                   0
                   0
                   0
                   0
                   0
                   0
                   0
                   0
                   0
                   0
                   0
                   0
                   0
                   0
                   0
                   0
                   0
                   0
                   0
                   0
                   0
                   0
                   0
                   0
                   0
                   0
                   0
                   0
                   0
                   0
                   0
                   0
                   0
                   0
                   0
                   0
                   0
                   0
                   0
                   0
                   0
                   0
                   0
                   0
                   0
                   0
                   0
                   0
                   0
                   0
                   0
                   0
                   0
                   0
                   0
                   0
                   0
                   0
                   0
                   0
                   0
                   0
                   0
                   0
                   0
                   0
                   0
                   0
                   0
                   0
                   0
                   0
                   0
                   0
                   0
                   0
                   0
                   0
                   0
                   0
                   0
                   0
                   0
                   0
                   0
                   0
                   0
                   0
                   0
                   0
                   0
                   0
                   0
                   0
                   0
                   0
                   0
                   0
                   0
                   0
                   0
                   0
                   0
                   0
                   0
                   0
                   0
                   0
                   0
                   0
                   0
                   0
                   0
                   0
                   0
                   0
                   0
                   0
                   0
                   0
                   0
                   0
                   0
                   0
                   0
                   0
                   0
                   0
                   0
                   0
                   0
                   0
                   0
                   0
                   0
                   0
                   0
                   0
                   0
                   0
                   0
                   0
                   0
                   0
                   0
                   0
                   0
                   0
                   0
                   0
                   0
                   0
                   0
                   0
                   0
                   0
                   0
                   0
                   0
                   0
                   0
                   0
                   0
                   0
                   0
                   0
                   0
                   0
                   0
                   0
                   0
                   0
                   0
                   0
                   0
                   0
                   0
                   0
                   0
                   0
                   0
                   0
                   0
                   0
                   0
                   0
                   0
                   0
                   0
                   0
                   0
                   0
                   0
                   0
                   0
                   0
                   0
                   0
                   0
                   0
                   0
                   0
                   0
                   0
                   0
                   0
                   0
                   0
                   0
                   0
                   0
                   0
                   0
                   0
                   0
                   0
                   0
                   0
                   0
                   0
                   0
                   0
                   0
                   0
                   0
                   0
                   0
                   0
                   0
                   0
                   0
                   0
                   0
                   0
                   0
                   0
                   0
                   0
                   0
                   0
                   0
                   0
                   0
                   0
                   0
                   0
                   0
                   0
                   0
                   0
                   0
                   0
                   0
                   0
                   0
                   0
                   0
                   0
                   0
                   0
                   0
                   0
                   0
                   0
                   0
                   0
                   0
                   0
                   0
                   0
                   0
                   0
                   0
                   0
                   0
                   0
                   0
                   0
                   0
                   0
                   0
                   0
                   0
                   0
                   0
                   0
                   0
                   0
                   0
                   0
                   0
                   0
                   0
                   0
                   0
                   0
                   0
                   0
                   0
                   0
                   0
                   0
                   0
                   0
                   0
                   0
                   0
                   0
                   0
                   0
                   0
                   0
                   0
                   0
                   0
                   0
                   0
                   0
                   0
                   0
                   0
                   0
                   0
                   0
                   0
                   0
                   0
                   0
                   0
                   0
                   0
                   0
                   0
                   0
                   0
                   0
                   0
                   0
                   0
                   0
                   0
                   0
                   0
                   0
                   0
                   0
                   0
                   0
                   0
                   0
                   0
                   0
                   0
                   0
                   0
                   0
                   0
                   0
                   0
                   0
                   0
                   0
                   0
                   0
                   0
                   0
                   0
                   0
                   0
                   0
                   0
                   0
                   0
                   0
                   0
                   0
                   0
                   0
                   0
                   0
                   0
                   0
                   0
                   0
                   0
                   0
                   0
                   0
                   0
                   0
                   0
                   0
                   0
                   0
                   0
                   0
                   0
                   0
                   0
                   0
                   0
                   0
                   0
                   0
                   0
                   0
                   0
                   0
                   0
                   0
                   0
                   0
                   0
                   0
                   0
                   0
                   0
                   0
                   0
                   0
                   0
                   0
                   0
                   0
                   0
                   0
                   0
                   0
                   0
                   0
                   0
                   0
                   0
                   0
                   0
                   0
                   0
                   0
                   0
                   0
                   0
                   0
                   0
                   0
                   0
                   0
                   0
                   0
                   0
                   0
                   0
                   0
                   0
                   0
                   0
                   0
                   0
                   0
                   0
                   0
                   0
                   0
                   0
                   0
                   0
                   0
                   0
                   0
                   0
                   0
                   0
                   0
                   0
                   0
                   0
                   0
                   0
                   0
                   0
                   0
                   0
                   0
                   0
                   0
                   0
                   0
                   0
                   0
                   0
                   0
                   0
                   0
                   0
                   0
                   0
                   0
                   0
                   0
                   0
                   0
                   0
                   0
                   0
                   0
                   0
                   0
                   0
                   0
                   0
                   0
                   0
                   0
                   0
                   0
                   0
                   0
                   0
                   0
                   0
                   0
                   0
                   0
                   0
                   0
                   0
                   0
                   0
                   0
                   0
                   0
                   0
                   0
                   0
                   0
                   0
                   0
                   0
                   0
                   0
                   0
                   0
                   0
                   0
                   0
                   0
                   0
                   0
                   0
                   0
                   0
                   0
                   0
                   0
                   0
                   0
                   0
                   0
                   0
                   0
                   0
                   0
                   0
                   0
                   0
                   0
                   0
                   0
                   0
                   0
                   0
                   0
                   0
                   0
                   0
                   0
                   0
                   0
                   0
                   0
                   0
                   0
                   0
                   0
                   0
                   0
                   0
                   0
                   0
                   0
                   0
                   0
                   0
                   0
                   0
                   0
                   0
                   0
                   0
                   0
                   0
                   0
                   0
                   0
                   0
                   0
                   0
                   0
                   0
                   0
                   0
                   0
                   0
                   0
                   0
                   0
                   0
                   0
                   0
                   0
                   0
                   0
                   0
                   0
                   0
                   0
                   0
                   0
                   0
                   0
                   0
                   0
                   0
                   0
                   0
                   0
                   0
                   0
                   0
                   0
                   0
                   0
                   0
                   0
                   0
                   0
                   0
                   0
                   0
                   0
                   0
                   0
                   0
                   0
                   0
                   0
                   0
                   0
                   0
                   0
                   0
                   0
                   0
                   0
                   0
                   0
                   0
                   0
                   0
                   0
                   0
                   0
                   0
                   0
                   0
                   0
                   0
                   0
                   0
                   0
                   0
                   0
                   0
                   0
                   0
                   0
                   0
                   0
                   0
                   0
                   0
                   0
                   0
                   0
                   0
                   0
                   0
                   0
                   0
                   0
                   0
                   0
                   0
                   0
                   0
                   0
                   0
                   0
                   0
                   0
                   0
                   0
                   0
                   0
                   0
                   0
                   0
                   0
                   0
                   0
                   0
                   0
                   0
                   0
                   0
                   0
                   0
                   0
                   0
                   0
                   0
                   0
                   0
                   0
                   0
                   0
                   0
                   0
                   0
                   0
                   0
                   0
                   0
                   0
                   0
                   0
                   0
                   0
                   0
                   0
                   0
                   0
                   0
                   0
                   0
                   0
                   0
                   0
                   0
                   0
                   0
                   0
                   0
                   0
                   0
                   0
                   0
                   0
                   0
                   0
                   0
                   0
                   0
                   0
                   0
                   0
                   0
                   0
                   0
                   0
                   0
                   0
                   0
                   0
                   0
                   0
                   0
                   0
                   0
                   0
                   0
                   0
                   0
                   0
                   0
                   0
                   0
                   0
                   0
                   0
                   0
                   0
                   0
                   0
                   0
                   0
                   0
                   0
                   0
                   0
                   0
                   0
                   0
                   0
                   0
                   0
                   0
  
SCALARS                       fixity_y  double 1
LOOKUP_TABLE default
                   0
                   0
                   0
                   0
                   0
                   0
                   0
                   0
                   0
                   0
                   0
                   0
                   0
                   0
                   0
                   0
                   0
                   0
                   0
                   0
                   0
                   0
                   0
                   0
                   0
                   0
                   0
                   0
                   0
                   0
                   0
                   0
                   0
                   0
                   0
                   0
                   0
                   0
                   0
                   0
                   0
                   0
                   0
                   0
                   0
                   0
                   0
                   0
                   0
                   0
                   0
                   0
                   0
                   0
                   0
                   0
                   0
                   0
                   0
                   0
                   0
                   0
                   0
                   0
                   0
                   0
                   0
                   0
                   0
                   0
                   0
                   0
                   0
                   0
                   0
                   0
                   0
                   0
                   0
                   0
                   0
                   0
                   0
                   0
                   0
                   0
                   0
                   0
                   0
                   0
                   0
                   0
                   0
                   0
                   0
                   0
                   0
                   0
                   0
                   0
                   0
                   0
                   0
                   0
                   0
                   0
                   0
                   0
                   0
                   0
                   0
                   0
                   0
                   0
                   0
                   0
                   0
                   0
                   0
                   0
                   0
                   0
                   0
                   0
                   0
                   0
                   0
                   0
                   0
                   0
                   0
                   0
                   0
                   0
                   0
                   0
                   0
                   0
                   0
                   0
                   0
                   0
                   0
                   0
                   0
                   0
                   0
                   0
                   0
                   0
                   0
                   0
                   0
                   0
                   0
                   0
                   0
                   0
                   0
                   0
                   0
                   0
                   0
                   0
                   0
                   0
                   0
                   0
                   0
                   0
                   0
                   0
                   0
                   0
                   0
                   0
                   0
                   0
                   0
                   0
                   0
                   0
                   0
                   0
                   0
                   0
                   0
                   0
                   0
                   0
                   0
                   0
                   0
                   0
                   0
                   0
                   0
                   0
                   0
                   0
                   0
                   0
                   0
                   0
                   0
                   0
                   0
                   0
                   0
                   0
                   0
                   0
                   0
                   0
                   0
                   0
                   0
                   0
                   0
                   0
                   0
                   0
                   0
                   0
                   0
                   0
                   0
                   0
                   0
                   0
                   0
                   0
                   0
                   0
                   0
                   0
                   0
                   0
                   0
                   0
                   0
                   0
                   0
                   0
                   0
                   0
                   0
                   0
                   0
                   0
                   0
                   0
                   0
                   0
                   0
                   0
                   0
                   0
                   0
                   0
                   0
                   0
                   0
                   0
                   0
                   0
                   0
                   0
                   0
                   0
                   0
                   0
                   0
                   0
                   0
                   0
                   0
                   0
                   0
                   0
                   0
                   0
                   0
                   0
                   0
                   0
                   0
                   0
                   0
                   0
                   0
                   0
                   0
                   0
                   0
                   0
                   0
                   0
                   0
                   0
                   0
                   0
                   0
                   0
                   0
                   0
                   0
                   0
                   0
                   0
                   0
                   0
                   0
                   0
                   0
                   0
                   0
                   0
                   0
                   0
                   0
                   0
                   0
                   0
                   0
                   0
                   0
                   0
                   0
                   0
                   0
                   0
                   0
                   0
                   0
                   0
                   0
                   0
                   0
                   0
                   0
                   0
                   0
                   0
                   0
                   0
                   0
                   0
                   0
                   0
                   0
                   0
                   0
                   0
                   0
                   0
                   0
                   0
                   0
                   0
                   0
                   0
                   0
                   0
                   0
                   0
                   0
                   0
                   0
                   0
                   0
                   0
                   0
                   0
                   0
                   0
                   0
                   0
                   0
                   0
                   0
                   0
                   0
                   0
                   0
                   0
                   0
                   0
                   0
                   0
                   0
                   0
                   0
                   0
                   0
                   0
                   0
                   0
                   0
                   0
                   0
                   0
                   0
                   0
                   0
                   0
                   0
                   0
                   0
                   0
                   0
                   0
                   0
                   0
                   0
                   0
                   0
                   0
                   0
                   0
                   0
                   0
                   0
                   0
                   0
                   0
                   0
                   0
                   0
                   0
                   0
                   0
                   0
                   0
                   0
                   0
                   0
                   0
                   0
                   0
                   0
                   0
                   0
                   0
                   0
                   0
                   0
                   0
                   0
                   0
                   0
                   0
                   0
                   0
                   0
                   0
                   0
                   0
                   0
                   0
                   0
                   0
                   0
                   0
                   0
                   0
                   0
                   0
                   0
                   0
                   0
                   0
                   0
                   0
                   0
                   0
                   0
                   0
                   0
                   0
                   0
                   0
                   0
                   0
                   0
                   0
                   0
                   0
                   0
                   0
                   0
                   0
                   0
                   0
                   0
                   0
                   0
                   0
                   0
                   0
                   0
                   0
                   0
                   0
                   0
                   0
                   0
                   0
                   0
                   0
                   0
                   0
                   0
                   0
                   0
                   0
                   0
                   0
                   0
                   0
                   0
                   0
                   0
                   0
                   0
                   0
                   0
                   0
                   0
                   0
                   0
                   0
                   0
                   0
                   0
                   0
                   0
                   0
                   0
                   0
                   0
                   0
                   0
                   0
                   0
                   0
                   0
                   0
                   0
                   0
                   0
                   0
                   0
                   0
                   0
                   0
                   0
                   0
                   0
                   0
                   0
                   0
                   0
                   0
                   0
                   0
                   0
                   0
                   0
                   0
                   0
                   0
                   0
                   0
                   0
                   0
                   0
                   0
                   0
                   0
                   0
                   0
                   0
                   0
                   0
                   0
                   0
                   0
                   0
                   0
                   0
                   0
                   0
                   0
                   0
                   0
                   0
                   0
                   0
                   0
                   0
                   0
                   0
                   0
                   0
                   0
                   0
                   0
                   0
                   0
                   0
                   0
                   0
                   0
                   0
                   0
                   0
                   0
                   0
                   0
                   0
                   0
                   0
                   0
                   0
                   0
                   0
                   0
                   0
                   0
                   0
                   0
                   0
                   0
                   0
                   0
                   0
                   0
                   0
                   0
                   0
                   0
                   0
                   0
                   0
                   0
                   0
                   0
                   0
                   0
                   0
                   0
                   0
                   0
                   0
                   0
                   0
                   0
                   0
                   0
                   0
                   0
                   0
                   0
                   0
                   0
                   0
                   0
                   0
                   0
                   0
                   0
                   0
                   0
                   0
                   0
                   0
                   0
                   0
                   0
                   0
                   0
                   0
                   0
                   0
                   0
                   0
                   0
                   0
                   0
                   0
                   0
                   0
                   0
                   0
                   0
                   0
                   0
                   0
                   0
                   0
                   0
                   0
                   0
                   0
                   0
                   0
                   0
                   0
                   0
                   0
                   0
                   0
                   0
                   0
                   0
                   0
                   0
                   0
                   0
                   0
                   0
                   0
                   0
                   0
                   0
                   0
                   0
                   0
                   0
                   0
                   0
                   0
                   0
                   0
                   0
                   0
                   0
                   0
                   0
                   0
                   0
                   0
                   0
                   0
                   0
                   0
                   0
                   0
                   0
                   0
                   0
                   0
                   0
                   0
                   0
                   0
                   0
                   0
                   0
                   0
                   0
                   0
                   0
                   0
                   0
                   0
                   0
                   0
                   0
                   0
                   0
                   0
                   0
                   0
                   0
                   0
                   0
                   0
                   0
                   0
                   0
                   0
                   0
                   0
                   0
                   0
                   0
                   0
                   0
                   0
                   0
                   0
                   0
                   0
                   0
                   0
                   0
                   0
                   0
                   0
                   0
                   0
                   0
                   0
                   0
                   0
                   0
                   0
                   0
                   0
                   0
                   0
                   0
                   0
                   0
                   0
                   0
                   0
                   0
                   0
                   0
                   0
                   0
                   0
                   0
                   0
                   0
                   0
                   0
                   0
                   0
                   0
                   0
                   0
                   0
                   0
                   0
                   0
                   0
                   0
                   0
                   0
                   0
                   0
                   0
                   0
                   0
                   0
                   0
                   0
                   0
                   0
                   0
                   0
                   0
                   0
                   0
                   0
                   0
                   0
                   0
                   0
                   0
                   0
                   0
                   0
                   0
                   0
                   0
                   0
                   0
                   0
                   0
                   0
                   0
                   0
                   0
                   0
                   0
                   0
                   0
                   0
                   0
                   0
                   0
                   0
                   0
                   0
                   0
                   0
                   0
                   0
                   0
                   0
                   0
                   0
                   0
                   0
                   0
                   0
                   0
                   0
                   0
                   0
                   0
                   0
                   0
                   0
                   0
                   0
                   0
                   0
                   0
                   0
                   0
                   0
                   0
                   0
                   0
                   0
                   0
                   0
                   0
                   0
                   0
                   0
                   0
                   0
                   0
                   0
                   0
                   0
                   0
                   0
                   0
                   0
                   0
                   0
                   0
                   0
                   0
                   0
                   0
                   0
                   0
                   0
                   0
                   0
                   0
                   0
                   0
                   0
                   0
                   0
                   0
                   0
                   0
                   0
                   0
                   0
                   0
                   0
                   0
                   0
                   0
                   0
                   0
                   0
                   0
                   0
                   0
                   0
                   0
                   0
                   0
                   0
                   0
                   0
                   0
                   0
                   0
                   0
                   0
                   0
                   0
                   0
                   0
                   0
                   0
                   0
                   0
                   0
                   0
                   0
                   0
                   0
                   0
                   0
                   0
                   0
                   0
                   0
                   0
                   0
                   0
                   0
                   0
                   0
                   0
                   0
                   0
                   0
                   0
                   0
                   0
                   0
                   0
                   0
                   0
                   0
                   0
                   0
                   0
                   0
                   0
                   0
                   0
                   0
                   0
                   0
                   0
                   0
                   0
                   0
                   0
                   0
                   0
                   0
                   0
                   0
                   0
                   0
                   0
                   0
                   0
                   0
                   0
                   0
                   0
                   0
                   0
                   0
                   0
                   0
                   0
                   0
                   0
                   0
                   0
                   0
                   0
                   0
                   0
                   0
                   0
                   0
                   0
                   0
                   0
                   0
                   0
                   0
                   0
                   0
                   0
                   0
                   0
                   0
                   0
                   0
                   0
                   0
                   0
                   0
                   0
                   0
                   0
                   0
                   0
                   0
                   0
                   0
                   0
                   0
                   0
                   0
                   0
                   0
                   0
                   0
                   0
                   0
                   0
                   0
                   0
                   0
                   0
                   0
                   0
                   0
                   0
                   0
                   0
                   0
                   0
                   0
                   0
                   0
                   0
                   0
                   0
                   0
                   0
                   0
                   0
                   0
                   0
                   0
                   0
                   0
                   0
                   0
                   0
                   0
                   0
                   0
                   0
                   0
                   0
                   0
                   0
                   0
                   0
                   0
                   0
                   0
                   0
                   0
                   0
                   0
                   0
                   0
                   0
                   0
                   0
                   0
                   0
                   0
                   0
                   0
                   0
                   0
                   0
                   0
                   0
                   0
                   0
                   0
                   0
                   0
                   0
                   0
                   0
                   0
                   0
                   0
                   0
                   0
                   0
                   0
                   0
                   0
                   0
                   0
                   0
                   0
                   0
                   0
                   0
                   0
                   0
                   0
                   0
                   0
                   0
                   0
                   0
                   0
                   0
                   0
                   0
                   0
                   0
                   0
                   0
                   0
                   0
                   0
                   0
                   0
                   0
                   0
                   0
                   0
                   0
                   0
                   0
                   0
                   0
                   0
                   0
                   0
                   0
                   0
                   0
                   0
                   0
                   0
                   0
                   0
                   0
                   0
                   0
                   0
                   0
                   0
                   0
                   0
                   0
                   0
                   0
                   0
                   0
                   0
                   0
                   0
                   0
                   0
                   0
                   0
                   0
                   0
                   0
                   0
                   0
                   0
                   0
                   0
                   0
                   0
                   0
                   0
                   0
                   0
                   0
                   0
                   0
                   0
                   0
                   0
                   0
                   0
                   0
                   0
                   0
                   0
                   0
                   0
                   0
                   0
                   0
                   0
                   0
                   0
                   0
                   0
                   0
                   0
                   0
                   0
                   0
                   0
                   0
                   0
                   0
                   0
                   0
                   0
                   0
                   0
                   0
                   0
                   0
                   0
                   0
                   0
                   0
                   0
                   0
                   0
                   0
                   0
                   0
                   0
                   0
                   0
                   0
                   0
                   0
                   0
                   0
                   0
                   0
                   0
                   0
                   0
                   0
                   0
                   0
                   0
                   0
                   0
                   0
                   0
                   0
                   0
                   0
                   0
                   0
                   0
                   0
                   0
                   0
                   0
                   0
                   0
                   0
                   0
                   0
                   0
                   0
                   0
                   0
                   0
                   0
                   0
                   0
                   0
                   0
                   0
                   0
                   0
                   0
                   0
                   0
                   0
                   0
                   0
                   0
                   0
                   0
                   0
                   0
                   0
                   0
                   0
                   0
                   0
                   0
                   0
                   0
                   0
                   0
                   0
                   0
                   0
                   0
                   0
                   0
                   0
                   0
                   0
                   0
                   0
                   0
                   0
                   0
                   0
                   0
                   0
                   0
                   0
                   0
                   0
                   0
                   0
                   0
                   0
                   0
                   0
                   0
                   0
                   0
                   0
                   0
                   0
                   0
                   0
                   0
                   0
                   0
                   0
                   0
                   0
                   0
                   0
                   0
                   0
                   0
                   0
                   0
                   0
                   0
                   0
                   0
                   0
                   0
                   0
                   0
                   0
                   0
                   0
                   0
                   0
                   0
                   0
                   0
                   0
                   0
                   0
                   0
                   0
                   0
                   0
                   0
                   0
                   0
                   0
                   0
                   0
                   0
                   0
                   0
                   0
                   0
                   0
                   0
                   0
                   0
                   0
                   0
                   0
                   0
                   0
                   0
                   0
                   0
                   0
                   0
                   0
                   0
                   0
                   0
                   0
                   0
                   0
                   0
                   0
                   0
                   0
                   0
                   0
                   0
                   0
                   0
                   0
                   0
                   0
                   0
                   0
                   0
                   0
                   0
                   0
                   0
                   0
                   0
                   0
                   0
                   0
                   0
                   0
                   0
                   0
                   0
                   0
                   0
                   0
                   0
                   0
                   0
                   0
                   0
                   0
                   0
                   0
                   0
                   0
                   0
                   0
                   0
                   0
                   0
                   0
                   0
                   0
                   0
                   0
                   0
                   0
                   0
                   0
                   0
                   0
                   0
                   0
                   0
                   0
                   0
                   0
                   0
                   0
                   0
                   0
                   0
                   0
                   0
                   0
                   0
                   0
                   0
                   0
                   0
                   0
                   0
                   0
                   0
                   0
                   0
                   0
                   0
                   0
                   0
                   0
                   0
                   0
                   0
                   0
                   0
                   0
                   0
                   0
                   0
                   0
                   0
                   0
                   0
                   0
                   0
                   0
                   0
                   0
                   0
                   0
                   0
                   0
                   0
                   0
                   0
                   0
                   0
                   0
                   0
                   0
                   0
                   0
                   0
                   0
                   0
                   0
                   0
                   0
                   0
                   0
                   0
                   0
                   0
                   0
                   0
                   0
                   0
                   0
                   0
                   0
                   0
                   0
                   0
                   0
                   0
                   0
                   0
                   0
                   0
                   0
                   0
                   0
                   0
                   0
                   0
                   0
                   0
                   0
                   0
                   0
                   0
                   0
                   0
                   0
                   0
                   0
                   0
                   0
                   0
                   0
                   0
                   0
                   0
                   0
                   0
                   0
                   0
                   0
                   0
                   0
                   0
                   0
                   0
                   0
                   0
                   0
                   0
                   0
                   0
                   0
                   0
                   0
                   0
                   0
                   0
                   0
                   0
                   0
                   0
                   0
                   0
                   0
                   0
                   0
                   0
                   0
                   0
                   0
                   0
                   0
                   0
                   0
                   0
                   0
                   0
                   0
                   0
                   0
                   0
                   0
                   0
                   0
                   0
                   0
                   0
                   0
                   0
                   0
                   0
                   0
                   0
                   0
                   0
                   0
                   0
                   0
                   0
                   0
                   0
                   0
                   0
                   0
                   0
                   0
                   0
                   0
                   0
                   0
                   0
                   0
                   0
                   0
                   0
                   0
                   0
                   0
                   0
                   0
                   0
                   0
                   0
                   0
                   0
                   0
                   0
                   0
                   0
                   0
                   0
                   0
                   0
                   0
                   0
                   0
                   0
                   0
                   0
                   0
                   0
                   0
                   0
                   0
                   0
                   0
                   0
                   0
                   0
                   0
                   0
                   0
                   0
                   0
                   0
                   0
                   0
                   0
                   0
                   0
                   0
                   0
                   0
                   0
                   0
                   0
                   0
                   0
                   0
                   0
                   0
                   0
                   0
                   0
                   0
                   0
                   0
                   0
                   0
                   0
                   0
                   0
                   0
                   0
                   0
                   0
                   0
                   0
                   0
                   0
                   0
                   0
                   0
                   0
                   0
                   0
                   0
                   0
                   0
                   0
                   0
                   0
                   0
                   0
                   0
                   0
                   0
                   0
                   0
                   0
                   0
                   0
                   0
                   0
                   0
                   0
                   0
                   0
                   0
                   0
                   0
                   0
                   0
                   0
                   0
                   0
                   0
                   0
                   0
                   0
                   0
                   0
                   0
                   0
                   0
                   0
                   0
                   0
                   0
                   0
                   0
                   0
                   0
                   0
                   0
                   0
                   0
                   0
                   0
                   0
                   0
                   0
                   0
                   0
                   0
                   0
                   0
                   0
                   0
                   0
                   0
                   0
                   0
                   0
                   0
                   0
                   0
                   0
                   0
                   0
                   0
                   0
                   0
                   0
                   0
                   0
                   0
                   0
                   0
                   0
                   0
                   0
                   0
                   0
                   0
                   0
                   0
                   0
                   0
                   0
                   0
                   0
                   0
                   0
                   0
                   0
                   0
                   0
                   0
                   0
                   0
                   0
                   0
                   0
                   0
                   0
                   0
                   0
                   0
                   0
                   0
                   0
                   0
                   0
                   0
                   0
                   0
                   0
                   0
                   0
                   0
                   0
                   0
                   0
                   0
                   0
                   0
  
SCALARS                       fixity_z  double 1
LOOKUP_TABLE default
                   0
                   0
                   0
                   0
                   1
                   1
                   1
                   1
                   0
                   0
                   1
                   1
                   0
                   0
                   1
                   1
                   0
                   0
                   1
                   1
                   0
                   0
                   0
                   1
                   1
                   1
                   0
                   0
                   1
                   1
                   0
                   0
                   0
                   1
                   1
                   1
                   0
                   0
                   1
                   1
                   0
                   0
                   1
                   1
                   0
                   0
                   1
                   1
                   0
                   1
                   0
                   1
                   0
                   1
                   0
                   1
                   0
                   0
                   1
                   1
                   0
                   0
                   1
                   1
                   0
                   1
                   0
                   1
                   0
                   0
                   1
                   1
                   0
                   1
                   0
                   1
                   0
                   1
                   0
                   1
                   0
                   0
                   1
                   1
                   0
                   1
                   0
                   1
                   0
                   1
                   0
                   0
                   1
                   1
                   0
                   1
                   0
                   1
                   0
                   1
                   0
                   0
                   1
                   1
                   0
                   0
                   1
                   1
                   0
                   1
                   0
                   1
                   0
                   1
                   0
                   1
                   0
                   1
                   0
                   1
                   0
                   1
                   0
                   1
                   0
                   1
                   0
                   1
                   0
                   1
                   0
                   1
                   0
                   1
                   0
                   1
                   0
                   1
                   0
                   1
                   0
                   1
                   0
                   1
                   0
                   1
                   0
                   1
                   0
                   1
                   0
                   1
                   0
                   1
                   0
                   1
                   0
                   0
                   0
                   0
                   0
                   0
                   0
                   0
                   0
                   0
                   0
                   0
                   0
                   0
                   0
                   0
                   0
                   0
                   0
                   0
                   0
                   0
                   0
                   0
                   0
                   0
                   0
                   0
                   0
                   0
                   0
                   0
                   0
                   0
                   0
                   0
                   0
                   0
                   0
                   0
                   0
                   0
                   0
                   0
                   0
                   0
                   0
                   0
                   0
                   0
                   0
                   0
                   0
                   0
                   0
                   0
                   0
                   0
                   0
                   0
                   0
                   0
                   0
                   0
                   0
                   0
                   0
                   0
                   0
                   0
                   0
                   0
                   0
                   0
                   0
                   0
                   0
                   0
                   0
                   0
                   0
                   0
                   0
                   0
                   0
                   0
                   0
                   0
                   0
                   0
                   0
                   0
                   0
                   0
                   0
                   0
                   0
                   0
                   0
                   0
                   0
                   0
                   0
                   0
                   0
                   0
                   0
                   0
                   0
                   0
                   0
                   0
                   0
                   0
                   0
                   0
                   0
                   0
                   0
                   0
                   0
                   0
                   0
                   0
                   0
                   0
                   0
                   0
                   0
                   0
                   0
                   0
                   0
                   0
                   0
                   0
                   0
                   0
                   0
                   0
                   0
                   0
                   0
                   0
                   0
                   0
                   0
                   0
                   0
                   0
                   0
                   0
                   0
                   0
                   0
                   0
                   0
                   0
                   0
                   0
                   0
                   0
                   0
                   0
                   0
                   0
                   0
                   0
                   0
                   0
                   0
                   0
                   0
                   0
                   0
                   0
                   0
                   0
                   0
                   0
                   0
                   0
                   0
                   0
                   0
                   0
                   0
                   0
                   0
                   0
                   0
                   0
                   0
                   0
                   0
                   0
                   0
                   0
                   0
                   0
                   0
                   0
                   0
                   0
                   0
                   0
                   0
                   0
                   0
                   0
                   0
                   0
                   0
                   0
                   0
                   0
                   0
                   0
                   0
                   0
                   0
                   0
                   0
                   0
                   0
                   0
                   0
                   0
                   0
                   0
                   0
                   0
                   0
                   0
                   0
                   0
                   0
                   0
                   0
                   0
                   0
                   0
                   0
                   0
                   0
                   0
                   0
                   0
                   0
                   0
                   0
                   0
                   0
                   0
                   0
                   0
                   0
                   0
                   0
                   0
                   0
                   0
                   0
                   0
                   0
                   0
                   0
                   0
                   0
                   0
                   0
                   0
                   0
                   0
                   0
                   0
                   0
                   0
                   0
                   0
                   0
                   0
                   0
                   0
                   0
                   0
                   0
                   0
                   0
                   0
                   0
                   0
                   0
                   0
                   0
                   0
                   0
                   0
                   0
                   0
                   0
                   0
                   0
                   0
                   0
                   0
                   0
                   0
                   0
                   0
                   0
                   0
                   0
                   0
                   0
                   0
                   0
                   0
                   0
                   0
                   0
                   0
                   0
                   0
                   0
                   0
                   0
                   0
                   0
                   0
                   0
                   0
                   0
                   0
                   0
                   0
                   0
                   0
                   0
                   0
                   0
                   0
                   0
                   0
                   0
                   0
                   0
                   0
                   0
                   0
                   0
                   0
                   0
                   0
                   0
                   0
                   0
                   0
                   0
                   0
                   0
                   0
                   0
                   0
                   0
                   0
                   0
                   0
                   0
                   0
                   0
                   0
                   0
                   0
                   0
                   0
                   0
                   0
                   0
                   0
                   0
                   0
                   0
                   0
                   0
                   0
                   0
                   0
                   0
                   0
                   0
                   0
                   0
                   0
                   0
                   0
                   0
                   0
                   0
                   0
                   0
                   0
                   0
                   0
                   0
                   0
                   0
                   0
                   0
                   0
                   0
                   0
                   0
                   0
                   0
                   0
                   0
                   0
                   0
                   0
                   0
                   0
                   0
                   0
                   0
                   0
                   0
                   0
                   0
                   0
                   0
                   0
                   0
                   0
                   0
                   0
                   0
                   0
                   0
                   0
                   0
                   0
                   0
                   0
                   0
                   0
                   0
                   0
                   0
                   0
                   0
                   0
                   0
                   0
                   0
                   0
                   0
                   0
                   0
                   0
                   0
                   0
                   0
                   0
                   0
                   0
                   0
                   0
                   0
                   0
                   0
                   0
                   0
                   0
                   0
                   0
                   0
                   0
                   0
                   0
                   0
                   0
                   0
                   0
                   0
                   0
                   0
                   0
                   0
                   0
                   0
                   0
                   0
                   0
                   0
                   0
                   0
                   0
                   0
                   0
                   0
                   0
                   0
                   0
                   0
                   0
                   0
                   0
                   0
                   0
                   0
                   0
                   0
                   0
                   0
                   0
                   0
                   0
                   0
                   0
                   0
                   0
                   0
                   0
                   0
                   0
                   0
                   0
                   0
                   0
                   0
                   0
                   0
                   0
                   0
                   0
                   0
                   0
                   0
                   0
                   0
                   0
                   0
                   0
                   0
                   0
                   0
                   0
                   0
                   0
                   0
                   0
                   0
                   0
                   0
                   0
                   0
                   0
                   0
                   0
                   0
                   0
                   0
                   0
                   0
                   0
                   0
                   0
                   0
                   0
                   0
                   0
                   0
                   0
                   0
                   0
                   0
                   0
                   0
                   0
                   0
                   0
                   0
                   0
                   0
                   0
                   0
                   0
                   0
                   0
                   0
                   0
                   0
                   0
                   0
                   0
                   0
                   0
                   0
                   0
                   0
                   0
                   0
                   0
                   0
                   0
                   0
                   0
                   0
                   0
                   0
                   0
                   0
                   0
                   0
                   0
                   0
                   0
                   0
                   0
                   0
                   0
                   0
                   0
                   0
                   0
                   0
                   0
                   0
                   0
                   0
                   0
                   0
                   0
                   0
                   0
                   0
                   0
                   0
                   0
                   0
                   0
                   0
                   0
                   0
                   0
                   0
                   0
                   0
                   0
                   0
                   0
                   0
                   0
                   0
                   0
                   0
                   0
                   0
                   0
                   0
                   0
                   0
                   0
                   0
                   0
                   0
                   0
                   0
                   0
                   0
                   0
                   0
                   0
                   0
                   0
                   0
                   0
                   0
                   0
                   0
                   0
                   0
                   0
                   0
                   0
                   0
                   0
                   0
                   0
                   0
                   0
                   0
                   0
                   0
                   0
                   0
                   0
                   0
                   0
                   0
                   0
                   0
                   0
                   0
                   0
                   0
                   0
                   0
                   0
                   0
                   0
                   0
                   0
                   0
                   0
                   0
                   0
                   0
                   0
                   0
                   0
                   0
                   0
                   0
                   0
                   0
                   0
                   0
                   0
                   0
                   0
                   0
                   0
                   0
                   0
                   0
                   0
                   0
                   0
                   0
                   0
                   0
                   0
                   0
                   0
                   0
                   0
                   0
                   0
                   0
                   0
                   0
                   0
                   0
                   0
                   0
                   0
                   0
                   0
                   0
                   0
                   0
                   0
                   0
                   0
                   0
                   0
                   0
                   0
                   0
                   0
                   0
                   0
                   0
                   0
                   0
                   0
                   0
                   0
                   0
                   0
                   0
                   0
                   0
                   0
                   0
                   0
                   0
                   0
                   0
                   0
                   0
                   0
                   0
                   0
                   0
                   0
                   0
                   0
                   0
                   0
                   0
                   0
                   0
                   0
                   0
                   0
                   0
                   0
                   0
                   0
                   0
                   0
                   0
                   0
                   0
                   0
                   0
                   0
                   0
                   0
                   0
                   0
                   0
                   0
                   0
                   0
                   0
                   0
                   0
                   0
                   0
                   0
                   0
                   0
                   0
                   0
                   0
                   0
                   0
                   0
                   0
                   0
                   0
                   0
                   0
                   0
                   0
                   0
                   0
                   0
                   0
                   0
                   0
                   0
                   0
                   0
                   0
                   0
                   0
                   0
                   0
                   0
                   0
                   0
                   0
                   0
                   0
                   0
                   0
                   0
                   0
                   0
                   0
                   0
                   0
                   0
                   0
                   0
                   0
                   0
                   0
                   0
                   0
                   0
                   0
                   0
                   0
                   0
                   0
                   0
                   0
                   0
                   0
                   0
                   0
                   0
                   0
                   0
                   0
                   0
                   0
                   0
                   0
                   0
                   0
                   0
                   0
                   0
                   0
                   0
                   0
                   0
                   0
                   0
                   0
                   0
                   0
                   0
                   0
                   0
                   0
                   0
                   0
                   0
                   0
                   0
                   0
                   0
                   0
                   0
                   0
                   0
                   0
                   0
                   0
                   0
                   0
                   0
                   0
                   0
                   0
                   0
                   0
                   0
                   0
                   0
                   0
                   0
                   0
                   0
                   0
                   0
                   0
                   0
                   0
                   0
                   0
                   0
                   0
                   0
                   0
                   0
                   0
                   0
                   0
                   0
                   0
                   0
                   0
                   0
                   0
                   0
                   0
                   0
                   0
                   0
                   0
                   0
                   0
                   0
                   0
                   0
                   0
                   0
                   0
                   0
                   0
                   0
                   0
                   0
                   0
                   0
                   0
                   0
                   0
                   0
                   0
                   0
                   0
                   0
                   0
                   0
                   0
                   0
                   0
                   0
                   0
                   0
                   0
                   0
                   0
                   0
                   0
                   0
                   0
                   0
                   0
                   0
                   0
                   0
                   0
                   0
                   0
                   0
                   0
                   0
                   0
                   0
                   0
                   0
                   0
                   0
                   0
                   0
                   0
                   0
                   0
                   0
                   0
                   0
                   0
                   0
                   0
                   0
                   0
                   0
                   0
                   0
                   0
                   0
                   0
                   0
                   0
                   0
                   0
                   0
                   0
                   0
                   0
                   0
                   0
                   0
                   0
                   0
                   0
                   0
                   0
                   0
                   0
                   0
                   0
                   0
                   0
                   0
                   0
                   0
                   0
                   0
                   0
                   0
                   0
                   0
                   0
                   0
                   0
                   0
                   0
                   0
                   0
                   0
                   0
                   0
                   0
                   0
                   0
                   0
                   0
                   0
                   0
                   0
                   0
                   0
                   0
                   0
                   0
                   0
                   0
                   0
                   0
                   0
                   0
                   0
                   0
                   0
                   0
                   0
                   0
                   0
                   0
                   0
                   0
                   0
                   0
                   0
                   0
                   0
                   0
                   0
                   0
                   0
                   0
                   0
                   0
                   0
                   0
                   0
                   0
                   0
                   0
                   0
                   0
                   0
                   0
                   0
                   0
                   0
                   0
                   0
                   0
                   0
                   0
                   0
                   0
                   0
                   0
                   0
                   0
                   0
                   0
                   0
                   0
                   0
                   0
                   0
                   0
                   0
                   0
                   0
                   0
                   0
                   0
                   0
                   0
                   0
                   0
                   0
                   0
                   0
                   0
                   0
                   0
                   0
                   0
                   0
                   0
                   0
                   0
                   0
                   0
                   0
                   0
                   0
                   0
                   0
                   0
                   0
                   0
                   0
                   0
                   0
                   0
                   0
                   0
                   0
                   0
                   0
                   0
                   0
                   0
                   0
                   0
                   0
                   0
                   0
                   0
                   0
                   0
                   0
                   0
                   0
                   0
                   0
                   0
                   0
                   0
                   0
                   0
                   0
                   0
                   0
                   0
                   0
                   0
                   0
                   0
                   0
                   0
                   0
                   0
                   0
                   0
                   0
                   0
                   0
                   0
                   0
                   0
                   0
                   0
                   0
                   0
                   0
                   0
                   0
                   0
                   0
                   0
                   0
                   0
                   0
                   0
                   0
                   0
                   0
                   0
                   0
                   0
                   0
                   0
                   0
                   0
                   0
                   0
                   0
                   0
                   0
                   0
                   0
                   0
                   0
                   0
                   0
                   0
                   0
                   0
                   0
                   0
                   0
                   0
                   0
                   0
                   0
                   0
                   0
                   0
                   0
                   0
                   0
                   0
                   0
                   0
                   0
                   0
                   0
                   0
                   0
                   0
                   0
                   0
                   0
                   0
                   0
                   0
                   0
                   0
                   0
                   0
                   0
                   0
                   0
                   0
                   0
                   0
                   0
                   0
                   0
                   0
                   0
                   0
                   0
                   0
                   0
                   0
                   0
                   0
                   0
                   0
                   0
                   0
                   0
                   0
                   0
                   0
                   0
                   0
                   0
                   0
                   0
                   0
                   0
                   0
                   0
                   0
                   0
                   0
                   0
                   0
                   0
                   0
                   0
                   0
                   0
                   0
                   0
                   0
                   0
                   0
                   0
                   0
                   0
                   0
                   0
                   0
                   0
                   0
                   0
                   0
                   0
                   0
                   0
                   0
                   0
                   0
                   0
                   0
                   0
                   0
                   0
                   0
                   0
                   0
                   0
                   0
                   0
                   0
                   0
                   0
                   0
                   0
                   0
                   0
                   0
                   0
                   0
                   0
                   0
                   0
                   0
                   0
                   0
                   0
                   0
                   0
                   0
                   0
                   0
                   0
                   0
                   0
                   0
                   0
                   0
                   0
                   0
                   0
                   0
                   0
                   0
                   0
                   0
                   0
                   0
                   0
                   0
                   0
                   0
                   0
                   0
                   0
                   0
                   0
                   0
                   0
                   0
                   0
                   0
                   0
                   0
                   0
                   0
                   0
                   0
                   0
                   0
                   0
                   0
                   0
                   0
                   0
                   0
                   0
                   0
                   0
                   0
                   0
                   0
                   0
                   0
                   0
                   0
                   0
                   0
                   0
                   0
                   0
                   0
                   0
                   0
                   0
                   0
                   0
                   0
                   0
                   0
                   0
                   0
                   0
                   0
                   0
                   0
                   0
                   0
                   0
                   0
                   0
                   0
                   0
                   0
                   0
                   0
                   0
                   0
                   0
                   0
                   0
                   0
                   0
                   0
                   0
                   0
                   0
                   0
                   0
                   0
                   0
                   0
                   0
                   0
                   0
                   0
                   0
                   0
                   0
                   0
                   0
                   0
                   0
                   0
                   0
                   0
                   0
                   0
                   0
                   0
                   0
                   0
                   0
                   0
                   0
                   0
                   0
                   0
                   0
                   0
                   0
                   0
                   0
                   0
                   0
                   0
                   0
                   0
                   0
                   0
                   0
                   0
                   0
                   0
                   0
                   0
                   0
                   0
                   0
                   0
                   0
                   0
                   0
                   0
                   0
                   0
                   0
                   0
                   0
                   0
                   0
                   0
                   0
                   0
                   0
                   0
                   0
                   0
                   0
                   0
                   0
                   0
                   0
                   0
                   0
                   0
                   0
                   0
                   0
                   0
                   0
                   0
                   0
                   0
                   0
                   0
                   0
                   0
                   0
                   0
                   0
                   0
                   0
                   0
                   0
                   0
                   0
                   0
                   0
                   0
                   0
                   0
                   0
                   0
                   0
                   0
                   0
                   0
                   0
                   0
                   0
                   0
                   0
                   0
                   0
                   0
                   0
                   0
                   0
                   0
                   0
                   0
                   0
                   0
                   0
                   0
                   0
                   0
                   0
                   0
                   0
                   0
                   0
                   0
                   0
                   0
                   0
                   0
                   0
                   0
                   0
                   0
                   0
                   0
                   0
                   0
                   0
                   0
                   0
                   0
                   0
                   0
                   0
                   0
                   0
                   0
                   0
                   0
                   0
                   0
                   0
                   0
                   0
                   0
                   0
                   0
                   0
                   0
                   0
                   0
                   0
                   0
                   0
                   0
                   0
                   0
                   0
                   0
                   0
                   0
                   0
                   0
                   0
                   0
                   0
                   0
                   0
                   0
                   0
                   0
                   0
                   0
                   0
                   0
                   0
                   0
                   0
                   0
                   0
                   0
                   0
                   0
                   0
                   0
                   0
                   0
                   0
                   0
                   0
                   0
                   0
                   0
                   0
                   0
                   0
                   0
                   0
                   0
                   0
                   0
                   0
                   0
                   0
                   0
                   0
                   0
                   0
                   0
                   0
                   0
                   0
                   0
                   0
                   0
                   0
                   0
                   0
                   0
                   0
                   0
                   0
                   0
                   0
                   0
                   0
                   0
                   0
                   0
                   0
                   0
                   0
                   0
                   0
                   0
                   0
                   0
                   0
                   0
                   0
                   0
                   0
                   0
                   0
                   0
                   0
                   0
                   0
                   0
                   0
                   0
                   0
                   0
                   0
                   0
                   0
                   0
                   0
                   0
  
SCALARS                         Ispace  double 1
LOOKUP_TABLE default
                  12
                  12
                  12
                  12
                  12
                  12
                  12
                  12
                  12
                  12
                  12
                  12
                  12
                  11
                  12
                  11
                  11
                  11
                  11
                  11
                  11
                  12
                  12
                  11
                  12
                  12
                  11
                  11
                  11
                  11
                  11
                  11
                  11
                  11
                  11
                  11
                  11
                  11
                  11
                  11
                  11
                  11
                  11
                  11
                  11
                  11
                  11
                  11
                  11
                  11
                  11
                  11
                  11
                  11
                  11
                  11
                  11
                  11
                  11
                  11
                  11
                  11
                  11
                  11
                  11
                  11
                  12
                  12
                  12
                  12
                  12
                  12
                  12
                  12
                  11
                  11
                  11
                  11
                  11
                  11
                  11
                  11
                  11
                  11
                  11
                  11
                  11
                  11
                  11
                  11
                  11
                  11
                  11
                  11
                  11
                  11
                  12
                  12
                  12
                  12
                  12
                  12
                  12
                  12
                  12
                  12
                  12
                  12
                  12
                  12
                  12
                  12
                  12
                  12
                  12
                  12
                  11
                  11
                  11
                  11
                  11
                  11
                  11
                  11
                  11
                  11
                  11
                  11
                  11
                  11
                  11
                  11
                  11
                  11
                  11
                  11
                  11
                  11
                  11
                  11
                  11
                  11
                  11
                  11
                  11
                  11
                  12
                  12
                  12
                  12
                  12
                  12
                  12
                  12
                  12
                  12
                  12
                  12
                  12
                  12
                  12
                  12
                  12
                  11
                  11
                  11
                  11
                  12
                  12
                  11
                  11
                  11
                  11
                  11
                  11
                  11
                  11
                  11
                  11
                  11
                  11
                  11
                  11
                  11
                  11
                  11
                  11
                  11
                  11
                  12
                  12
                  12
                  12
                  11
                  11
                  11
                  11
                  11
                  11
                  11
                  11
                  11
                  11
                  11
                  12
                  12
                  12
                  12
                  12
                  12
                  12
                  12
                  12
                  12
                  11
                  11
                  11
                  11
                  11
                  11
                  11
                  11
                  11
                  11
                  11
                  11
                  11
                  11
                  11
                  12
                  12
                  12
                  12
                  12
                  12
                  12
                  12
                  12
                  12
                  12
                  12
                  11
                  11
                  11
                  11
                  12
                  12
                  11
                  11
                  11
                  11
                  11
                  11
                  11
                  11
                  11
                  11
                  11
                  11
                  11
                  11
                  11
                  11
                  11
                  11
                  11
                  11
                  12
                  12
                  12
                  12
                  11
                  11
                  11
                  11
                  11
                  11
                  11
                  11
                  11
                  11
                  11
                  12
                  12
                  12
                  12
                  12
                  12
                  12
                  12
                  12
                  12
                  11
                  11
                  11
                  11
                  11
                  11
                  11
                  11
                  11
                  11
                  11
                  11
                  11
                  11
                  11
                  12
                  12
                  12
                  12
                  12
                  12
                  12
                  12
                  12
                  12
                  12
                  12
                  11
                  11
                  11
                  11
                  12
                  12
                  11
                  11
                  11
                  11
                  11
                  11
                  11
                  11
                  11
                  11
                  11
                  11
                  11
                  11
                  11
                  11
                  11
                  11
                  11
                  11
                  12
                  12
                  12
                  12
                  11
                  11
                  11
                  11
                  11
                  11
                  11
                  11
                  11
                  11
                  11
                  12
                  12
                  12
                  12
                  12
                  12
                  12
                  12
                  12
                  12
                  11
                  11
                  11
                  11
                  11
                  11
                  11
                  11
                  11
                  11
                  11
                  11
                  11
                  11
                  11
                  12
                  12
                  12
                  12
                  12
                  12
                  12
                  12
                  12
                  12
                  12
                  12
                  11
                  11
                  11
                  11
                  12
                  12
                  11
                  11
                  11
                  11
                  11
                  11
                  11
                  11
                  11
                  11
                  11
                  11
                  11
                  11
                  11
                  11
                  11
                  11
                  11
                  11
                  12
                  12
                  12
                  12
                  11
                  11
                  11
                  11
                  11
                  11
                  11
                  11
                  11
                  11
                  11
                  12
                  12
                  12
                  12
                  12
                  12
                  12
                  12
                  12
                  12
                  11
                  11
                  11
                  11
                  11
                  11
                  11
                  11
                  11
                  11
                  11
                  11
                  11
                  11
                  11
                  12
                  12
                  12
                  12
                  12
                  12
                  12
                  12
                  12
                  12
                  12
                  12
                  11
                  11
                  11
                  11
                  12
                  12
                  11
                  11
                  11
                  11
                  11
                  11
                  11
                  11
                  11
                  11
                  11
                  11
                  11
                  11
                  11
                  11
                  11
                  11
                  11
                  11
                  12
                  12
                  12
                  12
                  11
                  11
                  11
                  11
                  11
                  11
                  11
                  11
                  11
                  11
                  11
                  12
                  12
                  12
                  12
                  12
                  12
                  12
                  12
                  12
                  12
                  11
                  11
                  11
                  11
                  11
                  11
                  11
                  11
                  11
                  11
                  11
                  11
                  11
                  11
                  11
                  12
                  12
                  12
                  12
                  12
                  12
                  12
                  12
                  12
                  12
                  12
                  12
                  11
                  11
                  11
                  11
                  12
                  12
                  11
                  11
                  11
                  11
                  11
                  11
                  11
                  11
                  11
                  11
                  11
                  11
                  11
                  11
                  11
                  11
                  11
                  11
                  11
                  11
                  12
                  12
                  12
                  12
                  11
                  11
                  11
                  11
                  11
                  11
                  11
                  11
                  11
                  11
                  11
                  12
                  12
                  12
                  12
                  12
                  12
                  12
                  12
                  12
                  12
                  11
                  11
                  11
                  11
                  11
                  11
                  11
                  11
                  11
                  11
                  11
                  11
                  11
                  11
                  11
                  12
                  12
                  12
                  12
                  12
                  12
                  12
                  12
                  12
                  12
                  12
                  12
                  11
                  11
                  11
                  11
                  12
                  12
                  11
                  11
                  11
                  11
                  11
                  11
                  11
                  11
                  11
                  11
                  11
                  11
                  11
                  11
                  11
                  11
                  11
                  11
                  11
                  11
                  12
                  12
                  12
                  12
                  11
                  11
                  11
                  11
                  11
                  11
                  11
                  11
                  11
                  11
                  11
                  12
                  12
                  12
                  12
                  12
                  12
                  12
                  12
                  12
                  12
                  11
                  11
                  11
                  11
                  11
                  11
                  11
                  11
                  11
                  11
                  11
                  11
                  11
                  11
                  11
                  12
                  12
                  12
                  12
                  12
                  12
                  12
                  12
                  12
                  12
                  12
                  12
                  11
                  11
                  11
                  11
                  12
                  12
                  11
                  11
                  11
                  11
                  11
                  11
                  11
                  11
                  11
                  11
                  11
                  11
                  11
                  11
                  11
                  11
                  11
                  11
                  11
                  11
                  12
                  12
                  12
                  12
                  11
                  11
                  11
                  11
                  11
                  11
                  11
                  11
                  11
                  11
                  11
                  12
                  12
                  12
                  12
                  12
                  12
                  12
                  12
                  12
                  12
                  11
                  11
                  11
                  11
                  11
                  11
                  11
                  11
                  11
                  11
                  11
                  11
                  11
                  11
                  11
                  12
                  12
                  12
                  12
                  12
                  12
                  12
                  12
                  12
                  12
                  12
                  12
                  11
                  11
                  11
                  11
                  12
                  12
                  11
                  11
                  11
                  11
                  11
                  11
                  11
                  11
                  11
                  11
                  11
                  11
                  11
                  11
                  11
                  11
                  11
                  11
                  11
                  11
                  12
                  12
                  12
                  12
                  11
                  11
                  11
                  11
                  11
                  11
                  11
                  11
                  11
                  11
                  11
                  12
                  12
                  12
                  12
                  12
                  12
                  12
                  12
                  12
                  12
                  11
                  11
                  11
                  11
                  11
                  11
                  11
                  11
                  11
                  11
                  11
                  11
                  11
                  11
                  11
                  12
                  12
                  12
                  12
                  12
                  12
                  12
                  12
                  12
                  12
                  12
                  12
                  11
                  11
                  11
                  11
                  12
                  12
                  11
                  11
                  11
                  11
                  11
                  11
                  11
                  11
                  11
                  11
                  11
                  11
                  11
                  11
                  11
                  11
                  11
                  11
                  11
                  11
                  12
                  12
                  12
                  12
                  11
                  11
                  11
                  11
                  11
                  11
                  11
                  11
                  11
                  11
                  11
                  12
                  12
                  12
                  12
                  12
                  12
                  12
                  12
                  12
                  12
                  11
                  11
                  11
                  11
                  11
                  11
                  11
                  11
                  11
                  11
                  11
                  11
                  11
                  11
                  11
                  12
                  12
                  12
                  12
                  12
                  12
                  12
                  12
                  12
                  12
                  12
                  12
                  11
                  11
                  11
                  11
                  12
                  12
                  11
                  11
                  11
                  11
                  11
                  11
                  11
                  11
                  11
                  11
                  11
                  11
                  11
                  11
                  11
                  11
                  11
                  11
                  11
                  11
                  12
                  12
                  12
                  12
                  11
                  11
                  11
                  11
                  11
                  11
                  11
                  11
                  11
                  11
                  11
                  12
                  12
                  12
                  12
                  12
                  12
                  12
                  12
                  12
                  12
                  11
                  11
                  11
                  11
                  11
                  11
                  11
                  11
                  11
                  11
                  11
                  11
                  11
                  11
                  11
                  12
                  12
                  12
                  12
                  12
                  12
                  12
                  12
                  12
                  12
                  12
                  12
                  11
                  11
                  11
                  11
                  12
                  12
                  11
                  11
                  11
                  11
                  11
                  11
                  11
                  11
                  11
                  11
                  11
                  11
                  11
                  11
                  11
                  11
                  11
                  11
                  11
                  11
                  12
                  12
                  12
                  12
                  11
                  11
                  11
                  11
                  11
                  11
                  11
                  11
                  11
                  11
                  11
                  12
                  12
                  12
                  12
                  12
                  12
                  12
                  12
                  12
                  12
                  11
                  11
                  11
                  11
                  11
                  11
                  11
                  11
                  11
                  11
                  11
                  11
                  11
                  11
                  11
                  12
                  12
                  12
                  12
                  12
                  12
                  12
                  12
                  12
                  12
                  12
                  12
                  11
                  11
                  11
                  11
                  12
                  12
                  11
                  11
                  11
                  11
                  11
                  11
                  11
                  11
                  11
                  11
                  11
                  11
                  11
                  11
                  11
                  11
                  11
                  11
                  11
                  11
                  12
                  12
                  12
                  12
                  11
                  11
                  11
                  11
                  11
                  11
                  11
                  11
                  11
                  11
                  11
                  12
                  12
                  12
                  12
                  12
                  12
                  12
                  12
                  12
                  12
                  11
                  11
                  11
                  11
                  11
                  11
                  11
                  11
                  11
                  11
                  11
                  11
                  11
                  11
                  11
                  12
                  12
                  12
                  12
                  12
                  12
                  12
                  12
                  12
                  12
                  12
                  12
                  11
                  11
                  11
                  11
                  12
                  12
                  11
                  11
                  11
                  11
                  11
                  11
                  11
                  11
                  11
                  11
                  11
                  11
                  11
                  11
                  11
                  11
                  11
                  11
                  11
                  11
                  12
                  12
                  12
                  12
                  11
                  11
                  11
                  11
                  11
                  11
                  11
                  11
                  11
                  11
                  11
                  12
                  12
                  12
                  12
                  12
                  12
                  12
                  12
                  12
                  12
                  11
                  11
                  11
                  11
                  11
                  11
                  11
                  11
                  11
                  11
                  11
                  11
                  11
                  11
                  11
                  12
                  12
                  12
                  12
                  12
                  12
                  12
                  12
                  12
                  12
                  12
                  12
                  11
                  11
                  11
                  11
                  12
                  12
                  11
                  11
                  11
                  11
                  11
                  11
                  11
                  11
                  11
                  11
                  11
                  11
                  11
                  11
                  11
                  11
                  11
                  11
                  11
                  11
                  12
                  12
                  12
                  12
                  11
                  11
                  11
                  11
                  11
                  11
                  11
                  11
                  11
                  11
                  11
                  12
                  12
                  12
                  12
                  12
                  12
                  12
                  12
                  12
                  12
                  11
                  11
                  11
                  11
                  11
                  11
                  11
                  11
                  11
                  11
                  11
                  11
                  11
                  11
                  11
                  12
                  12
                  12
                  12
                  12
                  12
                  12
                  12
                  12
                  12
                  12
                  12
                  11
                  11
                  11
                  11
                  12
                  12
                  11
                  11
                  11
                  11
                  11
                  11
                  11
                  11
                  11
                  11
                  11
                  11
                  11
                  11
                  11
                  11
                  11
                  11
                  11
                  11
                  12
                  12
                  12
                  12
                  11
                  11
                  11
                  11
                  11
                  11
                  11
                  11
                  11
                  11
                  11
                  12
                  12
                  12
                  12
                  12
                  12
                  12
                  12
                  12
                  12
                  11
                  11
                  11
                  11
                  11
                  11
                  11
                  11
                  11
                  11
                  11
                  11
                  11
                  11
                  11
                  12
                  12
                  12
                  12
                  12
                  12
                  12
                  12
                  12
                  12
                  12
                  12
                  11
                  11
                  11
                  11
                  12
                  12
                  11
                  11
                  11
                  11
                  11
                  11
                  11
                  11
                  11
                  11
                  11
                  11
                  11
                  11
                  11
                  11
                  11
                  11
                  11
                  11
                  12
                  12
                  12
                  12
                  11
                  11
                  11
                  11
                  11
                  11
                  11
                  11
                  11
                  11
                  11
                  12
                  12
                  12
                  12
                  12
                  12
                  12
                  12
                  12
                  12
                  11
                  11
                  11
                  11
                  11
                  11
                  11
                  11
                  11
                  11
                  11
                  11
                  11
                  11
                  11
                  12
                  12
                  12
                  12
                  12
                  12
                  12
                  12
                  12
                  12
                  12
                  12
                  11
                  11
                  11
                  11
                  12
                  12
                  11
                  11
                  11
                  11
                  11
                  11
                  11
                  11
                  11
                  11
                  11
                  11
                  11
                  11
                  11
                  11
                  11
                  11
                  11
                  11
                  12
                  12
                  12
                  12
                  11
                  11
                  11
                  11
                  11
                  11
                  11
                  11
                  11
                  11
                  11
                  12
                  12
                  12
                  12
                  12
                  12
                  12
                  12
                  12
                  12
                  11
                  11
                  11
                  11
                  11
                  11
                  11
                  11
                  11
                  11
                  11
                  11
                  11
                  11
                  11
                  12
                  12
                  12
                  12
                  12
                  12
                  12
                  12
                  12
                  12
                  12
                  12
                  11
                  11
                  11
                  11
                  12
                  12
                  11
                  11
                  11
                  11
                  11
                  11
                  11
                  11
                  11
                  11
                  11
                  11
                  11
                  11
                  11
                  11
                  11
                  11
                  11
                  11
                  12
                  12
                  12
                  12
                  11
                  11
                  11
                  11
                  11
                  11
                  11
                  11
                  11
                  11
                  11
                  12
                  12
                  12
                  12
                  12
                  12
                  12
                  12
                  12
                  12
                  11
                  11
                  11
                  11
                  11
                  11
                  11
                  11
                  11
                  11
                  11
                  11
                  11
                  11
                  11
                  12
                  12
                  12
                  12
                  12
                  12
                  12
                  12
                  12
                  12
                  12
                  12
                  11
                  11
                  11
                  11
                  12
                  12
                  11
                  11
                  11
                  11
                  11
                  11
                  11
                  11
                  11
                  11
                  11
                  11
                  11
                  11
                  11
                  11
                  11
                  11
                  11
                  11
                  12
                  12
                  12
                  12
                  11
                  11
                  11
                  11
                  11
                  11
                  11
                  11
                  11
                  11
                  11
                  12
                  12
                  12
                  12
                  12
                  12
                  12
                  12
                  12
                  12
                  11
                  11
                  11
                  11
                  11
                  11
                  11
                  11
                  11
                  11
                  11
                  11
                  11
                  11
                  11
                  12
                  12
                  12
                  12
                  12
                  12
                  12
                  12
                  12
                  12
                  12
                  12
                  11
                  11
                  11
                  11
                  12
                  12
                  11
                  11
                  11
                  11
                  11
                  11
                  11
                  11
                  11
                  11
                  11
                  11
                  11
                  11
                  11
                  11
                  11
                  11
                  11
                  11
                  12
                  12
                  12
                  12
                  11
                  11
                  11
                  11
                  11
                  11
                  11
                  11
                  11
                  11
                  11
                  12
                  12
                  12
                  12
                  12
                  12
                  12
                  12
                  12
                  12
                  11
                  11
                  11
                  11
                  11
                  11
                  11
                  11
                  11
                  11
                  11
                  11
                  11
                  11
                  11
                  12
                  12
                  12
                  12
                  12
                  12
                  12
                  12
                  12
                  12
                  12
                  12
                  11
                  11
                  11
                  11
                  12
                  12
                  11
                  11
                  11
                  11
                  11
                  11
                  11
                  11
                  11
                  11
                  11
                  11
                  11
                  11
                  11
                  11
                  11
                  11
                  11
                  11
                  12
                  12
                  12
                  12
                  11
                  11
                  11
                  11
                  11
                  11
                  11
                  11
                  11
                  11
                  11
                  12
                  12
                  12
                  12
                  12
                  12
                  12
                  12
                  12
                  12
                  11
                  11
                  11
                  11
                  11
                  11
                  11
                  11
                  11
                  11
                  11
                  11
                  11
                  11
                  11
                  12
                  12
                  12
                  12
                  12
                  12
                  12
                  12
                  12
                  12
                  12
                  12
                  11
                  11
                  11
                  11
                  12
                  12
                  11
                  11
                  11
                  11
                  11
                  11
                  11
                  11
                  11
                  11
                  11
                  11
                  11
                  11
                  11
                  11
                  11
                  11
                  11
                  11
                  12
                  12
                  12
                  12
                  11
                  11
                  11
                  11
                  11
                  11
                  11
                  11
                  11
                  11
                  11
                  12
                  12
                  12
                  12
                  12
                  12
                  12
                  12
                  12
                  12
                  11
                  11
                  11
                  11
                  11
                  11
                  11
                  11
                  11
                  11
                  11
                  11
                  11
                  11
                  11
                  12
                  12
                  12
                  12
                  12
  
SCALARS                         Jspace  double 1
LOOKUP_TABLE default
                  11
                  12
                  11
                  11
                  11
                  12
                  11
                  11
                  11
                  11
                  11
                  11
                  12
                  12
                  12
                  12
                  11
                  12
                  11
                  12
                  12
                  12
                  12
                  12
                  12
                  12
                  12
                  12
                  12
                  12
                  11
                  11
                  11
                  11
                  11
                  11
                  11
                  11
                  11
                  11
                  11
                  11
                  11
                  11
                  11
                  11
                  11
                  11
                  11
                  11
                  11
                  11
                  12
                  12
                  12
                  12
                  12
                  11
                  12
                  11
                  11
                  11
                  11
                  11
                  11
                  11
                  11
                  11
                  11
                  12
                  11
                  12
                  12
                  12
                  12
                  12
                  12
                  12
                  12
                  12
                  12
                  12
                  12
                  12
                  11
                  11
                  11
                  11
                  11
                  11
                  11
                  11
                  11
                  11
                  11
                  11
                  11
                  11
                  11
                  11
                  11
                  11
                  11
                  11
                  11
                  11
                  11
                  11
                  12
                  12
                  12
                  12
                  12
                  12
                  12
                  12
                  12
                  12
                  12
                  12
                  12
                  12
                  12
                  12
                  12
                  12
                  12
                  12
                  11
                  11
                  11
                  11
                  11
                  11
                  11
                  11
                  11
                  11
                  11
                  11
                  11
                  11
                  11
                  11
                  11
                  11
                  11
                  11
                  11
                  11
                  11
                  11
                  11
                  11
                  11
                  11
                  11
                  12
                  11
                  11
                  11
                  11
                  12
                  12
                  11
                  12
                  12
                  12
                  12
                  12
                  12
                  11
                  11
                  11
                  11
                  11
                  11
                  11
                  11
                  11
                  11
                  11
                  12
                  12
                  12
                  11
                  11
                  11
                  11
                  11
                  11
                  12
                  12
                  12
                  12
                  12
                  12
                  12
                  11
                  11
                  11
                  11
                  11
                  11
                  11
                  11
                  11
                  11
                  11
                  11
                  12
                  12
                  12
                  12
                  12
                  12
                  12
                  12
                  12
                  12
                  11
                  11
                  11
                  11
                  11
                  11
                  11
                  11
                  11
                  11
                  11
                  11
                  11
                  11
                  11
                  12
                  11
                  11
                  11
                  11
                  12
                  12
                  11
                  12
                  12
                  12
                  12
                  12
                  12
                  11
                  11
                  11
                  11
                  11
                  11
                  11
                  11
                  11
                  11
                  11
                  12
                  12
                  12
                  11
                  11
                  11
                  11
                  11
                  11
                  12
                  12
                  12
                  12
                  12
                  12
                  12
                  11
                  11
                  11
                  11
                  11
                  11
                  11
                  11
                  11
                  11
                  11
                  11
                  12
                  12
                  12
                  12
                  12
                  12
                  12
                  12
                  12
                  12
                  11
                  11
                  11
                  11
                  11
                  11
                  11
                  11
                  11
                  11
                  11
                  11
                  11
                  11
                  11
                  12
                  11
                  11
                  11
                  11
                  12
                  12
                  11
                  12
                  12
                  12
                  12
                  12
                  12
                  11
                  11
                  11
                  11
                  11
                  11
                  11
                  11
                  11
                  11
                  11
                  12
                  12
                  12
                  11
                  11
                  11
                  11
                  11
                  11
                  12
                  12
                  12
                  12
                  12
                  12
                  12
                  11
                  11
                  11
                  11
                  11
                  11
                  11
                  11
                  11
                  11
                  11
                  11
                  12
                  12
                  12
                  12
                  12
                  12
                  12
                  12
                  12
                  12
                  11
                  11
                  11
                  11
                  11
                  11
                  11
                  11
                  11
                  11
                  11
                  11
                  11
                  11
                  11
                  12
                  11
                  11
                  11
                  11
                  12
                  12
                  11
                  12
                  12
                  12
                  12
                  12
                  12
                  11
                  11
                  11
                  11
                  11
                  11
                  11
                  11
                  11
                  11
                  11
                  12
                  12
                  12
                  11
                  11
                  11
                  11
                  11
                  11
                  12
                  12
                  12
                  12
                  12
                  12
                  12
                  11
                  11
                  11
                  11
                  11
                  11
                  11
                  11
                  11
                  11
                  11
                  11
                  12
                  12
                  12
                  12
                  12
                  12
                  12
                  12
                  12
                  12
                  11
                  11
                  11
                  11
                  11
                  11
                  11
                  11
                  11
                  11
                  11
                  11
                  11
                  11
                  11
                  12
                  11
                  11
                  11
                  11
                  12
                  12
                  11
                  12
                  12
                  12
                  12
                  12
                  12
                  11
                  11
                  11
                  11
                  11
                  11
                  11
                  11
                  11
                  11
                  11
                  12
                  12
                  12
                  11
                  11
                  11
                  11
                  11
                  11
                  12
                  12
                  12
                  12
                  12
                  12
                  12
                  11
                  11
                  11
                  11
                  11
                  11
                  11
                  11
                  11
                  11
                  11
                  11
                  12
                  12
                  12
                  12
                  12
                  12
                  12
                  12
                  12
                  12
                  11
                  11
                  11
                  11
                  11
                  11
                  11
                  11
                  11
                  11
                  11
                  11
                  11
                  11
                  11
                  12
                  11
                  11
                  11
                  11
                  12
                  12
                  11
                  12
                  12
                  12
                  12
                  12
                  12
                  11
                  11
                  11
                  11
                  11
                  11
                  11
                  11
                  11
                  11
                  11
                  12
                  12
                  12
                  11
                  11
                  11
                  11
                  11
                  11
                  12
                  12
                  12
                  12
                  12
                  12
                  12
                  11
                  11
                  11
                  11
                  11
                  11
                  11
                  11
                  11
                  11
                  11
                  11
                  12
                  12
                  12
                  12
                  12
                  12
                  12
                  12
                  12
                  12
                  11
                  11
                  11
                  11
                  11
                  11
                  11
                  11
                  11
                  11
                  11
                  11
                  11
                  11
                  11
                  12
                  11
                  11
                  11
                  11
                  12
                  12
                  11
                  12
                  12
                  12
                  12
                  12
                  12
                  11
                  11
                  11
                  11
                  11
                  11
                  11
                  11
                  11
                  11
                  11
                  12
                  12
                  12
                  11
                  11
                  11
                  11
                  11
                  11
                  12
                  12
                  12
                  12
                  12
                  12
                  12
                  11
                  11
                  11
                  11
                  11
                  11
                  11
                  11
                  11
                  11
                  11
                  11
                  12
                  12
                  12
                  12
                  12
                  12
                  12
                  12
                  12
                  12
                  11
                  11
                  11
                  11
                  11
                  11
                  11
                  11
                  11
                  11
                  11
                  11
                  11
                  11
                  11
                  12
                  11
                  11
                  11
                  11
                  12
                  12
                  11
                  12
                  12
                  12
                  12
                  12
                  12
                  11
                  11
                  11
                  11
                  11
                  11
                  11
                  11
                  11
                  11
                  11
                  12
                  12
                  12
                  11
                  11
                  11
                  11
                  11
                  11
                  12
                  12
                  12
                  12
                  12
                  12
                  12
                  11
                  11
                  11
                  11
                  11
                  11
                  11
                  11
                  11
                  11
                  11
                  11
                  12
                  12
                  12
                  12
                  12
                  12
                  12
                  12
                  12
                  12
                  11
                  11
                  11
                  11
                  11
                  11
                  11
                  11
                  11
                  11
                  11
                  11
                  11
                  11
                  11
                  12
                  11
                  11
                  11
                  11
                  12
                  12
                  11
                  12
                  12
                  12
                  12
                  12
                  12
                  11
                  11
                  11
                  11
                  11
                  11
                  11
                  11
                  11
                  11
                  11
                  12
                  12
                  12
                  11
                  11
                  11
                  11
                  11
                  11
                  12
                  12
                  12
                  12
                  12
                  12
                  12
                  11
                  11
                  11
                  11
                  11
                  11
                  11
                  11
                  11
                  11
                  11
                  11
                  12
                  12
                  12
                  12
                  12
                  12
                  12
                  12
                  12
                  12
                  11
                  11
                  11
                  11
                  11
                  11
                  11
                  11
                  11
                  11
                  11
                  11
                  11
                  11
                  11
                  12
                  11
                  11
                  11
                  11
                  12
                  12
                  11
                  12
                  12
                  12
                  12
                  12
                  12
                  11
                  11
                  11
                  11
                  11
                  11
                  11
                  11
                  11
                  11
                  11
                  12
                  12
                  12
                  11
                  11
                  11
                  11
                  11
                  11
                  12
                  12
                  12
                  12
                  12
                  12
                  12
                  11
                  11
                  11
                  11
                  11
                  11
                  11
                  11
                  11
                  11
                  11
                  11
                  12
                  12
                  12
                  12
                  12
                  12
                  12
                  12
                  12
                  12
                  11
                  11
                  11
                  11
                  11
                  11
                  11
                  11
                  11
                  11
                  11
                  11
                  11
                  11
                  11
                  12
                  11
                  11
                  11
                  11
                  12
                  12
                  11
                  12
                  12
                  12
                  12
                  12
                  12
                  11
                  11
                  11
                  11
                  11
                  11
                  11
                  11
                  11
                  11
                  11
                  12
                  12
                  12
                  11
                  11
                  11
                  11
                  11
                  11
                  12
                  12
                  12
                  12
                  12
                  12
                  12
                  11
                  11
                  11
                  11
                  11
                  11
                  11
                  11
                  11
                  11
                  11
                  11
                  12
                  12
                  12
                  12
                  12
                  12
                  12
                  12
                  12
                  12
                  11
                  11
                  11
                  11
                  11
                  11
                  11
                  11
                  11
                  11
                  11
                  11
                  11
                  11
                  11
                  12
                  11
                  11
                  11
                  11
                  12
                  12
                  11
                  12
                  12
                  12
                  12
                  12
                  12
                  11
                  11
                  11
                  11
                  11
                  11
                  11
                  11
                  11
                  11
                  11
                  12
                  12
                  12
                  11
                  11
                  11
                  11
                  11
                  11
                  12
                  12
                  12
                  12
                  12
                  12
                  12
                  11
                  11
                  11
                  11
                  11
                  11
                  11
                  11
                  11
                  11
                  11
                  11
                  12
                  12
                  12
                  12
                  12
                  12
                  12
                  12
                  12
                  12
                  11
                  11
                  11
                  11
                  11
                  11
                  11
                  11
                  11
                  11
                  11
                  11
                  11
                  11
                  11
                  12
                  11
                  11
                  11
                  11
                  12
                  12
                  11
                  12
                  12
                  12
                  12
                  12
                  12
                  11
                  11
                  11
                  11
                  11
                  11
                  11
                  11
                  11
                  11
                  11
                  12
                  12
                  12
                  11
                  11
                  11
                  11
                  11
                  11
                  12
                  12
                  12
                  12
                  12
                  12
                  12
                  11
                  11
                  11
                  11
                  11
                  11
                  11
                  11
                  11
                  11
                  11
                  11
                  12
                  12
                  12
                  12
                  12
                  12
                  12
                  12
                  12
                  12
                  11
                  11
                  11
                  11
                  11
                  11
                  11
                  11
                  11
                  11
                  11
                  11
                  11
                  11
                  11
                  12
                  11
                  11
                  11
                  11
                  12
                  12
                  11
                  12
                  12
                  12
                  12
                  12
                  12
                  11
                  11
                  11
                  11
                  11
                  11
                  11
                  11
                  11
                  11
                  11
                  12
                  12
                  12
                  11
                  11
                  11
                  11
                  11
                  11
                  12
                  12
                  12
                  12
                  12
                  12
                  12
                  11
                  11
                  11
                  11
                  11
                  11
                  11
                  11
                  11
                  11
                  11
                  11
                  12
                  12
                  12
                  12
                  12
                  12
                  12
                  12
                  12
                  12
                  11
                  11
                  11
                  11
                  11
                  11
                  11
                  11
                  11
                  11
                  11
                  11
                  11
                  11
                  11
                  12
                  11
                  11
                  11
                  11
                  12
                  12
                  11
                  12
                  12
                  12
                  12
                  12
                  12
                  11
                  11
                  11
                  11
                  11
                  11
                  11
                  11
                  11
                  11
                  11
                  12
                  12
                  12
                  11
                  11
                  11
                  11
                  11
                  11
                  12
                  12
                  12
                  12
                  12
                  12
                  12
                  11
                  11
                  11
                  11
                  11
                  11
                  11
                  11
                  11
                  11
                  11
                  11
                  12
                  12
                  12
                  12
                  12
                  12
                  12
                  12
                  12
                  12
                  11
                  11
                  11
                  11
                  11
                  11
                  11
                  11
                  11
                  11
                  11
                  11
                  11
                  11
                  11
                  12
                  11
                  11
                  11
                  11
                  12
                  12
                  11
                  12
                  12
                  12
                  12
                  12
                  12
                  11
                  11
                  11
                  11
                  11
                  11
                  11
                  11
                  11
                  11
                  11
                  12
                  12
                  12
                  11
                  11
                  11
                  11
                  11
                  11
                  12
                  12
                  12
                  12
                  12
                  12
                  12
                  11
                  11
                  11
                  11
                  11
                  11
                  11
                  11
                  11
                  11
                  11
                  11
                  12
                  12
                  12
                  12
                  12
                  12
                  12
                  12
                  12
                  12
                  11
                  11
                  11
                  11
                  11
                  11
                  11
                  11
                  11
                  11
                  11
                  11
                  11
                  11
                  11
                  12
                  11
                  11
                  11
                  11
                  12
                  12
                  11
                  12
                  12
                  12
                  12
                  12
                  12
                  11
                  11
                  11
                  11
                  11
                  11
                  11
                  11
                  11
                  11
                  11
                  12
                  12
                  12
                  11
                  11
                  11
                  11
                  11
                  11
                  12
                  12
                  12
                  12
                  12
                  12
                  12
                  11
                  11
                  11
                  11
                  11
                  11
                  11
                  11
                  11
                  11
                  11
                  11
                  12
                  12
                  12
                  12
                  12
                  12
                  12
                  12
                  12
                  12
                  11
                  11
                  11
                  11
                  11
                  11
                  11
                  11
                  11
                  11
                  11
                  11
                  11
                  11
                  11
                  12
                  11
                  11
                  11
                  11
                  12
                  12
                  11
                  12
                  12
                  12
                  12
                  12
                  12
                  11
                  11
                  11
                  11
                  11
                  11
                  11
                  11
                  11
                  11
                  11
                  12
                  12
                  12
                  11
                  11
                  11
                  11
                  11
                  11
                  12
                  12
                  12
                  12
                  12
                  12
                  12
                  11
                  11
                  11
                  11
                  11
                  11
                  11
                  11
                  11
                  11
                  11
                  11
                  12
                  12
                  12
                  12
                  12
                  12
                  12
                  12
                  12
                  12
                  11
                  11
                  11
                  11
                  11
                  11
                  11
                  11
                  11
                  11
                  11
                  11
                  11
                  11
                  11
                  12
                  11
                  11
                  11
                  11
                  12
                  12
                  11
                  12
                  12
                  12
                  12
                  12
                  12
                  11
                  11
                  11
                  11
                  11
                  11
                  11
                  11
                  11
                  11
                  11
                  12
                  12
                  12
                  11
                  11
                  11
                  11
                  11
                  11
                  12
                  12
                  12
                  12
                  12
                  12
                  12
                  11
                  11
                  11
                  11
                  11
                  11
                  11
                  11
                  11
                  11
                  11
                  11
                  12
                  12
                  12
                  12
                  12
                  12
                  12
                  12
                  12
                  12
                  11
                  11
                  11
                  11
                  11
                  11
                  11
                  11
                  11
                  11
                  11
                  11
                  11
                  11
                  11
                  12
                  11
                  11
                  11
                  11
                  12
                  12
                  11
                  12
                  12
                  12
                  12
                  12
                  12
                  11
                  11
                  11
                  11
                  11
                  11
                  11
                  11
                  11
                  11
                  11
                  12
                  12
                  12
                  11
                  11
                  11
                  11
                  11
                  11
                  12
                  12
                  12
                  12
                  12
                  12
                  12
                  11
                  11
                  11
                  11
                  11
                  11
                  11
                  11
                  11
                  11
                  11
                  11
                  12
                  12
                  12
                  12
                  12
                  12
                  12
                  12
                  12
                  12
                  11
                  11
                  11
                  11
                  11
                  11
                  11
                  11
                  11
                  11
                  11
                  11
                  11
                  11
                  11
                  12
                  11
                  11
                  11
                  11
                  12
                  12
                  11
                  12
                  12
                  12
                  12
                  12
                  12
                  11
                  11
                  11
                  11
                  11
                  11
                  11
                  11
                  11
                  11
                  11
                  12
                  12
                  12
                  11
                  11
                  11
                  11
                  11
                  11
                  12
                  12
                  12
                  12
                  12
                  12
                  12
                  11
                  11
                  11
                  11
                  11
                  11
                  11
                  11
                  11
                  11
                  11
                  11
                  12
                  12
                  12
                  12
                  12
                  12
                  12
                  12
                  12
                  12
                  11
                  11
                  11
                  11
                  11
                  11
                  11
                  11
                  11
                  11
                  11
                  11
                  11
                  11
                  11
                  12
                  11
                  11
                  11
                  11
                  12
                  12
                  11
                  12
                  12
                  12
                  12
                  12
                  12
                  11
                  11
                  11
                  11
                  11
                  11
                  11
                  11
                  11
                  11
                  11
                  12
                  12
                  12
                  11
                  11
                  11
                  11
                  11
                  11
                  12
                  12
                  12
                  12
                  12
                  12
                  12
                  11
                  11
                  11
                  11
                  11
                  11
                  11
                  11
                  11
                  11
                  11
                  11
                  12
                  12
                  12
                  12
                  12
                  12
                  12
                  12
                  12
                  12
                  11
                  11
                  11
                  11
                  11
                  11
                  11
                  11
                  11
                  11
                  11
                  11
                  11
                  11
                  11
                  12
                  11
                  11
                  11
                  11
                  12
                  12
                  11
                  12
                  12
                  12
                  12
                  12
                  12
                  11
                  11
                  11
                  11
                  11
                  11
                  11
                  11
                  11
                  11
                  11
                  12
                  12
                  12
                  11
                  11
                  11
                  11
                  11
                  11
                  12
                  12
                  12
                  12
                  12
                  12
                  12
                  11
                  11
                  11
                  11
                  11
                  11
                  11
                  11
                  11
                  11
                  11
                  11
                  12
                  12
                  12
                  12
                  12
                  12
                  12
                  12
                  12
                  12
                  11
                  11
                  11
                  11
                  11
                  11
                  11
                  11
                  11
                  11
                  11
                  11
                  11
                  11
  
SCALARS                         Kspace  double 1
LOOKUP_TABLE default
                  11
                  11
                  11
                  11
                  11
                  11
                  11
                  11
                  11
                  11
                  11
                  11
                  11
                  11
                  11
                  11
                  11
                  11
                  11
                  11
                  11
                  11
                  11
                  11
                  11
                  11
                  11
                  11
                  11
                  11
                  11
                  11
                  11
                  11
                  11
                  11
                  11
                  11
                  11
                  11
                  11
                  11
                  11
                  11
                  11
                  11
                  11
                  11
                  11
                  11
                  11
                  11
                  11
                  11
                  11
                  11
                  11
                  11
                  11
                  11
                  11
                  11
                  11
                  11
                  11
                  11
                  11
                  11
                  11
                  11
                  11
                  11
                  11
                  11
                  11
                  11
                  11
                  11
                  11
                  11
                  11
                  11
                  11
                  11
                  11
                  11
                  11
                  11
                  11
                  11
                  11
                  11
                  11
                  11
                  11
                  11
                  11
                  11
                  11
                  11
                  11
                  11
                  11
                  11
                  11
                  11
                  11
                  11
                  11
                  11
                  11
                  11
                  11
                  11
                  11
                  11
                  11
                  11
                  11
                  11
                  11
                  11
                  11
                  11
                  11
                  11
                  11
                  11
                  11
                  11
                  11
                  11
                  11
                  11
                  11
                  11
                  11
                  11
                  11
                  11
                  11
                  11
                  11
                  11
                  11
                  11
                  11
                  11
                  11
                  11
                  11
                  11
                  11
                  11
                  11
                  11
                  11
                  11
                  11
                  11
                  11
                  11
                  11
                  11
                  11
                  11
                  11
                  11
                  11
                  11
                  11
                  11
                  11
                  11
                  11
                  11
                  11
                  11
                  11
                  11
                  11
                  11
                  11
                  11
                  11
                  11
                  11
                  11
                  11
                  11
                  11
                  11
                  11
                  11
                  11
                  11
                  11
                  11
                  11
                  11
                  11
                  11
                  11
                  11
                  11
                  11
                  11
                  11
                  11
                  11
                  11
                  11
                  11
                  11
                  11
                  11
                  11
                  11
                  11
                  11
                  11
                  11
                  11
                  11
                  11
                  11
                  11
                  11
                  11
                  11
                  11
                  11
                  11
                  11
                  11
                  11
                  11
                  11
                  11
                  11
                  11
                  11
                  11
                  11
                  11
                  11
                  11
                  11
                  11
                  11
                  11
                  11
                  11
                  11
                  11
                  11
                  11
                  11
                  11
                  11
                  11
                  11
                  11
                  11
                  11
                  11
                  11
                  11
                  11
                  11
                  11
                  11
                  11
                  11
                  11
                  11
                  11
                  11
                  11
                  11
                  11
                  11
                  11
                  11
                  11
                  11
                  11
                  11
                  11
                  11
                  11
                  11
                  11
                  11
                  11
                  11
                  11
                  11
                  11
                  11
                  11
                  11
                  11
                  11
                  11
                  11
                  11
                  11
                  11
                  11
                  11
                  11
                  12
                  12
                  12
                  12
                  12
                  12
                  12
                  12
                  12
                  12
                  12
                  12
                  12
                  12
                  12
                  12
                  12
                  12
                  12
                  12
                  12
                  12
                  12
                  12
                  12
                  12
                  12
                  12
                  12
                  12
                  12
                  12
                  12
                  12
                  12
                  12
                  12
                  12
                  12
                  12
                  12
                  12
                  12
                  12
                  12
                  12
                  12
                  12
                  12
                  12
                  12
                  12
                  12
                  12
                  12
                  12
                  12
                  12
                  12
                  12
                  12
                  12
                  12
                  12
                  12
                  12
                  12
                  12
                  12
                  12
                  12
                  12
                  12
                  12
                  12
                  12
                  12
                  12
                  12
                  12
                  12
                  12
                  12
                  12
                  12
                  12
                  12
                  12
                  12
                  12
                  12
                  12
                  12
                  12
                  12
                  12
                  12
                  12
                  12
                  12
                  12
                  12
                  12
                  12
                  12
                  12
                  12
                  12
                  12
                  12
                  12
                  12
                  12
                  12
                  12
                  12
                  12
                  12
                  12
                  12
                  12
                  12
                  12
                  12
                  12
                  12
                  12
                  12
                  12
                  12
                  12
                  12
                  12
                  12
                  12
                  12
                  12
                  12
                  12
                  12
                  12
                  12
                  12
                  12
                  12
                  12
                  12
                  12
                  12
                  12
                  12
                  12
                  12
                  12
                  12
                  12
                  12
                  12
                  12
                  12
                  12
                  12
                  12
                  12
                  12
                  12
                  12
                  12
                  12
                  12
                  12
                  12
                  12
                  12
                  12
                  12
                  12
                  12
                  12
                  12
                  12
                  12
                  12
                  12
                  12
                  12
                  12
                  12
                  12
                  12
                  12
                  12
                  12
                  12
                  12
                  12
                  12
                  12
                  12
                  12
                  12
                  12
                  12
                  12
                  12
                  12
                  12
                  12
                  12
                  12
                  12
                  12
                  12
                  12
                  12
                  12
                  12
                  12
                  12
                  12
                  12
                  12
                  12
                  12
                  12
                  12
                  12
                  12
                  12
                  12
                  12
                  12
                  12
                  12
                  13
                  13
                  13
                  13
                  13
                  13
                  13
                  13
                  13
                  13
                  13
                  13
                  13
                  13
                  13
                  13
                  13
                  13
                  13
                  13
                  13
                  13
                  13
                  13
                  13
                  13
                  13
                  13
                  13
                  13
                  13
                  13
                  13
                  13
                  13
                  13
                  13
                  13
                  13
                  13
                  13
                  13
                  13
                  13
                  13
                  13
                  13
                  13
                  13
                  13
                  13
                  13
                  13
                  13
                  13
                  13
                  13
                  13
                  13
                  13
                  13
                  13
                  13
                  13
                  13
                  13
                  13
                  13
                  13
                  13
                  13
                  13
                  13
                  13
                  13
                  13
                  13
                  13
                  13
                  13
                  13
                  13
                  13
                  13
                  13
                  13
                  13
                  13
                  13
                  13
                  13
                  13
                  13
                  13
                  13
                  13
                  13
                  13
                  13
                  13
                  13
                  13
                  13
                  13
                  13
                  13
                  13
                  13
                  13
                  13
                  13
                  13
                  13
                  13
                  13
                  13
                  13
                  13
                  13
                  13
                  13
                  13
                  13
                  13
                  13
                  13
                  13
                  13
                  13
                  13
                  13
                  13
                  13
                  13
                  13
                  13
                  13
                  13
                  13
                  13
                  13
                  13
                  13
                  13
                  13
                  13
                  13
                  13
                  13
                  13
                  13
                  13
                  13
                  13
                  13
                  13
                  13
                  13
                  13
                  13
                  13
                  13
                  13
                  13
                  13
                  13
                  13
                  13
                  13
                  13
                  13
                  13
                  13
                  13
                  13
                  13
                  13
                  13
                  13
                  13
                  13
                  13
                  13
                  13
                  13
                  13
                  13
                  13
                  13
                  13
                  13
                  13
                  13
                  13
                  13
                  13
                  13
                  13
                  13
                  13
                  13
                  13
                  13
                  13
                  13
                  13
                  13
                  13
                  13
                  13
                  13
                  13
                  13
                  13
                  13
                  13
                  13
                  13
                  13
                  13
                  13
                  13
                  13
                  13
                  13
                  13
                  13
                  13
                  13
                  13
                  13
                  13
                  13
                  13
                  14
                  14
                  14
                  14
                  14
                  14
                  14
                  14
                  14
                  14
                  14
                  14
                  14
                  14
                  14
                  14
                  14
                  14
                  14
                  14
                  14
                  14
                  14
                  14
                  14
                  14
                  14
                  14
                  14
                  14
                  14
                  14
                  14
                  14
                  14
                  14
                  14
                  14
                  14
                  14
                  14
                  14
                  14
                  14
                  14
                  14
                  14
                  14
                  14
                  14
                  14
                  14
                  14
                  14
                  14
                  14
                  14
                  14
                  14
                  14
                  14
                  14
                  14
                  14
                  14
                  14
                  14
                  14
                  14
                  14
                  14
                  14
                  14
                  14
                  14
                  14
                  14
                  14
                  14
                  14
                  14
                  14
                  14
                  14
                  14
                  14
                  14
                  14
                  14
                  14
                  14
                  14
                  14
                  14
                  14
                  14
                  14
                  14
                  14
                  14
                  14
                  14
                  14
                  14
                  14
                  14
                  14
                  14
                  14
                  14
                  14
                  14
                  14
                  14
                  14
                  14
                  14
                  14
                  14
                  14
                  14
                  14
                  14
                  14
                  14
                  14
                  14
                  14
                  14
                  14
                  14
                  14
                  14
                  14
                  14
                  14
                  14
                  14
                  14
                  14
                  14
                  14
                  14
                  14
                  14
                  14
                  14
                  14
                  14
                  14
                  14
                  14
                  14
                  14
                  14
                  14
                  14
                  14
                  14
                  14
                  14
                  14
                  14
                  14
                  14
                  14
                  14
                  14
                  14
                  14
                  14
                  14
                  14
                  14
                  14
                  14
                  14
                  14
                  14
                  14
                  14
                  14
                  14
                  14
                  14
                  14
                  14
                  14
                  14
                  14
                  14
                  14
                  14
                  14
                  14
                  14
                  14
                  14
                  14
                  14
                  14
                  14
                  14
                  14
                  14
                  14
                  14
                  14
                  14
                  14
                  14
                  14
                  14
                  14
                  14
                  14
                  14
                  14
                  14
                  14
                  14
                  14
                  14
                  14
                  14
                  14
                  14
                  14
                  14
                  14
                  14
                  14
                  14
                  14
                  15
                  15
                  15
                  15
                  15
                  15
                  15
                  15
                  15
                  15
                  15
                  15
                  15
                  15
                  15
                  15
                  15
                  15
                  15
                  15
                  15
                  15
                  15
                  15
                  15
                  15
                  15
                  15
                  15
                  15
                  15
                  15
                  15
                  15
                  15
                  15
                  15
                  15
                  15
                  15
                  15
                  15
                  15
                  15
                  15
                  15
                  15
                  15
                  15
                  15
                  15
                  15
                  15
                  15
                  15
                  15
                  15
                  15
                  15
                  15
                  15
                  15
                  15
                  15
                  15
                  15
                  15
                  15
                  15
                  15
                  15
                  15
                  15
                  15
                  15
                  15
                  15
                  15
                  15
                  15
                  15
                  15
                  15
                  15
                  15
                  15
                  15
                  15
                  15
                  15
                  15
                  15
                  15
                  15
                  15
                  15
                  15
                  15
                  15
                  15
                  15
                  15
                  15
                  15
                  15
                  15
                  15
                  15
                  15
                  15
                  15
                  15
                  15
                  15
                  15
                  15
                  15
                  15
                  15
                  15
                  15
                  15
                  15
                  15
                  15
                  15
                  15
                  15
                  15
                  15
                  15
                  15
                  15
                  15
                  15
                  15
                  15
                  15
                  15
                  15
                  15
                  15
                  15
                  15
                  15
                  15
                  15
                  15
                  15
                  15
                  15
                  15
                  15
                  15
                  15
                  15
                  15
                  15
                  15
                  15
                  15
                  15
                  15
                  15
                  15
                  15
                  15
                  15
                  15
                  15
                  15
                  15
                  15
                  15
                  15
                  15
                  15
                  15
                  15
                  15
                  15
                  15
                  15
                  15
                  15
                  15
                  15
                  15
                  15
                  15
                  15
                  15
                  15
                  15
                  15
                  15
                  15
                  15
                  15
                  15
                  15
                  15
                  15
                  15
                  15
                  15
                  15
                  15
                  15
                  15
                  15
                  15
                  15
                  15
                  15
                  15
                  15
                  15
                  15
                  15
                  15
                  15
                  15
                  15
                  15
                  15
                  15
                  15
                  15
                  15
                  15
                  15
                  15
                  15
                  15
                  15
                  15
                  15
                  15
                  15
                  15
                  15
                  15
                  15
                  15
                  15
                  15
                  15
                  15
                  15
                  15
                  15
                  15
                  15
                  15
                  15
                  15
                  15
                  15
                  15
                  15
                  15
                  15
                  15
                  15
                  15
                  15
                  15
                  15
                  15
                  15
                  15
                  15
                  15
                  15
                  15
                  15
                  15
                  15
                  15
                  15
                  15
                  15
                  15
                  15
                  15
                  15
                  15
                  15
                  15
                  15
                  15
                  15
                  15
                  15
                  15
                  15
                  15
                  15
                  15
                  15
                  15
                  15
                  15
                  15
                  15
                  15
                  15
                  15
                  15
                  15
                  15
                  16
                  16
                  16
                  16
                  16
                  16
                  16
                  16
                  16
                  16
                  16
                  16
                  16
                  16
                  16
                  16
                  16
                  16
                  16
                  16
                  16
                  16
                  16
                  16
                  16
                  16
                  16
                  16
                  16
                  16
                  16
                  16
                  16
                  16
                  16
                  16
                  16
                  16
                  16
                  16
                  16
                  16
                  16
                  16
                  16
                  16
                  16
                  16
                  16
                  16
                  16
                  16
                  16
                  16
                  16
                  16
                  16
                  16
                  16
                  16
                  16
                  16
                  16
                  16
                  16
                  16
                  16
                  16
                  16
                  16
                  16
                  16
                  16
                  16
                  16
                  16
                  16
                  16
                  16
                  16
                  16
                  16
                  16
                  16
                  16
                  16
                  16
                  16
                  16
                  16
                  16
                  16
                  16
                  16
                  16
                  16
                  16
                  16
                  16
                  16
                  16
                  16
                  16
                  16
                  16
                  16
                  16
                  16
                  16
                  16
                  16
                  16
                  16
                  16
                  16
                  16
                  16
                  16
                  16
                  16
                  16
                  16
                  16
                  16
                  16
                  16
                  16
                  16
                  16
                  16
                  16
                  16
                  16
                  16
                  16
                  16
                  16
                  16
                  16
                  16
                  16
                  16
                  16
                  16
                  16
                  16
                  16
                  16
                  16
                  16
                  16
                  16
                  16
                  16
                  16
                  16
                  16
                  16
                  16
                  16
                  16
                  16
                  16
                  16
                  16
                  16
                  16
                  16
                  16
                  16
                  16
                  16
                  16
                  16
                  16
                  16
                  16
                  16
                  16
                  16
                  16
                  16
                  16
                  16
                  16
                  16
                  16
                  16
                  16
                  16
                  16
                  16
                  16
                  16
                  16
                  16
                  16
                  16
                  16
                  16
                  16
                  16
                  16
                  16
                  16
                  16
                  16
                  16
                  16
                  16
                  16
                  16
                  16
                  16
                  16
                  16
                  16
                  16
                  16
                  16
                  16
                  16
                  16
                  16
                  16
                  16
                  16
                  16
                  16
                  16
                  16
                  16
                  16
                  16
                  17
                  17
                  17
                  17
                  17
                  17
                  17
                  17
                  17
                  17
                  17
                  17
                  17
                  17
                  17
                  17
                  17
                  17
                  17
                  17
                  17
                  17
                  17
                  17
                  17
                  17
                  17
                  17
                  17
                  17
                  17
                  17
                  17
                  17
                  17
                  17
                  17
                  17
                  17
                  17
                  17
                  17
                  17
                  17
                  17
                  17
                  17
                  17
                  17
                  17
                  17
                  17
                  17
                  17
                  17
                  17
                  17
                  17
                  17
                  17
                  17
                  17
                  17
                  17
                  17
                  17
                  17
                  17
                  17
                  17
                  17
                  17
                  17
                  17
                  17
                  17
                  17
                  17
                  17
                  17
                  17
                  17
                  17
                  17
                  17
                  17
                  17
                  17
                  17
                  17
                  17
                  17
                  17
                  17
                  17
                  17
                  17
                  17
                  17
                  17
                  17
                  17
                  17
                  17
                  17
                  17
                  17
                  17
                  17
                  17
                  17
                  17
                  17
                  17
                  17
                  17
                  17
                  17
                  17
                  17
                  17
                  17
                  17
                  17
                  17
                  17
                  17
                  17
                  17
                  17
                  17
                  17
                  17
                  17
                  17
                  17
                  17
                  17
                  17
                  17
                  17
                  17
                  17
                  17
                  17
                  17
                  17
                  17
                  17
                  17
                  17
                  17
                  17
                  17
                  17
                  17
                  17
                  17
                  17
                  17
                  17
                  17
                  17
                  17
                  17
                  17
                  17
                  17
                  17
                  17
                  17
                  17
                  17
                  17
                  17
                  17
                  17
                  17
                  17
                  17
                  17
                  17
                  17
                  17
                  17
                  17
                  17
                  17
                  17
                  17
                  17
                  17
                  17
                  17
                  17
                  17
                  17
                  17
                  17
                  17
                  17
                  17
                  17
                  17
                  17
                  17
                  17
                  17
                  17
                  17
                  17
                  17
                  17
                  17
                  17
                  17
                  17
                  17
                  17
                  17
                  17
                  17
                  17
                  17
                  17
                  17
                  17
                  17
                  17
                  17
                  17
                  17
                  17
                  17
                  18
                  18
                  18
                  18
                  18
                  18
                  18
                  18
                  18
                  18
                  18
                  18
                  18
                  18
                  18
                  18
                  18
                  18
                  18
                  18
                  18
                  18
                  18
                  18
                  18
                  18
                  18
                  18
                  18
                  18
                  18
                  18
                  18
                  18
                  18
                  18
                  18
                  18
                  18
                  18
                  18
                  18
                  18
                  18
                  18
                  18
                  18
                  18
                  18
                  18
                  18
                  18
                  18
                  18
                  18
                  18
                  18
                  18
                  18
                  18
                  18
                  18
                  18
                  18
                  18
                  18
                  18
                  18
                  18
                  18
                  18
                  18
                  18
                  18
                  18
                  18
                  18
                  18
                  18
                  18
                  18
                  18
                  18
                  18
                  18
                  18
                  18
                  18
                  18
                  18
                  18
                  18
                  18
                  18
                  18
                  18
                  18
                  18
                  18
                  18
                  18
                  18
                  18
                  18
                  18
                  18
                  18
                  18
                  18
                  18
                  18
                  18
                  18
                  18
                  18
                  18
                  18
                  18
                  18
                  18
                  18
                  18
                  18
                  18
                  18
                  18
                  18
                  18
                  18
                  18
                  18
                  18
                  18
                  18
                  18
                  18
                  18
                  18
                  18
                  18
                  18
                  18
                  18
                  18
                  18
                  18
                  18
                  18
                  18
                  18
                  18
                  18
                  18
                  18
                  18
                  18
  
SCALARS                 displacement_x  double 1
LOOKUP_TABLE default
         0.00000E+00
         0.00000E+00
         0.00000E+00
         0.00000E+00
         0.00000E+00
         0.00000E+00
         0.00000E+00
         0.00000E+00
         0.00000E+00
         0.00000E+00
         0.00000E+00
         0.00000E+00
         0.00000E+00
         0.00000E+00
         0.00000E+00
         0.00000E+00
         0.00000E+00
         0.00000E+00
         0.00000E+00
         0.00000E+00
         0.00000E+00
         0.00000E+00
         0.00000E+00
         0.00000E+00
         0.00000E+00
         0.00000E+00
         0.00000E+00
         0.00000E+00
         0.00000E+00
         0.00000E+00
         0.00000E+00
         0.00000E+00
         0.00000E+00
         0.00000E+00
         0.00000E+00
         0.00000E+00
         0.00000E+00
         0.00000E+00
         0.00000E+00
         0.00000E+00
         0.00000E+00
         0.00000E+00
         0.00000E+00
         0.00000E+00
         0.00000E+00
         0.00000E+00
         0.00000E+00
         0.00000E+00
         0.00000E+00
         0.00000E+00
         0.00000E+00
         0.00000E+00
         0.00000E+00
         0.00000E+00
         0.00000E+00
         0.00000E+00
         0.00000E+00
         0.00000E+00
         0.00000E+00
         0.00000E+00
         0.00000E+00
         0.00000E+00
         0.00000E+00
         0.00000E+00
         0.00000E+00
         0.00000E+00
         0.00000E+00
         0.00000E+00
         0.00000E+00
         0.00000E+00
         0.00000E+00
         0.00000E+00
         0.00000E+00
         0.00000E+00
         0.00000E+00
         0.00000E+00
         0.00000E+00
         0.00000E+00
         0.00000E+00
         0.00000E+00
         0.00000E+00
         0.00000E+00
         0.00000E+00
         0.00000E+00
         0.00000E+00
         0.00000E+00
         0.00000E+00
         0.00000E+00
         0.00000E+00
         0.00000E+00
         0.00000E+00
         0.00000E+00
         0.00000E+00
         0.00000E+00
         0.00000E+00
         0.00000E+00
         0.00000E+00
         0.00000E+00
         0.00000E+00
         0.00000E+00
         0.00000E+00
         0.00000E+00
         0.00000E+00
         0.00000E+00
         0.00000E+00
         0.00000E+00
         0.00000E+00
         0.00000E+00
         0.00000E+00
         0.00000E+00
         0.00000E+00
         0.00000E+00
         0.00000E+00
         0.00000E+00
         0.00000E+00
         0.00000E+00
         0.00000E+00
         0.00000E+00
         0.00000E+00
         0.00000E+00
         0.00000E+00
         0.00000E+00
         0.00000E+00
         0.00000E+00
         0.00000E+00
         0.00000E+00
         0.00000E+00
         0.00000E+00
         0.00000E+00
         0.00000E+00
         0.00000E+00
         0.00000E+00
         0.00000E+00
         0.00000E+00
         0.00000E+00
         0.00000E+00
         0.00000E+00
         0.00000E+00
         0.00000E+00
         0.00000E+00
         0.00000E+00
         0.00000E+00
         0.00000E+00
         0.00000E+00
         0.00000E+00
         0.00000E+00
         0.00000E+00
         0.00000E+00
         0.00000E+00
         0.00000E+00
         0.00000E+00
         0.00000E+00
         0.00000E+00
         0.00000E+00
         0.00000E+00
         0.00000E+00
         0.00000E+00
         0.00000E+00
         0.00000E+00
         0.00000E+00
         0.00000E+00
         0.00000E+00
         0.00000E+00
         0.00000E+00
         0.00000E+00
         0.00000E+00
         0.00000E+00
         0.00000E+00
         0.00000E+00
         0.00000E+00
         0.00000E+00
         0.00000E+00
         0.00000E+00
         0.00000E+00
         0.00000E+00
         0.00000E+00
         0.00000E+00
         0.00000E+00
         0.00000E+00
         0.00000E+00
         0.00000E+00
         0.00000E+00
         0.00000E+00
         0.00000E+00
         0.00000E+00
         0.00000E+00
         0.00000E+00
         0.00000E+00
         0.00000E+00
         0.00000E+00
         0.00000E+00
         0.00000E+00
         0.00000E+00
         0.00000E+00
         0.00000E+00
         0.00000E+00
         0.00000E+00
         0.00000E+00
         0.00000E+00
         0.00000E+00
         0.00000E+00
         0.00000E+00
         0.00000E+00
         0.00000E+00
         0.00000E+00
         0.00000E+00
         0.00000E+00
         0.00000E+00
         0.00000E+00
         0.00000E+00
         0.00000E+00
         0.00000E+00
         0.00000E+00
         0.00000E+00
         0.00000E+00
         0.00000E+00
         0.00000E+00
         0.00000E+00
         0.00000E+00
         0.00000E+00
         0.00000E+00
         0.00000E+00
         0.00000E+00
         0.00000E+00
         0.00000E+00
         0.00000E+00
         0.00000E+00
         0.00000E+00
         0.00000E+00
         0.00000E+00
         0.00000E+00
         0.00000E+00
         0.00000E+00
         0.00000E+00
         0.00000E+00
         0.00000E+00
         0.00000E+00
         0.00000E+00
         0.00000E+00
         0.00000E+00
         0.00000E+00
         0.00000E+00
         0.00000E+00
         0.00000E+00
         0.00000E+00
         0.00000E+00
         0.00000E+00
         0.00000E+00
         0.00000E+00
         0.00000E+00
         0.00000E+00
         0.00000E+00
         0.00000E+00
         0.00000E+00
         0.00000E+00
         0.00000E+00
         0.00000E+00
         0.00000E+00
         0.00000E+00
         0.00000E+00
         0.00000E+00
         0.00000E+00
         0.00000E+00
         0.00000E+00
         0.00000E+00
         0.00000E+00
         0.00000E+00
         0.00000E+00
         0.00000E+00
         0.00000E+00
         0.00000E+00
         0.00000E+00
         0.00000E+00
         0.00000E+00
         0.00000E+00
         0.00000E+00
         0.00000E+00
         0.00000E+00
         0.00000E+00
         0.00000E+00
         0.00000E+00
         0.00000E+00
         0.00000E+00
         0.00000E+00
         0.00000E+00
         0.00000E+00
         0.00000E+00
         0.00000E+00
         0.00000E+00
         0.00000E+00
         0.00000E+00
         0.00000E+00
         0.00000E+00
         0.00000E+00
         0.00000E+00
         0.00000E+00
         0.00000E+00
         0.00000E+00
         0.00000E+00
         0.00000E+00
         0.00000E+00
         0.00000E+00
         0.00000E+00
         0.00000E+00
         0.00000E+00
         0.00000E+00
         0.00000E+00
         0.00000E+00
         0.00000E+00
         0.00000E+00
         0.00000E+00
         0.00000E+00
         0.00000E+00
         0.00000E+00
         0.00000E+00
         0.00000E+00
         0.00000E+00
         0.00000E+00
         0.00000E+00
         0.00000E+00
         0.00000E+00
         0.00000E+00
         0.00000E+00
         0.00000E+00
         0.00000E+00
         0.00000E+00
         0.00000E+00
         0.00000E+00
         0.00000E+00
         0.00000E+00
         0.00000E+00
         0.00000E+00
         0.00000E+00
         0.00000E+00
         0.00000E+00
         0.00000E+00
         0.00000E+00
         0.00000E+00
         0.00000E+00
         0.00000E+00
         0.00000E+00
         0.00000E+00
         0.00000E+00
         0.00000E+00
         0.00000E+00
         0.00000E+00
         0.00000E+00
         0.00000E+00
         0.00000E+00
         0.00000E+00
         0.00000E+00
         0.00000E+00
         0.00000E+00
         0.00000E+00
         0.00000E+00
         0.00000E+00
         0.00000E+00
         0.00000E+00
         0.00000E+00
         0.00000E+00
         0.00000E+00
         0.00000E+00
         0.00000E+00
         0.00000E+00
         0.00000E+00
         0.00000E+00
         0.00000E+00
         0.00000E+00
         0.00000E+00
         0.00000E+00
         0.00000E+00
         0.00000E+00
         0.00000E+00
         0.00000E+00
         0.00000E+00
         0.00000E+00
         0.00000E+00
         0.00000E+00
         0.00000E+00
         0.00000E+00
         0.00000E+00
         0.00000E+00
         0.00000E+00
         0.00000E+00
         0.00000E+00
         0.00000E+00
         0.00000E+00
         0.00000E+00
         0.00000E+00
         0.00000E+00
         0.00000E+00
         0.00000E+00
         0.00000E+00
         0.00000E+00
         0.00000E+00
         0.00000E+00
         0.00000E+00
         0.00000E+00
         0.00000E+00
         0.00000E+00
         0.00000E+00
         0.00000E+00
         0.00000E+00
         0.00000E+00
         0.00000E+00
         0.00000E+00
         0.00000E+00
         0.00000E+00
         0.00000E+00
         0.00000E+00
         0.00000E+00
         0.00000E+00
         0.00000E+00
         0.00000E+00
         0.00000E+00
         0.00000E+00
         0.00000E+00
         0.00000E+00
         0.00000E+00
         0.00000E+00
         0.00000E+00
         0.00000E+00
         0.00000E+00
         0.00000E+00
         0.00000E+00
         0.00000E+00
         0.00000E+00
         0.00000E+00
         0.00000E+00
         0.00000E+00
         0.00000E+00
         0.00000E+00
         0.00000E+00
         0.00000E+00
         0.00000E+00
         0.00000E+00
         0.00000E+00
         0.00000E+00
         0.00000E+00
         0.00000E+00
         0.00000E+00
         0.00000E+00
         0.00000E+00
         0.00000E+00
         0.00000E+00
         0.00000E+00
         0.00000E+00
         0.00000E+00
         0.00000E+00
         0.00000E+00
         0.00000E+00
         0.00000E+00
         0.00000E+00
         0.00000E+00
         0.00000E+00
         0.00000E+00
         0.00000E+00
         0.00000E+00
         0.00000E+00
         0.00000E+00
         0.00000E+00
         0.00000E+00
         0.00000E+00
         0.00000E+00
         0.00000E+00
         0.00000E+00
         0.00000E+00
         0.00000E+00
         0.00000E+00
         0.00000E+00
         0.00000E+00
         0.00000E+00
         0.00000E+00
         0.00000E+00
         0.00000E+00
         0.00000E+00
         0.00000E+00
         0.00000E+00
         0.00000E+00
         0.00000E+00
         0.00000E+00
         0.00000E+00
         0.00000E+00
         0.00000E+00
         0.00000E+00
         0.00000E+00
         0.00000E+00
         0.00000E+00
         0.00000E+00
         0.00000E+00
         0.00000E+00
         0.00000E+00
         0.00000E+00
         0.00000E+00
         0.00000E+00
         0.00000E+00
         0.00000E+00
         0.00000E+00
         0.00000E+00
         0.00000E+00
         0.00000E+00
         0.00000E+00
         0.00000E+00
         0.00000E+00
         0.00000E+00
         0.00000E+00
         0.00000E+00
         0.00000E+00
         0.00000E+00
         0.00000E+00
         0.00000E+00
         0.00000E+00
         0.00000E+00
         0.00000E+00
         0.00000E+00
         0.00000E+00
         0.00000E+00
         0.00000E+00
         0.00000E+00
         0.00000E+00
         0.00000E+00
         0.00000E+00
         0.00000E+00
         0.00000E+00
         0.00000E+00
         0.00000E+00
         0.00000E+00
         0.00000E+00
         0.00000E+00
         0.00000E+00
         0.00000E+00
         0.00000E+00
         0.00000E+00
         0.00000E+00
         0.00000E+00
         0.00000E+00
         0.00000E+00
         0.00000E+00
         0.00000E+00
         0.00000E+00
         0.00000E+00
         0.00000E+00
         0.00000E+00
         0.00000E+00
         0.00000E+00
         0.00000E+00
         0.00000E+00
         0.00000E+00
         0.00000E+00
         0.00000E+00
         0.00000E+00
         0.00000E+00
         0.00000E+00
         0.00000E+00
         0.00000E+00
         0.00000E+00
         0.00000E+00
         0.00000E+00
         0.00000E+00
         0.00000E+00
         0.00000E+00
         0.00000E+00
         0.00000E+00
         0.00000E+00
         0.00000E+00
         0.00000E+00
         0.00000E+00
         0.00000E+00
         0.00000E+00
         0.00000E+00
         0.00000E+00
         0.00000E+00
         0.00000E+00
         0.00000E+00
         0.00000E+00
         0.00000E+00
         0.00000E+00
         0.00000E+00
         0.00000E+00
         0.00000E+00
         0.00000E+00
         0.00000E+00
         0.00000E+00
         0.00000E+00
         0.00000E+00
         0.00000E+00
         0.00000E+00
         0.00000E+00
         0.00000E+00
         0.00000E+00
         0.00000E+00
         0.00000E+00
         0.00000E+00
         0.00000E+00
         0.00000E+00
         0.00000E+00
         0.00000E+00
         0.00000E+00
         0.00000E+00
         0.00000E+00
         0.00000E+00
         0.00000E+00
         0.00000E+00
         0.00000E+00
         0.00000E+00
         0.00000E+00
         0.00000E+00
         0.00000E+00
         0.00000E+00
         0.00000E+00
         0.00000E+00
         0.00000E+00
         0.00000E+00
         0.00000E+00
         0.00000E+00
         0.00000E+00
         0.00000E+00
         0.00000E+00
         0.00000E+00
         0.00000E+00
         0.00000E+00
         0.00000E+00
         0.00000E+00
         0.00000E+00
         0.00000E+00
         0.00000E+00
         0.00000E+00
         0.00000E+00
         0.00000E+00
         0.00000E+00
         0.00000E+00
         0.00000E+00
         0.00000E+00
         0.00000E+00
         0.00000E+00
         0.00000E+00
         0.00000E+00
         0.00000E+00
         0.00000E+00
         0.00000E+00
         0.00000E+00
         0.00000E+00
         0.00000E+00
         0.00000E+00
         0.00000E+00
         0.00000E+00
         0.00000E+00
         0.00000E+00
         0.00000E+00
         0.00000E+00
         0.00000E+00
         0.00000E+00
         0.00000E+00
         0.00000E+00
         0.00000E+00
         0.00000E+00
         0.00000E+00
         0.00000E+00
         0.00000E+00
         0.00000E+00
         0.00000E+00
         0.00000E+00
         0.00000E+00
         0.00000E+00
         0.00000E+00
         0.00000E+00
         0.00000E+00
         0.00000E+00
         0.00000E+00
         0.00000E+00
         0.00000E+00
         0.00000E+00
         0.00000E+00
         0.00000E+00
         0.00000E+00
         0.00000E+00
         0.00000E+00
         0.00000E+00
         0.00000E+00
         0.00000E+00
         0.00000E+00
         0.00000E+00
         0.00000E+00
         0.00000E+00
         0.00000E+00
         0.00000E+00
         0.00000E+00
         0.00000E+00
         0.00000E+00
         0.00000E+00
         0.00000E+00
         0.00000E+00
         0.00000E+00
         0.00000E+00
         0.00000E+00
         0.00000E+00
         0.00000E+00
         0.00000E+00
         0.00000E+00
         0.00000E+00
         0.00000E+00
         0.00000E+00
         0.00000E+00
         0.00000E+00
         0.00000E+00
         0.00000E+00
         0.00000E+00
         0.00000E+00
         0.00000E+00
         0.00000E+00
         0.00000E+00
         0.00000E+00
         0.00000E+00
         0.00000E+00
         0.00000E+00
         0.00000E+00
         0.00000E+00
         0.00000E+00
         0.00000E+00
         0.00000E+00
         0.00000E+00
         0.00000E+00
         0.00000E+00
         0.00000E+00
         0.00000E+00
         0.00000E+00
         0.00000E+00
         0.00000E+00
         0.00000E+00
         0.00000E+00
         0.00000E+00
         0.00000E+00
         0.00000E+00
         0.00000E+00
         0.00000E+00
         0.00000E+00
         0.00000E+00
         0.00000E+00
         0.00000E+00
         0.00000E+00
         0.00000E+00
         0.00000E+00
         0.00000E+00
         0.00000E+00
         0.00000E+00
         0.00000E+00
         0.00000E+00
         0.00000E+00
         0.00000E+00
         0.00000E+00
         0.00000E+00
         0.00000E+00
         0.00000E+00
         0.00000E+00
         0.00000E+00
         0.00000E+00
         0.00000E+00
         0.00000E+00
         0.00000E+00
         0.00000E+00
         0.00000E+00
         0.00000E+00
         0.00000E+00
         0.00000E+00
         0.00000E+00
         0.00000E+00
         0.00000E+00
         0.00000E+00
         0.00000E+00
         0.00000E+00
         0.00000E+00
         0.00000E+00
         0.00000E+00
         0.00000E+00
         0.00000E+00
         0.00000E+00
         0.00000E+00
         0.00000E+00
         0.00000E+00
         0.00000E+00
         0.00000E+00
         0.00000E+00
         0.00000E+00
         0.00000E+00
         0.00000E+00
         0.00000E+00
         0.00000E+00
         0.00000E+00
         0.00000E+00
         0.00000E+00
         0.00000E+00
         0.00000E+00
         0.00000E+00
         0.00000E+00
         0.00000E+00
         0.00000E+00
         0.00000E+00
         0.00000E+00
         0.00000E+00
         0.00000E+00
         0.00000E+00
         0.00000E+00
         0.00000E+00
         0.00000E+00
         0.00000E+00
         0.00000E+00
         0.00000E+00
         0.00000E+00
         0.00000E+00
         0.00000E+00
         0.00000E+00
         0.00000E+00
         0.00000E+00
         0.00000E+00
         0.00000E+00
         0.00000E+00
         0.00000E+00
         0.00000E+00
         0.00000E+00
         0.00000E+00
         0.00000E+00
         0.00000E+00
         0.00000E+00
         0.00000E+00
         0.00000E+00
         0.00000E+00
         0.00000E+00
         0.00000E+00
         0.00000E+00
         0.00000E+00
         0.00000E+00
         0.00000E+00
         0.00000E+00
         0.00000E+00
         0.00000E+00
         0.00000E+00
         0.00000E+00
         0.00000E+00
         0.00000E+00
         0.00000E+00
         0.00000E+00
         0.00000E+00
         0.00000E+00
         0.00000E+00
         0.00000E+00
         0.00000E+00
         0.00000E+00
         0.00000E+00
         0.00000E+00
         0.00000E+00
         0.00000E+00
         0.00000E+00
         0.00000E+00
         0.00000E+00
         0.00000E+00
         0.00000E+00
         0.00000E+00
         0.00000E+00
         0.00000E+00
         0.00000E+00
         0.00000E+00
         0.00000E+00
         0.00000E+00
         0.00000E+00
         0.00000E+00
         0.00000E+00
         0.00000E+00
         0.00000E+00
         0.00000E+00
         0.00000E+00
         0.00000E+00
         0.00000E+00
         0.00000E+00
         0.00000E+00
         0.00000E+00
         0.00000E+00
         0.00000E+00
         0.00000E+00
         0.00000E+00
         0.00000E+00
         0.00000E+00
         0.00000E+00
         0.00000E+00
         0.00000E+00
         0.00000E+00
         0.00000E+00
         0.00000E+00
         0.00000E+00
         0.00000E+00
         0.00000E+00
         0.00000E+00
         0.00000E+00
         0.00000E+00
         0.00000E+00
         0.00000E+00
         0.00000E+00
         0.00000E+00
         0.00000E+00
         0.00000E+00
         0.00000E+00
         0.00000E+00
         0.00000E+00
         0.00000E+00
         0.00000E+00
         0.00000E+00
         0.00000E+00
         0.00000E+00
         0.00000E+00
         0.00000E+00
         0.00000E+00
         0.00000E+00
         0.00000E+00
         0.00000E+00
         0.00000E+00
         0.00000E+00
         0.00000E+00
         0.00000E+00
         0.00000E+00
         0.00000E+00
         0.00000E+00
         0.00000E+00
         0.00000E+00
         0.00000E+00
         0.00000E+00
         0.00000E+00
         0.00000E+00
         0.00000E+00
         0.00000E+00
         0.00000E+00
         0.00000E+00
         0.00000E+00
         0.00000E+00
         0.00000E+00
         0.00000E+00
         0.00000E+00
         0.00000E+00
         0.00000E+00
         0.00000E+00
         0.00000E+00
         0.00000E+00
         0.00000E+00
         0.00000E+00
         0.00000E+00
         0.00000E+00
         0.00000E+00
         0.00000E+00
         0.00000E+00
         0.00000E+00
         0.00000E+00
         0.00000E+00
         0.00000E+00
         0.00000E+00
         0.00000E+00
         0.00000E+00
         0.00000E+00
         0.00000E+00
         0.00000E+00
         0.00000E+00
         0.00000E+00
         0.00000E+00
         0.00000E+00
         0.00000E+00
         0.00000E+00
         0.00000E+00
         0.00000E+00
         0.00000E+00
         0.00000E+00
         0.00000E+00
         0.00000E+00
         0.00000E+00
         0.00000E+00
         0.00000E+00
         0.00000E+00
         0.00000E+00
         0.00000E+00
         0.00000E+00
         0.00000E+00
         0.00000E+00
         0.00000E+00
         0.00000E+00
         0.00000E+00
         0.00000E+00
         0.00000E+00
         0.00000E+00
         0.00000E+00
         0.00000E+00
         0.00000E+00
         0.00000E+00
         0.00000E+00
         0.00000E+00
         0.00000E+00
         0.00000E+00
         0.00000E+00
         0.00000E+00
         0.00000E+00
         0.00000E+00
         0.00000E+00
         0.00000E+00
         0.00000E+00
         0.00000E+00
         0.00000E+00
         0.00000E+00
         0.00000E+00
         0.00000E+00
         0.00000E+00
         0.00000E+00
         0.00000E+00
         0.00000E+00
         0.00000E+00
         0.00000E+00
         0.00000E+00
         0.00000E+00
         0.00000E+00
         0.00000E+00
         0.00000E+00
         0.00000E+00
         0.00000E+00
         0.00000E+00
         0.00000E+00
         0.00000E+00
         0.00000E+00
         0.00000E+00
         0.00000E+00
         0.00000E+00
         0.00000E+00
         0.00000E+00
         0.00000E+00
         0.00000E+00
         0.00000E+00
         0.00000E+00
         0.00000E+00
         0.00000E+00
         0.00000E+00
         0.00000E+00
         0.00000E+00
         0.00000E+00
         0.00000E+00
         0.00000E+00
         0.00000E+00
         0.00000E+00
         0.00000E+00
         0.00000E+00
         0.00000E+00
         0.00000E+00
         0.00000E+00
         0.00000E+00
         0.00000E+00
         0.00000E+00
         0.00000E+00
         0.00000E+00
         0.00000E+00
         0.00000E+00
         0.00000E+00
         0.00000E+00
         0.00000E+00
         0.00000E+00
         0.00000E+00
         0.00000E+00
         0.00000E+00
         0.00000E+00
         0.00000E+00
         0.00000E+00
         0.00000E+00
         0.00000E+00
         0.00000E+00
         0.00000E+00
         0.00000E+00
         0.00000E+00
         0.00000E+00
         0.00000E+00
         0.00000E+00
         0.00000E+00
         0.00000E+00
         0.00000E+00
         0.00000E+00
         0.00000E+00
         0.00000E+00
         0.00000E+00
         0.00000E+00
         0.00000E+00
         0.00000E+00
         0.00000E+00
         0.00000E+00
         0.00000E+00
         0.00000E+00
         0.00000E+00
         0.00000E+00
         0.00000E+00
         0.00000E+00
         0.00000E+00
         0.00000E+00
         0.00000E+00
         0.00000E+00
         0.00000E+00
         0.00000E+00
         0.00000E+00
         0.00000E+00
         0.00000E+00
         0.00000E+00
         0.00000E+00
         0.00000E+00
         0.00000E+00
         0.00000E+00
         0.00000E+00
         0.00000E+00
         0.00000E+00
         0.00000E+00
         0.00000E+00
         0.00000E+00
         0.00000E+00
         0.00000E+00
         0.00000E+00
         0.00000E+00
         0.00000E+00
         0.00000E+00
         0.00000E+00
         0.00000E+00
         0.00000E+00
         0.00000E+00
         0.00000E+00
         0.00000E+00
         0.00000E+00
         0.00000E+00
         0.00000E+00
         0.00000E+00
         0.00000E+00
         0.00000E+00
         0.00000E+00
         0.00000E+00
         0.00000E+00
         0.00000E+00
         0.00000E+00
         0.00000E+00
         0.00000E+00
         0.00000E+00
         0.00000E+00
         0.00000E+00
         0.00000E+00
         0.00000E+00
         0.00000E+00
         0.00000E+00
         0.00000E+00
         0.00000E+00
         0.00000E+00
         0.00000E+00
         0.00000E+00
         0.00000E+00
         0.00000E+00
         0.00000E+00
         0.00000E+00
         0.00000E+00
         0.00000E+00
         0.00000E+00
         0.00000E+00
         0.00000E+00
         0.00000E+00
         0.00000E+00
         0.00000E+00
         0.00000E+00
         0.00000E+00
         0.00000E+00
         0.00000E+00
         0.00000E+00
         0.00000E+00
         0.00000E+00
         0.00000E+00
         0.00000E+00
         0.00000E+00
         0.00000E+00
         0.00000E+00
         0.00000E+00
         0.00000E+00
         0.00000E+00
         0.00000E+00
         0.00000E+00
         0.00000E+00
         0.00000E+00
         0.00000E+00
         0.00000E+00
         0.00000E+00
         0.00000E+00
         0.00000E+00
         0.00000E+00
         0.00000E+00
         0.00000E+00
         0.00000E+00
         0.00000E+00
         0.00000E+00
         0.00000E+00
         0.00000E+00
         0.00000E+00
         0.00000E+00
         0.00000E+00
         0.00000E+00
         0.00000E+00
         0.00000E+00
         0.00000E+00
         0.00000E+00
         0.00000E+00
         0.00000E+00
         0.00000E+00
         0.00000E+00
         0.00000E+00
         0.00000E+00
         0.00000E+00
         0.00000E+00
         0.00000E+00
         0.00000E+00
         0.00000E+00
         0.00000E+00
         0.00000E+00
         0.00000E+00
         0.00000E+00
         0.00000E+00
         0.00000E+00
         0.00000E+00
         0.00000E+00
         0.00000E+00
         0.00000E+00
         0.00000E+00
         0.00000E+00
         0.00000E+00
         0.00000E+00
         0.00000E+00
         0.00000E+00
         0.00000E+00
         0.00000E+00
         0.00000E+00
         0.00000E+00
         0.00000E+00
         0.00000E+00
         0.00000E+00
         0.00000E+00
         0.00000E+00
         0.00000E+00
         0.00000E+00
         0.00000E+00
         0.00000E+00
         0.00000E+00
         0.00000E+00
         0.00000E+00
         0.00000E+00
         0.00000E+00
         0.00000E+00
         0.00000E+00
         0.00000E+00
         0.00000E+00
         0.00000E+00
         0.00000E+00
         0.00000E+00
         0.00000E+00
         0.00000E+00
         0.00000E+00
         0.00000E+00
         0.00000E+00
         0.00000E+00
         0.00000E+00
         0.00000E+00
         0.00000E+00
         0.00000E+00
         0.00000E+00
         0.00000E+00
         0.00000E+00
         0.00000E+00
         0.00000E+00
         0.00000E+00
         0.00000E+00
         0.00000E+00
         0.00000E+00
         0.00000E+00
         0.00000E+00
         0.00000E+00
         0.00000E+00
         0.00000E+00
         0.00000E+00
         0.00000E+00
         0.00000E+00
         0.00000E+00
         0.00000E+00
         0.00000E+00
         0.00000E+00
         0.00000E+00
         0.00000E+00
         0.00000E+00
         0.00000E+00
         0.00000E+00
         0.00000E+00
         0.00000E+00
         0.00000E+00
         0.00000E+00
         0.00000E+00
         0.00000E+00
         0.00000E+00
         0.00000E+00
         0.00000E+00
         0.00000E+00
         0.00000E+00
         0.00000E+00
         0.00000E+00
         0.00000E+00
         0.00000E+00
         0.00000E+00
         0.00000E+00
         0.00000E+00
         0.00000E+00
         0.00000E+00
         0.00000E+00
         0.00000E+00
         0.00000E+00
         0.00000E+00
         0.00000E+00
         0.00000E+00
         0.00000E+00
         0.00000E+00
         0.00000E+00
         0.00000E+00
         0.00000E+00
         0.00000E+00
         0.00000E+00
         0.00000E+00
         0.00000E+00
         0.00000E+00
         0.00000E+00
         0.00000E+00
         0.00000E+00
         0.00000E+00
         0.00000E+00
         0.00000E+00
         0.00000E+00
         0.00000E+00
         0.00000E+00
         0.00000E+00
         0.00000E+00
         0.00000E+00
         0.00000E+00
         0.00000E+00
         0.00000E+00
         0.00000E+00
         0.00000E+00
         0.00000E+00
         0.00000E+00
         0.00000E+00
         0.00000E+00
         0.00000E+00
         0.00000E+00
         0.00000E+00
         0.00000E+00
         0.00000E+00
         0.00000E+00
         0.00000E+00
         0.00000E+00
         0.00000E+00
         0.00000E+00
         0.00000E+00
         0.00000E+00
         0.00000E+00
         0.00000E+00
         0.00000E+00
         0.00000E+00
         0.00000E+00
         0.00000E+00
         0.00000E+00
         0.00000E+00
         0.00000E+00
         0.00000E+00
         0.00000E+00
         0.00000E+00
         0.00000E+00
         0.00000E+00
         0.00000E+00
         0.00000E+00
         0.00000E+00
         0.00000E+00
         0.00000E+00
         0.00000E+00
         0.00000E+00
         0.00000E+00
         0.00000E+00
         0.00000E+00
         0.00000E+00
         0.00000E+00
         0.00000E+00
         0.00000E+00
         0.00000E+00
         0.00000E+00
         0.00000E+00
         0.00000E+00
         0.00000E+00
         0.00000E+00
         0.00000E+00
         0.00000E+00
         0.00000E+00
         0.00000E+00
         0.00000E+00
         0.00000E+00
         0.00000E+00
         0.00000E+00
         0.00000E+00
         0.00000E+00
         0.00000E+00
         0.00000E+00
         0.00000E+00
         0.00000E+00
         0.00000E+00
         0.00000E+00
         0.00000E+00
         0.00000E+00
         0.00000E+00
         0.00000E+00
         0.00000E+00
         0.00000E+00
         0.00000E+00
         0.00000E+00
         0.00000E+00
         0.00000E+00
         0.00000E+00
         0.00000E+00
         0.00000E+00
         0.00000E+00
         0.00000E+00
         0.00000E+00
         0.00000E+00
         0.00000E+00
         0.00000E+00
         0.00000E+00
         0.00000E+00
         0.00000E+00
         0.00000E+00
         0.00000E+00
         0.00000E+00
         0.00000E+00
         0.00000E+00
         0.00000E+00
         0.00000E+00
         0.00000E+00
         0.00000E+00
         0.00000E+00
         0.00000E+00
         0.00000E+00
         0.00000E+00
         0.00000E+00
         0.00000E+00
         0.00000E+00
         0.00000E+00
         0.00000E+00
         0.00000E+00
         0.00000E+00
         0.00000E+00
         0.00000E+00
         0.00000E+00
         0.00000E+00
         0.00000E+00
         0.00000E+00
         0.00000E+00
         0.00000E+00
         0.00000E+00
         0.00000E+00
         0.00000E+00
         0.00000E+00
         0.00000E+00
         0.00000E+00
         0.00000E+00
         0.00000E+00
         0.00000E+00
         0.00000E+00
         0.00000E+00
         0.00000E+00
         0.00000E+00
         0.00000E+00
         0.00000E+00
         0.00000E+00
         0.00000E+00
         0.00000E+00
         0.00000E+00
         0.00000E+00
         0.00000E+00
         0.00000E+00
         0.00000E+00
         0.00000E+00
         0.00000E+00
         0.00000E+00
         0.00000E+00
         0.00000E+00
         0.00000E+00
         0.00000E+00
         0.00000E+00
         0.00000E+00
         0.00000E+00
         0.00000E+00
         0.00000E+00
         0.00000E+00
         0.00000E+00
         0.00000E+00
         0.00000E+00
         0.00000E+00
         0.00000E+00
         0.00000E+00
         0.00000E+00
         0.00000E+00
         0.00000E+00
         0.00000E+00
         0.00000E+00
         0.00000E+00
         0.00000E+00
         0.00000E+00
         0.00000E+00
         0.00000E+00
         0.00000E+00
         0.00000E+00
         0.00000E+00
         0.00000E+00
         0.00000E+00
         0.00000E+00
         0.00000E+00
         0.00000E+00
         0.00000E+00
         0.00000E+00
         0.00000E+00
         0.00000E+00
         0.00000E+00
         0.00000E+00
         0.00000E+00
         0.00000E+00
         0.00000E+00
         0.00000E+00
         0.00000E+00
         0.00000E+00
         0.00000E+00
         0.00000E+00
         0.00000E+00
         0.00000E+00
         0.00000E+00
         0.00000E+00
         0.00000E+00
         0.00000E+00
         0.00000E+00
         0.00000E+00
         0.00000E+00
         0.00000E+00
         0.00000E+00
         0.00000E+00
         0.00000E+00
         0.00000E+00
         0.00000E+00
         0.00000E+00
         0.00000E+00
         0.00000E+00
         0.00000E+00
         0.00000E+00
         0.00000E+00
         0.00000E+00
         0.00000E+00
         0.00000E+00
         0.00000E+00
         0.00000E+00
         0.00000E+00
         0.00000E+00
         0.00000E+00
         0.00000E+00
         0.00000E+00
         0.00000E+00
         0.00000E+00
         0.00000E+00
         0.00000E+00
         0.00000E+00
         0.00000E+00
         0.00000E+00
         0.00000E+00
         0.00000E+00
         0.00000E+00
         0.00000E+00
         0.00000E+00
         0.00000E+00
         0.00000E+00
         0.00000E+00
         0.00000E+00
         0.00000E+00
         0.00000E+00
         0.00000E+00
         0.00000E+00
         0.00000E+00
         0.00000E+00
         0.00000E+00
         0.00000E+00
         0.00000E+00
         0.00000E+00
         0.00000E+00
         0.00000E+00
         0.00000E+00
         0.00000E+00
         0.00000E+00
         0.00000E+00
         0.00000E+00
         0.00000E+00
         0.00000E+00
         0.00000E+00
         0.00000E+00
         0.00000E+00
         0.00000E+00
         0.00000E+00
         0.00000E+00
         0.00000E+00
         0.00000E+00
         0.00000E+00
         0.00000E+00
         0.00000E+00
         0.00000E+00
         0.00000E+00
         0.00000E+00
         0.00000E+00
         0.00000E+00
         0.00000E+00
         0.00000E+00
         0.00000E+00
         0.00000E+00
         0.00000E+00
         0.00000E+00
         0.00000E+00
         0.00000E+00
         0.00000E+00
         0.00000E+00
         0.00000E+00
         0.00000E+00
         0.00000E+00
         0.00000E+00
         0.00000E+00
         0.00000E+00
         0.00000E+00
         0.00000E+00
         0.00000E+00
         0.00000E+00
         0.00000E+00
         0.00000E+00
         0.00000E+00
         0.00000E+00
         0.00000E+00
         0.00000E+00
         0.00000E+00
         0.00000E+00
         0.00000E+00
         0.00000E+00
         0.00000E+00
         0.00000E+00
         0.00000E+00
         0.00000E+00
         0.00000E+00
         0.00000E+00
         0.00000E+00
         0.00000E+00
         0.00000E+00
         0.00000E+00
         0.00000E+00
         0.00000E+00
         0.00000E+00
         0.00000E+00
         0.00000E+00
         0.00000E+00
         0.00000E+00
         0.00000E+00
         0.00000E+00
         0.00000E+00
         0.00000E+00
         0.00000E+00
         0.00000E+00
         0.00000E+00
         0.00000E+00
         0.00000E+00
         0.00000E+00
         0.00000E+00
         0.00000E+00
         0.00000E+00
         0.00000E+00
         0.00000E+00
         0.00000E+00
         0.00000E+00
         0.00000E+00
         0.00000E+00
         0.00000E+00
         0.00000E+00
         0.00000E+00
         0.00000E+00
         0.00000E+00
         0.00000E+00
         0.00000E+00
         0.00000E+00
         0.00000E+00
         0.00000E+00
         0.00000E+00
         0.00000E+00
         0.00000E+00
         0.00000E+00
         0.00000E+00
         0.00000E+00
         0.00000E+00
         0.00000E+00
         0.00000E+00
         0.00000E+00
         0.00000E+00
         0.00000E+00
         0.00000E+00
         0.00000E+00
         0.00000E+00
         0.00000E+00
         0.00000E+00
         0.00000E+00
         0.00000E+00
         0.00000E+00
         0.00000E+00
         0.00000E+00
         0.00000E+00
         0.00000E+00
         0.00000E+00
         0.00000E+00
         0.00000E+00
         0.00000E+00
         0.00000E+00
         0.00000E+00
         0.00000E+00
         0.00000E+00
         0.00000E+00
         0.00000E+00
         0.00000E+00
         0.00000E+00
         0.00000E+00
         0.00000E+00
         0.00000E+00
         0.00000E+00
         0.00000E+00
         0.00000E+00
         0.00000E+00
         0.00000E+00
         0.00000E+00
         0.00000E+00
         0.00000E+00
         0.00000E+00
         0.00000E+00
         0.00000E+00
         0.00000E+00
         0.00000E+00
         0.00000E+00
         0.00000E+00
         0.00000E+00
         0.00000E+00
         0.00000E+00
         0.00000E+00
         0.00000E+00
         0.00000E+00
         0.00000E+00
         0.00000E+00
         0.00000E+00
         0.00000E+00
         0.00000E+00
         0.00000E+00
         0.00000E+00
         0.00000E+00
         0.00000E+00
         0.00000E+00
         0.00000E+00
         0.00000E+00
         0.00000E+00
         0.00000E+00
         0.00000E+00
         0.00000E+00
         0.00000E+00
         0.00000E+00
         0.00000E+00
         0.00000E+00
         0.00000E+00
         0.00000E+00
         0.00000E+00
         0.00000E+00
         0.00000E+00
         0.00000E+00
         0.00000E+00
         0.00000E+00
         0.00000E+00
         0.00000E+00
         0.00000E+00
         0.00000E+00
         0.00000E+00
         0.00000E+00
         0.00000E+00
         0.00000E+00
         0.00000E+00
         0.00000E+00
         0.00000E+00
         0.00000E+00
         0.00000E+00
         0.00000E+00
         0.00000E+00
         0.00000E+00
         0.00000E+00
         0.00000E+00
         0.00000E+00
         0.00000E+00
         0.00000E+00
         0.00000E+00
         0.00000E+00
         0.00000E+00
         0.00000E+00
         0.00000E+00
         0.00000E+00
         0.00000E+00
         0.00000E+00
         0.00000E+00
         0.00000E+00
         0.00000E+00
         0.00000E+00
         0.00000E+00
         0.00000E+00
         0.00000E+00
         0.00000E+00
         0.00000E+00
         0.00000E+00
         0.00000E+00
         0.00000E+00
         0.00000E+00
         0.00000E+00
         0.00000E+00
         0.00000E+00
         0.00000E+00
         0.00000E+00
         0.00000E+00
         0.00000E+00
         0.00000E+00
         0.00000E+00
         0.00000E+00
         0.00000E+00
         0.00000E+00
         0.00000E+00
         0.00000E+00
         0.00000E+00
         0.00000E+00
         0.00000E+00
         0.00000E+00
         0.00000E+00
         0.00000E+00
         0.00000E+00
         0.00000E+00
         0.00000E+00
         0.00000E+00
         0.00000E+00
         0.00000E+00
         0.00000E+00
         0.00000E+00
         0.00000E+00
         0.00000E+00
         0.00000E+00
         0.00000E+00
         0.00000E+00
         0.00000E+00
         0.00000E+00
         0.00000E+00
         0.00000E+00
         0.00000E+00
         0.00000E+00
         0.00000E+00
         0.00000E+00
         0.00000E+00
         0.00000E+00
         0.00000E+00
         0.00000E+00
         0.00000E+00
         0.00000E+00
         0.00000E+00
         0.00000E+00
         0.00000E+00
         0.00000E+00
         0.00000E+00
         0.00000E+00
         0.00000E+00
         0.00000E+00
         0.00000E+00
         0.00000E+00
         0.00000E+00
         0.00000E+00
         0.00000E+00
         0.00000E+00
         0.00000E+00
         0.00000E+00
         0.00000E+00
         0.00000E+00
         0.00000E+00
         0.00000E+00
         0.00000E+00
         0.00000E+00
         0.00000E+00
         0.00000E+00
         0.00000E+00
         0.00000E+00
         0.00000E+00
         0.00000E+00
         0.00000E+00
         0.00000E+00
         0.00000E+00
         0.00000E+00
         0.00000E+00
         0.00000E+00
         0.00000E+00
         0.00000E+00
         0.00000E+00
         0.00000E+00
         0.00000E+00
         0.00000E+00
         0.00000E+00
         0.00000E+00
         0.00000E+00
         0.00000E+00
         0.00000E+00
         0.00000E+00
         0.00000E+00
         0.00000E+00
         0.00000E+00
         0.00000E+00
         0.00000E+00
         0.00000E+00
         0.00000E+00
         0.00000E+00
         0.00000E+00
         0.00000E+00
         0.00000E+00
         0.00000E+00
         0.00000E+00
         0.00000E+00
         0.00000E+00
         0.00000E+00
         0.00000E+00
         0.00000E+00
         0.00000E+00
         0.00000E+00
         0.00000E+00
         0.00000E+00
         0.00000E+00
         0.00000E+00
         0.00000E+00
         0.00000E+00
         0.00000E+00
         0.00000E+00
         0.00000E+00
         0.00000E+00
         0.00000E+00
         0.00000E+00
         0.00000E+00
         0.00000E+00
         0.00000E+00
         0.00000E+00
         0.00000E+00
         0.00000E+00
         0.00000E+00
         0.00000E+00
  
SCALARS                 displacement_y  double 1
LOOKUP_TABLE default
         0.00000E+00
         0.00000E+00
         0.00000E+00
         0.00000E+00
         0.00000E+00
         0.00000E+00
         0.00000E+00
         0.00000E+00
         0.00000E+00
         0.00000E+00
         0.00000E+00
         0.00000E+00
         0.00000E+00
         0.00000E+00
         0.00000E+00
         0.00000E+00
         0.00000E+00
         0.00000E+00
         0.00000E+00
         0.00000E+00
         0.00000E+00
         0.00000E+00
         0.00000E+00
         0.00000E+00
         0.00000E+00
         0.00000E+00
         0.00000E+00
         0.00000E+00
         0.00000E+00
         0.00000E+00
         0.00000E+00
         0.00000E+00
         0.00000E+00
         0.00000E+00
         0.00000E+00
         0.00000E+00
         0.00000E+00
         0.00000E+00
         0.00000E+00
         0.00000E+00
         0.00000E+00
         0.00000E+00
         0.00000E+00
         0.00000E+00
         0.00000E+00
         0.00000E+00
         0.00000E+00
         0.00000E+00
         0.00000E+00
         0.00000E+00
         0.00000E+00
         0.00000E+00
         0.00000E+00
         0.00000E+00
         0.00000E+00
         0.00000E+00
         0.00000E+00
         0.00000E+00
         0.00000E+00
         0.00000E+00
         0.00000E+00
         0.00000E+00
         0.00000E+00
         0.00000E+00
         0.00000E+00
         0.00000E+00
         0.00000E+00
         0.00000E+00
         0.00000E+00
         0.00000E+00
         0.00000E+00
         0.00000E+00
         0.00000E+00
         0.00000E+00
         0.00000E+00
         0.00000E+00
         0.00000E+00
         0.00000E+00
         0.00000E+00
         0.00000E+00
         0.00000E+00
         0.00000E+00
         0.00000E+00
         0.00000E+00
         0.00000E+00
         0.00000E+00
         0.00000E+00
         0.00000E+00
         0.00000E+00
         0.00000E+00
         0.00000E+00
         0.00000E+00
         0.00000E+00
         0.00000E+00
         0.00000E+00
         0.00000E+00
         0.00000E+00
         0.00000E+00
         0.00000E+00
         0.00000E+00
         0.00000E+00
         0.00000E+00
         0.00000E+00
         0.00000E+00
         0.00000E+00
         0.00000E+00
         0.00000E+00
         0.00000E+00
         0.00000E+00
         0.00000E+00
         0.00000E+00
         0.00000E+00
         0.00000E+00
         0.00000E+00
         0.00000E+00
         0.00000E+00
         0.00000E+00
         0.00000E+00
         0.00000E+00
         0.00000E+00
         0.00000E+00
         0.00000E+00
         0.00000E+00
         0.00000E+00
         0.00000E+00
         0.00000E+00
         0.00000E+00
         0.00000E+00
         0.00000E+00
         0.00000E+00
         0.00000E+00
         0.00000E+00
         0.00000E+00
         0.00000E+00
         0.00000E+00
         0.00000E+00
         0.00000E+00
         0.00000E+00
         0.00000E+00
         0.00000E+00
         0.00000E+00
         0.00000E+00
         0.00000E+00
         0.00000E+00
         0.00000E+00
         0.00000E+00
         0.00000E+00
         0.00000E+00
         0.00000E+00
         0.00000E+00
         0.00000E+00
         0.00000E+00
         0.00000E+00
         0.00000E+00
         0.00000E+00
         0.00000E+00
         0.00000E+00
         0.00000E+00
         0.00000E+00
         0.00000E+00
         0.00000E+00
         0.00000E+00
         0.00000E+00
         0.00000E+00
         0.00000E+00
         0.00000E+00
         0.00000E+00
         0.00000E+00
         0.00000E+00
         0.00000E+00
         0.00000E+00
         0.00000E+00
         0.00000E+00
         0.00000E+00
         0.00000E+00
         0.00000E+00
         0.00000E+00
         0.00000E+00
         0.00000E+00
         0.00000E+00
         0.00000E+00
         0.00000E+00
         0.00000E+00
         0.00000E+00
         0.00000E+00
         0.00000E+00
         0.00000E+00
         0.00000E+00
         0.00000E+00
         0.00000E+00
         0.00000E+00
         0.00000E+00
         0.00000E+00
         0.00000E+00
         0.00000E+00
         0.00000E+00
         0.00000E+00
         0.00000E+00
         0.00000E+00
         0.00000E+00
         0.00000E+00
         0.00000E+00
         0.00000E+00
         0.00000E+00
         0.00000E+00
         0.00000E+00
         0.00000E+00
         0.00000E+00
         0.00000E+00
         0.00000E+00
         0.00000E+00
         0.00000E+00
         0.00000E+00
         0.00000E+00
         0.00000E+00
         0.00000E+00
         0.00000E+00
         0.00000E+00
         0.00000E+00
         0.00000E+00
         0.00000E+00
         0.00000E+00
         0.00000E+00
         0.00000E+00
         0.00000E+00
         0.00000E+00
         0.00000E+00
         0.00000E+00
         0.00000E+00
         0.00000E+00
         0.00000E+00
         0.00000E+00
         0.00000E+00
         0.00000E+00
         0.00000E+00
         0.00000E+00
         0.00000E+00
         0.00000E+00
         0.00000E+00
         0.00000E+00
         0.00000E+00
         0.00000E+00
         0.00000E+00
         0.00000E+00
         0.00000E+00
         0.00000E+00
         0.00000E+00
         0.00000E+00
         0.00000E+00
         0.00000E+00
         0.00000E+00
         0.00000E+00
         0.00000E+00
         0.00000E+00
         0.00000E+00
         0.00000E+00
         0.00000E+00
         0.00000E+00
         0.00000E+00
         0.00000E+00
         0.00000E+00
         0.00000E+00
         0.00000E+00
         0.00000E+00
         0.00000E+00
         0.00000E+00
         0.00000E+00
         0.00000E+00
         0.00000E+00
         0.00000E+00
         0.00000E+00
         0.00000E+00
         0.00000E+00
         0.00000E+00
         0.00000E+00
         0.00000E+00
         0.00000E+00
         0.00000E+00
         0.00000E+00
         0.00000E+00
         0.00000E+00
         0.00000E+00
         0.00000E+00
         0.00000E+00
         0.00000E+00
         0.00000E+00
         0.00000E+00
         0.00000E+00
         0.00000E+00
         0.00000E+00
         0.00000E+00
         0.00000E+00
         0.00000E+00
         0.00000E+00
         0.00000E+00
         0.00000E+00
         0.00000E+00
         0.00000E+00
         0.00000E+00
         0.00000E+00
         0.00000E+00
         0.00000E+00
         0.00000E+00
         0.00000E+00
         0.00000E+00
         0.00000E+00
         0.00000E+00
         0.00000E+00
         0.00000E+00
         0.00000E+00
         0.00000E+00
         0.00000E+00
         0.00000E+00
         0.00000E+00
         0.00000E+00
         0.00000E+00
         0.00000E+00
         0.00000E+00
         0.00000E+00
         0.00000E+00
         0.00000E+00
         0.00000E+00
         0.00000E+00
         0.00000E+00
         0.00000E+00
         0.00000E+00
         0.00000E+00
         0.00000E+00
         0.00000E+00
         0.00000E+00
         0.00000E+00
         0.00000E+00
         0.00000E+00
         0.00000E+00
         0.00000E+00
         0.00000E+00
         0.00000E+00
         0.00000E+00
         0.00000E+00
         0.00000E+00
         0.00000E+00
         0.00000E+00
         0.00000E+00
         0.00000E+00
         0.00000E+00
         0.00000E+00
         0.00000E+00
         0.00000E+00
         0.00000E+00
         0.00000E+00
         0.00000E+00
         0.00000E+00
         0.00000E+00
         0.00000E+00
         0.00000E+00
         0.00000E+00
         0.00000E+00
         0.00000E+00
         0.00000E+00
         0.00000E+00
         0.00000E+00
         0.00000E+00
         0.00000E+00
         0.00000E+00
         0.00000E+00
         0.00000E+00
         0.00000E+00
         0.00000E+00
         0.00000E+00
         0.00000E+00
         0.00000E+00
         0.00000E+00
         0.00000E+00
         0.00000E+00
         0.00000E+00
         0.00000E+00
         0.00000E+00
         0.00000E+00
         0.00000E+00
         0.00000E+00
         0.00000E+00
         0.00000E+00
         0.00000E+00
         0.00000E+00
         0.00000E+00
         0.00000E+00
         0.00000E+00
         0.00000E+00
         0.00000E+00
         0.00000E+00
         0.00000E+00
         0.00000E+00
         0.00000E+00
         0.00000E+00
         0.00000E+00
         0.00000E+00
         0.00000E+00
         0.00000E+00
         0.00000E+00
         0.00000E+00
         0.00000E+00
         0.00000E+00
         0.00000E+00
         0.00000E+00
         0.00000E+00
         0.00000E+00
         0.00000E+00
         0.00000E+00
         0.00000E+00
         0.00000E+00
         0.00000E+00
         0.00000E+00
         0.00000E+00
         0.00000E+00
         0.00000E+00
         0.00000E+00
         0.00000E+00
         0.00000E+00
         0.00000E+00
         0.00000E+00
         0.00000E+00
         0.00000E+00
         0.00000E+00
         0.00000E+00
         0.00000E+00
         0.00000E+00
         0.00000E+00
         0.00000E+00
         0.00000E+00
         0.00000E+00
         0.00000E+00
         0.00000E+00
         0.00000E+00
         0.00000E+00
         0.00000E+00
         0.00000E+00
         0.00000E+00
         0.00000E+00
         0.00000E+00
         0.00000E+00
         0.00000E+00
         0.00000E+00
         0.00000E+00
         0.00000E+00
         0.00000E+00
         0.00000E+00
         0.00000E+00
         0.00000E+00
         0.00000E+00
         0.00000E+00
         0.00000E+00
         0.00000E+00
         0.00000E+00
         0.00000E+00
         0.00000E+00
         0.00000E+00
         0.00000E+00
         0.00000E+00
         0.00000E+00
         0.00000E+00
         0.00000E+00
         0.00000E+00
         0.00000E+00
         0.00000E+00
         0.00000E+00
         0.00000E+00
         0.00000E+00
         0.00000E+00
         0.00000E+00
         0.00000E+00
         0.00000E+00
         0.00000E+00
         0.00000E+00
         0.00000E+00
         0.00000E+00
         0.00000E+00
         0.00000E+00
         0.00000E+00
         0.00000E+00
         0.00000E+00
         0.00000E+00
         0.00000E+00
         0.00000E+00
         0.00000E+00
         0.00000E+00
         0.00000E+00
         0.00000E+00
         0.00000E+00
         0.00000E+00
         0.00000E+00
         0.00000E+00
         0.00000E+00
         0.00000E+00
         0.00000E+00
         0.00000E+00
         0.00000E+00
         0.00000E+00
         0.00000E+00
         0.00000E+00
         0.00000E+00
         0.00000E+00
         0.00000E+00
         0.00000E+00
         0.00000E+00
         0.00000E+00
         0.00000E+00
         0.00000E+00
         0.00000E+00
         0.00000E+00
         0.00000E+00
         0.00000E+00
         0.00000E+00
         0.00000E+00
         0.00000E+00
         0.00000E+00
         0.00000E+00
         0.00000E+00
         0.00000E+00
         0.00000E+00
         0.00000E+00
         0.00000E+00
         0.00000E+00
         0.00000E+00
         0.00000E+00
         0.00000E+00
         0.00000E+00
         0.00000E+00
         0.00000E+00
         0.00000E+00
         0.00000E+00
         0.00000E+00
         0.00000E+00
         0.00000E+00
         0.00000E+00
         0.00000E+00
         0.00000E+00
         0.00000E+00
         0.00000E+00
         0.00000E+00
         0.00000E+00
         0.00000E+00
         0.00000E+00
         0.00000E+00
         0.00000E+00
         0.00000E+00
         0.00000E+00
         0.00000E+00
         0.00000E+00
         0.00000E+00
         0.00000E+00
         0.00000E+00
         0.00000E+00
         0.00000E+00
         0.00000E+00
         0.00000E+00
         0.00000E+00
         0.00000E+00
         0.00000E+00
         0.00000E+00
         0.00000E+00
         0.00000E+00
         0.00000E+00
         0.00000E+00
         0.00000E+00
         0.00000E+00
         0.00000E+00
         0.00000E+00
         0.00000E+00
         0.00000E+00
         0.00000E+00
         0.00000E+00
         0.00000E+00
         0.00000E+00
         0.00000E+00
         0.00000E+00
         0.00000E+00
         0.00000E+00
         0.00000E+00
         0.00000E+00
         0.00000E+00
         0.00000E+00
         0.00000E+00
         0.00000E+00
         0.00000E+00
         0.00000E+00
         0.00000E+00
         0.00000E+00
         0.00000E+00
         0.00000E+00
         0.00000E+00
         0.00000E+00
         0.00000E+00
         0.00000E+00
         0.00000E+00
         0.00000E+00
         0.00000E+00
         0.00000E+00
         0.00000E+00
         0.00000E+00
         0.00000E+00
         0.00000E+00
         0.00000E+00
         0.00000E+00
         0.00000E+00
         0.00000E+00
         0.00000E+00
         0.00000E+00
         0.00000E+00
         0.00000E+00
         0.00000E+00
         0.00000E+00
         0.00000E+00
         0.00000E+00
         0.00000E+00
         0.00000E+00
         0.00000E+00
         0.00000E+00
         0.00000E+00
         0.00000E+00
         0.00000E+00
         0.00000E+00
         0.00000E+00
         0.00000E+00
         0.00000E+00
         0.00000E+00
         0.00000E+00
         0.00000E+00
         0.00000E+00
         0.00000E+00
         0.00000E+00
         0.00000E+00
         0.00000E+00
         0.00000E+00
         0.00000E+00
         0.00000E+00
         0.00000E+00
         0.00000E+00
         0.00000E+00
         0.00000E+00
         0.00000E+00
         0.00000E+00
         0.00000E+00
         0.00000E+00
         0.00000E+00
         0.00000E+00
         0.00000E+00
         0.00000E+00
         0.00000E+00
         0.00000E+00
         0.00000E+00
         0.00000E+00
         0.00000E+00
         0.00000E+00
         0.00000E+00
         0.00000E+00
         0.00000E+00
         0.00000E+00
         0.00000E+00
         0.00000E+00
         0.00000E+00
         0.00000E+00
         0.00000E+00
         0.00000E+00
         0.00000E+00
         0.00000E+00
         0.00000E+00
         0.00000E+00
         0.00000E+00
         0.00000E+00
         0.00000E+00
         0.00000E+00
         0.00000E+00
         0.00000E+00
         0.00000E+00
         0.00000E+00
         0.00000E+00
         0.00000E+00
         0.00000E+00
         0.00000E+00
         0.00000E+00
         0.00000E+00
         0.00000E+00
         0.00000E+00
         0.00000E+00
         0.00000E+00
         0.00000E+00
         0.00000E+00
         0.00000E+00
         0.00000E+00
         0.00000E+00
         0.00000E+00
         0.00000E+00
         0.00000E+00
         0.00000E+00
         0.00000E+00
         0.00000E+00
         0.00000E+00
         0.00000E+00
         0.00000E+00
         0.00000E+00
         0.00000E+00
         0.00000E+00
         0.00000E+00
         0.00000E+00
         0.00000E+00
         0.00000E+00
         0.00000E+00
         0.00000E+00
         0.00000E+00
         0.00000E+00
         0.00000E+00
         0.00000E+00
         0.00000E+00
         0.00000E+00
         0.00000E+00
         0.00000E+00
         0.00000E+00
         0.00000E+00
         0.00000E+00
         0.00000E+00
         0.00000E+00
         0.00000E+00
         0.00000E+00
         0.00000E+00
         0.00000E+00
         0.00000E+00
         0.00000E+00
         0.00000E+00
         0.00000E+00
         0.00000E+00
         0.00000E+00
         0.00000E+00
         0.00000E+00
         0.00000E+00
         0.00000E+00
         0.00000E+00
         0.00000E+00
         0.00000E+00
         0.00000E+00
         0.00000E+00
         0.00000E+00
         0.00000E+00
         0.00000E+00
         0.00000E+00
         0.00000E+00
         0.00000E+00
         0.00000E+00
         0.00000E+00
         0.00000E+00
         0.00000E+00
         0.00000E+00
         0.00000E+00
         0.00000E+00
         0.00000E+00
         0.00000E+00
         0.00000E+00
         0.00000E+00
         0.00000E+00
         0.00000E+00
         0.00000E+00
         0.00000E+00
         0.00000E+00
         0.00000E+00
         0.00000E+00
         0.00000E+00
         0.00000E+00
         0.00000E+00
         0.00000E+00
         0.00000E+00
         0.00000E+00
         0.00000E+00
         0.00000E+00
         0.00000E+00
         0.00000E+00
         0.00000E+00
         0.00000E+00
         0.00000E+00
         0.00000E+00
         0.00000E+00
         0.00000E+00
         0.00000E+00
         0.00000E+00
         0.00000E+00
         0.00000E+00
         0.00000E+00
         0.00000E+00
         0.00000E+00
         0.00000E+00
         0.00000E+00
         0.00000E+00
         0.00000E+00
         0.00000E+00
         0.00000E+00
         0.00000E+00
         0.00000E+00
         0.00000E+00
         0.00000E+00
         0.00000E+00
         0.00000E+00
         0.00000E+00
         0.00000E+00
         0.00000E+00
         0.00000E+00
         0.00000E+00
         0.00000E+00
         0.00000E+00
         0.00000E+00
         0.00000E+00
         0.00000E+00
         0.00000E+00
         0.00000E+00
         0.00000E+00
         0.00000E+00
         0.00000E+00
         0.00000E+00
         0.00000E+00
         0.00000E+00
         0.00000E+00
         0.00000E+00
         0.00000E+00
         0.00000E+00
         0.00000E+00
         0.00000E+00
         0.00000E+00
         0.00000E+00
         0.00000E+00
         0.00000E+00
         0.00000E+00
         0.00000E+00
         0.00000E+00
         0.00000E+00
         0.00000E+00
         0.00000E+00
         0.00000E+00
         0.00000E+00
         0.00000E+00
         0.00000E+00
         0.00000E+00
         0.00000E+00
         0.00000E+00
         0.00000E+00
         0.00000E+00
         0.00000E+00
         0.00000E+00
         0.00000E+00
         0.00000E+00
         0.00000E+00
         0.00000E+00
         0.00000E+00
         0.00000E+00
         0.00000E+00
         0.00000E+00
         0.00000E+00
         0.00000E+00
         0.00000E+00
         0.00000E+00
         0.00000E+00
         0.00000E+00
         0.00000E+00
         0.00000E+00
         0.00000E+00
         0.00000E+00
         0.00000E+00
         0.00000E+00
         0.00000E+00
         0.00000E+00
         0.00000E+00
         0.00000E+00
         0.00000E+00
         0.00000E+00
         0.00000E+00
         0.00000E+00
         0.00000E+00
         0.00000E+00
         0.00000E+00
         0.00000E+00
         0.00000E+00
         0.00000E+00
         0.00000E+00
         0.00000E+00
         0.00000E+00
         0.00000E+00
         0.00000E+00
         0.00000E+00
         0.00000E+00
         0.00000E+00
         0.00000E+00
         0.00000E+00
         0.00000E+00
         0.00000E+00
         0.00000E+00
         0.00000E+00
         0.00000E+00
         0.00000E+00
         0.00000E+00
         0.00000E+00
         0.00000E+00
         0.00000E+00
         0.00000E+00
         0.00000E+00
         0.00000E+00
         0.00000E+00
         0.00000E+00
         0.00000E+00
         0.00000E+00
         0.00000E+00
         0.00000E+00
         0.00000E+00
         0.00000E+00
         0.00000E+00
         0.00000E+00
         0.00000E+00
         0.00000E+00
         0.00000E+00
         0.00000E+00
         0.00000E+00
         0.00000E+00
         0.00000E+00
         0.00000E+00
         0.00000E+00
         0.00000E+00
         0.00000E+00
         0.00000E+00
         0.00000E+00
         0.00000E+00
         0.00000E+00
         0.00000E+00
         0.00000E+00
         0.00000E+00
         0.00000E+00
         0.00000E+00
         0.00000E+00
         0.00000E+00
         0.00000E+00
         0.00000E+00
         0.00000E+00
         0.00000E+00
         0.00000E+00
         0.00000E+00
         0.00000E+00
         0.00000E+00
         0.00000E+00
         0.00000E+00
         0.00000E+00
         0.00000E+00
         0.00000E+00
         0.00000E+00
         0.00000E+00
         0.00000E+00
         0.00000E+00
         0.00000E+00
         0.00000E+00
         0.00000E+00
         0.00000E+00
         0.00000E+00
         0.00000E+00
         0.00000E+00
         0.00000E+00
         0.00000E+00
         0.00000E+00
         0.00000E+00
         0.00000E+00
         0.00000E+00
         0.00000E+00
         0.00000E+00
         0.00000E+00
         0.00000E+00
         0.00000E+00
         0.00000E+00
         0.00000E+00
         0.00000E+00
         0.00000E+00
         0.00000E+00
         0.00000E+00
         0.00000E+00
         0.00000E+00
         0.00000E+00
         0.00000E+00
         0.00000E+00
         0.00000E+00
         0.00000E+00
         0.00000E+00
         0.00000E+00
         0.00000E+00
         0.00000E+00
         0.00000E+00
         0.00000E+00
         0.00000E+00
         0.00000E+00
         0.00000E+00
         0.00000E+00
         0.00000E+00
         0.00000E+00
         0.00000E+00
         0.00000E+00
         0.00000E+00
         0.00000E+00
         0.00000E+00
         0.00000E+00
         0.00000E+00
         0.00000E+00
         0.00000E+00
         0.00000E+00
         0.00000E+00
         0.00000E+00
         0.00000E+00
         0.00000E+00
         0.00000E+00
         0.00000E+00
         0.00000E+00
         0.00000E+00
         0.00000E+00
         0.00000E+00
         0.00000E+00
         0.00000E+00
         0.00000E+00
         0.00000E+00
         0.00000E+00
         0.00000E+00
         0.00000E+00
         0.00000E+00
         0.00000E+00
         0.00000E+00
         0.00000E+00
         0.00000E+00
         0.00000E+00
         0.00000E+00
         0.00000E+00
         0.00000E+00
         0.00000E+00
         0.00000E+00
         0.00000E+00
         0.00000E+00
         0.00000E+00
         0.00000E+00
         0.00000E+00
         0.00000E+00
         0.00000E+00
         0.00000E+00
         0.00000E+00
         0.00000E+00
         0.00000E+00
         0.00000E+00
         0.00000E+00
         0.00000E+00
         0.00000E+00
         0.00000E+00
         0.00000E+00
         0.00000E+00
         0.00000E+00
         0.00000E+00
         0.00000E+00
         0.00000E+00
         0.00000E+00
         0.00000E+00
         0.00000E+00
         0.00000E+00
         0.00000E+00
         0.00000E+00
         0.00000E+00
         0.00000E+00
         0.00000E+00
         0.00000E+00
         0.00000E+00
         0.00000E+00
         0.00000E+00
         0.00000E+00
         0.00000E+00
         0.00000E+00
         0.00000E+00
         0.00000E+00
         0.00000E+00
         0.00000E+00
         0.00000E+00
         0.00000E+00
         0.00000E+00
         0.00000E+00
         0.00000E+00
         0.00000E+00
         0.00000E+00
         0.00000E+00
         0.00000E+00
         0.00000E+00
         0.00000E+00
         0.00000E+00
         0.00000E+00
         0.00000E+00
         0.00000E+00
         0.00000E+00
         0.00000E+00
         0.00000E+00
         0.00000E+00
         0.00000E+00
         0.00000E+00
         0.00000E+00
         0.00000E+00
         0.00000E+00
         0.00000E+00
         0.00000E+00
         0.00000E+00
         0.00000E+00
         0.00000E+00
         0.00000E+00
         0.00000E+00
         0.00000E+00
         0.00000E+00
         0.00000E+00
         0.00000E+00
         0.00000E+00
         0.00000E+00
         0.00000E+00
         0.00000E+00
         0.00000E+00
         0.00000E+00
         0.00000E+00
         0.00000E+00
         0.00000E+00
         0.00000E+00
         0.00000E+00
         0.00000E+00
         0.00000E+00
         0.00000E+00
         0.00000E+00
         0.00000E+00
         0.00000E+00
         0.00000E+00
         0.00000E+00
         0.00000E+00
         0.00000E+00
         0.00000E+00
         0.00000E+00
         0.00000E+00
         0.00000E+00
         0.00000E+00
         0.00000E+00
         0.00000E+00
         0.00000E+00
         0.00000E+00
         0.00000E+00
         0.00000E+00
         0.00000E+00
         0.00000E+00
         0.00000E+00
         0.00000E+00
         0.00000E+00
         0.00000E+00
         0.00000E+00
         0.00000E+00
         0.00000E+00
         0.00000E+00
         0.00000E+00
         0.00000E+00
         0.00000E+00
         0.00000E+00
         0.00000E+00
         0.00000E+00
         0.00000E+00
         0.00000E+00
         0.00000E+00
         0.00000E+00
         0.00000E+00
         0.00000E+00
         0.00000E+00
         0.00000E+00
         0.00000E+00
         0.00000E+00
         0.00000E+00
         0.00000E+00
         0.00000E+00
         0.00000E+00
         0.00000E+00
         0.00000E+00
         0.00000E+00
         0.00000E+00
         0.00000E+00
         0.00000E+00
         0.00000E+00
         0.00000E+00
         0.00000E+00
         0.00000E+00
         0.00000E+00
         0.00000E+00
         0.00000E+00
         0.00000E+00
         0.00000E+00
         0.00000E+00
         0.00000E+00
         0.00000E+00
         0.00000E+00
         0.00000E+00
         0.00000E+00
         0.00000E+00
         0.00000E+00
         0.00000E+00
         0.00000E+00
         0.00000E+00
         0.00000E+00
         0.00000E+00
         0.00000E+00
         0.00000E+00
         0.00000E+00
         0.00000E+00
         0.00000E+00
         0.00000E+00
         0.00000E+00
         0.00000E+00
         0.00000E+00
         0.00000E+00
         0.00000E+00
         0.00000E+00
         0.00000E+00
         0.00000E+00
         0.00000E+00
         0.00000E+00
         0.00000E+00
         0.00000E+00
         0.00000E+00
         0.00000E+00
         0.00000E+00
         0.00000E+00
         0.00000E+00
         0.00000E+00
         0.00000E+00
         0.00000E+00
         0.00000E+00
         0.00000E+00
         0.00000E+00
         0.00000E+00
         0.00000E+00
         0.00000E+00
         0.00000E+00
         0.00000E+00
         0.00000E+00
         0.00000E+00
         0.00000E+00
         0.00000E+00
         0.00000E+00
         0.00000E+00
         0.00000E+00
         0.00000E+00
         0.00000E+00
         0.00000E+00
         0.00000E+00
         0.00000E+00
         0.00000E+00
         0.00000E+00
         0.00000E+00
         0.00000E+00
         0.00000E+00
         0.00000E+00
         0.00000E+00
         0.00000E+00
         0.00000E+00
         0.00000E+00
         0.00000E+00
         0.00000E+00
         0.00000E+00
         0.00000E+00
         0.00000E+00
         0.00000E+00
         0.00000E+00
         0.00000E+00
         0.00000E+00
         0.00000E+00
         0.00000E+00
         0.00000E+00
         0.00000E+00
         0.00000E+00
         0.00000E+00
         0.00000E+00
         0.00000E+00
         0.00000E+00
         0.00000E+00
         0.00000E+00
         0.00000E+00
         0.00000E+00
         0.00000E+00
         0.00000E+00
         0.00000E+00
         0.00000E+00
         0.00000E+00
         0.00000E+00
         0.00000E+00
         0.00000E+00
         0.00000E+00
         0.00000E+00
         0.00000E+00
         0.00000E+00
         0.00000E+00
         0.00000E+00
         0.00000E+00
         0.00000E+00
         0.00000E+00
         0.00000E+00
         0.00000E+00
         0.00000E+00
         0.00000E+00
         0.00000E+00
         0.00000E+00
         0.00000E+00
         0.00000E+00
         0.00000E+00
         0.00000E+00
         0.00000E+00
         0.00000E+00
         0.00000E+00
         0.00000E+00
         0.00000E+00
         0.00000E+00
         0.00000E+00
         0.00000E+00
         0.00000E+00
         0.00000E+00
         0.00000E+00
         0.00000E+00
         0.00000E+00
         0.00000E+00
         0.00000E+00
         0.00000E+00
         0.00000E+00
         0.00000E+00
         0.00000E+00
         0.00000E+00
         0.00000E+00
         0.00000E+00
         0.00000E+00
         0.00000E+00
         0.00000E+00
         0.00000E+00
         0.00000E+00
         0.00000E+00
         0.00000E+00
         0.00000E+00
         0.00000E+00
         0.00000E+00
         0.00000E+00
         0.00000E+00
         0.00000E+00
         0.00000E+00
         0.00000E+00
         0.00000E+00
         0.00000E+00
         0.00000E+00
         0.00000E+00
         0.00000E+00
         0.00000E+00
         0.00000E+00
         0.00000E+00
         0.00000E+00
         0.00000E+00
         0.00000E+00
         0.00000E+00
         0.00000E+00
         0.00000E+00
         0.00000E+00
         0.00000E+00
         0.00000E+00
         0.00000E+00
         0.00000E+00
         0.00000E+00
         0.00000E+00
         0.00000E+00
         0.00000E+00
         0.00000E+00
         0.00000E+00
         0.00000E+00
         0.00000E+00
         0.00000E+00
         0.00000E+00
         0.00000E+00
         0.00000E+00
         0.00000E+00
         0.00000E+00
         0.00000E+00
         0.00000E+00
         0.00000E+00
         0.00000E+00
         0.00000E+00
         0.00000E+00
         0.00000E+00
         0.00000E+00
         0.00000E+00
         0.00000E+00
         0.00000E+00
         0.00000E+00
         0.00000E+00
         0.00000E+00
         0.00000E+00
         0.00000E+00
         0.00000E+00
         0.00000E+00
         0.00000E+00
         0.00000E+00
         0.00000E+00
         0.00000E+00
         0.00000E+00
         0.00000E+00
         0.00000E+00
         0.00000E+00
         0.00000E+00
         0.00000E+00
         0.00000E+00
         0.00000E+00
         0.00000E+00
         0.00000E+00
         0.00000E+00
         0.00000E+00
         0.00000E+00
         0.00000E+00
         0.00000E+00
         0.00000E+00
         0.00000E+00
         0.00000E+00
         0.00000E+00
         0.00000E+00
         0.00000E+00
         0.00000E+00
         0.00000E+00
         0.00000E+00
         0.00000E+00
         0.00000E+00
         0.00000E+00
         0.00000E+00
         0.00000E+00
         0.00000E+00
         0.00000E+00
         0.00000E+00
         0.00000E+00
         0.00000E+00
         0.00000E+00
         0.00000E+00
         0.00000E+00
         0.00000E+00
         0.00000E+00
         0.00000E+00
         0.00000E+00
         0.00000E+00
         0.00000E+00
         0.00000E+00
         0.00000E+00
         0.00000E+00
         0.00000E+00
         0.00000E+00
         0.00000E+00
         0.00000E+00
         0.00000E+00
         0.00000E+00
         0.00000E+00
         0.00000E+00
         0.00000E+00
         0.00000E+00
         0.00000E+00
         0.00000E+00
         0.00000E+00
         0.00000E+00
         0.00000E+00
         0.00000E+00
         0.00000E+00
         0.00000E+00
         0.00000E+00
         0.00000E+00
         0.00000E+00
         0.00000E+00
         0.00000E+00
         0.00000E+00
         0.00000E+00
         0.00000E+00
         0.00000E+00
         0.00000E+00
         0.00000E+00
         0.00000E+00
         0.00000E+00
         0.00000E+00
         0.00000E+00
         0.00000E+00
         0.00000E+00
         0.00000E+00
         0.00000E+00
         0.00000E+00
         0.00000E+00
         0.00000E+00
         0.00000E+00
         0.00000E+00
         0.00000E+00
         0.00000E+00
         0.00000E+00
         0.00000E+00
         0.00000E+00
         0.00000E+00
         0.00000E+00
         0.00000E+00
         0.00000E+00
         0.00000E+00
         0.00000E+00
         0.00000E+00
         0.00000E+00
         0.00000E+00
         0.00000E+00
         0.00000E+00
         0.00000E+00
         0.00000E+00
         0.00000E+00
         0.00000E+00
         0.00000E+00
         0.00000E+00
         0.00000E+00
         0.00000E+00
         0.00000E+00
         0.00000E+00
         0.00000E+00
         0.00000E+00
         0.00000E+00
         0.00000E+00
         0.00000E+00
         0.00000E+00
         0.00000E+00
         0.00000E+00
         0.00000E+00
         0.00000E+00
         0.00000E+00
         0.00000E+00
         0.00000E+00
         0.00000E+00
         0.00000E+00
         0.00000E+00
         0.00000E+00
         0.00000E+00
         0.00000E+00
         0.00000E+00
         0.00000E+00
         0.00000E+00
         0.00000E+00
         0.00000E+00
         0.00000E+00
         0.00000E+00
         0.00000E+00
         0.00000E+00
         0.00000E+00
         0.00000E+00
         0.00000E+00
         0.00000E+00
         0.00000E+00
         0.00000E+00
         0.00000E+00
         0.00000E+00
         0.00000E+00
         0.00000E+00
         0.00000E+00
         0.00000E+00
         0.00000E+00
         0.00000E+00
         0.00000E+00
         0.00000E+00
         0.00000E+00
         0.00000E+00
         0.00000E+00
         0.00000E+00
         0.00000E+00
         0.00000E+00
         0.00000E+00
         0.00000E+00
         0.00000E+00
         0.00000E+00
         0.00000E+00
         0.00000E+00
         0.00000E+00
         0.00000E+00
         0.00000E+00
         0.00000E+00
         0.00000E+00
         0.00000E+00
         0.00000E+00
         0.00000E+00
         0.00000E+00
         0.00000E+00
         0.00000E+00
         0.00000E+00
         0.00000E+00
         0.00000E+00
         0.00000E+00
         0.00000E+00
         0.00000E+00
         0.00000E+00
         0.00000E+00
         0.00000E+00
         0.00000E+00
         0.00000E+00
         0.00000E+00
         0.00000E+00
         0.00000E+00
         0.00000E+00
         0.00000E+00
         0.00000E+00
         0.00000E+00
         0.00000E+00
         0.00000E+00
         0.00000E+00
         0.00000E+00
         0.00000E+00
         0.00000E+00
         0.00000E+00
         0.00000E+00
         0.00000E+00
         0.00000E+00
         0.00000E+00
         0.00000E+00
         0.00000E+00
         0.00000E+00
         0.00000E+00
         0.00000E+00
         0.00000E+00
         0.00000E+00
         0.00000E+00
         0.00000E+00
         0.00000E+00
         0.00000E+00
         0.00000E+00
         0.00000E+00
         0.00000E+00
         0.00000E+00
         0.00000E+00
         0.00000E+00
         0.00000E+00
         0.00000E+00
         0.00000E+00
         0.00000E+00
         0.00000E+00
         0.00000E+00
         0.00000E+00
         0.00000E+00
         0.00000E+00
         0.00000E+00
         0.00000E+00
         0.00000E+00
         0.00000E+00
         0.00000E+00
         0.00000E+00
         0.00000E+00
         0.00000E+00
         0.00000E+00
         0.00000E+00
         0.00000E+00
         0.00000E+00
         0.00000E+00
         0.00000E+00
         0.00000E+00
         0.00000E+00
         0.00000E+00
         0.00000E+00
         0.00000E+00
         0.00000E+00
         0.00000E+00
         0.00000E+00
         0.00000E+00
         0.00000E+00
         0.00000E+00
         0.00000E+00
         0.00000E+00
         0.00000E+00
         0.00000E+00
         0.00000E+00
         0.00000E+00
         0.00000E+00
         0.00000E+00
         0.00000E+00
         0.00000E+00
         0.00000E+00
         0.00000E+00
         0.00000E+00
         0.00000E+00
         0.00000E+00
         0.00000E+00
         0.00000E+00
         0.00000E+00
         0.00000E+00
         0.00000E+00
         0.00000E+00
         0.00000E+00
         0.00000E+00
         0.00000E+00
         0.00000E+00
         0.00000E+00
         0.00000E+00
         0.00000E+00
         0.00000E+00
         0.00000E+00
         0.00000E+00
         0.00000E+00
         0.00000E+00
         0.00000E+00
         0.00000E+00
         0.00000E+00
         0.00000E+00
         0.00000E+00
         0.00000E+00
         0.00000E+00
         0.00000E+00
         0.00000E+00
         0.00000E+00
         0.00000E+00
         0.00000E+00
         0.00000E+00
         0.00000E+00
         0.00000E+00
         0.00000E+00
         0.00000E+00
         0.00000E+00
         0.00000E+00
         0.00000E+00
         0.00000E+00
         0.00000E+00
         0.00000E+00
         0.00000E+00
         0.00000E+00
         0.00000E+00
         0.00000E+00
         0.00000E+00
         0.00000E+00
         0.00000E+00
         0.00000E+00
         0.00000E+00
         0.00000E+00
         0.00000E+00
         0.00000E+00
         0.00000E+00
         0.00000E+00
         0.00000E+00
         0.00000E+00
         0.00000E+00
         0.00000E+00
         0.00000E+00
         0.00000E+00
         0.00000E+00
         0.00000E+00
         0.00000E+00
         0.00000E+00
         0.00000E+00
         0.00000E+00
         0.00000E+00
         0.00000E+00
         0.00000E+00
         0.00000E+00
         0.00000E+00
         0.00000E+00
         0.00000E+00
         0.00000E+00
         0.00000E+00
         0.00000E+00
         0.00000E+00
         0.00000E+00
         0.00000E+00
         0.00000E+00
         0.00000E+00
         0.00000E+00
         0.00000E+00
         0.00000E+00
         0.00000E+00
         0.00000E+00
         0.00000E+00
         0.00000E+00
         0.00000E+00
         0.00000E+00
         0.00000E+00
         0.00000E+00
         0.00000E+00
         0.00000E+00
         0.00000E+00
         0.00000E+00
         0.00000E+00
         0.00000E+00
         0.00000E+00
         0.00000E+00
         0.00000E+00
         0.00000E+00
         0.00000E+00
         0.00000E+00
         0.00000E+00
         0.00000E+00
         0.00000E+00
         0.00000E+00
         0.00000E+00
         0.00000E+00
         0.00000E+00
         0.00000E+00
         0.00000E+00
         0.00000E+00
         0.00000E+00
         0.00000E+00
         0.00000E+00
         0.00000E+00
         0.00000E+00
         0.00000E+00
         0.00000E+00
         0.00000E+00
         0.00000E+00
         0.00000E+00
         0.00000E+00
         0.00000E+00
         0.00000E+00
         0.00000E+00
         0.00000E+00
         0.00000E+00
         0.00000E+00
         0.00000E+00
         0.00000E+00
         0.00000E+00
         0.00000E+00
         0.00000E+00
         0.00000E+00
         0.00000E+00
         0.00000E+00
         0.00000E+00
         0.00000E+00
         0.00000E+00
         0.00000E+00
         0.00000E+00
         0.00000E+00
         0.00000E+00
         0.00000E+00
         0.00000E+00
         0.00000E+00
         0.00000E+00
         0.00000E+00
         0.00000E+00
         0.00000E+00
         0.00000E+00
         0.00000E+00
         0.00000E+00
         0.00000E+00
         0.00000E+00
         0.00000E+00
         0.00000E+00
         0.00000E+00
         0.00000E+00
         0.00000E+00
         0.00000E+00
         0.00000E+00
         0.00000E+00
         0.00000E+00
         0.00000E+00
         0.00000E+00
         0.00000E+00
         0.00000E+00
         0.00000E+00
         0.00000E+00
         0.00000E+00
         0.00000E+00
         0.00000E+00
         0.00000E+00
         0.00000E+00
         0.00000E+00
         0.00000E+00
         0.00000E+00
         0.00000E+00
         0.00000E+00
         0.00000E+00
         0.00000E+00
         0.00000E+00
         0.00000E+00
         0.00000E+00
         0.00000E+00
         0.00000E+00
         0.00000E+00
         0.00000E+00
         0.00000E+00
         0.00000E+00
         0.00000E+00
         0.00000E+00
         0.00000E+00
         0.00000E+00
         0.00000E+00
         0.00000E+00
         0.00000E+00
         0.00000E+00
         0.00000E+00
         0.00000E+00
         0.00000E+00
         0.00000E+00
         0.00000E+00
         0.00000E+00
         0.00000E+00
         0.00000E+00
         0.00000E+00
         0.00000E+00
         0.00000E+00
         0.00000E+00
         0.00000E+00
         0.00000E+00
         0.00000E+00
         0.00000E+00
         0.00000E+00
         0.00000E+00
         0.00000E+00
         0.00000E+00
         0.00000E+00
         0.00000E+00
         0.00000E+00
         0.00000E+00
         0.00000E+00
         0.00000E+00
         0.00000E+00
         0.00000E+00
         0.00000E+00
         0.00000E+00
         0.00000E+00
         0.00000E+00
         0.00000E+00
         0.00000E+00
         0.00000E+00
         0.00000E+00
         0.00000E+00
         0.00000E+00
         0.00000E+00
         0.00000E+00
         0.00000E+00
         0.00000E+00
         0.00000E+00
         0.00000E+00
         0.00000E+00
         0.00000E+00
         0.00000E+00
         0.00000E+00
         0.00000E+00
         0.00000E+00
         0.00000E+00
         0.00000E+00
         0.00000E+00
         0.00000E+00
         0.00000E+00
         0.00000E+00
         0.00000E+00
         0.00000E+00
         0.00000E+00
         0.00000E+00
         0.00000E+00
         0.00000E+00
         0.00000E+00
         0.00000E+00
         0.00000E+00
         0.00000E+00
         0.00000E+00
         0.00000E+00
         0.00000E+00
         0.00000E+00
         0.00000E+00
         0.00000E+00
         0.00000E+00
         0.00000E+00
         0.00000E+00
         0.00000E+00
  
SCALARS                 displacement_z  double 1
LOOKUP_TABLE default
        -0.58539E-02
        -0.58446E-02
        -0.58432E-02
        -0.58604E-02
        -0.35974E-16
        -0.40338E-16
        -0.38625E-16
        -0.35090E-16
        -0.58257E-02
        -0.58464E-02
        -0.36274E-16
        -0.35105E-16
        -0.58345E-02
        -0.58476E-02
        -0.43100E-16
        -0.40525E-16
        -0.58547E-02
        -0.58572E-02
        -0.31848E-16
        -0.35323E-16
        -0.58274E-02
        -0.58194E-02
        -0.58233E-02
        -0.42717E-16
        -0.37306E-16
        -0.38523E-16
        -0.58437E-02
        -0.58385E-02
        -0.40980E-16
        -0.34560E-16
        -0.58621E-02
        -0.58666E-02
        -0.58589E-02
        -0.34973E-16
        -0.32513E-16
        -0.31611E-16
        -0.58435E-02
        -0.58624E-02
        -0.36999E-16
        -0.33762E-16
        -0.58380E-02
        -0.58539E-02
        -0.31978E-16
        -0.28310E-16
        -0.58233E-02
        -0.58308E-02
        -0.35043E-16
        -0.39156E-16
        -0.58679E-02
        -0.34234E-16
        -0.58411E-02
        -0.40227E-16
        -0.58609E-02
        -0.36150E-16
        -0.58667E-02
        -0.34676E-16
        -0.58509E-02
        -0.58634E-02
        -0.35331E-16
        -0.34409E-16
        -0.58578E-02
        -0.58410E-02
        -0.35430E-16
        -0.40053E-16
        -0.58568E-02
        -0.34188E-16
        -0.58498E-02
        -0.37312E-16
        -0.57996E-02
        -0.58199E-02
        -0.35915E-16
        -0.37632E-16
        -0.58275E-02
        -0.37948E-16
        -0.58493E-02
        -0.29981E-16
        -0.58473E-02
        -0.29102E-16
        -0.58281E-02
        -0.30685E-16
        -0.58064E-02
        -0.58336E-02
        -0.29236E-16
        -0.30480E-16
        -0.58558E-02
        -0.28388E-16
        -0.58252E-02
        -0.37227E-16
        -0.58172E-02
        -0.38101E-16
        -0.57975E-02
        -0.58244E-02
        -0.36590E-16
        -0.37017E-16
        -0.58427E-02
        -0.33622E-16
        -0.58401E-02
        -0.33143E-16
        -0.58255E-02
        -0.35480E-16
        -0.58045E-02
        -0.58290E-02
        -0.34793E-16
        -0.35814E-16
        -0.57438E-02
        -0.57535E-02
        -0.27013E-16
        -0.25407E-16
        -0.57524E-02
        -0.25794E-16
        -0.57454E-02
        -0.24732E-16
        -0.57460E-02
        -0.24388E-16
        -0.57451E-02
        -0.23047E-16
        -0.57506E-02
        -0.20474E-16
        -0.57531E-02
        -0.18436E-16
        -0.57516E-02
        -0.18308E-16
        -0.57504E-02
        -0.19854E-16
        -0.57420E-02
        -0.20866E-16
        -0.57528E-02
        -0.19053E-16
        -0.57567E-02
        -0.17174E-16
        -0.57557E-02
        -0.17155E-16
        -0.57513E-02
        -0.19174E-16
        -0.57470E-02
        -0.21863E-16
        -0.57448E-02
        -0.23488E-16
        -0.57515E-02
        -0.25366E-16
        -0.57450E-02
        -0.27176E-16
        -0.57548E-02
        -0.24896E-16
        -0.57515E-02
        -0.21840E-16
        -0.57483E-02
        -0.21772E-16
        -0.57539E-02
        -0.23822E-16
        -0.57461E-02
        -0.25396E-16
        -0.57539E-02
        -0.24101E-16
        -0.57541E-02
        -0.23300E-16
        -0.82509E-02
        -0.82493E-02
        -0.82491E-02
        -0.82516E-02
        -0.82465E-02
        -0.82496E-02
        -0.82476E-02
        -0.82497E-02
        -0.82514E-02
        -0.82516E-02
        -0.82469E-02
        -0.82457E-02
        -0.82460E-02
        -0.82491E-02
        -0.82485E-02
        -0.82517E-02
        -0.82529E-02
        -0.82517E-02
        -0.82492E-02
        -0.82522E-02
        -0.82483E-02
        -0.82510E-02
        -0.82461E-02
        -0.82474E-02
        -0.82530E-02
        -0.82487E-02
        -0.82520E-02
        -0.82526E-02
        -0.82501E-02
        -0.82522E-02
        -0.82515E-02
        -0.82487E-02
        -0.82513E-02
        -0.82499E-02
        -0.82429E-02
        -0.82454E-02
        -0.82466E-02
        -0.82504E-02
        -0.82499E-02
        -0.82467E-02
        -0.82437E-02
        -0.82476E-02
        -0.82512E-02
        -0.82462E-02
        -0.82451E-02
        -0.82426E-02
        -0.82461E-02
        -0.82490E-02
        -0.82486E-02
        -0.82462E-02
        -0.82436E-02
        -0.82469E-02
        -0.82369E-02
        -0.82385E-02
        -0.82384E-02
        -0.82376E-02
        -0.82376E-02
        -0.82377E-02
        -0.82385E-02
        -0.82386E-02
        -0.82381E-02
        -0.82378E-02
        -0.82364E-02
        -0.82383E-02
        -0.82392E-02
        -0.82390E-02
        -0.82384E-02
        -0.82377E-02
        -0.82374E-02
        -0.82383E-02
        -0.82372E-02
        -0.82389E-02
        -0.82388E-02
        -0.82381E-02
        -0.82386E-02
        -0.82372E-02
        -0.82386E-02
        -0.82391E-02
        -0.84473E-02
        -0.84473E-02
        -0.84473E-02
        -0.84473E-02
        -0.84473E-02
        -0.84473E-02
        -0.84473E-02
        -0.84473E-02
        -0.84473E-02
        -0.84473E-02
        -0.84473E-02
        -0.84473E-02
        -0.84473E-02
        -0.84473E-02
        -0.84473E-02
        -0.84473E-02
        -0.84473E-02
        -0.84473E-02
        -0.84473E-02
        -0.84473E-02
        -0.84473E-02
        -0.84473E-02
        -0.84473E-02
        -0.84473E-02
        -0.84473E-02
        -0.84473E-02
        -0.84473E-02
        -0.84473E-02
        -0.84473E-02
        -0.84473E-02
        -0.84473E-02
        -0.84473E-02
        -0.84473E-02
        -0.84473E-02
        -0.84473E-02
        -0.84473E-02
        -0.84473E-02
        -0.84473E-02
        -0.84473E-02
        -0.84473E-02
        -0.84473E-02
        -0.84473E-02
        -0.84473E-02
        -0.84473E-02
        -0.84473E-02
        -0.84473E-02
        -0.84473E-02
        -0.84473E-02
        -0.84473E-02
        -0.84473E-02
        -0.84473E-02
        -0.84473E-02
        -0.84473E-02
        -0.84473E-02
        -0.84473E-02
        -0.84473E-02
        -0.84473E-02
        -0.84473E-02
        -0.84473E-02
        -0.84473E-02
        -0.84473E-02
        -0.84473E-02
        -0.84473E-02
        -0.84473E-02
        -0.84473E-02
        -0.84473E-02
        -0.84473E-02
        -0.84473E-02
        -0.84473E-02
        -0.84473E-02
        -0.84473E-02
        -0.84473E-02
        -0.84473E-02
        -0.84473E-02
        -0.84473E-02
        -0.84473E-02
        -0.84473E-02
        -0.84473E-02
        -0.84473E-02
        -0.84473E-02
        -0.84473E-02
        -0.84473E-02
        -0.84473E-02
        -0.84473E-02
        -0.84473E-02
        -0.84473E-02
        -0.84473E-02
        -0.84473E-02
        -0.84473E-02
        -0.84473E-02
        -0.84473E-02
        -0.84473E-02
        -0.84473E-02
        -0.84473E-02
        -0.84473E-02
        -0.84473E-02
        -0.84473E-02
        -0.84473E-02
        -0.84473E-02
        -0.84473E-02
        -0.84473E-02
        -0.84473E-02
        -0.84473E-02
        -0.84473E-02
        -0.84473E-02
        -0.84473E-02
        -0.84473E-02
        -0.84473E-02
        -0.84473E-02
        -0.84473E-02
        -0.84473E-02
        -0.84473E-02
        -0.84473E-02
        -0.84473E-02
        -0.84473E-02
        -0.84473E-02
        -0.84473E-02
        -0.84473E-02
        -0.84473E-02
        -0.84473E-02
        -0.84473E-02
        -0.84473E-02
        -0.84473E-02
        -0.84473E-02
        -0.84473E-02
        -0.84473E-02
        -0.84473E-02
        -0.84473E-02
        -0.84473E-02
        -0.84473E-02
        -0.84473E-02
        -0.84473E-02
        -0.84473E-02
        -0.84473E-02
        -0.84473E-02
        -0.84473E-02
        -0.84473E-02
        -0.84473E-02
        -0.84473E-02
        -0.84473E-02
        -0.84473E-02
        -0.84473E-02
        -0.84473E-02
        -0.84473E-02
        -0.84473E-02
        -0.84473E-02
        -0.84473E-02
        -0.84473E-02
        -0.84473E-02
        -0.84473E-02
        -0.84473E-02
        -0.84473E-02
        -0.84473E-02
        -0.84473E-02
        -0.84473E-02
        -0.84473E-02
        -0.84473E-02
        -0.84473E-02
        -0.84473E-02
        -0.84473E-02
        -0.84473E-02
        -0.84473E-02
        -0.84473E-02
        -0.84473E-02
        -0.84473E-02
        -0.84473E-02
        -0.84473E-02
        -0.84473E-02
        -0.84473E-02
        -0.84473E-02
        -0.84473E-02
        -0.84473E-02
        -0.84473E-02
        -0.84473E-02
        -0.84473E-02
        -0.84473E-02
        -0.84473E-02
        -0.84473E-02
        -0.84473E-02
        -0.84473E-02
        -0.84473E-02
        -0.84473E-02
        -0.84473E-02
        -0.84473E-02
        -0.84473E-02
        -0.84473E-02
        -0.84473E-02
        -0.84473E-02
        -0.84473E-02
        -0.84473E-02
        -0.84473E-02
        -0.84473E-02
        -0.84473E-02
        -0.84473E-02
        -0.84473E-02
        -0.84473E-02
        -0.84473E-02
        -0.84473E-02
        -0.84473E-02
        -0.84473E-02
        -0.84473E-02
        -0.84473E-02
        -0.84473E-02
        -0.84473E-02
        -0.84473E-02
        -0.84473E-02
        -0.84473E-02
        -0.84473E-02
        -0.84473E-02
        -0.84473E-02
        -0.84473E-02
        -0.84473E-02
        -0.84473E-02
        -0.84473E-02
        -0.84473E-02
        -0.84473E-02
        -0.84473E-02
        -0.84473E-02
        -0.84473E-02
        -0.84473E-02
        -0.84473E-02
        -0.84473E-02
        -0.84473E-02
        -0.84473E-02
        -0.84473E-02
        -0.84473E-02
        -0.84473E-02
        -0.84473E-02
        -0.84473E-02
        -0.84473E-02
        -0.84473E-02
        -0.84473E-02
        -0.84473E-02
        -0.84473E-02
        -0.84473E-02
        -0.84473E-02
        -0.84473E-02
        -0.84473E-02
        -0.84473E-02
        -0.84473E-02
        -0.84473E-02
        -0.84473E-02
        -0.84473E-02
        -0.84473E-02
        -0.84473E-02
        -0.84473E-02
        -0.84473E-02
        -0.84473E-02
        -0.84473E-02
        -0.84473E-02
        -0.84473E-02
        -0.84473E-02
        -0.84473E-02
        -0.84473E-02
        -0.84473E-02
        -0.84473E-02
        -0.84473E-02
        -0.84473E-02
        -0.84473E-02
        -0.84473E-02
        -0.84473E-02
        -0.84473E-02
        -0.84473E-02
        -0.84473E-02
        -0.84473E-02
        -0.84473E-02
        -0.84473E-02
        -0.84473E-02
        -0.84473E-02
        -0.84473E-02
        -0.84473E-02
        -0.84473E-02
        -0.84473E-02
        -0.84473E-02
        -0.84473E-02
        -0.84473E-02
        -0.84473E-02
        -0.84473E-02
        -0.84473E-02
        -0.84473E-02
        -0.84473E-02
        -0.84473E-02
        -0.84473E-02
        -0.84473E-02
        -0.84473E-02
        -0.84473E-02
        -0.84473E-02
        -0.84473E-02
        -0.84473E-02
        -0.84473E-02
        -0.84473E-02
        -0.84473E-02
        -0.84473E-02
        -0.84473E-02
        -0.84473E-02
        -0.84473E-02
        -0.84473E-02
        -0.84473E-02
        -0.84473E-02
        -0.84473E-02
        -0.84473E-02
        -0.84473E-02
        -0.84473E-02
        -0.84473E-02
        -0.84473E-02
        -0.84473E-02
        -0.84473E-02
        -0.84473E-02
        -0.84473E-02
        -0.84473E-02
        -0.84473E-02
        -0.84473E-02
        -0.84473E-02
        -0.84473E-02
        -0.84473E-02
        -0.84473E-02
        -0.84473E-02
        -0.84473E-02
        -0.84473E-02
        -0.84473E-02
        -0.84473E-02
        -0.84473E-02
        -0.84473E-02
        -0.84473E-02
        -0.84473E-02
        -0.84473E-02
        -0.84473E-02
        -0.84473E-02
        -0.84473E-02
        -0.84473E-02
        -0.84473E-02
        -0.84473E-02
        -0.84473E-02
        -0.84473E-02
        -0.84473E-02
        -0.84473E-02
        -0.84473E-02
        -0.84473E-02
        -0.84473E-02
        -0.84473E-02
        -0.84473E-02
        -0.84473E-02
        -0.84473E-02
        -0.84473E-02
        -0.84473E-02
        -0.84473E-02
        -0.84473E-02
        -0.84473E-02
        -0.84473E-02
        -0.84473E-02
        -0.84473E-02
        -0.84473E-02
        -0.84473E-02
        -0.84473E-02
        -0.84473E-02
        -0.84473E-02
        -0.84473E-02
        -0.84473E-02
        -0.84473E-02
        -0.84473E-02
        -0.84473E-02
        -0.84473E-02
        -0.84473E-02
        -0.84473E-02
        -0.84473E-02
        -0.84473E-02
        -0.84473E-02
        -0.84473E-02
        -0.84473E-02
        -0.84473E-02
        -0.84473E-02
        -0.84473E-02
        -0.84473E-02
        -0.84473E-02
        -0.84473E-02
        -0.84473E-02
        -0.84473E-02
        -0.84473E-02
        -0.84473E-02
        -0.84473E-02
        -0.84473E-02
        -0.84473E-02
        -0.84473E-02
        -0.84473E-02
        -0.84473E-02
        -0.84473E-02
        -0.84473E-02
        -0.84473E-02
        -0.84473E-02
        -0.84473E-02
        -0.84473E-02
        -0.84473E-02
        -0.84473E-02
        -0.84473E-02
        -0.84473E-02
        -0.84473E-02
        -0.84473E-02
        -0.84473E-02
        -0.84473E-02
        -0.84473E-02
        -0.84473E-02
        -0.84473E-02
        -0.84473E-02
        -0.84473E-02
        -0.84473E-02
        -0.84473E-02
        -0.84473E-02
        -0.84473E-02
        -0.84473E-02
        -0.84473E-02
        -0.84473E-02
        -0.84473E-02
        -0.84473E-02
        -0.84473E-02
        -0.84473E-02
        -0.84473E-02
        -0.84473E-02
        -0.84473E-02
        -0.84473E-02
        -0.84473E-02
        -0.84473E-02
        -0.84473E-02
        -0.84473E-02
        -0.84473E-02
        -0.84473E-02
        -0.84473E-02
        -0.84473E-02
        -0.84473E-02
        -0.84473E-02
        -0.84473E-02
        -0.84473E-02
        -0.84473E-02
        -0.84473E-02
        -0.84473E-02
        -0.84473E-02
        -0.84473E-02
        -0.84473E-02
        -0.84473E-02
        -0.84473E-02
        -0.84473E-02
        -0.84473E-02
        -0.84473E-02
        -0.84473E-02
        -0.84473E-02
        -0.84473E-02
        -0.84473E-02
        -0.84473E-02
        -0.84473E-02
        -0.84473E-02
        -0.84473E-02
        -0.84473E-02
        -0.84473E-02
        -0.84473E-02
        -0.84473E-02
        -0.84473E-02
        -0.84473E-02
        -0.84473E-02
        -0.84473E-02
        -0.84473E-02
        -0.84473E-02
        -0.84473E-02
        -0.84473E-02
        -0.84473E-02
        -0.84473E-02
        -0.84473E-02
        -0.84473E-02
        -0.84473E-02
        -0.84473E-02
        -0.84473E-02
        -0.84473E-02
        -0.84473E-02
        -0.84473E-02
        -0.84473E-02
        -0.84473E-02
        -0.84473E-02
        -0.84473E-02
        -0.84473E-02
        -0.84473E-02
        -0.84473E-02
        -0.84473E-02
        -0.84473E-02
        -0.84473E-02
        -0.84473E-02
        -0.84473E-02
        -0.84473E-02
        -0.84473E-02
        -0.84473E-02
        -0.84473E-02
        -0.84473E-02
        -0.84473E-02
        -0.84473E-02
        -0.84473E-02
        -0.84473E-02
        -0.84473E-02
        -0.84473E-02
        -0.84473E-02
        -0.84473E-02
        -0.84473E-02
        -0.84473E-02
        -0.84473E-02
        -0.84473E-02
        -0.84473E-02
        -0.84473E-02
        -0.84473E-02
        -0.84473E-02
        -0.84473E-02
        -0.84473E-02
        -0.84473E-02
        -0.84473E-02
        -0.84473E-02
        -0.84473E-02
        -0.84473E-02
        -0.84473E-02
        -0.84473E-02
        -0.84473E-02
        -0.84473E-02
        -0.84473E-02
        -0.84473E-02
        -0.84473E-02
        -0.84473E-02
        -0.84473E-02
        -0.84473E-02
        -0.84473E-02
        -0.84473E-02
        -0.84473E-02
        -0.84473E-02
        -0.84473E-02
        -0.84473E-02
        -0.84473E-02
        -0.84473E-02
        -0.84473E-02
        -0.84473E-02
        -0.84473E-02
        -0.84473E-02
        -0.84473E-02
        -0.84473E-02
        -0.84473E-02
        -0.84473E-02
        -0.84473E-02
        -0.84473E-02
        -0.84473E-02
        -0.84473E-02
        -0.84473E-02
        -0.84473E-02
        -0.84473E-02
        -0.84473E-02
        -0.84473E-02
        -0.84473E-02
        -0.84473E-02
        -0.84473E-02
        -0.84473E-02
        -0.84473E-02
        -0.84473E-02
        -0.84473E-02
        -0.84473E-02
        -0.84473E-02
        -0.84473E-02
        -0.84473E-02
        -0.84473E-02
        -0.84473E-02
        -0.84473E-02
        -0.84473E-02
        -0.84473E-02
        -0.84473E-02
        -0.84473E-02
        -0.84473E-02
        -0.84473E-02
        -0.84473E-02
        -0.84473E-02
        -0.84473E-02
        -0.84473E-02
        -0.84473E-02
        -0.84473E-02
        -0.84473E-02
        -0.84473E-02
        -0.84473E-02
        -0.84473E-02
        -0.84473E-02
        -0.84473E-02
        -0.84473E-02
        -0.84473E-02
        -0.84473E-02
        -0.84473E-02
        -0.84473E-02
        -0.84473E-02
        -0.84473E-02
        -0.84473E-02
        -0.84473E-02
        -0.84473E-02
        -0.84473E-02
        -0.84473E-02
        -0.84473E-02
        -0.84473E-02
        -0.84473E-02
        -0.84473E-02
        -0.84473E-02
        -0.84473E-02
        -0.84473E-02
        -0.84473E-02
        -0.84473E-02
        -0.84473E-02
        -0.84473E-02
        -0.84473E-02
        -0.84473E-02
        -0.84473E-02
        -0.84473E-02
        -0.84473E-02
        -0.84473E-02
        -0.84473E-02
        -0.84473E-02
        -0.84473E-02
        -0.84473E-02
        -0.84473E-02
        -0.84473E-02
        -0.84473E-02
        -0.84473E-02
        -0.84473E-02
        -0.84473E-02
        -0.84473E-02
        -0.84473E-02
        -0.84473E-02
        -0.84473E-02
        -0.84473E-02
        -0.84473E-02
        -0.84473E-02
        -0.84473E-02
        -0.84473E-02
        -0.84473E-02
        -0.84473E-02
        -0.84473E-02
        -0.84473E-02
        -0.84473E-02
        -0.84473E-02
        -0.84473E-02
        -0.84473E-02
        -0.84473E-02
        -0.84473E-02
        -0.84473E-02
        -0.84473E-02
        -0.84473E-02
        -0.84473E-02
        -0.84473E-02
        -0.84473E-02
        -0.84473E-02
        -0.84473E-02
        -0.84473E-02
        -0.84473E-02
        -0.84473E-02
        -0.84473E-02
        -0.84473E-02
        -0.84473E-02
        -0.84473E-02
        -0.84473E-02
        -0.84473E-02
        -0.84473E-02
        -0.84473E-02
        -0.84473E-02
        -0.84473E-02
        -0.84473E-02
        -0.84473E-02
        -0.84473E-02
        -0.84473E-02
        -0.84473E-02
        -0.84473E-02
        -0.84473E-02
        -0.84473E-02
        -0.84473E-02
        -0.84473E-02
        -0.84473E-02
        -0.84473E-02
        -0.84473E-02
        -0.84473E-02
        -0.84473E-02
        -0.84473E-02
        -0.84473E-02
        -0.84473E-02
        -0.84473E-02
        -0.84473E-02
        -0.84473E-02
        -0.84473E-02
        -0.84473E-02
        -0.84473E-02
        -0.84473E-02
        -0.84473E-02
        -0.84473E-02
        -0.84473E-02
        -0.84473E-02
        -0.84473E-02
        -0.84473E-02
        -0.84473E-02
        -0.84473E-02
        -0.84473E-02
        -0.84473E-02
        -0.84473E-02
        -0.84473E-02
        -0.84473E-02
        -0.84473E-02
        -0.84473E-02
        -0.84473E-02
        -0.84473E-02
        -0.84473E-02
        -0.84473E-02
        -0.84473E-02
        -0.84473E-02
        -0.84473E-02
        -0.84473E-02
        -0.84473E-02
        -0.84473E-02
        -0.84473E-02
        -0.84473E-02
        -0.84473E-02
        -0.84473E-02
        -0.84473E-02
        -0.84473E-02
        -0.84473E-02
        -0.84473E-02
        -0.84473E-02
        -0.84473E-02
        -0.84473E-02
        -0.84473E-02
        -0.84473E-02
        -0.84473E-02
        -0.84473E-02
        -0.84473E-02
        -0.84473E-02
        -0.84473E-02
        -0.84473E-02
        -0.84473E-02
        -0.84473E-02
        -0.84473E-02
        -0.84473E-02
        -0.84473E-02
        -0.84473E-02
        -0.84473E-02
        -0.84473E-02
        -0.84473E-02
        -0.84473E-02
        -0.84473E-02
        -0.84473E-02
        -0.84473E-02
        -0.84473E-02
        -0.84473E-02
        -0.84473E-02
        -0.84473E-02
        -0.84473E-02
        -0.84473E-02
        -0.84473E-02
        -0.84473E-02
        -0.84473E-02
        -0.84473E-02
        -0.84473E-02
        -0.84473E-02
        -0.84473E-02
        -0.84473E-02
        -0.84473E-02
        -0.84473E-02
        -0.84473E-02
        -0.84473E-02
        -0.84473E-02
        -0.84473E-02
        -0.84473E-02
        -0.84473E-02
        -0.84473E-02
        -0.84473E-02
        -0.84473E-02
        -0.84473E-02
        -0.84473E-02
        -0.84473E-02
        -0.84473E-02
        -0.84473E-02
        -0.84473E-02
        -0.84473E-02
        -0.84473E-02
        -0.84473E-02
        -0.84473E-02
        -0.84473E-02
        -0.84473E-02
        -0.84473E-02
        -0.84473E-02
        -0.84473E-02
        -0.84473E-02
        -0.84473E-02
        -0.84473E-02
        -0.84473E-02
        -0.84473E-02
        -0.84473E-02
        -0.84473E-02
        -0.84473E-02
        -0.84473E-02
        -0.84473E-02
        -0.84473E-02
        -0.84473E-02
        -0.84473E-02
        -0.84473E-02
        -0.84473E-02
        -0.84473E-02
        -0.84473E-02
        -0.84473E-02
        -0.84473E-02
        -0.84473E-02
        -0.84473E-02
        -0.84473E-02
        -0.84473E-02
        -0.84473E-02
        -0.84473E-02
        -0.84473E-02
        -0.84473E-02
        -0.84473E-02
        -0.84473E-02
        -0.84473E-02
        -0.84473E-02
        -0.84473E-02
        -0.84473E-02
        -0.84473E-02
        -0.84473E-02
        -0.84473E-02
        -0.84473E-02
        -0.84473E-02
        -0.84473E-02
        -0.84473E-02
        -0.84473E-02
        -0.84473E-02
        -0.84473E-02
        -0.84473E-02
        -0.84473E-02
        -0.84473E-02
        -0.84473E-02
        -0.84473E-02
        -0.84473E-02
        -0.84473E-02
        -0.84473E-02
        -0.84473E-02
        -0.84473E-02
        -0.84473E-02
        -0.84473E-02
        -0.84473E-02
        -0.84473E-02
        -0.84473E-02
        -0.84473E-02
        -0.84473E-02
        -0.84473E-02
        -0.84473E-02
        -0.84473E-02
        -0.84473E-02
        -0.84473E-02
        -0.84473E-02
        -0.84473E-02
        -0.84473E-02
        -0.84473E-02
        -0.84473E-02
        -0.84473E-02
        -0.84473E-02
        -0.84473E-02
        -0.84473E-02
        -0.84473E-02
        -0.84473E-02
        -0.84473E-02
        -0.84473E-02
        -0.84473E-02
        -0.84473E-02
        -0.84473E-02
        -0.84473E-02
        -0.84473E-02
        -0.84473E-02
        -0.84473E-02
        -0.84473E-02
        -0.84473E-02
        -0.84473E-02
        -0.84473E-02
        -0.84473E-02
        -0.84473E-02
        -0.84473E-02
        -0.84473E-02
        -0.84473E-02
        -0.84473E-02
        -0.84473E-02
        -0.84473E-02
        -0.84473E-02
        -0.84473E-02
        -0.84473E-02
        -0.84473E-02
        -0.84473E-02
        -0.84473E-02
        -0.84473E-02
        -0.84473E-02
        -0.84473E-02
        -0.84473E-02
        -0.84473E-02
        -0.84473E-02
        -0.84473E-02
        -0.84473E-02
        -0.84473E-02
        -0.84473E-02
        -0.84473E-02
        -0.84473E-02
        -0.84473E-02
        -0.84473E-02
        -0.84473E-02
        -0.84473E-02
        -0.84473E-02
        -0.84473E-02
        -0.84473E-02
        -0.84473E-02
        -0.84473E-02
        -0.84473E-02
        -0.84473E-02
        -0.84473E-02
        -0.84473E-02
        -0.84473E-02
        -0.84473E-02
        -0.84473E-02
        -0.84473E-02
        -0.84473E-02
        -0.84473E-02
        -0.84473E-02
        -0.84473E-02
        -0.84473E-02
        -0.84473E-02
        -0.84473E-02
        -0.84473E-02
        -0.84473E-02
        -0.84473E-02
        -0.84473E-02
        -0.84473E-02
        -0.84473E-02
        -0.84473E-02
        -0.84473E-02
        -0.84473E-02
        -0.84473E-02
        -0.84473E-02
        -0.84473E-02
        -0.84473E-02
        -0.84473E-02
        -0.84473E-02
        -0.84473E-02
        -0.84473E-02
        -0.84473E-02
        -0.84473E-02
        -0.84473E-02
        -0.84473E-02
        -0.84473E-02
        -0.84473E-02
        -0.84473E-02
        -0.84473E-02
        -0.84473E-02
        -0.84473E-02
        -0.84473E-02
        -0.84473E-02
        -0.84473E-02
        -0.84473E-02
        -0.84473E-02
        -0.84473E-02
        -0.84473E-02
        -0.84473E-02
        -0.84473E-02
        -0.84473E-02
        -0.84473E-02
        -0.84473E-02
        -0.84473E-02
        -0.84473E-02
        -0.84473E-02
        -0.84473E-02
        -0.84473E-02
        -0.84473E-02
        -0.84473E-02
        -0.84473E-02
        -0.84473E-02
        -0.84473E-02
        -0.84473E-02
        -0.84473E-02
        -0.84473E-02
        -0.84473E-02
        -0.84473E-02
        -0.84473E-02
        -0.84473E-02
        -0.84473E-02
        -0.84473E-02
        -0.84473E-02
        -0.84473E-02
        -0.84473E-02
        -0.84473E-02
        -0.84473E-02
        -0.84473E-02
        -0.84473E-02
        -0.84473E-02
        -0.84473E-02
        -0.84473E-02
        -0.84473E-02
        -0.84473E-02
        -0.84473E-02
        -0.84473E-02
        -0.84473E-02
        -0.84473E-02
        -0.84473E-02
        -0.84473E-02
        -0.84473E-02
        -0.84473E-02
        -0.84473E-02
        -0.84473E-02
        -0.84473E-02
        -0.84473E-02
        -0.84473E-02
        -0.84473E-02
        -0.84473E-02
        -0.84473E-02
        -0.84473E-02
        -0.84473E-02
        -0.84473E-02
        -0.84473E-02
        -0.84473E-02
        -0.84473E-02
        -0.84473E-02
        -0.84473E-02
        -0.84473E-02
        -0.84473E-02
        -0.84473E-02
        -0.84473E-02
        -0.84473E-02
        -0.84473E-02
        -0.84473E-02
        -0.84473E-02
        -0.84473E-02
        -0.84473E-02
        -0.84473E-02
        -0.84473E-02
        -0.84473E-02
        -0.84473E-02
        -0.84473E-02
        -0.84473E-02
        -0.84473E-02
        -0.84473E-02
        -0.84473E-02
        -0.84473E-02
        -0.84473E-02
        -0.84473E-02
        -0.84473E-02
        -0.84473E-02
        -0.84473E-02
        -0.84473E-02
        -0.84473E-02
        -0.84473E-02
        -0.84473E-02
        -0.84473E-02
        -0.84473E-02
        -0.84473E-02
        -0.84473E-02
        -0.84473E-02
        -0.84473E-02
        -0.84473E-02
        -0.84473E-02
        -0.84473E-02
        -0.84473E-02
        -0.84473E-02
        -0.84473E-02
        -0.84473E-02
        -0.84473E-02
        -0.84473E-02
        -0.84473E-02
        -0.84473E-02
        -0.84473E-02
        -0.84473E-02
        -0.84473E-02
        -0.84473E-02
        -0.84473E-02
        -0.84473E-02
        -0.84473E-02
        -0.84473E-02
        -0.84473E-02
        -0.84473E-02
        -0.84473E-02
        -0.84473E-02
        -0.84473E-02
        -0.84473E-02
        -0.84473E-02
        -0.84473E-02
        -0.84473E-02
        -0.84473E-02
        -0.84473E-02
        -0.84473E-02
        -0.84473E-02
        -0.84473E-02
        -0.84473E-02
        -0.84473E-02
        -0.84473E-02
        -0.84473E-02
        -0.84473E-02
        -0.84473E-02
        -0.84473E-02
        -0.84473E-02
        -0.84473E-02
        -0.84473E-02
        -0.84473E-02
        -0.84473E-02
        -0.84473E-02
        -0.84473E-02
        -0.84473E-02
        -0.84473E-02
        -0.84473E-02
        -0.84473E-02
        -0.84473E-02
        -0.84473E-02
        -0.84473E-02
        -0.84473E-02
        -0.84473E-02
        -0.84473E-02
        -0.84473E-02
        -0.84473E-02
        -0.84473E-02
        -0.84473E-02
        -0.84473E-02
        -0.84473E-02
        -0.84473E-02
        -0.84473E-02
        -0.84473E-02
        -0.84473E-02
        -0.84473E-02
        -0.84473E-02
        -0.84473E-02
        -0.84473E-02
        -0.84473E-02
        -0.84473E-02
        -0.84473E-02
        -0.84473E-02
        -0.84473E-02
        -0.84473E-02
        -0.84473E-02
        -0.84473E-02
        -0.84473E-02
        -0.84473E-02
        -0.84473E-02
        -0.84473E-02
        -0.84473E-02
        -0.84473E-02
        -0.84473E-02
        -0.84473E-02
        -0.84473E-02
        -0.84473E-02
        -0.84473E-02
        -0.84473E-02
        -0.84473E-02
        -0.84473E-02
        -0.84473E-02
        -0.84473E-02
        -0.84473E-02
        -0.84473E-02
        -0.84473E-02
        -0.84473E-02
        -0.84473E-02
        -0.84473E-02
        -0.84473E-02
        -0.84473E-02
        -0.84473E-02
        -0.84473E-02
        -0.84473E-02
        -0.84473E-02
        -0.84473E-02
        -0.84473E-02
        -0.84473E-02
        -0.84473E-02
        -0.84473E-02
        -0.84473E-02
        -0.84473E-02
        -0.84473E-02
        -0.84473E-02
        -0.84473E-02
        -0.84473E-02
        -0.84473E-02
        -0.84473E-02
        -0.84473E-02
        -0.84473E-02
        -0.84473E-02
        -0.84473E-02
        -0.84473E-02
        -0.84473E-02
        -0.84473E-02
        -0.84473E-02
        -0.84473E-02
        -0.84473E-02
        -0.84473E-02
        -0.84473E-02
        -0.84473E-02
        -0.84473E-02
        -0.84473E-02
        -0.84473E-02
        -0.84473E-02
        -0.84473E-02
        -0.84473E-02
        -0.84473E-02
        -0.84473E-02
        -0.84473E-02
        -0.84473E-02
        -0.84473E-02
        -0.84473E-02
        -0.84473E-02
        -0.84473E-02
        -0.84473E-02
        -0.84473E-02
        -0.84473E-02
        -0.84473E-02
        -0.84473E-02
        -0.84473E-02
        -0.84473E-02
        -0.84473E-02
        -0.84473E-02
        -0.84473E-02
        -0.84473E-02
        -0.84473E-02
        -0.84473E-02
        -0.84473E-02
        -0.84473E-02
        -0.84473E-02
        -0.84473E-02
        -0.84473E-02
        -0.84473E-02
        -0.84473E-02
        -0.84473E-02
        -0.84473E-02
        -0.84473E-02
        -0.84473E-02
        -0.84473E-02
        -0.84473E-02
        -0.84473E-02
        -0.84473E-02
        -0.84473E-02
        -0.84473E-02
        -0.84473E-02
        -0.84473E-02
        -0.84473E-02
        -0.84473E-02
        -0.84473E-02
        -0.84473E-02
        -0.84473E-02
        -0.84473E-02
        -0.84473E-02
        -0.84473E-02
        -0.84473E-02
        -0.84473E-02
        -0.84473E-02
        -0.84473E-02
        -0.84473E-02
        -0.84473E-02
        -0.84473E-02
        -0.84473E-02
        -0.84473E-02
        -0.84473E-02
        -0.84473E-02
        -0.84473E-02
        -0.84473E-02
        -0.84473E-02
        -0.84473E-02
        -0.84473E-02
        -0.84473E-02
        -0.84473E-02
        -0.84473E-02
        -0.84473E-02
        -0.84473E-02
        -0.84473E-02
        -0.84473E-02
        -0.84473E-02
        -0.84473E-02
        -0.84473E-02
        -0.84473E-02
        -0.84473E-02
        -0.84473E-02
        -0.84473E-02
        -0.84473E-02
        -0.84473E-02
        -0.84473E-02
        -0.84473E-02
        -0.84473E-02
        -0.84473E-02
        -0.84473E-02
        -0.84473E-02
        -0.84473E-02
        -0.84473E-02
        -0.84473E-02
        -0.84473E-02
        -0.84473E-02
        -0.84473E-02
        -0.84473E-02
        -0.84473E-02
        -0.84473E-02
        -0.84473E-02
        -0.84473E-02
        -0.84473E-02
        -0.84473E-02
        -0.84473E-02
        -0.84473E-02
        -0.84473E-02
        -0.84473E-02
        -0.84473E-02
        -0.84473E-02
        -0.84473E-02
        -0.84473E-02
        -0.84473E-02
        -0.84473E-02
        -0.84473E-02
        -0.84473E-02
        -0.84473E-02
        -0.84473E-02
        -0.84473E-02
        -0.84473E-02
        -0.84473E-02
        -0.84473E-02
        -0.84473E-02
        -0.84473E-02
        -0.84473E-02
        -0.84473E-02
        -0.84473E-02
        -0.84473E-02
        -0.84473E-02
        -0.84473E-02
        -0.84473E-02
        -0.84473E-02
        -0.84473E-02
        -0.84473E-02
        -0.84473E-02
        -0.84473E-02
        -0.84473E-02
        -0.84473E-02
        -0.84473E-02
        -0.84473E-02
        -0.84473E-02
        -0.84473E-02
        -0.84473E-02
        -0.84473E-02
        -0.84473E-02
        -0.84473E-02
        -0.84473E-02
        -0.84473E-02
        -0.84473E-02
        -0.84473E-02
        -0.84473E-02
        -0.84473E-02
        -0.84473E-02
        -0.84473E-02
        -0.84473E-02
        -0.84473E-02
        -0.84473E-02
        -0.84473E-02
        -0.84473E-02
        -0.84473E-02
        -0.84473E-02
        -0.84473E-02
        -0.84473E-02
        -0.84473E-02
        -0.84473E-02
        -0.84473E-02
        -0.84473E-02
        -0.84473E-02
        -0.84473E-02
        -0.84473E-02
        -0.84473E-02
        -0.84473E-02
        -0.84473E-02
        -0.84473E-02
        -0.84473E-02
        -0.84473E-02
        -0.84473E-02
        -0.84473E-02
        -0.84473E-02
        -0.84473E-02
        -0.84473E-02
        -0.84473E-02
        -0.84473E-02
        -0.84473E-02
        -0.84473E-02
        -0.84473E-02
        -0.84473E-02
        -0.84473E-02
        -0.84473E-02
        -0.84473E-02
        -0.84473E-02
        -0.84473E-02
        -0.84473E-02
        -0.84473E-02
        -0.84473E-02
        -0.84473E-02
        -0.84473E-02
        -0.84473E-02
        -0.84473E-02
        -0.84473E-02
        -0.84473E-02
        -0.84473E-02
        -0.84473E-02
        -0.84473E-02
        -0.84473E-02
        -0.84473E-02
        -0.84473E-02
        -0.84473E-02
        -0.84473E-02
        -0.84473E-02
        -0.84473E-02
        -0.84473E-02
        -0.84473E-02
        -0.84473E-02
        -0.84473E-02
        -0.84473E-02
        -0.84473E-02
        -0.84473E-02
        -0.84473E-02
        -0.84473E-02
        -0.84473E-02
        -0.84473E-02
        -0.84473E-02
        -0.84473E-02
        -0.84473E-02
        -0.84473E-02
        -0.84473E-02
        -0.84473E-02
        -0.84473E-02
        -0.84473E-02
        -0.84473E-02
        -0.84473E-02
        -0.84473E-02
        -0.84473E-02
        -0.84473E-02
        -0.84473E-02
        -0.84473E-02
        -0.84473E-02
        -0.84473E-02
        -0.84473E-02
        -0.84473E-02
        -0.84473E-02
        -0.84473E-02
        -0.84473E-02
        -0.84473E-02
        -0.84473E-02
        -0.84473E-02
        -0.84473E-02
        -0.84473E-02
        -0.84473E-02
        -0.84473E-02
        -0.84473E-02
        -0.84473E-02
        -0.84473E-02
        -0.84473E-02
        -0.84473E-02
        -0.84473E-02
        -0.84473E-02
        -0.84473E-02
        -0.84473E-02
        -0.84473E-02
        -0.84473E-02
        -0.84473E-02
        -0.84473E-02
        -0.84473E-02
        -0.84473E-02
        -0.84473E-02
        -0.84473E-02
        -0.84473E-02
        -0.84473E-02
        -0.84473E-02
        -0.84473E-02
        -0.84473E-02
        -0.84473E-02
        -0.84473E-02
        -0.84473E-02
        -0.84473E-02
        -0.84473E-02
        -0.84473E-02
        -0.84473E-02
        -0.84473E-02
        -0.84473E-02
        -0.84473E-02
        -0.84473E-02
        -0.84473E-02
        -0.84473E-02
        -0.84473E-02
        -0.84473E-02
        -0.84473E-02
        -0.84473E-02
        -0.84473E-02
        -0.84473E-02
        -0.84473E-02
        -0.84473E-02
        -0.84473E-02
        -0.84473E-02
        -0.84473E-02
        -0.84473E-02
        -0.84473E-02
        -0.84473E-02
        -0.84473E-02
        -0.84473E-02
        -0.84473E-02
        -0.84473E-02
        -0.84473E-02
        -0.84473E-02
        -0.84473E-02
        -0.84473E-02
        -0.84473E-02
        -0.84473E-02
        -0.84473E-02
        -0.84473E-02
        -0.84473E-02
        -0.84473E-02
        -0.84473E-02
        -0.84473E-02
        -0.84473E-02
        -0.84473E-02
        -0.84473E-02
        -0.84473E-02
        -0.84473E-02
        -0.84473E-02
        -0.84473E-02
        -0.84473E-02
        -0.84473E-02
        -0.84473E-02
        -0.84473E-02
        -0.84473E-02
        -0.84473E-02
        -0.84473E-02
        -0.84473E-02
        -0.84473E-02
        -0.84473E-02
        -0.84473E-02
        -0.84473E-02
        -0.84473E-02
        -0.84473E-02
        -0.84473E-02
        -0.84473E-02
        -0.84473E-02
        -0.84473E-02
        -0.84473E-02
        -0.84473E-02
        -0.84473E-02
        -0.84473E-02
        -0.84473E-02
        -0.84473E-02
        -0.84473E-02
        -0.84473E-02
        -0.84473E-02
        -0.84473E-02
        -0.84473E-02
        -0.84473E-02
        -0.84473E-02
        -0.84473E-02
        -0.84473E-02
        -0.84473E-02
        -0.84473E-02
        -0.84473E-02
        -0.84473E-02
        -0.84473E-02
        -0.84473E-02
        -0.84473E-02
        -0.84473E-02
        -0.84473E-02
        -0.84473E-02
        -0.84473E-02
        -0.84473E-02
        -0.84473E-02
        -0.84473E-02
        -0.84473E-02
        -0.84473E-02
        -0.84473E-02
        -0.84473E-02
        -0.84473E-02
        -0.84473E-02
        -0.84473E-02
        -0.84473E-02
        -0.84473E-02
        -0.84473E-02
        -0.84473E-02
        -0.84473E-02
        -0.84473E-02
        -0.84473E-02
        -0.84473E-02
        -0.84473E-02
        -0.84473E-02
        -0.84473E-02
        -0.84473E-02
        -0.84473E-02
        -0.84473E-02
        -0.84473E-02
        -0.84473E-02
        -0.84473E-02
        -0.84473E-02
        -0.84473E-02
        -0.84473E-02
        -0.84473E-02
        -0.84473E-02
        -0.84473E-02
        -0.84473E-02
        -0.84473E-02
        -0.84473E-02
        -0.84473E-02
        -0.84473E-02
        -0.84473E-02
        -0.84473E-02
        -0.84473E-02
        -0.84473E-02
        -0.84473E-02
        -0.84473E-02
        -0.84473E-02
        -0.84473E-02
        -0.84473E-02
        -0.84473E-02
        -0.84473E-02
        -0.84473E-02
        -0.84473E-02
        -0.84473E-02
        -0.84473E-02
        -0.84473E-02
        -0.84473E-02
        -0.84473E-02
        -0.84473E-02
        -0.84473E-02
        -0.84473E-02
        -0.84473E-02
        -0.84473E-02
        -0.84473E-02
        -0.84473E-02
        -0.84473E-02
        -0.84473E-02
        -0.84473E-02
        -0.84473E-02
        -0.84473E-02
        -0.84473E-02
        -0.84473E-02
        -0.84473E-02
        -0.84473E-02
        -0.84473E-02
        -0.84473E-02
        -0.84473E-02
        -0.84473E-02
        -0.84473E-02
        -0.84473E-02
        -0.84473E-02
        -0.84473E-02
        -0.84473E-02
        -0.84473E-02
        -0.84473E-02
        -0.84473E-02
        -0.84473E-02
        -0.84473E-02
        -0.84473E-02
        -0.84473E-02
        -0.84473E-02
        -0.84473E-02
        -0.84473E-02
        -0.84473E-02
        -0.84473E-02
        -0.84473E-02
        -0.84473E-02
        -0.84473E-02
        -0.84473E-02
        -0.84473E-02
        -0.84473E-02
        -0.84473E-02
        -0.84473E-02
        -0.84473E-02
        -0.84473E-02
        -0.84473E-02
        -0.84473E-02
        -0.84473E-02
        -0.84473E-02
        -0.84473E-02
        -0.84473E-02
        -0.84473E-02
        -0.84473E-02
        -0.84473E-02
        -0.84473E-02
        -0.84473E-02
        -0.84473E-02
        -0.84473E-02
        -0.84473E-02
        -0.84473E-02
        -0.84473E-02
        -0.84473E-02
        -0.84473E-02
        -0.84473E-02
        -0.84473E-02
        -0.84473E-02
        -0.84473E-02
        -0.84473E-02
        -0.84473E-02
        -0.84473E-02
        -0.84473E-02
        -0.84473E-02
        -0.84473E-02
        -0.84473E-02
        -0.84473E-02
        -0.84473E-02
        -0.84473E-02
        -0.84473E-02
        -0.84473E-02
        -0.84473E-02
        -0.84473E-02
        -0.84473E-02
        -0.84473E-02
        -0.84473E-02
        -0.84473E-02
        -0.84473E-02
        -0.84473E-02
        -0.84473E-02
        -0.84473E-02
        -0.84473E-02
        -0.84473E-02
        -0.84473E-02
        -0.84473E-02
        -0.84473E-02
        -0.84473E-02
        -0.84473E-02
        -0.84473E-02
        -0.84473E-02
        -0.84473E-02
        -0.84473E-02
        -0.84473E-02
        -0.84473E-02
        -0.84473E-02
        -0.84473E-02
        -0.84473E-02
        -0.84473E-02
        -0.84473E-02
        -0.84473E-02
        -0.84473E-02
  
SCALARS                     velocity_x  double 1
LOOKUP_TABLE default
         0.00000E+00
         0.00000E+00
         0.00000E+00
         0.00000E+00
         0.00000E+00
         0.00000E+00
         0.00000E+00
         0.00000E+00
         0.00000E+00
         0.00000E+00
         0.00000E+00
         0.00000E+00
         0.00000E+00
         0.00000E+00
         0.00000E+00
         0.00000E+00
         0.00000E+00
         0.00000E+00
         0.00000E+00
         0.00000E+00
         0.00000E+00
         0.00000E+00
         0.00000E+00
         0.00000E+00
         0.00000E+00
         0.00000E+00
         0.00000E+00
         0.00000E+00
         0.00000E+00
         0.00000E+00
         0.00000E+00
         0.00000E+00
         0.00000E+00
         0.00000E+00
         0.00000E+00
         0.00000E+00
         0.00000E+00
         0.00000E+00
         0.00000E+00
         0.00000E+00
         0.00000E+00
         0.00000E+00
         0.00000E+00
         0.00000E+00
         0.00000E+00
         0.00000E+00
         0.00000E+00
         0.00000E+00
         0.00000E+00
         0.00000E+00
         0.00000E+00
         0.00000E+00
         0.00000E+00
         0.00000E+00
         0.00000E+00
         0.00000E+00
         0.00000E+00
         0.00000E+00
         0.00000E+00
         0.00000E+00
         0.00000E+00
         0.00000E+00
         0.00000E+00
         0.00000E+00
         0.00000E+00
         0.00000E+00
         0.00000E+00
         0.00000E+00
         0.00000E+00
         0.00000E+00
         0.00000E+00
         0.00000E+00
         0.00000E+00
         0.00000E+00
         0.00000E+00
         0.00000E+00
         0.00000E+00
         0.00000E+00
         0.00000E+00
         0.00000E+00
         0.00000E+00
         0.00000E+00
         0.00000E+00
         0.00000E+00
         0.00000E+00
         0.00000E+00
         0.00000E+00
         0.00000E+00
         0.00000E+00
         0.00000E+00
         0.00000E+00
         0.00000E+00
         0.00000E+00
         0.00000E+00
         0.00000E+00
         0.00000E+00
         0.00000E+00
         0.00000E+00
         0.00000E+00
         0.00000E+00
         0.00000E+00
         0.00000E+00
         0.00000E+00
         0.00000E+00
         0.00000E+00
         0.00000E+00
         0.00000E+00
         0.00000E+00
         0.00000E+00
         0.00000E+00
         0.00000E+00
         0.00000E+00
         0.00000E+00
         0.00000E+00
         0.00000E+00
         0.00000E+00
         0.00000E+00
         0.00000E+00
         0.00000E+00
         0.00000E+00
         0.00000E+00
         0.00000E+00
         0.00000E+00
         0.00000E+00
         0.00000E+00
         0.00000E+00
         0.00000E+00
         0.00000E+00
         0.00000E+00
         0.00000E+00
         0.00000E+00
         0.00000E+00
         0.00000E+00
         0.00000E+00
         0.00000E+00
         0.00000E+00
         0.00000E+00
         0.00000E+00
         0.00000E+00
         0.00000E+00
         0.00000E+00
         0.00000E+00
         0.00000E+00
         0.00000E+00
         0.00000E+00
         0.00000E+00
         0.00000E+00
         0.00000E+00
         0.00000E+00
         0.00000E+00
         0.00000E+00
         0.00000E+00
         0.00000E+00
         0.00000E+00
         0.00000E+00
         0.00000E+00
         0.00000E+00
         0.00000E+00
         0.00000E+00
         0.00000E+00
         0.00000E+00
         0.00000E+00
         0.00000E+00
         0.00000E+00
         0.00000E+00
         0.00000E+00
         0.00000E+00
         0.00000E+00
         0.00000E+00
         0.00000E+00
         0.00000E+00
         0.00000E+00
         0.00000E+00
         0.00000E+00
         0.00000E+00
         0.00000E+00
         0.00000E+00
         0.00000E+00
         0.00000E+00
         0.00000E+00
         0.00000E+00
         0.00000E+00
         0.00000E+00
         0.00000E+00
         0.00000E+00
         0.00000E+00
         0.00000E+00
         0.00000E+00
         0.00000E+00
         0.00000E+00
         0.00000E+00
         0.00000E+00
         0.00000E+00
         0.00000E+00
         0.00000E+00
         0.00000E+00
         0.00000E+00
         0.00000E+00
         0.00000E+00
         0.00000E+00
         0.00000E+00
         0.00000E+00
         0.00000E+00
         0.00000E+00
         0.00000E+00
         0.00000E+00
         0.00000E+00
         0.00000E+00
         0.00000E+00
         0.00000E+00
         0.00000E+00
         0.00000E+00
         0.00000E+00
         0.00000E+00
         0.00000E+00
         0.00000E+00
         0.00000E+00
         0.00000E+00
         0.00000E+00
         0.00000E+00
         0.00000E+00
         0.00000E+00
         0.00000E+00
         0.00000E+00
         0.00000E+00
         0.00000E+00
         0.00000E+00
         0.00000E+00
         0.00000E+00
         0.00000E+00
         0.00000E+00
         0.00000E+00
         0.00000E+00
         0.00000E+00
         0.00000E+00
         0.00000E+00
         0.00000E+00
         0.00000E+00
         0.00000E+00
         0.00000E+00
         0.00000E+00
         0.00000E+00
         0.00000E+00
         0.00000E+00
         0.00000E+00
         0.00000E+00
         0.00000E+00
         0.00000E+00
         0.00000E+00
         0.00000E+00
         0.00000E+00
         0.00000E+00
         0.00000E+00
         0.00000E+00
         0.00000E+00
         0.00000E+00
         0.00000E+00
         0.00000E+00
         0.00000E+00
         0.00000E+00
         0.00000E+00
         0.00000E+00
         0.00000E+00
         0.00000E+00
         0.00000E+00
         0.00000E+00
         0.00000E+00
         0.00000E+00
         0.00000E+00
         0.00000E+00
         0.00000E+00
         0.00000E+00
         0.00000E+00
         0.00000E+00
         0.00000E+00
         0.00000E+00
         0.00000E+00
         0.00000E+00
         0.00000E+00
         0.00000E+00
         0.00000E+00
         0.00000E+00
         0.00000E+00
         0.00000E+00
         0.00000E+00
         0.00000E+00
         0.00000E+00
         0.00000E+00
         0.00000E+00
         0.00000E+00
         0.00000E+00
         0.00000E+00
         0.00000E+00
         0.00000E+00
         0.00000E+00
         0.00000E+00
         0.00000E+00
         0.00000E+00
         0.00000E+00
         0.00000E+00
         0.00000E+00
         0.00000E+00
         0.00000E+00
         0.00000E+00
         0.00000E+00
         0.00000E+00
         0.00000E+00
         0.00000E+00
         0.00000E+00
         0.00000E+00
         0.00000E+00
         0.00000E+00
         0.00000E+00
         0.00000E+00
         0.00000E+00
         0.00000E+00
         0.00000E+00
         0.00000E+00
         0.00000E+00
         0.00000E+00
         0.00000E+00
         0.00000E+00
         0.00000E+00
         0.00000E+00
         0.00000E+00
         0.00000E+00
         0.00000E+00
         0.00000E+00
         0.00000E+00
         0.00000E+00
         0.00000E+00
         0.00000E+00
         0.00000E+00
         0.00000E+00
         0.00000E+00
         0.00000E+00
         0.00000E+00
         0.00000E+00
         0.00000E+00
         0.00000E+00
         0.00000E+00
         0.00000E+00
         0.00000E+00
         0.00000E+00
         0.00000E+00
         0.00000E+00
         0.00000E+00
         0.00000E+00
         0.00000E+00
         0.00000E+00
         0.00000E+00
         0.00000E+00
         0.00000E+00
         0.00000E+00
         0.00000E+00
         0.00000E+00
         0.00000E+00
         0.00000E+00
         0.00000E+00
         0.00000E+00
         0.00000E+00
         0.00000E+00
         0.00000E+00
         0.00000E+00
         0.00000E+00
         0.00000E+00
         0.00000E+00
         0.00000E+00
         0.00000E+00
         0.00000E+00
         0.00000E+00
         0.00000E+00
         0.00000E+00
         0.00000E+00
         0.00000E+00
         0.00000E+00
         0.00000E+00
         0.00000E+00
         0.00000E+00
         0.00000E+00
         0.00000E+00
         0.00000E+00
         0.00000E+00
         0.00000E+00
         0.00000E+00
         0.00000E+00
         0.00000E+00
         0.00000E+00
         0.00000E+00
         0.00000E+00
         0.00000E+00
         0.00000E+00
         0.00000E+00
         0.00000E+00
         0.00000E+00
         0.00000E+00
         0.00000E+00
         0.00000E+00
         0.00000E+00
         0.00000E+00
         0.00000E+00
         0.00000E+00
         0.00000E+00
         0.00000E+00
         0.00000E+00
         0.00000E+00
         0.00000E+00
         0.00000E+00
         0.00000E+00
         0.00000E+00
         0.00000E+00
         0.00000E+00
         0.00000E+00
         0.00000E+00
         0.00000E+00
         0.00000E+00
         0.00000E+00
         0.00000E+00
         0.00000E+00
         0.00000E+00
         0.00000E+00
         0.00000E+00
         0.00000E+00
         0.00000E+00
         0.00000E+00
         0.00000E+00
         0.00000E+00
         0.00000E+00
         0.00000E+00
         0.00000E+00
         0.00000E+00
         0.00000E+00
         0.00000E+00
         0.00000E+00
         0.00000E+00
         0.00000E+00
         0.00000E+00
         0.00000E+00
         0.00000E+00
         0.00000E+00
         0.00000E+00
         0.00000E+00
         0.00000E+00
         0.00000E+00
         0.00000E+00
         0.00000E+00
         0.00000E+00
         0.00000E+00
         0.00000E+00
         0.00000E+00
         0.00000E+00
         0.00000E+00
         0.00000E+00
         0.00000E+00
         0.00000E+00
         0.00000E+00
         0.00000E+00
         0.00000E+00
         0.00000E+00
         0.00000E+00
         0.00000E+00
         0.00000E+00
         0.00000E+00
         0.00000E+00
         0.00000E+00
         0.00000E+00
         0.00000E+00
         0.00000E+00
         0.00000E+00
         0.00000E+00
         0.00000E+00
         0.00000E+00
         0.00000E+00
         0.00000E+00
         0.00000E+00
         0.00000E+00
         0.00000E+00
         0.00000E+00
         0.00000E+00
         0.00000E+00
         0.00000E+00
         0.00000E+00
         0.00000E+00
         0.00000E+00
         0.00000E+00
         0.00000E+00
         0.00000E+00
         0.00000E+00
         0.00000E+00
         0.00000E+00
         0.00000E+00
         0.00000E+00
         0.00000E+00
         0.00000E+00
         0.00000E+00
         0.00000E+00
         0.00000E+00
         0.00000E+00
         0.00000E+00
         0.00000E+00
         0.00000E+00
         0.00000E+00
         0.00000E+00
         0.00000E+00
         0.00000E+00
         0.00000E+00
         0.00000E+00
         0.00000E+00
         0.00000E+00
         0.00000E+00
         0.00000E+00
         0.00000E+00
         0.00000E+00
         0.00000E+00
         0.00000E+00
         0.00000E+00
         0.00000E+00
         0.00000E+00
         0.00000E+00
         0.00000E+00
         0.00000E+00
         0.00000E+00
         0.00000E+00
         0.00000E+00
         0.00000E+00
         0.00000E+00
         0.00000E+00
         0.00000E+00
         0.00000E+00
         0.00000E+00
         0.00000E+00
         0.00000E+00
         0.00000E+00
         0.00000E+00
         0.00000E+00
         0.00000E+00
         0.00000E+00
         0.00000E+00
         0.00000E+00
         0.00000E+00
         0.00000E+00
         0.00000E+00
         0.00000E+00
         0.00000E+00
         0.00000E+00
         0.00000E+00
         0.00000E+00
         0.00000E+00
         0.00000E+00
         0.00000E+00
         0.00000E+00
         0.00000E+00
         0.00000E+00
         0.00000E+00
         0.00000E+00
         0.00000E+00
         0.00000E+00
         0.00000E+00
         0.00000E+00
         0.00000E+00
         0.00000E+00
         0.00000E+00
         0.00000E+00
         0.00000E+00
         0.00000E+00
         0.00000E+00
         0.00000E+00
         0.00000E+00
         0.00000E+00
         0.00000E+00
         0.00000E+00
         0.00000E+00
         0.00000E+00
         0.00000E+00
         0.00000E+00
         0.00000E+00
         0.00000E+00
         0.00000E+00
         0.00000E+00
         0.00000E+00
         0.00000E+00
         0.00000E+00
         0.00000E+00
         0.00000E+00
         0.00000E+00
         0.00000E+00
         0.00000E+00
         0.00000E+00
         0.00000E+00
         0.00000E+00
         0.00000E+00
         0.00000E+00
         0.00000E+00
         0.00000E+00
         0.00000E+00
         0.00000E+00
         0.00000E+00
         0.00000E+00
         0.00000E+00
         0.00000E+00
         0.00000E+00
         0.00000E+00
         0.00000E+00
         0.00000E+00
         0.00000E+00
         0.00000E+00
         0.00000E+00
         0.00000E+00
         0.00000E+00
         0.00000E+00
         0.00000E+00
         0.00000E+00
         0.00000E+00
         0.00000E+00
         0.00000E+00
         0.00000E+00
         0.00000E+00
         0.00000E+00
         0.00000E+00
         0.00000E+00
         0.00000E+00
         0.00000E+00
         0.00000E+00
         0.00000E+00
         0.00000E+00
         0.00000E+00
         0.00000E+00
         0.00000E+00
         0.00000E+00
         0.00000E+00
         0.00000E+00
         0.00000E+00
         0.00000E+00
         0.00000E+00
         0.00000E+00
         0.00000E+00
         0.00000E+00
         0.00000E+00
         0.00000E+00
         0.00000E+00
         0.00000E+00
         0.00000E+00
         0.00000E+00
         0.00000E+00
         0.00000E+00
         0.00000E+00
         0.00000E+00
         0.00000E+00
         0.00000E+00
         0.00000E+00
         0.00000E+00
         0.00000E+00
         0.00000E+00
         0.00000E+00
         0.00000E+00
         0.00000E+00
         0.00000E+00
         0.00000E+00
         0.00000E+00
         0.00000E+00
         0.00000E+00
         0.00000E+00
         0.00000E+00
         0.00000E+00
         0.00000E+00
         0.00000E+00
         0.00000E+00
         0.00000E+00
         0.00000E+00
         0.00000E+00
         0.00000E+00
         0.00000E+00
         0.00000E+00
         0.00000E+00
         0.00000E+00
         0.00000E+00
         0.00000E+00
         0.00000E+00
         0.00000E+00
         0.00000E+00
         0.00000E+00
         0.00000E+00
         0.00000E+00
         0.00000E+00
         0.00000E+00
         0.00000E+00
         0.00000E+00
         0.00000E+00
         0.00000E+00
         0.00000E+00
         0.00000E+00
         0.00000E+00
         0.00000E+00
         0.00000E+00
         0.00000E+00
         0.00000E+00
         0.00000E+00
         0.00000E+00
         0.00000E+00
         0.00000E+00
         0.00000E+00
         0.00000E+00
         0.00000E+00
         0.00000E+00
         0.00000E+00
         0.00000E+00
         0.00000E+00
         0.00000E+00
         0.00000E+00
         0.00000E+00
         0.00000E+00
         0.00000E+00
         0.00000E+00
         0.00000E+00
         0.00000E+00
         0.00000E+00
         0.00000E+00
         0.00000E+00
         0.00000E+00
         0.00000E+00
         0.00000E+00
         0.00000E+00
         0.00000E+00
         0.00000E+00
         0.00000E+00
         0.00000E+00
         0.00000E+00
         0.00000E+00
         0.00000E+00
         0.00000E+00
         0.00000E+00
         0.00000E+00
         0.00000E+00
         0.00000E+00
         0.00000E+00
         0.00000E+00
         0.00000E+00
         0.00000E+00
         0.00000E+00
         0.00000E+00
         0.00000E+00
         0.00000E+00
         0.00000E+00
         0.00000E+00
         0.00000E+00
         0.00000E+00
         0.00000E+00
         0.00000E+00
         0.00000E+00
         0.00000E+00
         0.00000E+00
         0.00000E+00
         0.00000E+00
         0.00000E+00
         0.00000E+00
         0.00000E+00
         0.00000E+00
         0.00000E+00
         0.00000E+00
         0.00000E+00
         0.00000E+00
         0.00000E+00
         0.00000E+00
         0.00000E+00
         0.00000E+00
         0.00000E+00
         0.00000E+00
         0.00000E+00
         0.00000E+00
         0.00000E+00
         0.00000E+00
         0.00000E+00
         0.00000E+00
         0.00000E+00
         0.00000E+00
         0.00000E+00
         0.00000E+00
         0.00000E+00
         0.00000E+00
         0.00000E+00
         0.00000E+00
         0.00000E+00
         0.00000E+00
         0.00000E+00
         0.00000E+00
         0.00000E+00
         0.00000E+00
         0.00000E+00
         0.00000E+00
         0.00000E+00
         0.00000E+00
         0.00000E+00
         0.00000E+00
         0.00000E+00
         0.00000E+00
         0.00000E+00
         0.00000E+00
         0.00000E+00
         0.00000E+00
         0.00000E+00
         0.00000E+00
         0.00000E+00
         0.00000E+00
         0.00000E+00
         0.00000E+00
         0.00000E+00
         0.00000E+00
         0.00000E+00
         0.00000E+00
         0.00000E+00
         0.00000E+00
         0.00000E+00
         0.00000E+00
         0.00000E+00
         0.00000E+00
         0.00000E+00
         0.00000E+00
         0.00000E+00
         0.00000E+00
         0.00000E+00
         0.00000E+00
         0.00000E+00
         0.00000E+00
         0.00000E+00
         0.00000E+00
         0.00000E+00
         0.00000E+00
         0.00000E+00
         0.00000E+00
         0.00000E+00
         0.00000E+00
         0.00000E+00
         0.00000E+00
         0.00000E+00
         0.00000E+00
         0.00000E+00
         0.00000E+00
         0.00000E+00
         0.00000E+00
         0.00000E+00
         0.00000E+00
         0.00000E+00
         0.00000E+00
         0.00000E+00
         0.00000E+00
         0.00000E+00
         0.00000E+00
         0.00000E+00
         0.00000E+00
         0.00000E+00
         0.00000E+00
         0.00000E+00
         0.00000E+00
         0.00000E+00
         0.00000E+00
         0.00000E+00
         0.00000E+00
         0.00000E+00
         0.00000E+00
         0.00000E+00
         0.00000E+00
         0.00000E+00
         0.00000E+00
         0.00000E+00
         0.00000E+00
         0.00000E+00
         0.00000E+00
         0.00000E+00
         0.00000E+00
         0.00000E+00
         0.00000E+00
         0.00000E+00
         0.00000E+00
         0.00000E+00
         0.00000E+00
         0.00000E+00
         0.00000E+00
         0.00000E+00
         0.00000E+00
         0.00000E+00
         0.00000E+00
         0.00000E+00
         0.00000E+00
         0.00000E+00
         0.00000E+00
         0.00000E+00
         0.00000E+00
         0.00000E+00
         0.00000E+00
         0.00000E+00
         0.00000E+00
         0.00000E+00
         0.00000E+00
         0.00000E+00
         0.00000E+00
         0.00000E+00
         0.00000E+00
         0.00000E+00
         0.00000E+00
         0.00000E+00
         0.00000E+00
         0.00000E+00
         0.00000E+00
         0.00000E+00
         0.00000E+00
         0.00000E+00
         0.00000E+00
         0.00000E+00
         0.00000E+00
         0.00000E+00
         0.00000E+00
         0.00000E+00
         0.00000E+00
         0.00000E+00
         0.00000E+00
         0.00000E+00
         0.00000E+00
         0.00000E+00
         0.00000E+00
         0.00000E+00
         0.00000E+00
         0.00000E+00
         0.00000E+00
         0.00000E+00
         0.00000E+00
         0.00000E+00
         0.00000E+00
         0.00000E+00
         0.00000E+00
         0.00000E+00
         0.00000E+00
         0.00000E+00
         0.00000E+00
         0.00000E+00
         0.00000E+00
         0.00000E+00
         0.00000E+00
         0.00000E+00
         0.00000E+00
         0.00000E+00
         0.00000E+00
         0.00000E+00
         0.00000E+00
         0.00000E+00
         0.00000E+00
         0.00000E+00
         0.00000E+00
         0.00000E+00
         0.00000E+00
         0.00000E+00
         0.00000E+00
         0.00000E+00
         0.00000E+00
         0.00000E+00
         0.00000E+00
         0.00000E+00
         0.00000E+00
         0.00000E+00
         0.00000E+00
         0.00000E+00
         0.00000E+00
         0.00000E+00
         0.00000E+00
         0.00000E+00
         0.00000E+00
         0.00000E+00
         0.00000E+00
         0.00000E+00
         0.00000E+00
         0.00000E+00
         0.00000E+00
         0.00000E+00
         0.00000E+00
         0.00000E+00
         0.00000E+00
         0.00000E+00
         0.00000E+00
         0.00000E+00
         0.00000E+00
         0.00000E+00
         0.00000E+00
         0.00000E+00
         0.00000E+00
         0.00000E+00
         0.00000E+00
         0.00000E+00
         0.00000E+00
         0.00000E+00
         0.00000E+00
         0.00000E+00
         0.00000E+00
         0.00000E+00
         0.00000E+00
         0.00000E+00
         0.00000E+00
         0.00000E+00
         0.00000E+00
         0.00000E+00
         0.00000E+00
         0.00000E+00
         0.00000E+00
         0.00000E+00
         0.00000E+00
         0.00000E+00
         0.00000E+00
         0.00000E+00
         0.00000E+00
         0.00000E+00
         0.00000E+00
         0.00000E+00
         0.00000E+00
         0.00000E+00
         0.00000E+00
         0.00000E+00
         0.00000E+00
         0.00000E+00
         0.00000E+00
         0.00000E+00
         0.00000E+00
         0.00000E+00
         0.00000E+00
         0.00000E+00
         0.00000E+00
         0.00000E+00
         0.00000E+00
         0.00000E+00
         0.00000E+00
         0.00000E+00
         0.00000E+00
         0.00000E+00
         0.00000E+00
         0.00000E+00
         0.00000E+00
         0.00000E+00
         0.00000E+00
         0.00000E+00
         0.00000E+00
         0.00000E+00
         0.00000E+00
         0.00000E+00
         0.00000E+00
         0.00000E+00
         0.00000E+00
         0.00000E+00
         0.00000E+00
         0.00000E+00
         0.00000E+00
         0.00000E+00
         0.00000E+00
         0.00000E+00
         0.00000E+00
         0.00000E+00
         0.00000E+00
         0.00000E+00
         0.00000E+00
         0.00000E+00
         0.00000E+00
         0.00000E+00
         0.00000E+00
         0.00000E+00
         0.00000E+00
         0.00000E+00
         0.00000E+00
         0.00000E+00
         0.00000E+00
         0.00000E+00
         0.00000E+00
         0.00000E+00
         0.00000E+00
         0.00000E+00
         0.00000E+00
         0.00000E+00
         0.00000E+00
         0.00000E+00
         0.00000E+00
         0.00000E+00
         0.00000E+00
         0.00000E+00
         0.00000E+00
         0.00000E+00
         0.00000E+00
         0.00000E+00
         0.00000E+00
         0.00000E+00
         0.00000E+00
         0.00000E+00
         0.00000E+00
         0.00000E+00
         0.00000E+00
         0.00000E+00
         0.00000E+00
         0.00000E+00
         0.00000E+00
         0.00000E+00
         0.00000E+00
         0.00000E+00
         0.00000E+00
         0.00000E+00
         0.00000E+00
         0.00000E+00
         0.00000E+00
         0.00000E+00
         0.00000E+00
         0.00000E+00
         0.00000E+00
         0.00000E+00
         0.00000E+00
         0.00000E+00
         0.00000E+00
         0.00000E+00
         0.00000E+00
         0.00000E+00
         0.00000E+00
         0.00000E+00
         0.00000E+00
         0.00000E+00
         0.00000E+00
         0.00000E+00
         0.00000E+00
         0.00000E+00
         0.00000E+00
         0.00000E+00
         0.00000E+00
         0.00000E+00
         0.00000E+00
         0.00000E+00
         0.00000E+00
         0.00000E+00
         0.00000E+00
         0.00000E+00
         0.00000E+00
         0.00000E+00
         0.00000E+00
         0.00000E+00
         0.00000E+00
         0.00000E+00
         0.00000E+00
         0.00000E+00
         0.00000E+00
         0.00000E+00
         0.00000E+00
         0.00000E+00
         0.00000E+00
         0.00000E+00
         0.00000E+00
         0.00000E+00
         0.00000E+00
         0.00000E+00
         0.00000E+00
         0.00000E+00
         0.00000E+00
         0.00000E+00
         0.00000E+00
         0.00000E+00
         0.00000E+00
         0.00000E+00
         0.00000E+00
         0.00000E+00
         0.00000E+00
         0.00000E+00
         0.00000E+00
         0.00000E+00
         0.00000E+00
         0.00000E+00
         0.00000E+00
         0.00000E+00
         0.00000E+00
         0.00000E+00
         0.00000E+00
         0.00000E+00
         0.00000E+00
         0.00000E+00
         0.00000E+00
         0.00000E+00
         0.00000E+00
         0.00000E+00
         0.00000E+00
         0.00000E+00
         0.00000E+00
         0.00000E+00
         0.00000E+00
         0.00000E+00
         0.00000E+00
         0.00000E+00
         0.00000E+00
         0.00000E+00
         0.00000E+00
         0.00000E+00
         0.00000E+00
         0.00000E+00
         0.00000E+00
         0.00000E+00
         0.00000E+00
         0.00000E+00
         0.00000E+00
         0.00000E+00
         0.00000E+00
         0.00000E+00
         0.00000E+00
         0.00000E+00
         0.00000E+00
         0.00000E+00
         0.00000E+00
         0.00000E+00
         0.00000E+00
         0.00000E+00
         0.00000E+00
         0.00000E+00
         0.00000E+00
         0.00000E+00
         0.00000E+00
         0.00000E+00
         0.00000E+00
         0.00000E+00
         0.00000E+00
         0.00000E+00
         0.00000E+00
         0.00000E+00
         0.00000E+00
         0.00000E+00
         0.00000E+00
         0.00000E+00
         0.00000E+00
         0.00000E+00
         0.00000E+00
         0.00000E+00
         0.00000E+00
         0.00000E+00
         0.00000E+00
         0.00000E+00
         0.00000E+00
         0.00000E+00
         0.00000E+00
         0.00000E+00
         0.00000E+00
         0.00000E+00
         0.00000E+00
         0.00000E+00
         0.00000E+00
         0.00000E+00
         0.00000E+00
         0.00000E+00
         0.00000E+00
         0.00000E+00
         0.00000E+00
         0.00000E+00
         0.00000E+00
         0.00000E+00
         0.00000E+00
         0.00000E+00
         0.00000E+00
         0.00000E+00
         0.00000E+00
         0.00000E+00
         0.00000E+00
         0.00000E+00
         0.00000E+00
         0.00000E+00
         0.00000E+00
         0.00000E+00
         0.00000E+00
         0.00000E+00
         0.00000E+00
         0.00000E+00
         0.00000E+00
         0.00000E+00
         0.00000E+00
         0.00000E+00
         0.00000E+00
         0.00000E+00
         0.00000E+00
         0.00000E+00
         0.00000E+00
         0.00000E+00
         0.00000E+00
         0.00000E+00
         0.00000E+00
         0.00000E+00
         0.00000E+00
         0.00000E+00
         0.00000E+00
         0.00000E+00
         0.00000E+00
         0.00000E+00
         0.00000E+00
         0.00000E+00
         0.00000E+00
         0.00000E+00
         0.00000E+00
         0.00000E+00
         0.00000E+00
         0.00000E+00
         0.00000E+00
         0.00000E+00
         0.00000E+00
         0.00000E+00
         0.00000E+00
         0.00000E+00
         0.00000E+00
         0.00000E+00
         0.00000E+00
         0.00000E+00
         0.00000E+00
         0.00000E+00
         0.00000E+00
         0.00000E+00
         0.00000E+00
         0.00000E+00
         0.00000E+00
         0.00000E+00
         0.00000E+00
         0.00000E+00
         0.00000E+00
         0.00000E+00
         0.00000E+00
         0.00000E+00
         0.00000E+00
         0.00000E+00
         0.00000E+00
         0.00000E+00
         0.00000E+00
         0.00000E+00
         0.00000E+00
         0.00000E+00
         0.00000E+00
         0.00000E+00
         0.00000E+00
         0.00000E+00
         0.00000E+00
         0.00000E+00
         0.00000E+00
         0.00000E+00
         0.00000E+00
         0.00000E+00
         0.00000E+00
         0.00000E+00
         0.00000E+00
         0.00000E+00
         0.00000E+00
         0.00000E+00
         0.00000E+00
         0.00000E+00
         0.00000E+00
         0.00000E+00
         0.00000E+00
         0.00000E+00
         0.00000E+00
         0.00000E+00
         0.00000E+00
         0.00000E+00
         0.00000E+00
         0.00000E+00
         0.00000E+00
         0.00000E+00
         0.00000E+00
         0.00000E+00
         0.00000E+00
         0.00000E+00
         0.00000E+00
         0.00000E+00
         0.00000E+00
         0.00000E+00
         0.00000E+00
         0.00000E+00
         0.00000E+00
         0.00000E+00
         0.00000E+00
         0.00000E+00
         0.00000E+00
         0.00000E+00
         0.00000E+00
         0.00000E+00
         0.00000E+00
         0.00000E+00
         0.00000E+00
         0.00000E+00
         0.00000E+00
         0.00000E+00
         0.00000E+00
         0.00000E+00
         0.00000E+00
         0.00000E+00
         0.00000E+00
         0.00000E+00
         0.00000E+00
         0.00000E+00
         0.00000E+00
         0.00000E+00
         0.00000E+00
         0.00000E+00
         0.00000E+00
         0.00000E+00
         0.00000E+00
         0.00000E+00
         0.00000E+00
         0.00000E+00
         0.00000E+00
         0.00000E+00
         0.00000E+00
         0.00000E+00
         0.00000E+00
         0.00000E+00
         0.00000E+00
         0.00000E+00
         0.00000E+00
         0.00000E+00
         0.00000E+00
         0.00000E+00
         0.00000E+00
         0.00000E+00
         0.00000E+00
         0.00000E+00
         0.00000E+00
         0.00000E+00
         0.00000E+00
         0.00000E+00
         0.00000E+00
         0.00000E+00
         0.00000E+00
         0.00000E+00
         0.00000E+00
         0.00000E+00
         0.00000E+00
         0.00000E+00
         0.00000E+00
         0.00000E+00
         0.00000E+00
         0.00000E+00
         0.00000E+00
         0.00000E+00
         0.00000E+00
         0.00000E+00
         0.00000E+00
         0.00000E+00
         0.00000E+00
         0.00000E+00
         0.00000E+00
         0.00000E+00
         0.00000E+00
         0.00000E+00
         0.00000E+00
         0.00000E+00
         0.00000E+00
         0.00000E+00
         0.00000E+00
         0.00000E+00
         0.00000E+00
         0.00000E+00
         0.00000E+00
         0.00000E+00
         0.00000E+00
         0.00000E+00
         0.00000E+00
         0.00000E+00
         0.00000E+00
         0.00000E+00
         0.00000E+00
         0.00000E+00
         0.00000E+00
         0.00000E+00
         0.00000E+00
         0.00000E+00
         0.00000E+00
         0.00000E+00
         0.00000E+00
         0.00000E+00
         0.00000E+00
         0.00000E+00
         0.00000E+00
         0.00000E+00
         0.00000E+00
         0.00000E+00
         0.00000E+00
         0.00000E+00
         0.00000E+00
         0.00000E+00
         0.00000E+00
         0.00000E+00
         0.00000E+00
         0.00000E+00
         0.00000E+00
         0.00000E+00
         0.00000E+00
         0.00000E+00
         0.00000E+00
         0.00000E+00
         0.00000E+00
         0.00000E+00
         0.00000E+00
         0.00000E+00
         0.00000E+00
         0.00000E+00
         0.00000E+00
         0.00000E+00
         0.00000E+00
         0.00000E+00
         0.00000E+00
         0.00000E+00
         0.00000E+00
         0.00000E+00
         0.00000E+00
         0.00000E+00
         0.00000E+00
         0.00000E+00
         0.00000E+00
         0.00000E+00
         0.00000E+00
         0.00000E+00
         0.00000E+00
         0.00000E+00
         0.00000E+00
         0.00000E+00
         0.00000E+00
         0.00000E+00
         0.00000E+00
         0.00000E+00
         0.00000E+00
         0.00000E+00
         0.00000E+00
         0.00000E+00
         0.00000E+00
         0.00000E+00
         0.00000E+00
         0.00000E+00
         0.00000E+00
         0.00000E+00
         0.00000E+00
         0.00000E+00
         0.00000E+00
         0.00000E+00
         0.00000E+00
         0.00000E+00
         0.00000E+00
         0.00000E+00
         0.00000E+00
         0.00000E+00
         0.00000E+00
         0.00000E+00
         0.00000E+00
         0.00000E+00
         0.00000E+00
         0.00000E+00
         0.00000E+00
         0.00000E+00
         0.00000E+00
         0.00000E+00
         0.00000E+00
         0.00000E+00
         0.00000E+00
         0.00000E+00
         0.00000E+00
         0.00000E+00
         0.00000E+00
         0.00000E+00
         0.00000E+00
         0.00000E+00
         0.00000E+00
         0.00000E+00
         0.00000E+00
         0.00000E+00
         0.00000E+00
         0.00000E+00
         0.00000E+00
         0.00000E+00
         0.00000E+00
         0.00000E+00
         0.00000E+00
         0.00000E+00
         0.00000E+00
         0.00000E+00
         0.00000E+00
         0.00000E+00
         0.00000E+00
         0.00000E+00
         0.00000E+00
         0.00000E+00
         0.00000E+00
         0.00000E+00
         0.00000E+00
         0.00000E+00
         0.00000E+00
         0.00000E+00
         0.00000E+00
         0.00000E+00
         0.00000E+00
         0.00000E+00
         0.00000E+00
         0.00000E+00
         0.00000E+00
         0.00000E+00
         0.00000E+00
         0.00000E+00
         0.00000E+00
         0.00000E+00
         0.00000E+00
         0.00000E+00
         0.00000E+00
         0.00000E+00
         0.00000E+00
         0.00000E+00
         0.00000E+00
         0.00000E+00
         0.00000E+00
         0.00000E+00
         0.00000E+00
         0.00000E+00
         0.00000E+00
         0.00000E+00
         0.00000E+00
         0.00000E+00
         0.00000E+00
         0.00000E+00
         0.00000E+00
         0.00000E+00
         0.00000E+00
         0.00000E+00
         0.00000E+00
         0.00000E+00
         0.00000E+00
         0.00000E+00
         0.00000E+00
         0.00000E+00
         0.00000E+00
         0.00000E+00
         0.00000E+00
         0.00000E+00
         0.00000E+00
         0.00000E+00
         0.00000E+00
         0.00000E+00
         0.00000E+00
         0.00000E+00
         0.00000E+00
         0.00000E+00
         0.00000E+00
         0.00000E+00
         0.00000E+00
         0.00000E+00
         0.00000E+00
         0.00000E+00
         0.00000E+00
         0.00000E+00
         0.00000E+00
         0.00000E+00
         0.00000E+00
         0.00000E+00
         0.00000E+00
         0.00000E+00
         0.00000E+00
         0.00000E+00
         0.00000E+00
         0.00000E+00
         0.00000E+00
         0.00000E+00
         0.00000E+00
         0.00000E+00
         0.00000E+00
         0.00000E+00
         0.00000E+00
         0.00000E+00
         0.00000E+00
         0.00000E+00
         0.00000E+00
         0.00000E+00
         0.00000E+00
         0.00000E+00
         0.00000E+00
         0.00000E+00
         0.00000E+00
         0.00000E+00
         0.00000E+00
         0.00000E+00
         0.00000E+00
         0.00000E+00
         0.00000E+00
         0.00000E+00
         0.00000E+00
         0.00000E+00
         0.00000E+00
         0.00000E+00
         0.00000E+00
         0.00000E+00
         0.00000E+00
         0.00000E+00
         0.00000E+00
         0.00000E+00
         0.00000E+00
         0.00000E+00
         0.00000E+00
         0.00000E+00
         0.00000E+00
         0.00000E+00
         0.00000E+00
         0.00000E+00
         0.00000E+00
         0.00000E+00
         0.00000E+00
         0.00000E+00
         0.00000E+00
         0.00000E+00
         0.00000E+00
         0.00000E+00
         0.00000E+00
         0.00000E+00
         0.00000E+00
         0.00000E+00
         0.00000E+00
         0.00000E+00
         0.00000E+00
         0.00000E+00
         0.00000E+00
         0.00000E+00
         0.00000E+00
         0.00000E+00
         0.00000E+00
         0.00000E+00
         0.00000E+00
         0.00000E+00
         0.00000E+00
         0.00000E+00
         0.00000E+00
         0.00000E+00
         0.00000E+00
         0.00000E+00
         0.00000E+00
         0.00000E+00
         0.00000E+00
         0.00000E+00
         0.00000E+00
         0.00000E+00
         0.00000E+00
         0.00000E+00
         0.00000E+00
         0.00000E+00
         0.00000E+00
         0.00000E+00
         0.00000E+00
         0.00000E+00
         0.00000E+00
         0.00000E+00
         0.00000E+00
         0.00000E+00
         0.00000E+00
         0.00000E+00
         0.00000E+00
         0.00000E+00
         0.00000E+00
         0.00000E+00
         0.00000E+00
         0.00000E+00
         0.00000E+00
         0.00000E+00
         0.00000E+00
         0.00000E+00
         0.00000E+00
         0.00000E+00
         0.00000E+00
         0.00000E+00
         0.00000E+00
         0.00000E+00
         0.00000E+00
         0.00000E+00
         0.00000E+00
         0.00000E+00
         0.00000E+00
         0.00000E+00
         0.00000E+00
         0.00000E+00
         0.00000E+00
         0.00000E+00
         0.00000E+00
         0.00000E+00
         0.00000E+00
         0.00000E+00
         0.00000E+00
         0.00000E+00
         0.00000E+00
         0.00000E+00
         0.00000E+00
         0.00000E+00
         0.00000E+00
         0.00000E+00
         0.00000E+00
         0.00000E+00
         0.00000E+00
         0.00000E+00
         0.00000E+00
         0.00000E+00
         0.00000E+00
         0.00000E+00
         0.00000E+00
         0.00000E+00
         0.00000E+00
         0.00000E+00
         0.00000E+00
         0.00000E+00
         0.00000E+00
         0.00000E+00
         0.00000E+00
         0.00000E+00
         0.00000E+00
         0.00000E+00
         0.00000E+00
         0.00000E+00
         0.00000E+00
         0.00000E+00
         0.00000E+00
         0.00000E+00
         0.00000E+00
         0.00000E+00
         0.00000E+00
         0.00000E+00
         0.00000E+00
         0.00000E+00
         0.00000E+00
         0.00000E+00
         0.00000E+00
         0.00000E+00
         0.00000E+00
         0.00000E+00
         0.00000E+00
         0.00000E+00
         0.00000E+00
         0.00000E+00
         0.00000E+00
         0.00000E+00
         0.00000E+00
         0.00000E+00
         0.00000E+00
         0.00000E+00
         0.00000E+00
         0.00000E+00
         0.00000E+00
         0.00000E+00
         0.00000E+00
         0.00000E+00
         0.00000E+00
         0.00000E+00
         0.00000E+00
         0.00000E+00
         0.00000E+00
         0.00000E+00
         0.00000E+00
         0.00000E+00
         0.00000E+00
         0.00000E+00
         0.00000E+00
         0.00000E+00
         0.00000E+00
         0.00000E+00
         0.00000E+00
         0.00000E+00
         0.00000E+00
         0.00000E+00
         0.00000E+00
         0.00000E+00
         0.00000E+00
         0.00000E+00
         0.00000E+00
         0.00000E+00
         0.00000E+00
         0.00000E+00
         0.00000E+00
         0.00000E+00
         0.00000E+00
         0.00000E+00
         0.00000E+00
         0.00000E+00
         0.00000E+00
         0.00000E+00
         0.00000E+00
         0.00000E+00
         0.00000E+00
         0.00000E+00
         0.00000E+00
         0.00000E+00
         0.00000E+00
         0.00000E+00
         0.00000E+00
         0.00000E+00
         0.00000E+00
         0.00000E+00
         0.00000E+00
         0.00000E+00
         0.00000E+00
         0.00000E+00
         0.00000E+00
         0.00000E+00
         0.00000E+00
         0.00000E+00
         0.00000E+00
         0.00000E+00
         0.00000E+00
         0.00000E+00
         0.00000E+00
         0.00000E+00
         0.00000E+00
         0.00000E+00
         0.00000E+00
         0.00000E+00
         0.00000E+00
         0.00000E+00
         0.00000E+00
         0.00000E+00
         0.00000E+00
         0.00000E+00
         0.00000E+00
         0.00000E+00
         0.00000E+00
         0.00000E+00
         0.00000E+00
         0.00000E+00
         0.00000E+00
         0.00000E+00
         0.00000E+00
         0.00000E+00
         0.00000E+00
         0.00000E+00
         0.00000E+00
         0.00000E+00
         0.00000E+00
         0.00000E+00
         0.00000E+00
         0.00000E+00
         0.00000E+00
         0.00000E+00
         0.00000E+00
         0.00000E+00
         0.00000E+00
         0.00000E+00
         0.00000E+00
         0.00000E+00
         0.00000E+00
         0.00000E+00
         0.00000E+00
         0.00000E+00
         0.00000E+00
         0.00000E+00
         0.00000E+00
         0.00000E+00
         0.00000E+00
         0.00000E+00
         0.00000E+00
         0.00000E+00
         0.00000E+00
         0.00000E+00
         0.00000E+00
         0.00000E+00
         0.00000E+00
         0.00000E+00
  
SCALARS                     velocity_y  double 1
LOOKUP_TABLE default
         0.00000E+00
         0.00000E+00
         0.00000E+00
         0.00000E+00
         0.00000E+00
         0.00000E+00
         0.00000E+00
         0.00000E+00
         0.00000E+00
         0.00000E+00
         0.00000E+00
         0.00000E+00
         0.00000E+00
         0.00000E+00
         0.00000E+00
         0.00000E+00
         0.00000E+00
         0.00000E+00
         0.00000E+00
         0.00000E+00
         0.00000E+00
         0.00000E+00
         0.00000E+00
         0.00000E+00
         0.00000E+00
         0.00000E+00
         0.00000E+00
         0.00000E+00
         0.00000E+00
         0.00000E+00
         0.00000E+00
         0.00000E+00
         0.00000E+00
         0.00000E+00
         0.00000E+00
         0.00000E+00
         0.00000E+00
         0.00000E+00
         0.00000E+00
         0.00000E+00
         0.00000E+00
         0.00000E+00
         0.00000E+00
         0.00000E+00
         0.00000E+00
         0.00000E+00
         0.00000E+00
         0.00000E+00
         0.00000E+00
         0.00000E+00
         0.00000E+00
         0.00000E+00
         0.00000E+00
         0.00000E+00
         0.00000E+00
         0.00000E+00
         0.00000E+00
         0.00000E+00
         0.00000E+00
         0.00000E+00
         0.00000E+00
         0.00000E+00
         0.00000E+00
         0.00000E+00
         0.00000E+00
         0.00000E+00
         0.00000E+00
         0.00000E+00
         0.00000E+00
         0.00000E+00
         0.00000E+00
         0.00000E+00
         0.00000E+00
         0.00000E+00
         0.00000E+00
         0.00000E+00
         0.00000E+00
         0.00000E+00
         0.00000E+00
         0.00000E+00
         0.00000E+00
         0.00000E+00
         0.00000E+00
         0.00000E+00
         0.00000E+00
         0.00000E+00
         0.00000E+00
         0.00000E+00
         0.00000E+00
         0.00000E+00
         0.00000E+00
         0.00000E+00
         0.00000E+00
         0.00000E+00
         0.00000E+00
         0.00000E+00
         0.00000E+00
         0.00000E+00
         0.00000E+00
         0.00000E+00
         0.00000E+00
         0.00000E+00
         0.00000E+00
         0.00000E+00
         0.00000E+00
         0.00000E+00
         0.00000E+00
         0.00000E+00
         0.00000E+00
         0.00000E+00
         0.00000E+00
         0.00000E+00
         0.00000E+00
         0.00000E+00
         0.00000E+00
         0.00000E+00
         0.00000E+00
         0.00000E+00
         0.00000E+00
         0.00000E+00
         0.00000E+00
         0.00000E+00
         0.00000E+00
         0.00000E+00
         0.00000E+00
         0.00000E+00
         0.00000E+00
         0.00000E+00
         0.00000E+00
         0.00000E+00
         0.00000E+00
         0.00000E+00
         0.00000E+00
         0.00000E+00
         0.00000E+00
         0.00000E+00
         0.00000E+00
         0.00000E+00
         0.00000E+00
         0.00000E+00
         0.00000E+00
         0.00000E+00
         0.00000E+00
         0.00000E+00
         0.00000E+00
         0.00000E+00
         0.00000E+00
         0.00000E+00
         0.00000E+00
         0.00000E+00
         0.00000E+00
         0.00000E+00
         0.00000E+00
         0.00000E+00
         0.00000E+00
         0.00000E+00
         0.00000E+00
         0.00000E+00
         0.00000E+00
         0.00000E+00
         0.00000E+00
         0.00000E+00
         0.00000E+00
         0.00000E+00
         0.00000E+00
         0.00000E+00
         0.00000E+00
         0.00000E+00
         0.00000E+00
         0.00000E+00
         0.00000E+00
         0.00000E+00
         0.00000E+00
         0.00000E+00
         0.00000E+00
         0.00000E+00
         0.00000E+00
         0.00000E+00
         0.00000E+00
         0.00000E+00
         0.00000E+00
         0.00000E+00
         0.00000E+00
         0.00000E+00
         0.00000E+00
         0.00000E+00
         0.00000E+00
         0.00000E+00
         0.00000E+00
         0.00000E+00
         0.00000E+00
         0.00000E+00
         0.00000E+00
         0.00000E+00
         0.00000E+00
         0.00000E+00
         0.00000E+00
         0.00000E+00
         0.00000E+00
         0.00000E+00
         0.00000E+00
         0.00000E+00
         0.00000E+00
         0.00000E+00
         0.00000E+00
         0.00000E+00
         0.00000E+00
         0.00000E+00
         0.00000E+00
         0.00000E+00
         0.00000E+00
         0.00000E+00
         0.00000E+00
         0.00000E+00
         0.00000E+00
         0.00000E+00
         0.00000E+00
         0.00000E+00
         0.00000E+00
         0.00000E+00
         0.00000E+00
         0.00000E+00
         0.00000E+00
         0.00000E+00
         0.00000E+00
         0.00000E+00
         0.00000E+00
         0.00000E+00
         0.00000E+00
         0.00000E+00
         0.00000E+00
         0.00000E+00
         0.00000E+00
         0.00000E+00
         0.00000E+00
         0.00000E+00
         0.00000E+00
         0.00000E+00
         0.00000E+00
         0.00000E+00
         0.00000E+00
         0.00000E+00
         0.00000E+00
         0.00000E+00
         0.00000E+00
         0.00000E+00
         0.00000E+00
         0.00000E+00
         0.00000E+00
         0.00000E+00
         0.00000E+00
         0.00000E+00
         0.00000E+00
         0.00000E+00
         0.00000E+00
         0.00000E+00
         0.00000E+00
         0.00000E+00
         0.00000E+00
         0.00000E+00
         0.00000E+00
         0.00000E+00
         0.00000E+00
         0.00000E+00
         0.00000E+00
         0.00000E+00
         0.00000E+00
         0.00000E+00
         0.00000E+00
         0.00000E+00
         0.00000E+00
         0.00000E+00
         0.00000E+00
         0.00000E+00
         0.00000E+00
         0.00000E+00
         0.00000E+00
         0.00000E+00
         0.00000E+00
         0.00000E+00
         0.00000E+00
         0.00000E+00
         0.00000E+00
         0.00000E+00
         0.00000E+00
         0.00000E+00
         0.00000E+00
         0.00000E+00
         0.00000E+00
         0.00000E+00
         0.00000E+00
         0.00000E+00
         0.00000E+00
         0.00000E+00
         0.00000E+00
         0.00000E+00
         0.00000E+00
         0.00000E+00
         0.00000E+00
         0.00000E+00
         0.00000E+00
         0.00000E+00
         0.00000E+00
         0.00000E+00
         0.00000E+00
         0.00000E+00
         0.00000E+00
         0.00000E+00
         0.00000E+00
         0.00000E+00
         0.00000E+00
         0.00000E+00
         0.00000E+00
         0.00000E+00
         0.00000E+00
         0.00000E+00
         0.00000E+00
         0.00000E+00
         0.00000E+00
         0.00000E+00
         0.00000E+00
         0.00000E+00
         0.00000E+00
         0.00000E+00
         0.00000E+00
         0.00000E+00
         0.00000E+00
         0.00000E+00
         0.00000E+00
         0.00000E+00
         0.00000E+00
         0.00000E+00
         0.00000E+00
         0.00000E+00
         0.00000E+00
         0.00000E+00
         0.00000E+00
         0.00000E+00
         0.00000E+00
         0.00000E+00
         0.00000E+00
         0.00000E+00
         0.00000E+00
         0.00000E+00
         0.00000E+00
         0.00000E+00
         0.00000E+00
         0.00000E+00
         0.00000E+00
         0.00000E+00
         0.00000E+00
         0.00000E+00
         0.00000E+00
         0.00000E+00
         0.00000E+00
         0.00000E+00
         0.00000E+00
         0.00000E+00
         0.00000E+00
         0.00000E+00
         0.00000E+00
         0.00000E+00
         0.00000E+00
         0.00000E+00
         0.00000E+00
         0.00000E+00
         0.00000E+00
         0.00000E+00
         0.00000E+00
         0.00000E+00
         0.00000E+00
         0.00000E+00
         0.00000E+00
         0.00000E+00
         0.00000E+00
         0.00000E+00
         0.00000E+00
         0.00000E+00
         0.00000E+00
         0.00000E+00
         0.00000E+00
         0.00000E+00
         0.00000E+00
         0.00000E+00
         0.00000E+00
         0.00000E+00
         0.00000E+00
         0.00000E+00
         0.00000E+00
         0.00000E+00
         0.00000E+00
         0.00000E+00
         0.00000E+00
         0.00000E+00
         0.00000E+00
         0.00000E+00
         0.00000E+00
         0.00000E+00
         0.00000E+00
         0.00000E+00
         0.00000E+00
         0.00000E+00
         0.00000E+00
         0.00000E+00
         0.00000E+00
         0.00000E+00
         0.00000E+00
         0.00000E+00
         0.00000E+00
         0.00000E+00
         0.00000E+00
         0.00000E+00
         0.00000E+00
         0.00000E+00
         0.00000E+00
         0.00000E+00
         0.00000E+00
         0.00000E+00
         0.00000E+00
         0.00000E+00
         0.00000E+00
         0.00000E+00
         0.00000E+00
         0.00000E+00
         0.00000E+00
         0.00000E+00
         0.00000E+00
         0.00000E+00
         0.00000E+00
         0.00000E+00
         0.00000E+00
         0.00000E+00
         0.00000E+00
         0.00000E+00
         0.00000E+00
         0.00000E+00
         0.00000E+00
         0.00000E+00
         0.00000E+00
         0.00000E+00
         0.00000E+00
         0.00000E+00
         0.00000E+00
         0.00000E+00
         0.00000E+00
         0.00000E+00
         0.00000E+00
         0.00000E+00
         0.00000E+00
         0.00000E+00
         0.00000E+00
         0.00000E+00
         0.00000E+00
         0.00000E+00
         0.00000E+00
         0.00000E+00
         0.00000E+00
         0.00000E+00
         0.00000E+00
         0.00000E+00
         0.00000E+00
         0.00000E+00
         0.00000E+00
         0.00000E+00
         0.00000E+00
         0.00000E+00
         0.00000E+00
         0.00000E+00
         0.00000E+00
         0.00000E+00
         0.00000E+00
         0.00000E+00
         0.00000E+00
         0.00000E+00
         0.00000E+00
         0.00000E+00
         0.00000E+00
         0.00000E+00
         0.00000E+00
         0.00000E+00
         0.00000E+00
         0.00000E+00
         0.00000E+00
         0.00000E+00
         0.00000E+00
         0.00000E+00
         0.00000E+00
         0.00000E+00
         0.00000E+00
         0.00000E+00
         0.00000E+00
         0.00000E+00
         0.00000E+00
         0.00000E+00
         0.00000E+00
         0.00000E+00
         0.00000E+00
         0.00000E+00
         0.00000E+00
         0.00000E+00
         0.00000E+00
         0.00000E+00
         0.00000E+00
         0.00000E+00
         0.00000E+00
         0.00000E+00
         0.00000E+00
         0.00000E+00
         0.00000E+00
         0.00000E+00
         0.00000E+00
         0.00000E+00
         0.00000E+00
         0.00000E+00
         0.00000E+00
         0.00000E+00
         0.00000E+00
         0.00000E+00
         0.00000E+00
         0.00000E+00
         0.00000E+00
         0.00000E+00
         0.00000E+00
         0.00000E+00
         0.00000E+00
         0.00000E+00
         0.00000E+00
         0.00000E+00
         0.00000E+00
         0.00000E+00
         0.00000E+00
         0.00000E+00
         0.00000E+00
         0.00000E+00
         0.00000E+00
         0.00000E+00
         0.00000E+00
         0.00000E+00
         0.00000E+00
         0.00000E+00
         0.00000E+00
         0.00000E+00
         0.00000E+00
         0.00000E+00
         0.00000E+00
         0.00000E+00
         0.00000E+00
         0.00000E+00
         0.00000E+00
         0.00000E+00
         0.00000E+00
         0.00000E+00
         0.00000E+00
         0.00000E+00
         0.00000E+00
         0.00000E+00
         0.00000E+00
         0.00000E+00
         0.00000E+00
         0.00000E+00
         0.00000E+00
         0.00000E+00
         0.00000E+00
         0.00000E+00
         0.00000E+00
         0.00000E+00
         0.00000E+00
         0.00000E+00
         0.00000E+00
         0.00000E+00
         0.00000E+00
         0.00000E+00
         0.00000E+00
         0.00000E+00
         0.00000E+00
         0.00000E+00
         0.00000E+00
         0.00000E+00
         0.00000E+00
         0.00000E+00
         0.00000E+00
         0.00000E+00
         0.00000E+00
         0.00000E+00
         0.00000E+00
         0.00000E+00
         0.00000E+00
         0.00000E+00
         0.00000E+00
         0.00000E+00
         0.00000E+00
         0.00000E+00
         0.00000E+00
         0.00000E+00
         0.00000E+00
         0.00000E+00
         0.00000E+00
         0.00000E+00
         0.00000E+00
         0.00000E+00
         0.00000E+00
         0.00000E+00
         0.00000E+00
         0.00000E+00
         0.00000E+00
         0.00000E+00
         0.00000E+00
         0.00000E+00
         0.00000E+00
         0.00000E+00
         0.00000E+00
         0.00000E+00
         0.00000E+00
         0.00000E+00
         0.00000E+00
         0.00000E+00
         0.00000E+00
         0.00000E+00
         0.00000E+00
         0.00000E+00
         0.00000E+00
         0.00000E+00
         0.00000E+00
         0.00000E+00
         0.00000E+00
         0.00000E+00
         0.00000E+00
         0.00000E+00
         0.00000E+00
         0.00000E+00
         0.00000E+00
         0.00000E+00
         0.00000E+00
         0.00000E+00
         0.00000E+00
         0.00000E+00
         0.00000E+00
         0.00000E+00
         0.00000E+00
         0.00000E+00
         0.00000E+00
         0.00000E+00
         0.00000E+00
         0.00000E+00
         0.00000E+00
         0.00000E+00
         0.00000E+00
         0.00000E+00
         0.00000E+00
         0.00000E+00
         0.00000E+00
         0.00000E+00
         0.00000E+00
         0.00000E+00
         0.00000E+00
         0.00000E+00
         0.00000E+00
         0.00000E+00
         0.00000E+00
         0.00000E+00
         0.00000E+00
         0.00000E+00
         0.00000E+00
         0.00000E+00
         0.00000E+00
         0.00000E+00
         0.00000E+00
         0.00000E+00
         0.00000E+00
         0.00000E+00
         0.00000E+00
         0.00000E+00
         0.00000E+00
         0.00000E+00
         0.00000E+00
         0.00000E+00
         0.00000E+00
         0.00000E+00
         0.00000E+00
         0.00000E+00
         0.00000E+00
         0.00000E+00
         0.00000E+00
         0.00000E+00
         0.00000E+00
         0.00000E+00
         0.00000E+00
         0.00000E+00
         0.00000E+00
         0.00000E+00
         0.00000E+00
         0.00000E+00
         0.00000E+00
         0.00000E+00
         0.00000E+00
         0.00000E+00
         0.00000E+00
         0.00000E+00
         0.00000E+00
         0.00000E+00
         0.00000E+00
         0.00000E+00
         0.00000E+00
         0.00000E+00
         0.00000E+00
         0.00000E+00
         0.00000E+00
         0.00000E+00
         0.00000E+00
         0.00000E+00
         0.00000E+00
         0.00000E+00
         0.00000E+00
         0.00000E+00
         0.00000E+00
         0.00000E+00
         0.00000E+00
         0.00000E+00
         0.00000E+00
         0.00000E+00
         0.00000E+00
         0.00000E+00
         0.00000E+00
         0.00000E+00
         0.00000E+00
         0.00000E+00
         0.00000E+00
         0.00000E+00
         0.00000E+00
         0.00000E+00
         0.00000E+00
         0.00000E+00
         0.00000E+00
         0.00000E+00
         0.00000E+00
         0.00000E+00
         0.00000E+00
         0.00000E+00
         0.00000E+00
         0.00000E+00
         0.00000E+00
         0.00000E+00
         0.00000E+00
         0.00000E+00
         0.00000E+00
         0.00000E+00
         0.00000E+00
         0.00000E+00
         0.00000E+00
         0.00000E+00
         0.00000E+00
         0.00000E+00
         0.00000E+00
         0.00000E+00
         0.00000E+00
         0.00000E+00
         0.00000E+00
         0.00000E+00
         0.00000E+00
         0.00000E+00
         0.00000E+00
         0.00000E+00
         0.00000E+00
         0.00000E+00
         0.00000E+00
         0.00000E+00
         0.00000E+00
         0.00000E+00
         0.00000E+00
         0.00000E+00
         0.00000E+00
         0.00000E+00
         0.00000E+00
         0.00000E+00
         0.00000E+00
         0.00000E+00
         0.00000E+00
         0.00000E+00
         0.00000E+00
         0.00000E+00
         0.00000E+00
         0.00000E+00
         0.00000E+00
         0.00000E+00
         0.00000E+00
         0.00000E+00
         0.00000E+00
         0.00000E+00
         0.00000E+00
         0.00000E+00
         0.00000E+00
         0.00000E+00
         0.00000E+00
         0.00000E+00
         0.00000E+00
         0.00000E+00
         0.00000E+00
         0.00000E+00
         0.00000E+00
         0.00000E+00
         0.00000E+00
         0.00000E+00
         0.00000E+00
         0.00000E+00
         0.00000E+00
         0.00000E+00
         0.00000E+00
         0.00000E+00
         0.00000E+00
         0.00000E+00
         0.00000E+00
         0.00000E+00
         0.00000E+00
         0.00000E+00
         0.00000E+00
         0.00000E+00
         0.00000E+00
         0.00000E+00
         0.00000E+00
         0.00000E+00
         0.00000E+00
         0.00000E+00
         0.00000E+00
         0.00000E+00
         0.00000E+00
         0.00000E+00
         0.00000E+00
         0.00000E+00
         0.00000E+00
         0.00000E+00
         0.00000E+00
         0.00000E+00
         0.00000E+00
         0.00000E+00
         0.00000E+00
         0.00000E+00
         0.00000E+00
         0.00000E+00
         0.00000E+00
         0.00000E+00
         0.00000E+00
         0.00000E+00
         0.00000E+00
         0.00000E+00
         0.00000E+00
         0.00000E+00
         0.00000E+00
         0.00000E+00
         0.00000E+00
         0.00000E+00
         0.00000E+00
         0.00000E+00
         0.00000E+00
         0.00000E+00
         0.00000E+00
         0.00000E+00
         0.00000E+00
         0.00000E+00
         0.00000E+00
         0.00000E+00
         0.00000E+00
         0.00000E+00
         0.00000E+00
         0.00000E+00
         0.00000E+00
         0.00000E+00
         0.00000E+00
         0.00000E+00
         0.00000E+00
         0.00000E+00
         0.00000E+00
         0.00000E+00
         0.00000E+00
         0.00000E+00
         0.00000E+00
         0.00000E+00
         0.00000E+00
         0.00000E+00
         0.00000E+00
         0.00000E+00
         0.00000E+00
         0.00000E+00
         0.00000E+00
         0.00000E+00
         0.00000E+00
         0.00000E+00
         0.00000E+00
         0.00000E+00
         0.00000E+00
         0.00000E+00
         0.00000E+00
         0.00000E+00
         0.00000E+00
         0.00000E+00
         0.00000E+00
         0.00000E+00
         0.00000E+00
         0.00000E+00
         0.00000E+00
         0.00000E+00
         0.00000E+00
         0.00000E+00
         0.00000E+00
         0.00000E+00
         0.00000E+00
         0.00000E+00
         0.00000E+00
         0.00000E+00
         0.00000E+00
         0.00000E+00
         0.00000E+00
         0.00000E+00
         0.00000E+00
         0.00000E+00
         0.00000E+00
         0.00000E+00
         0.00000E+00
         0.00000E+00
         0.00000E+00
         0.00000E+00
         0.00000E+00
         0.00000E+00
         0.00000E+00
         0.00000E+00
         0.00000E+00
         0.00000E+00
         0.00000E+00
         0.00000E+00
         0.00000E+00
         0.00000E+00
         0.00000E+00
         0.00000E+00
         0.00000E+00
         0.00000E+00
         0.00000E+00
         0.00000E+00
         0.00000E+00
         0.00000E+00
         0.00000E+00
         0.00000E+00
         0.00000E+00
         0.00000E+00
         0.00000E+00
         0.00000E+00
         0.00000E+00
         0.00000E+00
         0.00000E+00
         0.00000E+00
         0.00000E+00
         0.00000E+00
         0.00000E+00
         0.00000E+00
         0.00000E+00
         0.00000E+00
         0.00000E+00
         0.00000E+00
         0.00000E+00
         0.00000E+00
         0.00000E+00
         0.00000E+00
         0.00000E+00
         0.00000E+00
         0.00000E+00
         0.00000E+00
         0.00000E+00
         0.00000E+00
         0.00000E+00
         0.00000E+00
         0.00000E+00
         0.00000E+00
         0.00000E+00
         0.00000E+00
         0.00000E+00
         0.00000E+00
         0.00000E+00
         0.00000E+00
         0.00000E+00
         0.00000E+00
         0.00000E+00
         0.00000E+00
         0.00000E+00
         0.00000E+00
         0.00000E+00
         0.00000E+00
         0.00000E+00
         0.00000E+00
         0.00000E+00
         0.00000E+00
         0.00000E+00
         0.00000E+00
         0.00000E+00
         0.00000E+00
         0.00000E+00
         0.00000E+00
         0.00000E+00
         0.00000E+00
         0.00000E+00
         0.00000E+00
         0.00000E+00
         0.00000E+00
         0.00000E+00
         0.00000E+00
         0.00000E+00
         0.00000E+00
         0.00000E+00
         0.00000E+00
         0.00000E+00
         0.00000E+00
         0.00000E+00
         0.00000E+00
         0.00000E+00
         0.00000E+00
         0.00000E+00
         0.00000E+00
         0.00000E+00
         0.00000E+00
         0.00000E+00
         0.00000E+00
         0.00000E+00
         0.00000E+00
         0.00000E+00
         0.00000E+00
         0.00000E+00
         0.00000E+00
         0.00000E+00
         0.00000E+00
         0.00000E+00
         0.00000E+00
         0.00000E+00
         0.00000E+00
         0.00000E+00
         0.00000E+00
         0.00000E+00
         0.00000E+00
         0.00000E+00
         0.00000E+00
         0.00000E+00
         0.00000E+00
         0.00000E+00
         0.00000E+00
         0.00000E+00
         0.00000E+00
         0.00000E+00
         0.00000E+00
         0.00000E+00
         0.00000E+00
         0.00000E+00
         0.00000E+00
         0.00000E+00
         0.00000E+00
         0.00000E+00
         0.00000E+00
         0.00000E+00
         0.00000E+00
         0.00000E+00
         0.00000E+00
         0.00000E+00
         0.00000E+00
         0.00000E+00
         0.00000E+00
         0.00000E+00
         0.00000E+00
         0.00000E+00
         0.00000E+00
         0.00000E+00
         0.00000E+00
         0.00000E+00
         0.00000E+00
         0.00000E+00
         0.00000E+00
         0.00000E+00
         0.00000E+00
         0.00000E+00
         0.00000E+00
         0.00000E+00
         0.00000E+00
         0.00000E+00
         0.00000E+00
         0.00000E+00
         0.00000E+00
         0.00000E+00
         0.00000E+00
         0.00000E+00
         0.00000E+00
         0.00000E+00
         0.00000E+00
         0.00000E+00
         0.00000E+00
         0.00000E+00
         0.00000E+00
         0.00000E+00
         0.00000E+00
         0.00000E+00
         0.00000E+00
         0.00000E+00
         0.00000E+00
         0.00000E+00
         0.00000E+00
         0.00000E+00
         0.00000E+00
         0.00000E+00
         0.00000E+00
         0.00000E+00
         0.00000E+00
         0.00000E+00
         0.00000E+00
         0.00000E+00
         0.00000E+00
         0.00000E+00
         0.00000E+00
         0.00000E+00
         0.00000E+00
         0.00000E+00
         0.00000E+00
         0.00000E+00
         0.00000E+00
         0.00000E+00
         0.00000E+00
         0.00000E+00
         0.00000E+00
         0.00000E+00
         0.00000E+00
         0.00000E+00
         0.00000E+00
         0.00000E+00
         0.00000E+00
         0.00000E+00
         0.00000E+00
         0.00000E+00
         0.00000E+00
         0.00000E+00
         0.00000E+00
         0.00000E+00
         0.00000E+00
         0.00000E+00
         0.00000E+00
         0.00000E+00
         0.00000E+00
         0.00000E+00
         0.00000E+00
         0.00000E+00
         0.00000E+00
         0.00000E+00
         0.00000E+00
         0.00000E+00
         0.00000E+00
         0.00000E+00
         0.00000E+00
         0.00000E+00
         0.00000E+00
         0.00000E+00
         0.00000E+00
         0.00000E+00
         0.00000E+00
         0.00000E+00
         0.00000E+00
         0.00000E+00
         0.00000E+00
         0.00000E+00
         0.00000E+00
         0.00000E+00
         0.00000E+00
         0.00000E+00
         0.00000E+00
         0.00000E+00
         0.00000E+00
         0.00000E+00
         0.00000E+00
         0.00000E+00
         0.00000E+00
         0.00000E+00
         0.00000E+00
         0.00000E+00
         0.00000E+00
         0.00000E+00
         0.00000E+00
         0.00000E+00
         0.00000E+00
         0.00000E+00
         0.00000E+00
         0.00000E+00
         0.00000E+00
         0.00000E+00
         0.00000E+00
         0.00000E+00
         0.00000E+00
         0.00000E+00
         0.00000E+00
         0.00000E+00
         0.00000E+00
         0.00000E+00
         0.00000E+00
         0.00000E+00
         0.00000E+00
         0.00000E+00
         0.00000E+00
         0.00000E+00
         0.00000E+00
         0.00000E+00
         0.00000E+00
         0.00000E+00
         0.00000E+00
         0.00000E+00
         0.00000E+00
         0.00000E+00
         0.00000E+00
         0.00000E+00
         0.00000E+00
         0.00000E+00
         0.00000E+00
         0.00000E+00
         0.00000E+00
         0.00000E+00
         0.00000E+00
         0.00000E+00
         0.00000E+00
         0.00000E+00
         0.00000E+00
         0.00000E+00
         0.00000E+00
         0.00000E+00
         0.00000E+00
         0.00000E+00
         0.00000E+00
         0.00000E+00
         0.00000E+00
         0.00000E+00
         0.00000E+00
         0.00000E+00
         0.00000E+00
         0.00000E+00
         0.00000E+00
         0.00000E+00
         0.00000E+00
         0.00000E+00
         0.00000E+00
         0.00000E+00
         0.00000E+00
         0.00000E+00
         0.00000E+00
         0.00000E+00
         0.00000E+00
         0.00000E+00
         0.00000E+00
         0.00000E+00
         0.00000E+00
         0.00000E+00
         0.00000E+00
         0.00000E+00
         0.00000E+00
         0.00000E+00
         0.00000E+00
         0.00000E+00
         0.00000E+00
         0.00000E+00
         0.00000E+00
         0.00000E+00
         0.00000E+00
         0.00000E+00
         0.00000E+00
         0.00000E+00
         0.00000E+00
         0.00000E+00
         0.00000E+00
         0.00000E+00
         0.00000E+00
         0.00000E+00
         0.00000E+00
         0.00000E+00
         0.00000E+00
         0.00000E+00
         0.00000E+00
         0.00000E+00
         0.00000E+00
         0.00000E+00
         0.00000E+00
         0.00000E+00
         0.00000E+00
         0.00000E+00
         0.00000E+00
         0.00000E+00
         0.00000E+00
         0.00000E+00
         0.00000E+00
         0.00000E+00
         0.00000E+00
         0.00000E+00
         0.00000E+00
         0.00000E+00
         0.00000E+00
         0.00000E+00
         0.00000E+00
         0.00000E+00
         0.00000E+00
         0.00000E+00
         0.00000E+00
         0.00000E+00
         0.00000E+00
         0.00000E+00
         0.00000E+00
         0.00000E+00
         0.00000E+00
         0.00000E+00
         0.00000E+00
         0.00000E+00
         0.00000E+00
         0.00000E+00
         0.00000E+00
         0.00000E+00
         0.00000E+00
         0.00000E+00
         0.00000E+00
         0.00000E+00
         0.00000E+00
         0.00000E+00
         0.00000E+00
         0.00000E+00
         0.00000E+00
         0.00000E+00
         0.00000E+00
         0.00000E+00
         0.00000E+00
         0.00000E+00
         0.00000E+00
         0.00000E+00
         0.00000E+00
         0.00000E+00
         0.00000E+00
         0.00000E+00
         0.00000E+00
         0.00000E+00
         0.00000E+00
         0.00000E+00
         0.00000E+00
         0.00000E+00
         0.00000E+00
         0.00000E+00
         0.00000E+00
         0.00000E+00
         0.00000E+00
         0.00000E+00
         0.00000E+00
         0.00000E+00
         0.00000E+00
         0.00000E+00
         0.00000E+00
         0.00000E+00
         0.00000E+00
         0.00000E+00
         0.00000E+00
         0.00000E+00
         0.00000E+00
         0.00000E+00
         0.00000E+00
         0.00000E+00
         0.00000E+00
         0.00000E+00
         0.00000E+00
         0.00000E+00
         0.00000E+00
         0.00000E+00
         0.00000E+00
         0.00000E+00
         0.00000E+00
         0.00000E+00
         0.00000E+00
         0.00000E+00
         0.00000E+00
         0.00000E+00
         0.00000E+00
         0.00000E+00
         0.00000E+00
         0.00000E+00
         0.00000E+00
         0.00000E+00
         0.00000E+00
         0.00000E+00
         0.00000E+00
         0.00000E+00
         0.00000E+00
         0.00000E+00
         0.00000E+00
         0.00000E+00
         0.00000E+00
         0.00000E+00
         0.00000E+00
         0.00000E+00
         0.00000E+00
         0.00000E+00
         0.00000E+00
         0.00000E+00
         0.00000E+00
         0.00000E+00
         0.00000E+00
         0.00000E+00
         0.00000E+00
         0.00000E+00
         0.00000E+00
         0.00000E+00
         0.00000E+00
         0.00000E+00
         0.00000E+00
         0.00000E+00
         0.00000E+00
         0.00000E+00
         0.00000E+00
         0.00000E+00
         0.00000E+00
         0.00000E+00
         0.00000E+00
         0.00000E+00
         0.00000E+00
         0.00000E+00
         0.00000E+00
         0.00000E+00
         0.00000E+00
         0.00000E+00
         0.00000E+00
         0.00000E+00
         0.00000E+00
         0.00000E+00
         0.00000E+00
         0.00000E+00
         0.00000E+00
         0.00000E+00
         0.00000E+00
         0.00000E+00
         0.00000E+00
         0.00000E+00
         0.00000E+00
         0.00000E+00
         0.00000E+00
         0.00000E+00
         0.00000E+00
         0.00000E+00
         0.00000E+00
         0.00000E+00
         0.00000E+00
         0.00000E+00
         0.00000E+00
         0.00000E+00
         0.00000E+00
         0.00000E+00
         0.00000E+00
         0.00000E+00
         0.00000E+00
         0.00000E+00
         0.00000E+00
         0.00000E+00
         0.00000E+00
         0.00000E+00
         0.00000E+00
         0.00000E+00
         0.00000E+00
         0.00000E+00
         0.00000E+00
         0.00000E+00
         0.00000E+00
         0.00000E+00
         0.00000E+00
         0.00000E+00
         0.00000E+00
         0.00000E+00
         0.00000E+00
         0.00000E+00
         0.00000E+00
         0.00000E+00
         0.00000E+00
         0.00000E+00
         0.00000E+00
         0.00000E+00
         0.00000E+00
         0.00000E+00
         0.00000E+00
         0.00000E+00
         0.00000E+00
         0.00000E+00
         0.00000E+00
         0.00000E+00
         0.00000E+00
         0.00000E+00
         0.00000E+00
         0.00000E+00
         0.00000E+00
         0.00000E+00
         0.00000E+00
         0.00000E+00
         0.00000E+00
         0.00000E+00
         0.00000E+00
         0.00000E+00
         0.00000E+00
         0.00000E+00
         0.00000E+00
         0.00000E+00
         0.00000E+00
         0.00000E+00
         0.00000E+00
         0.00000E+00
         0.00000E+00
         0.00000E+00
         0.00000E+00
         0.00000E+00
         0.00000E+00
         0.00000E+00
         0.00000E+00
         0.00000E+00
         0.00000E+00
         0.00000E+00
         0.00000E+00
         0.00000E+00
         0.00000E+00
         0.00000E+00
         0.00000E+00
         0.00000E+00
         0.00000E+00
         0.00000E+00
         0.00000E+00
         0.00000E+00
         0.00000E+00
         0.00000E+00
         0.00000E+00
         0.00000E+00
         0.00000E+00
         0.00000E+00
         0.00000E+00
         0.00000E+00
         0.00000E+00
         0.00000E+00
         0.00000E+00
         0.00000E+00
         0.00000E+00
         0.00000E+00
         0.00000E+00
         0.00000E+00
         0.00000E+00
         0.00000E+00
         0.00000E+00
         0.00000E+00
         0.00000E+00
         0.00000E+00
         0.00000E+00
         0.00000E+00
         0.00000E+00
         0.00000E+00
         0.00000E+00
         0.00000E+00
         0.00000E+00
         0.00000E+00
         0.00000E+00
         0.00000E+00
         0.00000E+00
         0.00000E+00
         0.00000E+00
         0.00000E+00
         0.00000E+00
         0.00000E+00
         0.00000E+00
         0.00000E+00
         0.00000E+00
         0.00000E+00
         0.00000E+00
         0.00000E+00
         0.00000E+00
         0.00000E+00
         0.00000E+00
         0.00000E+00
         0.00000E+00
         0.00000E+00
         0.00000E+00
         0.00000E+00
         0.00000E+00
         0.00000E+00
         0.00000E+00
         0.00000E+00
         0.00000E+00
         0.00000E+00
         0.00000E+00
         0.00000E+00
         0.00000E+00
         0.00000E+00
         0.00000E+00
         0.00000E+00
         0.00000E+00
         0.00000E+00
         0.00000E+00
         0.00000E+00
         0.00000E+00
         0.00000E+00
         0.00000E+00
         0.00000E+00
         0.00000E+00
         0.00000E+00
         0.00000E+00
         0.00000E+00
         0.00000E+00
         0.00000E+00
         0.00000E+00
         0.00000E+00
         0.00000E+00
         0.00000E+00
         0.00000E+00
         0.00000E+00
         0.00000E+00
         0.00000E+00
         0.00000E+00
         0.00000E+00
         0.00000E+00
         0.00000E+00
         0.00000E+00
         0.00000E+00
         0.00000E+00
         0.00000E+00
         0.00000E+00
         0.00000E+00
         0.00000E+00
         0.00000E+00
         0.00000E+00
         0.00000E+00
         0.00000E+00
         0.00000E+00
         0.00000E+00
         0.00000E+00
         0.00000E+00
         0.00000E+00
         0.00000E+00
         0.00000E+00
         0.00000E+00
         0.00000E+00
         0.00000E+00
         0.00000E+00
         0.00000E+00
         0.00000E+00
         0.00000E+00
         0.00000E+00
         0.00000E+00
         0.00000E+00
         0.00000E+00
         0.00000E+00
         0.00000E+00
         0.00000E+00
         0.00000E+00
         0.00000E+00
         0.00000E+00
         0.00000E+00
         0.00000E+00
         0.00000E+00
         0.00000E+00
         0.00000E+00
         0.00000E+00
         0.00000E+00
         0.00000E+00
         0.00000E+00
         0.00000E+00
         0.00000E+00
         0.00000E+00
         0.00000E+00
         0.00000E+00
         0.00000E+00
         0.00000E+00
         0.00000E+00
         0.00000E+00
         0.00000E+00
         0.00000E+00
         0.00000E+00
         0.00000E+00
         0.00000E+00
         0.00000E+00
         0.00000E+00
         0.00000E+00
         0.00000E+00
         0.00000E+00
         0.00000E+00
         0.00000E+00
         0.00000E+00
         0.00000E+00
         0.00000E+00
         0.00000E+00
         0.00000E+00
         0.00000E+00
         0.00000E+00
         0.00000E+00
         0.00000E+00
         0.00000E+00
         0.00000E+00
         0.00000E+00
         0.00000E+00
         0.00000E+00
         0.00000E+00
         0.00000E+00
         0.00000E+00
         0.00000E+00
         0.00000E+00
         0.00000E+00
         0.00000E+00
         0.00000E+00
         0.00000E+00
         0.00000E+00
         0.00000E+00
         0.00000E+00
         0.00000E+00
         0.00000E+00
         0.00000E+00
         0.00000E+00
         0.00000E+00
         0.00000E+00
         0.00000E+00
         0.00000E+00
         0.00000E+00
         0.00000E+00
         0.00000E+00
         0.00000E+00
         0.00000E+00
         0.00000E+00
         0.00000E+00
         0.00000E+00
         0.00000E+00
         0.00000E+00
         0.00000E+00
         0.00000E+00
         0.00000E+00
         0.00000E+00
         0.00000E+00
         0.00000E+00
         0.00000E+00
         0.00000E+00
         0.00000E+00
         0.00000E+00
         0.00000E+00
         0.00000E+00
         0.00000E+00
         0.00000E+00
         0.00000E+00
         0.00000E+00
         0.00000E+00
         0.00000E+00
         0.00000E+00
         0.00000E+00
         0.00000E+00
         0.00000E+00
         0.00000E+00
         0.00000E+00
         0.00000E+00
         0.00000E+00
         0.00000E+00
         0.00000E+00
         0.00000E+00
         0.00000E+00
         0.00000E+00
         0.00000E+00
         0.00000E+00
         0.00000E+00
         0.00000E+00
         0.00000E+00
         0.00000E+00
         0.00000E+00
         0.00000E+00
         0.00000E+00
         0.00000E+00
         0.00000E+00
         0.00000E+00
         0.00000E+00
         0.00000E+00
         0.00000E+00
         0.00000E+00
         0.00000E+00
         0.00000E+00
         0.00000E+00
         0.00000E+00
         0.00000E+00
         0.00000E+00
         0.00000E+00
         0.00000E+00
         0.00000E+00
         0.00000E+00
         0.00000E+00
         0.00000E+00
         0.00000E+00
         0.00000E+00
         0.00000E+00
         0.00000E+00
         0.00000E+00
         0.00000E+00
         0.00000E+00
         0.00000E+00
         0.00000E+00
         0.00000E+00
         0.00000E+00
         0.00000E+00
         0.00000E+00
         0.00000E+00
         0.00000E+00
         0.00000E+00
         0.00000E+00
         0.00000E+00
         0.00000E+00
         0.00000E+00
         0.00000E+00
         0.00000E+00
         0.00000E+00
         0.00000E+00
         0.00000E+00
         0.00000E+00
         0.00000E+00
         0.00000E+00
         0.00000E+00
         0.00000E+00
         0.00000E+00
         0.00000E+00
         0.00000E+00
         0.00000E+00
         0.00000E+00
         0.00000E+00
         0.00000E+00
         0.00000E+00
         0.00000E+00
         0.00000E+00
         0.00000E+00
         0.00000E+00
         0.00000E+00
         0.00000E+00
         0.00000E+00
         0.00000E+00
         0.00000E+00
         0.00000E+00
         0.00000E+00
         0.00000E+00
         0.00000E+00
         0.00000E+00
         0.00000E+00
         0.00000E+00
         0.00000E+00
         0.00000E+00
         0.00000E+00
         0.00000E+00
         0.00000E+00
         0.00000E+00
         0.00000E+00
         0.00000E+00
         0.00000E+00
         0.00000E+00
         0.00000E+00
         0.00000E+00
         0.00000E+00
         0.00000E+00
         0.00000E+00
         0.00000E+00
         0.00000E+00
         0.00000E+00
         0.00000E+00
         0.00000E+00
         0.00000E+00
         0.00000E+00
         0.00000E+00
         0.00000E+00
         0.00000E+00
         0.00000E+00
         0.00000E+00
         0.00000E+00
         0.00000E+00
         0.00000E+00
         0.00000E+00
         0.00000E+00
         0.00000E+00
         0.00000E+00
         0.00000E+00
         0.00000E+00
         0.00000E+00
         0.00000E+00
         0.00000E+00
         0.00000E+00
         0.00000E+00
         0.00000E+00
         0.00000E+00
         0.00000E+00
         0.00000E+00
         0.00000E+00
         0.00000E+00
         0.00000E+00
         0.00000E+00
         0.00000E+00
         0.00000E+00
         0.00000E+00
         0.00000E+00
         0.00000E+00
         0.00000E+00
         0.00000E+00
         0.00000E+00
         0.00000E+00
         0.00000E+00
         0.00000E+00
         0.00000E+00
         0.00000E+00
         0.00000E+00
         0.00000E+00
         0.00000E+00
         0.00000E+00
         0.00000E+00
         0.00000E+00
         0.00000E+00
         0.00000E+00
         0.00000E+00
         0.00000E+00
         0.00000E+00
         0.00000E+00
         0.00000E+00
         0.00000E+00
         0.00000E+00
         0.00000E+00
         0.00000E+00
         0.00000E+00
         0.00000E+00
         0.00000E+00
         0.00000E+00
         0.00000E+00
         0.00000E+00
         0.00000E+00
         0.00000E+00
         0.00000E+00
         0.00000E+00
         0.00000E+00
         0.00000E+00
         0.00000E+00
         0.00000E+00
         0.00000E+00
         0.00000E+00
         0.00000E+00
         0.00000E+00
         0.00000E+00
         0.00000E+00
         0.00000E+00
         0.00000E+00
         0.00000E+00
         0.00000E+00
         0.00000E+00
         0.00000E+00
         0.00000E+00
         0.00000E+00
         0.00000E+00
         0.00000E+00
         0.00000E+00
         0.00000E+00
         0.00000E+00
         0.00000E+00
         0.00000E+00
         0.00000E+00
         0.00000E+00
         0.00000E+00
         0.00000E+00
         0.00000E+00
  
SCALARS                     velocity_z  double 1
LOOKUP_TABLE default
        -0.37300E+03
        -0.37300E+03
        -0.37300E+03
        -0.37300E+03
         0.00000E+00
         0.00000E+00
         0.00000E+00
         0.00000E+00
        -0.37300E+03
        -0.37300E+03
         0.00000E+00
         0.00000E+00
        -0.37300E+03
        -0.37300E+03
         0.00000E+00
         0.00000E+00
        -0.37300E+03
        -0.37300E+03
         0.00000E+00
         0.00000E+00
        -0.37300E+03
        -0.37300E+03
        -0.37300E+03
         0.00000E+00
         0.00000E+00
         0.00000E+00
        -0.37300E+03
        -0.37300E+03
         0.00000E+00
         0.00000E+00
        -0.37300E+03
        -0.37300E+03
        -0.37300E+03
         0.00000E+00
         0.00000E+00
         0.00000E+00
        -0.37300E+03
        -0.37300E+03
         0.00000E+00
         0.00000E+00
        -0.37300E+03
        -0.37300E+03
         0.00000E+00
         0.00000E+00
        -0.37300E+03
        -0.37300E+03
         0.00000E+00
         0.00000E+00
        -0.37300E+03
         0.00000E+00
        -0.37300E+03
         0.00000E+00
        -0.37300E+03
         0.00000E+00
        -0.37300E+03
         0.00000E+00
        -0.37300E+03
        -0.37300E+03
         0.00000E+00
         0.00000E+00
        -0.37300E+03
        -0.37300E+03
         0.00000E+00
         0.00000E+00
        -0.37300E+03
         0.00000E+00
        -0.37300E+03
         0.00000E+00
        -0.37300E+03
        -0.37300E+03
         0.00000E+00
         0.00000E+00
        -0.37300E+03
         0.00000E+00
        -0.37300E+03
         0.00000E+00
        -0.37300E+03
         0.00000E+00
        -0.37300E+03
         0.00000E+00
        -0.37300E+03
        -0.37300E+03
         0.00000E+00
         0.00000E+00
        -0.37300E+03
         0.00000E+00
        -0.37300E+03
         0.00000E+00
        -0.37300E+03
         0.00000E+00
        -0.37300E+03
        -0.37300E+03
         0.00000E+00
         0.00000E+00
        -0.37300E+03
         0.00000E+00
        -0.37300E+03
         0.00000E+00
        -0.37300E+03
         0.00000E+00
        -0.37300E+03
        -0.37300E+03
         0.00000E+00
         0.00000E+00
        -0.37300E+03
        -0.37300E+03
         0.00000E+00
         0.00000E+00
        -0.37300E+03
         0.00000E+00
        -0.37300E+03
         0.00000E+00
        -0.37300E+03
         0.00000E+00
        -0.37300E+03
         0.00000E+00
        -0.37300E+03
         0.00000E+00
        -0.37300E+03
         0.00000E+00
        -0.37300E+03
         0.00000E+00
        -0.37300E+03
         0.00000E+00
        -0.37300E+03
         0.00000E+00
        -0.37300E+03
         0.00000E+00
        -0.37300E+03
         0.00000E+00
        -0.37300E+03
         0.00000E+00
        -0.37300E+03
         0.00000E+00
        -0.37300E+03
         0.00000E+00
        -0.37300E+03
         0.00000E+00
        -0.37300E+03
         0.00000E+00
        -0.37300E+03
         0.00000E+00
        -0.37300E+03
         0.00000E+00
        -0.37300E+03
         0.00000E+00
        -0.37300E+03
         0.00000E+00
        -0.37300E+03
         0.00000E+00
        -0.37300E+03
         0.00000E+00
        -0.37300E+03
         0.00000E+00
        -0.37300E+03
         0.00000E+00
        -0.37300E+03
        -0.37300E+03
        -0.37300E+03
        -0.37300E+03
        -0.37300E+03
        -0.37300E+03
        -0.37300E+03
        -0.37300E+03
        -0.37300E+03
        -0.37300E+03
        -0.37300E+03
        -0.37300E+03
        -0.37300E+03
        -0.37300E+03
        -0.37300E+03
        -0.37300E+03
        -0.37300E+03
        -0.37300E+03
        -0.37300E+03
        -0.37300E+03
        -0.37300E+03
        -0.37300E+03
        -0.37300E+03
        -0.37300E+03
        -0.37300E+03
        -0.37300E+03
        -0.37300E+03
        -0.37300E+03
        -0.37300E+03
        -0.37300E+03
        -0.37300E+03
        -0.37300E+03
        -0.37300E+03
        -0.37300E+03
        -0.37300E+03
        -0.37300E+03
        -0.37300E+03
        -0.37300E+03
        -0.37300E+03
        -0.37300E+03
        -0.37300E+03
        -0.37300E+03
        -0.37300E+03
        -0.37300E+03
        -0.37300E+03
        -0.37300E+03
        -0.37300E+03
        -0.37300E+03
        -0.37300E+03
        -0.37300E+03
        -0.37300E+03
        -0.37300E+03
        -0.37300E+03
        -0.37300E+03
        -0.37300E+03
        -0.37300E+03
        -0.37300E+03
        -0.37300E+03
        -0.37300E+03
        -0.37300E+03
        -0.37300E+03
        -0.37300E+03
        -0.37300E+03
        -0.37300E+03
        -0.37300E+03
        -0.37300E+03
        -0.37300E+03
        -0.37300E+03
        -0.37300E+03
        -0.37300E+03
        -0.37300E+03
        -0.37300E+03
        -0.37300E+03
        -0.37300E+03
        -0.37300E+03
        -0.37300E+03
        -0.37300E+03
        -0.37300E+03
        -0.37300E+03
        -0.37300E+03
        -0.37300E+03
        -0.37300E+03
        -0.37300E+03
        -0.37300E+03
        -0.37300E+03
        -0.37300E+03
        -0.37300E+03
        -0.37300E+03
        -0.37300E+03
        -0.37300E+03
        -0.37300E+03
        -0.37300E+03
        -0.37300E+03
        -0.37300E+03
        -0.37300E+03
        -0.37300E+03
        -0.37300E+03
        -0.37300E+03
        -0.37300E+03
        -0.37300E+03
        -0.37300E+03
        -0.37300E+03
        -0.37300E+03
        -0.37300E+03
        -0.37300E+03
        -0.37300E+03
        -0.37300E+03
        -0.37300E+03
        -0.37300E+03
        -0.37300E+03
        -0.37300E+03
        -0.37300E+03
        -0.37300E+03
        -0.37300E+03
        -0.37300E+03
        -0.37300E+03
        -0.37300E+03
        -0.37300E+03
        -0.37300E+03
        -0.37300E+03
        -0.37300E+03
        -0.37300E+03
        -0.37300E+03
        -0.37300E+03
        -0.37300E+03
        -0.37300E+03
        -0.37300E+03
        -0.37300E+03
        -0.37300E+03
        -0.37300E+03
        -0.37300E+03
        -0.37300E+03
        -0.37300E+03
        -0.37300E+03
        -0.37300E+03
        -0.37300E+03
        -0.37300E+03
        -0.37300E+03
        -0.37300E+03
        -0.37300E+03
        -0.37300E+03
        -0.37300E+03
        -0.37300E+03
        -0.37300E+03
        -0.37300E+03
        -0.37300E+03
        -0.37300E+03
        -0.37300E+03
        -0.37300E+03
        -0.37300E+03
        -0.37300E+03
        -0.37300E+03
        -0.37300E+03
        -0.37300E+03
        -0.37300E+03
        -0.37300E+03
        -0.37300E+03
        -0.37300E+03
        -0.37300E+03
        -0.37300E+03
        -0.37300E+03
        -0.37300E+03
        -0.37300E+03
        -0.37300E+03
        -0.37300E+03
        -0.37300E+03
        -0.37300E+03
        -0.37300E+03
        -0.37300E+03
        -0.37300E+03
        -0.37300E+03
        -0.37300E+03
        -0.37300E+03
        -0.37300E+03
        -0.37300E+03
        -0.37300E+03
        -0.37300E+03
        -0.37300E+03
        -0.37300E+03
        -0.37300E+03
        -0.37300E+03
        -0.37300E+03
        -0.37300E+03
        -0.37300E+03
        -0.37300E+03
        -0.37300E+03
        -0.37300E+03
        -0.37300E+03
        -0.37300E+03
        -0.37300E+03
        -0.37300E+03
        -0.37300E+03
        -0.37300E+03
        -0.37300E+03
        -0.37300E+03
        -0.37300E+03
        -0.37300E+03
        -0.37300E+03
        -0.37300E+03
        -0.37300E+03
        -0.37300E+03
        -0.37300E+03
        -0.37300E+03
        -0.37300E+03
        -0.37300E+03
        -0.37300E+03
        -0.37300E+03
        -0.37300E+03
        -0.37300E+03
        -0.37300E+03
        -0.37300E+03
        -0.37300E+03
        -0.37300E+03
        -0.37300E+03
        -0.37300E+03
        -0.37300E+03
        -0.37300E+03
        -0.37300E+03
        -0.37300E+03
        -0.37300E+03
        -0.37300E+03
        -0.37300E+03
        -0.37300E+03
        -0.37300E+03
        -0.37300E+03
        -0.37300E+03
        -0.37300E+03
        -0.37300E+03
        -0.37300E+03
        -0.37300E+03
        -0.37300E+03
        -0.37300E+03
        -0.37300E+03
        -0.37300E+03
        -0.37300E+03
        -0.37300E+03
        -0.37300E+03
        -0.37300E+03
        -0.37300E+03
        -0.37300E+03
        -0.37300E+03
        -0.37300E+03
        -0.37300E+03
        -0.37300E+03
        -0.37300E+03
        -0.37300E+03
        -0.37300E+03
        -0.37300E+03
        -0.37300E+03
        -0.37300E+03
        -0.37300E+03
        -0.37300E+03
        -0.37300E+03
        -0.37300E+03
        -0.37300E+03
        -0.37300E+03
        -0.37300E+03
        -0.37300E+03
        -0.37300E+03
        -0.37300E+03
        -0.37300E+03
        -0.37300E+03
        -0.37300E+03
        -0.37300E+03
        -0.37300E+03
        -0.37300E+03
        -0.37300E+03
        -0.37300E+03
        -0.37300E+03
        -0.37300E+03
        -0.37300E+03
        -0.37300E+03
        -0.37300E+03
        -0.37300E+03
        -0.37300E+03
        -0.37300E+03
        -0.37300E+03
        -0.37300E+03
        -0.37300E+03
        -0.37300E+03
        -0.37300E+03
        -0.37300E+03
        -0.37300E+03
        -0.37300E+03
        -0.37300E+03
        -0.37300E+03
        -0.37300E+03
        -0.37300E+03
        -0.37300E+03
        -0.37300E+03
        -0.37300E+03
        -0.37300E+03
        -0.37300E+03
        -0.37300E+03
        -0.37300E+03
        -0.37300E+03
        -0.37300E+03
        -0.37300E+03
        -0.37300E+03
        -0.37300E+03
        -0.37300E+03
        -0.37300E+03
        -0.37300E+03
        -0.37300E+03
        -0.37300E+03
        -0.37300E+03
        -0.37300E+03
        -0.37300E+03
        -0.37300E+03
        -0.37300E+03
        -0.37300E+03
        -0.37300E+03
        -0.37300E+03
        -0.37300E+03
        -0.37300E+03
        -0.37300E+03
        -0.37300E+03
        -0.37300E+03
        -0.37300E+03
        -0.37300E+03
        -0.37300E+03
        -0.37300E+03
        -0.37300E+03
        -0.37300E+03
        -0.37300E+03
        -0.37300E+03
        -0.37300E+03
        -0.37300E+03
        -0.37300E+03
        -0.37300E+03
        -0.37300E+03
        -0.37300E+03
        -0.37300E+03
        -0.37300E+03
        -0.37300E+03
        -0.37300E+03
        -0.37300E+03
        -0.37300E+03
        -0.37300E+03
        -0.37300E+03
        -0.37300E+03
        -0.37300E+03
        -0.37300E+03
        -0.37300E+03
        -0.37300E+03
        -0.37300E+03
        -0.37300E+03
        -0.37300E+03
        -0.37300E+03
        -0.37300E+03
        -0.37300E+03
        -0.37300E+03
        -0.37300E+03
        -0.37300E+03
        -0.37300E+03
        -0.37300E+03
        -0.37300E+03
        -0.37300E+03
        -0.37300E+03
        -0.37300E+03
        -0.37300E+03
        -0.37300E+03
        -0.37300E+03
        -0.37300E+03
        -0.37300E+03
        -0.37300E+03
        -0.37300E+03
        -0.37300E+03
        -0.37300E+03
        -0.37300E+03
        -0.37300E+03
        -0.37300E+03
        -0.37300E+03
        -0.37300E+03
        -0.37300E+03
        -0.37300E+03
        -0.37300E+03
        -0.37300E+03
        -0.37300E+03
        -0.37300E+03
        -0.37300E+03
        -0.37300E+03
        -0.37300E+03
        -0.37300E+03
        -0.37300E+03
        -0.37300E+03
        -0.37300E+03
        -0.37300E+03
        -0.37300E+03
        -0.37300E+03
        -0.37300E+03
        -0.37300E+03
        -0.37300E+03
        -0.37300E+03
        -0.37300E+03
        -0.37300E+03
        -0.37300E+03
        -0.37300E+03
        -0.37300E+03
        -0.37300E+03
        -0.37300E+03
        -0.37300E+03
        -0.37300E+03
        -0.37300E+03
        -0.37300E+03
        -0.37300E+03
        -0.37300E+03
        -0.37300E+03
        -0.37300E+03
        -0.37300E+03
        -0.37300E+03
        -0.37300E+03
        -0.37300E+03
        -0.37300E+03
        -0.37300E+03
        -0.37300E+03
        -0.37300E+03
        -0.37300E+03
        -0.37300E+03
        -0.37300E+03
        -0.37300E+03
        -0.37300E+03
        -0.37300E+03
        -0.37300E+03
        -0.37300E+03
        -0.37300E+03
        -0.37300E+03
        -0.37300E+03
        -0.37300E+03
        -0.37300E+03
        -0.37300E+03
        -0.37300E+03
        -0.37300E+03
        -0.37300E+03
        -0.37300E+03
        -0.37300E+03
        -0.37300E+03
        -0.37300E+03
        -0.37300E+03
        -0.37300E+03
        -0.37300E+03
        -0.37300E+03
        -0.37300E+03
        -0.37300E+03
        -0.37300E+03
        -0.37300E+03
        -0.37300E+03
        -0.37300E+03
        -0.37300E+03
        -0.37300E+03
        -0.37300E+03
        -0.37300E+03
        -0.37300E+03
        -0.37300E+03
        -0.37300E+03
        -0.37300E+03
        -0.37300E+03
        -0.37300E+03
        -0.37300E+03
        -0.37300E+03
        -0.37300E+03
        -0.37300E+03
        -0.37300E+03
        -0.37300E+03
        -0.37300E+03
        -0.37300E+03
        -0.37300E+03
        -0.37300E+03
        -0.37300E+03
        -0.37300E+03
        -0.37300E+03
        -0.37300E+03
        -0.37300E+03
        -0.37300E+03
        -0.37300E+03
        -0.37300E+03
        -0.37300E+03
        -0.37300E+03
        -0.37300E+03
        -0.37300E+03
        -0.37300E+03
        -0.37300E+03
        -0.37300E+03
        -0.37300E+03
        -0.37300E+03
        -0.37300E+03
        -0.37300E+03
        -0.37300E+03
        -0.37300E+03
        -0.37300E+03
        -0.37300E+03
        -0.37300E+03
        -0.37300E+03
        -0.37300E+03
        -0.37300E+03
        -0.37300E+03
        -0.37300E+03
        -0.37300E+03
        -0.37300E+03
        -0.37300E+03
        -0.37300E+03
        -0.37300E+03
        -0.37300E+03
        -0.37300E+03
        -0.37300E+03
        -0.37300E+03
        -0.37300E+03
        -0.37300E+03
        -0.37300E+03
        -0.37300E+03
        -0.37300E+03
        -0.37300E+03
        -0.37300E+03
        -0.37300E+03
        -0.37300E+03
        -0.37300E+03
        -0.37300E+03
        -0.37300E+03
        -0.37300E+03
        -0.37300E+03
        -0.37300E+03
        -0.37300E+03
        -0.37300E+03
        -0.37300E+03
        -0.37300E+03
        -0.37300E+03
        -0.37300E+03
        -0.37300E+03
        -0.37300E+03
        -0.37300E+03
        -0.37300E+03
        -0.37300E+03
        -0.37300E+03
        -0.37300E+03
        -0.37300E+03
        -0.37300E+03
        -0.37300E+03
        -0.37300E+03
        -0.37300E+03
        -0.37300E+03
        -0.37300E+03
        -0.37300E+03
        -0.37300E+03
        -0.37300E+03
        -0.37300E+03
        -0.37300E+03
        -0.37300E+03
        -0.37300E+03
        -0.37300E+03
        -0.37300E+03
        -0.37300E+03
        -0.37300E+03
        -0.37300E+03
        -0.37300E+03
        -0.37300E+03
        -0.37300E+03
        -0.37300E+03
        -0.37300E+03
        -0.37300E+03
        -0.37300E+03
        -0.37300E+03
        -0.37300E+03
        -0.37300E+03
        -0.37300E+03
        -0.37300E+03
        -0.37300E+03
        -0.37300E+03
        -0.37300E+03
        -0.37300E+03
        -0.37300E+03
        -0.37300E+03
        -0.37300E+03
        -0.37300E+03
        -0.37300E+03
        -0.37300E+03
        -0.37300E+03
        -0.37300E+03
        -0.37300E+03
        -0.37300E+03
        -0.37300E+03
        -0.37300E+03
        -0.37300E+03
        -0.37300E+03
        -0.37300E+03
        -0.37300E+03
        -0.37300E+03
        -0.37300E+03
        -0.37300E+03
        -0.37300E+03
        -0.37300E+03
        -0.37300E+03
        -0.37300E+03
        -0.37300E+03
        -0.37300E+03
        -0.37300E+03
        -0.37300E+03
        -0.37300E+03
        -0.37300E+03
        -0.37300E+03
        -0.37300E+03
        -0.37300E+03
        -0.37300E+03
        -0.37300E+03
        -0.37300E+03
        -0.37300E+03
        -0.37300E+03
        -0.37300E+03
        -0.37300E+03
        -0.37300E+03
        -0.37300E+03
        -0.37300E+03
        -0.37300E+03
        -0.37300E+03
        -0.37300E+03
        -0.37300E+03
        -0.37300E+03
        -0.37300E+03
        -0.37300E+03
        -0.37300E+03
        -0.37300E+03
        -0.37300E+03
        -0.37300E+03
        -0.37300E+03
        -0.37300E+03
        -0.37300E+03
        -0.37300E+03
        -0.37300E+03
        -0.37300E+03
        -0.37300E+03
        -0.37300E+03
        -0.37300E+03
        -0.37300E+03
        -0.37300E+03
        -0.37300E+03
        -0.37300E+03
        -0.37300E+03
        -0.37300E+03
        -0.37300E+03
        -0.37300E+03
        -0.37300E+03
        -0.37300E+03
        -0.37300E+03
        -0.37300E+03
        -0.37300E+03
        -0.37300E+03
        -0.37300E+03
        -0.37300E+03
        -0.37300E+03
        -0.37300E+03
        -0.37300E+03
        -0.37300E+03
        -0.37300E+03
        -0.37300E+03
        -0.37300E+03
        -0.37300E+03
        -0.37300E+03
        -0.37300E+03
        -0.37300E+03
        -0.37300E+03
        -0.37300E+03
        -0.37300E+03
        -0.37300E+03
        -0.37300E+03
        -0.37300E+03
        -0.37300E+03
        -0.37300E+03
        -0.37300E+03
        -0.37300E+03
        -0.37300E+03
        -0.37300E+03
        -0.37300E+03
        -0.37300E+03
        -0.37300E+03
        -0.37300E+03
        -0.37300E+03
        -0.37300E+03
        -0.37300E+03
        -0.37300E+03
        -0.37300E+03
        -0.37300E+03
        -0.37300E+03
        -0.37300E+03
        -0.37300E+03
        -0.37300E+03
        -0.37300E+03
        -0.37300E+03
        -0.37300E+03
        -0.37300E+03
        -0.37300E+03
        -0.37300E+03
        -0.37300E+03
        -0.37300E+03
        -0.37300E+03
        -0.37300E+03
        -0.37300E+03
        -0.37300E+03
        -0.37300E+03
        -0.37300E+03
        -0.37300E+03
        -0.37300E+03
        -0.37300E+03
        -0.37300E+03
        -0.37300E+03
        -0.37300E+03
        -0.37300E+03
        -0.37300E+03
        -0.37300E+03
        -0.37300E+03
        -0.37300E+03
        -0.37300E+03
        -0.37300E+03
        -0.37300E+03
        -0.37300E+03
        -0.37300E+03
        -0.37300E+03
        -0.37300E+03
        -0.37300E+03
        -0.37300E+03
        -0.37300E+03
        -0.37300E+03
        -0.37300E+03
        -0.37300E+03
        -0.37300E+03
        -0.37300E+03
        -0.37300E+03
        -0.37300E+03
        -0.37300E+03
        -0.37300E+03
        -0.37300E+03
        -0.37300E+03
        -0.37300E+03
        -0.37300E+03
        -0.37300E+03
        -0.37300E+03
        -0.37300E+03
        -0.37300E+03
        -0.37300E+03
        -0.37300E+03
        -0.37300E+03
        -0.37300E+03
        -0.37300E+03
        -0.37300E+03
        -0.37300E+03
        -0.37300E+03
        -0.37300E+03
        -0.37300E+03
        -0.37300E+03
        -0.37300E+03
        -0.37300E+03
        -0.37300E+03
        -0.37300E+03
        -0.37300E+03
        -0.37300E+03
        -0.37300E+03
        -0.37300E+03
        -0.37300E+03
        -0.37300E+03
        -0.37300E+03
        -0.37300E+03
        -0.37300E+03
        -0.37300E+03
        -0.37300E+03
        -0.37300E+03
        -0.37300E+03
        -0.37300E+03
        -0.37300E+03
        -0.37300E+03
        -0.37300E+03
        -0.37300E+03
        -0.37300E+03
        -0.37300E+03
        -0.37300E+03
        -0.37300E+03
        -0.37300E+03
        -0.37300E+03
        -0.37300E+03
        -0.37300E+03
        -0.37300E+03
        -0.37300E+03
        -0.37300E+03
        -0.37300E+03
        -0.37300E+03
        -0.37300E+03
        -0.37300E+03
        -0.37300E+03
        -0.37300E+03
        -0.37300E+03
        -0.37300E+03
        -0.37300E+03
        -0.37300E+03
        -0.37300E+03
        -0.37300E+03
        -0.37300E+03
        -0.37300E+03
        -0.37300E+03
        -0.37300E+03
        -0.37300E+03
        -0.37300E+03
        -0.37300E+03
        -0.37300E+03
        -0.37300E+03
        -0.37300E+03
        -0.37300E+03
        -0.37300E+03
        -0.37300E+03
        -0.37300E+03
        -0.37300E+03
        -0.37300E+03
        -0.37300E+03
        -0.37300E+03
        -0.37300E+03
        -0.37300E+03
        -0.37300E+03
        -0.37300E+03
        -0.37300E+03
        -0.37300E+03
        -0.37300E+03
        -0.37300E+03
        -0.37300E+03
        -0.37300E+03
        -0.37300E+03
        -0.37300E+03
        -0.37300E+03
        -0.37300E+03
        -0.37300E+03
        -0.37300E+03
        -0.37300E+03
        -0.37300E+03
        -0.37300E+03
        -0.37300E+03
        -0.37300E+03
        -0.37300E+03
        -0.37300E+03
        -0.37300E+03
        -0.37300E+03
        -0.37300E+03
        -0.37300E+03
        -0.37300E+03
        -0.37300E+03
        -0.37300E+03
        -0.37300E+03
        -0.37300E+03
        -0.37300E+03
        -0.37300E+03
        -0.37300E+03
        -0.37300E+03
        -0.37300E+03
        -0.37300E+03
        -0.37300E+03
        -0.37300E+03
        -0.37300E+03
        -0.37300E+03
        -0.37300E+03
        -0.37300E+03
        -0.37300E+03
        -0.37300E+03
        -0.37300E+03
        -0.37300E+03
        -0.37300E+03
        -0.37300E+03
        -0.37300E+03
        -0.37300E+03
        -0.37300E+03
        -0.37300E+03
        -0.37300E+03
        -0.37300E+03
        -0.37300E+03
        -0.37300E+03
        -0.37300E+03
        -0.37300E+03
        -0.37300E+03
        -0.37300E+03
        -0.37300E+03
        -0.37300E+03
        -0.37300E+03
        -0.37300E+03
        -0.37300E+03
        -0.37300E+03
        -0.37300E+03
        -0.37300E+03
        -0.37300E+03
        -0.37300E+03
        -0.37300E+03
        -0.37300E+03
        -0.37300E+03
        -0.37300E+03
        -0.37300E+03
        -0.37300E+03
        -0.37300E+03
        -0.37300E+03
        -0.37300E+03
        -0.37300E+03
        -0.37300E+03
        -0.37300E+03
        -0.37300E+03
        -0.37300E+03
        -0.37300E+03
        -0.37300E+03
        -0.37300E+03
        -0.37300E+03
        -0.37300E+03
        -0.37300E+03
        -0.37300E+03
        -0.37300E+03
        -0.37300E+03
        -0.37300E+03
        -0.37300E+03
        -0.37300E+03
        -0.37300E+03
        -0.37300E+03
        -0.37300E+03
        -0.37300E+03
        -0.37300E+03
        -0.37300E+03
        -0.37300E+03
        -0.37300E+03
        -0.37300E+03
        -0.37300E+03
        -0.37300E+03
        -0.37300E+03
        -0.37300E+03
        -0.37300E+03
        -0.37300E+03
        -0.37300E+03
        -0.37300E+03
        -0.37300E+03
        -0.37300E+03
        -0.37300E+03
        -0.37300E+03
        -0.37300E+03
        -0.37300E+03
        -0.37300E+03
        -0.37300E+03
        -0.37300E+03
        -0.37300E+03
        -0.37300E+03
        -0.37300E+03
        -0.37300E+03
        -0.37300E+03
        -0.37300E+03
        -0.37300E+03
        -0.37300E+03
        -0.37300E+03
        -0.37300E+03
        -0.37300E+03
        -0.37300E+03
        -0.37300E+03
        -0.37300E+03
        -0.37300E+03
        -0.37300E+03
        -0.37300E+03
        -0.37300E+03
        -0.37300E+03
        -0.37300E+03
        -0.37300E+03
        -0.37300E+03
        -0.37300E+03
        -0.37300E+03
        -0.37300E+03
        -0.37300E+03
        -0.37300E+03
        -0.37300E+03
        -0.37300E+03
        -0.37300E+03
        -0.37300E+03
        -0.37300E+03
        -0.37300E+03
        -0.37300E+03
        -0.37300E+03
        -0.37300E+03
        -0.37300E+03
        -0.37300E+03
        -0.37300E+03
        -0.37300E+03
        -0.37300E+03
        -0.37300E+03
        -0.37300E+03
        -0.37300E+03
        -0.37300E+03
        -0.37300E+03
        -0.37300E+03
        -0.37300E+03
        -0.37300E+03
        -0.37300E+03
        -0.37300E+03
        -0.37300E+03
        -0.37300E+03
        -0.37300E+03
        -0.37300E+03
        -0.37300E+03
        -0.37300E+03
        -0.37300E+03
        -0.37300E+03
        -0.37300E+03
        -0.37300E+03
        -0.37300E+03
        -0.37300E+03
        -0.37300E+03
        -0.37300E+03
        -0.37300E+03
        -0.37300E+03
        -0.37300E+03
        -0.37300E+03
        -0.37300E+03
        -0.37300E+03
        -0.37300E+03
        -0.37300E+03
        -0.37300E+03
        -0.37300E+03
        -0.37300E+03
        -0.37300E+03
        -0.37300E+03
        -0.37300E+03
        -0.37300E+03
        -0.37300E+03
        -0.37300E+03
        -0.37300E+03
        -0.37300E+03
        -0.37300E+03
        -0.37300E+03
        -0.37300E+03
        -0.37300E+03
        -0.37300E+03
        -0.37300E+03
        -0.37300E+03
        -0.37300E+03
        -0.37300E+03
        -0.37300E+03
        -0.37300E+03
        -0.37300E+03
        -0.37300E+03
        -0.37300E+03
        -0.37300E+03
        -0.37300E+03
        -0.37300E+03
        -0.37300E+03
        -0.37300E+03
        -0.37300E+03
        -0.37300E+03
        -0.37300E+03
        -0.37300E+03
        -0.37300E+03
        -0.37300E+03
        -0.37300E+03
        -0.37300E+03
        -0.37300E+03
        -0.37300E+03
        -0.37300E+03
        -0.37300E+03
        -0.37300E+03
        -0.37300E+03
        -0.37300E+03
        -0.37300E+03
        -0.37300E+03
        -0.37300E+03
        -0.37300E+03
        -0.37300E+03
        -0.37300E+03
        -0.37300E+03
        -0.37300E+03
        -0.37300E+03
        -0.37300E+03
        -0.37300E+03
        -0.37300E+03
        -0.37300E+03
        -0.37300E+03
        -0.37300E+03
        -0.37300E+03
        -0.37300E+03
        -0.37300E+03
        -0.37300E+03
        -0.37300E+03
        -0.37300E+03
        -0.37300E+03
        -0.37300E+03
        -0.37300E+03
        -0.37300E+03
        -0.37300E+03
        -0.37300E+03
        -0.37300E+03
        -0.37300E+03
        -0.37300E+03
        -0.37300E+03
        -0.37300E+03
        -0.37300E+03
        -0.37300E+03
        -0.37300E+03
        -0.37300E+03
        -0.37300E+03
        -0.37300E+03
        -0.37300E+03
        -0.37300E+03
        -0.37300E+03
        -0.37300E+03
        -0.37300E+03
        -0.37300E+03
        -0.37300E+03
        -0.37300E+03
        -0.37300E+03
        -0.37300E+03
        -0.37300E+03
        -0.37300E+03
        -0.37300E+03
        -0.37300E+03
        -0.37300E+03
        -0.37300E+03
        -0.37300E+03
        -0.37300E+03
        -0.37300E+03
        -0.37300E+03
        -0.37300E+03
        -0.37300E+03
        -0.37300E+03
        -0.37300E+03
        -0.37300E+03
        -0.37300E+03
        -0.37300E+03
        -0.37300E+03
        -0.37300E+03
        -0.37300E+03
        -0.37300E+03
        -0.37300E+03
        -0.37300E+03
        -0.37300E+03
        -0.37300E+03
        -0.37300E+03
        -0.37300E+03
        -0.37300E+03
        -0.37300E+03
        -0.37300E+03
        -0.37300E+03
        -0.37300E+03
        -0.37300E+03
        -0.37300E+03
        -0.37300E+03
        -0.37300E+03
        -0.37300E+03
        -0.37300E+03
        -0.37300E+03
        -0.37300E+03
        -0.37300E+03
        -0.37300E+03
        -0.37300E+03
        -0.37300E+03
        -0.37300E+03
        -0.37300E+03
        -0.37300E+03
        -0.37300E+03
        -0.37300E+03
        -0.37300E+03
        -0.37300E+03
        -0.37300E+03
        -0.37300E+03
        -0.37300E+03
        -0.37300E+03
        -0.37300E+03
        -0.37300E+03
        -0.37300E+03
        -0.37300E+03
        -0.37300E+03
        -0.37300E+03
        -0.37300E+03
        -0.37300E+03
        -0.37300E+03
        -0.37300E+03
        -0.37300E+03
        -0.37300E+03
        -0.37300E+03
        -0.37300E+03
        -0.37300E+03
        -0.37300E+03
        -0.37300E+03
        -0.37300E+03
        -0.37300E+03
        -0.37300E+03
        -0.37300E+03
        -0.37300E+03
        -0.37300E+03
        -0.37300E+03
        -0.37300E+03
        -0.37300E+03
        -0.37300E+03
        -0.37300E+03
        -0.37300E+03
        -0.37300E+03
        -0.37300E+03
        -0.37300E+03
        -0.37300E+03
        -0.37300E+03
        -0.37300E+03
        -0.37300E+03
        -0.37300E+03
        -0.37300E+03
        -0.37300E+03
        -0.37300E+03
        -0.37300E+03
        -0.37300E+03
        -0.37300E+03
        -0.37300E+03
        -0.37300E+03
        -0.37300E+03
        -0.37300E+03
        -0.37300E+03
        -0.37300E+03
        -0.37300E+03
        -0.37300E+03
        -0.37300E+03
        -0.37300E+03
        -0.37300E+03
        -0.37300E+03
        -0.37300E+03
        -0.37300E+03
        -0.37300E+03
        -0.37300E+03
        -0.37300E+03
        -0.37300E+03
        -0.37300E+03
        -0.37300E+03
        -0.37300E+03
        -0.37300E+03
        -0.37300E+03
        -0.37300E+03
        -0.37300E+03
        -0.37300E+03
        -0.37300E+03
        -0.37300E+03
        -0.37300E+03
        -0.37300E+03
        -0.37300E+03
        -0.37300E+03
        -0.37300E+03
        -0.37300E+03
        -0.37300E+03
        -0.37300E+03
        -0.37300E+03
        -0.37300E+03
        -0.37300E+03
        -0.37300E+03
        -0.37300E+03
        -0.37300E+03
        -0.37300E+03
        -0.37300E+03
        -0.37300E+03
        -0.37300E+03
        -0.37300E+03
        -0.37300E+03
        -0.37300E+03
        -0.37300E+03
        -0.37300E+03
        -0.37300E+03
        -0.37300E+03
        -0.37300E+03
        -0.37300E+03
        -0.37300E+03
        -0.37300E+03
        -0.37300E+03
        -0.37300E+03
        -0.37300E+03
        -0.37300E+03
        -0.37300E+03
        -0.37300E+03
        -0.37300E+03
        -0.37300E+03
        -0.37300E+03
        -0.37300E+03
        -0.37300E+03
        -0.37300E+03
        -0.37300E+03
        -0.37300E+03
        -0.37300E+03
        -0.37300E+03
        -0.37300E+03
        -0.37300E+03
        -0.37300E+03
        -0.37300E+03
        -0.37300E+03
        -0.37300E+03
        -0.37300E+03
        -0.37300E+03
        -0.37300E+03
        -0.37300E+03
        -0.37300E+03
        -0.37300E+03
        -0.37300E+03
        -0.37300E+03
        -0.37300E+03
        -0.37300E+03
        -0.37300E+03
        -0.37300E+03
        -0.37300E+03
        -0.37300E+03
        -0.37300E+03
        -0.37300E+03
        -0.37300E+03
        -0.37300E+03
        -0.37300E+03
        -0.37300E+03
        -0.37300E+03
        -0.37300E+03
        -0.37300E+03
        -0.37300E+03
        -0.37300E+03
        -0.37300E+03
        -0.37300E+03
        -0.37300E+03
        -0.37300E+03
        -0.37300E+03
        -0.37300E+03
        -0.37300E+03
        -0.37300E+03
        -0.37300E+03
        -0.37300E+03
        -0.37300E+03
        -0.37300E+03
        -0.37300E+03
        -0.37300E+03
        -0.37300E+03
        -0.37300E+03
        -0.37300E+03
        -0.37300E+03
        -0.37300E+03
        -0.37300E+03
        -0.37300E+03
        -0.37300E+03
        -0.37300E+03
        -0.37300E+03
        -0.37300E+03
        -0.37300E+03
        -0.37300E+03
        -0.37300E+03
        -0.37300E+03
        -0.37300E+03
        -0.37300E+03
        -0.37300E+03
        -0.37300E+03
        -0.37300E+03
        -0.37300E+03
        -0.37300E+03
        -0.37300E+03
        -0.37300E+03
        -0.37300E+03
        -0.37300E+03
        -0.37300E+03
        -0.37300E+03
        -0.37300E+03
        -0.37300E+03
        -0.37300E+03
        -0.37300E+03
        -0.37300E+03
        -0.37300E+03
        -0.37300E+03
        -0.37300E+03
        -0.37300E+03
        -0.37300E+03
        -0.37300E+03
        -0.37300E+03
        -0.37300E+03
        -0.37300E+03
        -0.37300E+03
        -0.37300E+03
        -0.37300E+03
        -0.37300E+03
        -0.37300E+03
        -0.37300E+03
        -0.37300E+03
        -0.37300E+03
        -0.37300E+03
        -0.37300E+03
        -0.37300E+03
        -0.37300E+03
        -0.37300E+03
        -0.37300E+03
        -0.37300E+03
        -0.37300E+03
        -0.37300E+03
        -0.37300E+03
        -0.37300E+03
        -0.37300E+03
        -0.37300E+03
        -0.37300E+03
        -0.37300E+03
        -0.37300E+03
        -0.37300E+03
        -0.37300E+03
        -0.37300E+03
        -0.37300E+03
        -0.37300E+03
        -0.37300E+03
        -0.37300E+03
        -0.37300E+03
        -0.37300E+03
        -0.37300E+03
        -0.37300E+03
        -0.37300E+03
        -0.37300E+03
        -0.37300E+03
        -0.37300E+03
        -0.37300E+03
        -0.37300E+03
        -0.37300E+03
        -0.37300E+03
        -0.37300E+03
        -0.37300E+03
        -0.37300E+03
        -0.37300E+03
        -0.37300E+03
        -0.37300E+03
        -0.37300E+03
        -0.37300E+03
        -0.37300E+03
        -0.37300E+03
        -0.37300E+03
        -0.37300E+03
        -0.37300E+03
        -0.37300E+03
        -0.37300E+03
        -0.37300E+03
        -0.37300E+03
        -0.37300E+03
        -0.37300E+03
        -0.37300E+03
        -0.37300E+03
        -0.37300E+03
        -0.37300E+03
        -0.37300E+03
        -0.37300E+03
        -0.37300E+03
        -0.37300E+03
        -0.37300E+03
        -0.37300E+03
        -0.37300E+03
        -0.37300E+03
        -0.37300E+03
        -0.37300E+03
        -0.37300E+03
        -0.37300E+03
        -0.37300E+03
        -0.37300E+03
        -0.37300E+03
        -0.37300E+03
        -0.37300E+03
        -0.37300E+03
        -0.37300E+03
        -0.37300E+03
        -0.37300E+03
        -0.37300E+03
        -0.37300E+03
        -0.37300E+03
        -0.37300E+03
        -0.37300E+03
        -0.37300E+03
        -0.37300E+03
        -0.37300E+03
        -0.37300E+03
        -0.37300E+03
        -0.37300E+03
        -0.37300E+03
        -0.37300E+03
        -0.37300E+03
        -0.37300E+03
        -0.37300E+03
        -0.37300E+03
        -0.37300E+03
        -0.37300E+03
        -0.37300E+03
        -0.37300E+03
        -0.37300E+03
        -0.37300E+03
        -0.37300E+03
        -0.37300E+03
        -0.37300E+03
        -0.37300E+03
        -0.37300E+03
        -0.37300E+03
        -0.37300E+03
        -0.37300E+03
        -0.37300E+03
        -0.37300E+03
        -0.37300E+03
        -0.37300E+03
        -0.37300E+03
        -0.37300E+03
        -0.37300E+03
        -0.37300E+03
        -0.37300E+03
        -0.37300E+03
        -0.37300E+03
        -0.37300E+03
        -0.37300E+03
        -0.37300E+03
        -0.37300E+03
        -0.37300E+03
        -0.37300E+03
        -0.37300E+03
        -0.37300E+03
        -0.37300E+03
        -0.37300E+03
        -0.37300E+03
        -0.37300E+03
        -0.37300E+03
        -0.37300E+03
        -0.37300E+03
        -0.37300E+03
        -0.37300E+03
        -0.37300E+03
        -0.37300E+03
        -0.37300E+03
        -0.37300E+03
        -0.37300E+03
        -0.37300E+03
        -0.37300E+03
        -0.37300E+03
        -0.37300E+03
        -0.37300E+03
        -0.37300E+03
        -0.37300E+03
        -0.37300E+03
        -0.37300E+03
        -0.37300E+03
        -0.37300E+03
        -0.37300E+03
        -0.37300E+03
        -0.37300E+03
        -0.37300E+03
        -0.37300E+03
        -0.37300E+03
        -0.37300E+03
        -0.37300E+03
        -0.37300E+03
        -0.37300E+03
        -0.37300E+03
        -0.37300E+03
        -0.37300E+03
        -0.37300E+03
        -0.37300E+03
        -0.37300E+03
        -0.37300E+03
        -0.37300E+03
        -0.37300E+03
        -0.37300E+03
        -0.37300E+03
        -0.37300E+03
        -0.37300E+03
        -0.37300E+03
        -0.37300E+03
        -0.37300E+03
        -0.37300E+03
        -0.37300E+03
        -0.37300E+03
        -0.37300E+03
        -0.37300E+03
        -0.37300E+03
        -0.37300E+03
        -0.37300E+03
        -0.37300E+03
        -0.37300E+03
        -0.37300E+03
        -0.37300E+03
        -0.37300E+03
        -0.37300E+03
        -0.37300E+03
        -0.37300E+03
        -0.37300E+03
        -0.37300E+03
        -0.37300E+03
        -0.37300E+03
        -0.37300E+03
        -0.37300E+03
        -0.37300E+03
        -0.37300E+03
        -0.37300E+03
        -0.37300E+03
        -0.37300E+03
        -0.37300E+03
        -0.37300E+03
        -0.37300E+03
        -0.37300E+03
        -0.37300E+03
        -0.37300E+03
        -0.37300E+03
        -0.37300E+03
        -0.37300E+03
        -0.37300E+03
        -0.37300E+03
        -0.37300E+03
        -0.37300E+03
        -0.37300E+03
        -0.37300E+03
        -0.37300E+03
        -0.37300E+03
        -0.37300E+03
        -0.37300E+03
        -0.37300E+03
        -0.37300E+03
        -0.37300E+03
        -0.37300E+03
        -0.37300E+03
        -0.37300E+03
        -0.37300E+03
        -0.37300E+03
        -0.37300E+03
        -0.37300E+03
        -0.37300E+03
        -0.37300E+03
        -0.37300E+03
        -0.37300E+03
        -0.37300E+03
        -0.37300E+03
        -0.37300E+03
        -0.37300E+03
        -0.37300E+03
        -0.37300E+03
        -0.37300E+03
        -0.37300E+03
        -0.37300E+03
        -0.37300E+03
        -0.37300E+03
        -0.37300E+03
        -0.37300E+03
        -0.37300E+03
        -0.37300E+03
        -0.37300E+03
        -0.37300E+03
        -0.37300E+03
        -0.37300E+03
        -0.37300E+03
        -0.37300E+03
        -0.37300E+03
        -0.37300E+03
        -0.37300E+03
        -0.37300E+03
        -0.37300E+03
        -0.37300E+03
        -0.37300E+03
        -0.37300E+03
        -0.37300E+03
        -0.37300E+03
        -0.37300E+03
        -0.37300E+03
        -0.37300E+03
        -0.37300E+03
        -0.37300E+03
        -0.37300E+03
        -0.37300E+03
        -0.37300E+03
        -0.37300E+03
        -0.37300E+03
        -0.37300E+03
        -0.37300E+03
        -0.37300E+03
        -0.37300E+03
        -0.37300E+03
        -0.37300E+03
        -0.37300E+03
        -0.37300E+03
        -0.37300E+03
        -0.37300E+03
        -0.37300E+03
        -0.37300E+03
        -0.37300E+03
        -0.37300E+03
        -0.37300E+03
        -0.37300E+03
        -0.37300E+03
        -0.37300E+03
        -0.37300E+03
        -0.37300E+03
        -0.37300E+03
        -0.37300E+03
        -0.37300E+03
        -0.37300E+03
        -0.37300E+03
        -0.37300E+03
        -0.37300E+03
        -0.37300E+03
        -0.37300E+03
        -0.37300E+03
        -0.37300E+03
        -0.37300E+03
        -0.37300E+03
        -0.37300E+03
        -0.37300E+03
        -0.37300E+03
        -0.37300E+03
        -0.37300E+03
        -0.37300E+03
        -0.37300E+03
        -0.37300E+03
        -0.37300E+03
        -0.37300E+03
        -0.37300E+03
        -0.37300E+03
        -0.37300E+03
        -0.37300E+03
        -0.37300E+03
        -0.37300E+03
        -0.37300E+03
        -0.37300E+03
        -0.37300E+03
        -0.37300E+03
        -0.37300E+03
        -0.37300E+03
        -0.37300E+03
        -0.37300E+03
        -0.37300E+03
        -0.37300E+03
        -0.37300E+03
        -0.37300E+03
        -0.37300E+03
        -0.37300E+03
        -0.37300E+03
        -0.37300E+03
        -0.37300E+03
        -0.37300E+03
        -0.37300E+03
        -0.37300E+03
        -0.37300E+03
        -0.37300E+03
        -0.37300E+03
        -0.37300E+03
        -0.37300E+03
        -0.37300E+03
        -0.37300E+03
        -0.37300E+03
        -0.37300E+03
        -0.37300E+03
        -0.37300E+03
        -0.37300E+03
        -0.37300E+03
        -0.37300E+03
        -0.37300E+03
        -0.37300E+03
        -0.37300E+03
        -0.37300E+03
        -0.37300E+03
        -0.37300E+03
        -0.37300E+03
        -0.37300E+03
        -0.37300E+03
        -0.37300E+03
        -0.37300E+03
        -0.37300E+03
        -0.37300E+03
        -0.37300E+03
        -0.37300E+03
        -0.37300E+03
        -0.37300E+03
        -0.37300E+03
        -0.37300E+03
        -0.37300E+03
        -0.37300E+03
        -0.37300E+03
        -0.37300E+03
        -0.37300E+03
        -0.37300E+03
        -0.37300E+03
        -0.37300E+03
        -0.37300E+03
        -0.37300E+03
        -0.37300E+03
        -0.37300E+03
        -0.37300E+03
        -0.37300E+03
        -0.37300E+03
        -0.37300E+03
        -0.37300E+03
        -0.37300E+03
        -0.37300E+03
        -0.37300E+03
        -0.37300E+03
        -0.37300E+03
        -0.37300E+03
        -0.37300E+03
        -0.37300E+03
        -0.37300E+03
        -0.37300E+03
        -0.37300E+03
        -0.37300E+03
        -0.37300E+03
        -0.37300E+03
        -0.37300E+03
        -0.37300E+03
        -0.37300E+03
        -0.37300E+03
        -0.37300E+03
        -0.37300E+03
        -0.37300E+03
        -0.37300E+03
        -0.37300E+03
        -0.37300E+03
        -0.37300E+03
        -0.37300E+03
        -0.37300E+03
        -0.37300E+03
  
SCALARS                 acceleration_x  double 1
LOOKUP_TABLE default
         0.00000E+00
         0.00000E+00
         0.00000E+00
         0.00000E+00
         0.00000E+00
         0.00000E+00
         0.00000E+00
         0.00000E+00
         0.00000E+00
         0.00000E+00
         0.00000E+00
         0.00000E+00
         0.00000E+00
         0.00000E+00
         0.00000E+00
         0.00000E+00
         0.00000E+00
         0.00000E+00
         0.00000E+00
         0.00000E+00
         0.00000E+00
         0.00000E+00
         0.00000E+00
         0.00000E+00
         0.00000E+00
         0.00000E+00
         0.00000E+00
         0.00000E+00
         0.00000E+00
         0.00000E+00
         0.00000E+00
         0.00000E+00
         0.00000E+00
         0.00000E+00
         0.00000E+00
         0.00000E+00
         0.00000E+00
         0.00000E+00
         0.00000E+00
         0.00000E+00
         0.00000E+00
         0.00000E+00
         0.00000E+00
         0.00000E+00
         0.00000E+00
         0.00000E+00
         0.00000E+00
         0.00000E+00
         0.00000E+00
         0.00000E+00
         0.00000E+00
         0.00000E+00
         0.00000E+00
         0.00000E+00
         0.00000E+00
         0.00000E+00
         0.00000E+00
         0.00000E+00
         0.00000E+00
         0.00000E+00
         0.00000E+00
         0.00000E+00
         0.00000E+00
         0.00000E+00
         0.00000E+00
         0.00000E+00
         0.00000E+00
         0.00000E+00
         0.00000E+00
         0.00000E+00
         0.00000E+00
         0.00000E+00
         0.00000E+00
         0.00000E+00
         0.00000E+00
         0.00000E+00
         0.00000E+00
         0.00000E+00
         0.00000E+00
         0.00000E+00
         0.00000E+00
         0.00000E+00
         0.00000E+00
         0.00000E+00
         0.00000E+00
         0.00000E+00
         0.00000E+00
         0.00000E+00
         0.00000E+00
         0.00000E+00
         0.00000E+00
         0.00000E+00
         0.00000E+00
         0.00000E+00
         0.00000E+00
         0.00000E+00
         0.00000E+00
         0.00000E+00
         0.00000E+00
         0.00000E+00
         0.00000E+00
         0.00000E+00
         0.00000E+00
         0.00000E+00
         0.00000E+00
         0.00000E+00
         0.00000E+00
         0.00000E+00
         0.00000E+00
         0.00000E+00
         0.00000E+00
         0.00000E+00
         0.00000E+00
         0.00000E+00
         0.00000E+00
         0.00000E+00
         0.00000E+00
         0.00000E+00
         0.00000E+00
         0.00000E+00
         0.00000E+00
         0.00000E+00
         0.00000E+00
         0.00000E+00
         0.00000E+00
         0.00000E+00
         0.00000E+00
         0.00000E+00
         0.00000E+00
         0.00000E+00
         0.00000E+00
         0.00000E+00
         0.00000E+00
         0.00000E+00
         0.00000E+00
         0.00000E+00
         0.00000E+00
         0.00000E+00
         0.00000E+00
         0.00000E+00
         0.00000E+00
         0.00000E+00
         0.00000E+00
         0.00000E+00
         0.00000E+00
         0.00000E+00
         0.00000E+00
         0.00000E+00
         0.00000E+00
         0.00000E+00
         0.00000E+00
         0.00000E+00
         0.00000E+00
         0.00000E+00
         0.00000E+00
         0.00000E+00
         0.00000E+00
         0.00000E+00
         0.00000E+00
         0.00000E+00
         0.00000E+00
         0.00000E+00
         0.00000E+00
         0.00000E+00
         0.00000E+00
         0.00000E+00
         0.00000E+00
         0.00000E+00
         0.00000E+00
         0.00000E+00
         0.00000E+00
         0.00000E+00
         0.00000E+00
         0.00000E+00
         0.00000E+00
         0.00000E+00
         0.00000E+00
         0.00000E+00
         0.00000E+00
         0.00000E+00
         0.00000E+00
         0.00000E+00
         0.00000E+00
         0.00000E+00
         0.00000E+00
         0.00000E+00
         0.00000E+00
         0.00000E+00
         0.00000E+00
         0.00000E+00
         0.00000E+00
         0.00000E+00
         0.00000E+00
         0.00000E+00
         0.00000E+00
         0.00000E+00
         0.00000E+00
         0.00000E+00
         0.00000E+00
         0.00000E+00
         0.00000E+00
         0.00000E+00
         0.00000E+00
         0.00000E+00
         0.00000E+00
         0.00000E+00
         0.00000E+00
         0.00000E+00
         0.00000E+00
         0.00000E+00
         0.00000E+00
         0.00000E+00
         0.00000E+00
         0.00000E+00
         0.00000E+00
         0.00000E+00
         0.00000E+00
         0.00000E+00
         0.00000E+00
         0.00000E+00
         0.00000E+00
         0.00000E+00
         0.00000E+00
         0.00000E+00
         0.00000E+00
         0.00000E+00
         0.00000E+00
         0.00000E+00
         0.00000E+00
         0.00000E+00
         0.00000E+00
         0.00000E+00
         0.00000E+00
         0.00000E+00
         0.00000E+00
         0.00000E+00
         0.00000E+00
         0.00000E+00
         0.00000E+00
         0.00000E+00
         0.00000E+00
         0.00000E+00
         0.00000E+00
         0.00000E+00
         0.00000E+00
         0.00000E+00
         0.00000E+00
         0.00000E+00
         0.00000E+00
         0.00000E+00
         0.00000E+00
         0.00000E+00
         0.00000E+00
         0.00000E+00
         0.00000E+00
         0.00000E+00
         0.00000E+00
         0.00000E+00
         0.00000E+00
         0.00000E+00
         0.00000E+00
         0.00000E+00
         0.00000E+00
         0.00000E+00
         0.00000E+00
         0.00000E+00
         0.00000E+00
         0.00000E+00
         0.00000E+00
         0.00000E+00
         0.00000E+00
         0.00000E+00
         0.00000E+00
         0.00000E+00
         0.00000E+00
         0.00000E+00
         0.00000E+00
         0.00000E+00
         0.00000E+00
         0.00000E+00
         0.00000E+00
         0.00000E+00
         0.00000E+00
         0.00000E+00
         0.00000E+00
         0.00000E+00
         0.00000E+00
         0.00000E+00
         0.00000E+00
         0.00000E+00
         0.00000E+00
         0.00000E+00
         0.00000E+00
         0.00000E+00
         0.00000E+00
         0.00000E+00
         0.00000E+00
         0.00000E+00
         0.00000E+00
         0.00000E+00
         0.00000E+00
         0.00000E+00
         0.00000E+00
         0.00000E+00
         0.00000E+00
         0.00000E+00
         0.00000E+00
         0.00000E+00
         0.00000E+00
         0.00000E+00
         0.00000E+00
         0.00000E+00
         0.00000E+00
         0.00000E+00
         0.00000E+00
         0.00000E+00
         0.00000E+00
         0.00000E+00
         0.00000E+00
         0.00000E+00
         0.00000E+00
         0.00000E+00
         0.00000E+00
         0.00000E+00
         0.00000E+00
         0.00000E+00
         0.00000E+00
         0.00000E+00
         0.00000E+00
         0.00000E+00
         0.00000E+00
         0.00000E+00
         0.00000E+00
         0.00000E+00
         0.00000E+00
         0.00000E+00
         0.00000E+00
         0.00000E+00
         0.00000E+00
         0.00000E+00
         0.00000E+00
         0.00000E+00
         0.00000E+00
         0.00000E+00
         0.00000E+00
         0.00000E+00
         0.00000E+00
         0.00000E+00
         0.00000E+00
         0.00000E+00
         0.00000E+00
         0.00000E+00
         0.00000E+00
         0.00000E+00
         0.00000E+00
         0.00000E+00
         0.00000E+00
         0.00000E+00
         0.00000E+00
         0.00000E+00
         0.00000E+00
         0.00000E+00
         0.00000E+00
         0.00000E+00
         0.00000E+00
         0.00000E+00
         0.00000E+00
         0.00000E+00
         0.00000E+00
         0.00000E+00
         0.00000E+00
         0.00000E+00
         0.00000E+00
         0.00000E+00
         0.00000E+00
         0.00000E+00
         0.00000E+00
         0.00000E+00
         0.00000E+00
         0.00000E+00
         0.00000E+00
         0.00000E+00
         0.00000E+00
         0.00000E+00
         0.00000E+00
         0.00000E+00
         0.00000E+00
         0.00000E+00
         0.00000E+00
         0.00000E+00
         0.00000E+00
         0.00000E+00
         0.00000E+00
         0.00000E+00
         0.00000E+00
         0.00000E+00
         0.00000E+00
         0.00000E+00
         0.00000E+00
         0.00000E+00
         0.00000E+00
         0.00000E+00
         0.00000E+00
         0.00000E+00
         0.00000E+00
         0.00000E+00
         0.00000E+00
         0.00000E+00
         0.00000E+00
         0.00000E+00
         0.00000E+00
         0.00000E+00
         0.00000E+00
         0.00000E+00
         0.00000E+00
         0.00000E+00
         0.00000E+00
         0.00000E+00
         0.00000E+00
         0.00000E+00
         0.00000E+00
         0.00000E+00
         0.00000E+00
         0.00000E+00
         0.00000E+00
         0.00000E+00
         0.00000E+00
         0.00000E+00
         0.00000E+00
         0.00000E+00
         0.00000E+00
         0.00000E+00
         0.00000E+00
         0.00000E+00
         0.00000E+00
         0.00000E+00
         0.00000E+00
         0.00000E+00
         0.00000E+00
         0.00000E+00
         0.00000E+00
         0.00000E+00
         0.00000E+00
         0.00000E+00
         0.00000E+00
         0.00000E+00
         0.00000E+00
         0.00000E+00
         0.00000E+00
         0.00000E+00
         0.00000E+00
         0.00000E+00
         0.00000E+00
         0.00000E+00
         0.00000E+00
         0.00000E+00
         0.00000E+00
         0.00000E+00
         0.00000E+00
         0.00000E+00
         0.00000E+00
         0.00000E+00
         0.00000E+00
         0.00000E+00
         0.00000E+00
         0.00000E+00
         0.00000E+00
         0.00000E+00
         0.00000E+00
         0.00000E+00
         0.00000E+00
         0.00000E+00
         0.00000E+00
         0.00000E+00
         0.00000E+00
         0.00000E+00
         0.00000E+00
         0.00000E+00
         0.00000E+00
         0.00000E+00
         0.00000E+00
         0.00000E+00
         0.00000E+00
         0.00000E+00
         0.00000E+00
         0.00000E+00
         0.00000E+00
         0.00000E+00
         0.00000E+00
         0.00000E+00
         0.00000E+00
         0.00000E+00
         0.00000E+00
         0.00000E+00
         0.00000E+00
         0.00000E+00
         0.00000E+00
         0.00000E+00
         0.00000E+00
         0.00000E+00
         0.00000E+00
         0.00000E+00
         0.00000E+00
         0.00000E+00
         0.00000E+00
         0.00000E+00
         0.00000E+00
         0.00000E+00
         0.00000E+00
         0.00000E+00
         0.00000E+00
         0.00000E+00
         0.00000E+00
         0.00000E+00
         0.00000E+00
         0.00000E+00
         0.00000E+00
         0.00000E+00
         0.00000E+00
         0.00000E+00
         0.00000E+00
         0.00000E+00
         0.00000E+00
         0.00000E+00
         0.00000E+00
         0.00000E+00
         0.00000E+00
         0.00000E+00
         0.00000E+00
         0.00000E+00
         0.00000E+00
         0.00000E+00
         0.00000E+00
         0.00000E+00
         0.00000E+00
         0.00000E+00
         0.00000E+00
         0.00000E+00
         0.00000E+00
         0.00000E+00
         0.00000E+00
         0.00000E+00
         0.00000E+00
         0.00000E+00
         0.00000E+00
         0.00000E+00
         0.00000E+00
         0.00000E+00
         0.00000E+00
         0.00000E+00
         0.00000E+00
         0.00000E+00
         0.00000E+00
         0.00000E+00
         0.00000E+00
         0.00000E+00
         0.00000E+00
         0.00000E+00
         0.00000E+00
         0.00000E+00
         0.00000E+00
         0.00000E+00
         0.00000E+00
         0.00000E+00
         0.00000E+00
         0.00000E+00
         0.00000E+00
         0.00000E+00
         0.00000E+00
         0.00000E+00
         0.00000E+00
         0.00000E+00
         0.00000E+00
         0.00000E+00
         0.00000E+00
         0.00000E+00
         0.00000E+00
         0.00000E+00
         0.00000E+00
         0.00000E+00
         0.00000E+00
         0.00000E+00
         0.00000E+00
         0.00000E+00
         0.00000E+00
         0.00000E+00
         0.00000E+00
         0.00000E+00
         0.00000E+00
         0.00000E+00
         0.00000E+00
         0.00000E+00
         0.00000E+00
         0.00000E+00
         0.00000E+00
         0.00000E+00
         0.00000E+00
         0.00000E+00
         0.00000E+00
         0.00000E+00
         0.00000E+00
         0.00000E+00
         0.00000E+00
         0.00000E+00
         0.00000E+00
         0.00000E+00
         0.00000E+00
         0.00000E+00
         0.00000E+00
         0.00000E+00
         0.00000E+00
         0.00000E+00
         0.00000E+00
         0.00000E+00
         0.00000E+00
         0.00000E+00
         0.00000E+00
         0.00000E+00
         0.00000E+00
         0.00000E+00
         0.00000E+00
         0.00000E+00
         0.00000E+00
         0.00000E+00
         0.00000E+00
         0.00000E+00
         0.00000E+00
         0.00000E+00
         0.00000E+00
         0.00000E+00
         0.00000E+00
         0.00000E+00
         0.00000E+00
         0.00000E+00
         0.00000E+00
         0.00000E+00
         0.00000E+00
         0.00000E+00
         0.00000E+00
         0.00000E+00
         0.00000E+00
         0.00000E+00
         0.00000E+00
         0.00000E+00
         0.00000E+00
         0.00000E+00
         0.00000E+00
         0.00000E+00
         0.00000E+00
         0.00000E+00
         0.00000E+00
         0.00000E+00
         0.00000E+00
         0.00000E+00
         0.00000E+00
         0.00000E+00
         0.00000E+00
         0.00000E+00
         0.00000E+00
         0.00000E+00
         0.00000E+00
         0.00000E+00
         0.00000E+00
         0.00000E+00
         0.00000E+00
         0.00000E+00
         0.00000E+00
         0.00000E+00
         0.00000E+00
         0.00000E+00
         0.00000E+00
         0.00000E+00
         0.00000E+00
         0.00000E+00
         0.00000E+00
         0.00000E+00
         0.00000E+00
         0.00000E+00
         0.00000E+00
         0.00000E+00
         0.00000E+00
         0.00000E+00
         0.00000E+00
         0.00000E+00
         0.00000E+00
         0.00000E+00
         0.00000E+00
         0.00000E+00
         0.00000E+00
         0.00000E+00
         0.00000E+00
         0.00000E+00
         0.00000E+00
         0.00000E+00
         0.00000E+00
         0.00000E+00
         0.00000E+00
         0.00000E+00
         0.00000E+00
         0.00000E+00
         0.00000E+00
         0.00000E+00
         0.00000E+00
         0.00000E+00
         0.00000E+00
         0.00000E+00
         0.00000E+00
         0.00000E+00
         0.00000E+00
         0.00000E+00
         0.00000E+00
         0.00000E+00
         0.00000E+00
         0.00000E+00
         0.00000E+00
         0.00000E+00
         0.00000E+00
         0.00000E+00
         0.00000E+00
         0.00000E+00
         0.00000E+00
         0.00000E+00
         0.00000E+00
         0.00000E+00
         0.00000E+00
         0.00000E+00
         0.00000E+00
         0.00000E+00
         0.00000E+00
         0.00000E+00
         0.00000E+00
         0.00000E+00
         0.00000E+00
         0.00000E+00
         0.00000E+00
         0.00000E+00
         0.00000E+00
         0.00000E+00
         0.00000E+00
         0.00000E+00
         0.00000E+00
         0.00000E+00
         0.00000E+00
         0.00000E+00
         0.00000E+00
         0.00000E+00
         0.00000E+00
         0.00000E+00
         0.00000E+00
         0.00000E+00
         0.00000E+00
         0.00000E+00
         0.00000E+00
         0.00000E+00
         0.00000E+00
         0.00000E+00
         0.00000E+00
         0.00000E+00
         0.00000E+00
         0.00000E+00
         0.00000E+00
         0.00000E+00
         0.00000E+00
         0.00000E+00
         0.00000E+00
         0.00000E+00
         0.00000E+00
         0.00000E+00
         0.00000E+00
         0.00000E+00
         0.00000E+00
         0.00000E+00
         0.00000E+00
         0.00000E+00
         0.00000E+00
         0.00000E+00
         0.00000E+00
         0.00000E+00
         0.00000E+00
         0.00000E+00
         0.00000E+00
         0.00000E+00
         0.00000E+00
         0.00000E+00
         0.00000E+00
         0.00000E+00
         0.00000E+00
         0.00000E+00
         0.00000E+00
         0.00000E+00
         0.00000E+00
         0.00000E+00
         0.00000E+00
         0.00000E+00
         0.00000E+00
         0.00000E+00
         0.00000E+00
         0.00000E+00
         0.00000E+00
         0.00000E+00
         0.00000E+00
         0.00000E+00
         0.00000E+00
         0.00000E+00
         0.00000E+00
         0.00000E+00
         0.00000E+00
         0.00000E+00
         0.00000E+00
         0.00000E+00
         0.00000E+00
         0.00000E+00
         0.00000E+00
         0.00000E+00
         0.00000E+00
         0.00000E+00
         0.00000E+00
         0.00000E+00
         0.00000E+00
         0.00000E+00
         0.00000E+00
         0.00000E+00
         0.00000E+00
         0.00000E+00
         0.00000E+00
         0.00000E+00
         0.00000E+00
         0.00000E+00
         0.00000E+00
         0.00000E+00
         0.00000E+00
         0.00000E+00
         0.00000E+00
         0.00000E+00
         0.00000E+00
         0.00000E+00
         0.00000E+00
         0.00000E+00
         0.00000E+00
         0.00000E+00
         0.00000E+00
         0.00000E+00
         0.00000E+00
         0.00000E+00
         0.00000E+00
         0.00000E+00
         0.00000E+00
         0.00000E+00
         0.00000E+00
         0.00000E+00
         0.00000E+00
         0.00000E+00
         0.00000E+00
         0.00000E+00
         0.00000E+00
         0.00000E+00
         0.00000E+00
         0.00000E+00
         0.00000E+00
         0.00000E+00
         0.00000E+00
         0.00000E+00
         0.00000E+00
         0.00000E+00
         0.00000E+00
         0.00000E+00
         0.00000E+00
         0.00000E+00
         0.00000E+00
         0.00000E+00
         0.00000E+00
         0.00000E+00
         0.00000E+00
         0.00000E+00
         0.00000E+00
         0.00000E+00
         0.00000E+00
         0.00000E+00
         0.00000E+00
         0.00000E+00
         0.00000E+00
         0.00000E+00
         0.00000E+00
         0.00000E+00
         0.00000E+00
         0.00000E+00
         0.00000E+00
         0.00000E+00
         0.00000E+00
         0.00000E+00
         0.00000E+00
         0.00000E+00
         0.00000E+00
         0.00000E+00
         0.00000E+00
         0.00000E+00
         0.00000E+00
         0.00000E+00
         0.00000E+00
         0.00000E+00
         0.00000E+00
         0.00000E+00
         0.00000E+00
         0.00000E+00
         0.00000E+00
         0.00000E+00
         0.00000E+00
         0.00000E+00
         0.00000E+00
         0.00000E+00
         0.00000E+00
         0.00000E+00
         0.00000E+00
         0.00000E+00
         0.00000E+00
         0.00000E+00
         0.00000E+00
         0.00000E+00
         0.00000E+00
         0.00000E+00
         0.00000E+00
         0.00000E+00
         0.00000E+00
         0.00000E+00
         0.00000E+00
         0.00000E+00
         0.00000E+00
         0.00000E+00
         0.00000E+00
         0.00000E+00
         0.00000E+00
         0.00000E+00
         0.00000E+00
         0.00000E+00
         0.00000E+00
         0.00000E+00
         0.00000E+00
         0.00000E+00
         0.00000E+00
         0.00000E+00
         0.00000E+00
         0.00000E+00
         0.00000E+00
         0.00000E+00
         0.00000E+00
         0.00000E+00
         0.00000E+00
         0.00000E+00
         0.00000E+00
         0.00000E+00
         0.00000E+00
         0.00000E+00
         0.00000E+00
         0.00000E+00
         0.00000E+00
         0.00000E+00
         0.00000E+00
         0.00000E+00
         0.00000E+00
         0.00000E+00
         0.00000E+00
         0.00000E+00
         0.00000E+00
         0.00000E+00
         0.00000E+00
         0.00000E+00
         0.00000E+00
         0.00000E+00
         0.00000E+00
         0.00000E+00
         0.00000E+00
         0.00000E+00
         0.00000E+00
         0.00000E+00
         0.00000E+00
         0.00000E+00
         0.00000E+00
         0.00000E+00
         0.00000E+00
         0.00000E+00
         0.00000E+00
         0.00000E+00
         0.00000E+00
         0.00000E+00
         0.00000E+00
         0.00000E+00
         0.00000E+00
         0.00000E+00
         0.00000E+00
         0.00000E+00
         0.00000E+00
         0.00000E+00
         0.00000E+00
         0.00000E+00
         0.00000E+00
         0.00000E+00
         0.00000E+00
         0.00000E+00
         0.00000E+00
         0.00000E+00
         0.00000E+00
         0.00000E+00
         0.00000E+00
         0.00000E+00
         0.00000E+00
         0.00000E+00
         0.00000E+00
         0.00000E+00
         0.00000E+00
         0.00000E+00
         0.00000E+00
         0.00000E+00
         0.00000E+00
         0.00000E+00
         0.00000E+00
         0.00000E+00
         0.00000E+00
         0.00000E+00
         0.00000E+00
         0.00000E+00
         0.00000E+00
         0.00000E+00
         0.00000E+00
         0.00000E+00
         0.00000E+00
         0.00000E+00
         0.00000E+00
         0.00000E+00
         0.00000E+00
         0.00000E+00
         0.00000E+00
         0.00000E+00
         0.00000E+00
         0.00000E+00
         0.00000E+00
         0.00000E+00
         0.00000E+00
         0.00000E+00
         0.00000E+00
         0.00000E+00
         0.00000E+00
         0.00000E+00
         0.00000E+00
         0.00000E+00
         0.00000E+00
         0.00000E+00
         0.00000E+00
         0.00000E+00
         0.00000E+00
         0.00000E+00
         0.00000E+00
         0.00000E+00
         0.00000E+00
         0.00000E+00
         0.00000E+00
         0.00000E+00
         0.00000E+00
         0.00000E+00
         0.00000E+00
         0.00000E+00
         0.00000E+00
         0.00000E+00
         0.00000E+00
         0.00000E+00
         0.00000E+00
         0.00000E+00
         0.00000E+00
         0.00000E+00
         0.00000E+00
         0.00000E+00
         0.00000E+00
         0.00000E+00
         0.00000E+00
         0.00000E+00
         0.00000E+00
         0.00000E+00
         0.00000E+00
         0.00000E+00
         0.00000E+00
         0.00000E+00
         0.00000E+00
         0.00000E+00
         0.00000E+00
         0.00000E+00
         0.00000E+00
         0.00000E+00
         0.00000E+00
         0.00000E+00
         0.00000E+00
         0.00000E+00
         0.00000E+00
         0.00000E+00
         0.00000E+00
         0.00000E+00
         0.00000E+00
         0.00000E+00
         0.00000E+00
         0.00000E+00
         0.00000E+00
         0.00000E+00
         0.00000E+00
         0.00000E+00
         0.00000E+00
         0.00000E+00
         0.00000E+00
         0.00000E+00
         0.00000E+00
         0.00000E+00
         0.00000E+00
         0.00000E+00
         0.00000E+00
         0.00000E+00
         0.00000E+00
         0.00000E+00
         0.00000E+00
         0.00000E+00
         0.00000E+00
         0.00000E+00
         0.00000E+00
         0.00000E+00
         0.00000E+00
         0.00000E+00
         0.00000E+00
         0.00000E+00
         0.00000E+00
         0.00000E+00
         0.00000E+00
         0.00000E+00
         0.00000E+00
         0.00000E+00
         0.00000E+00
         0.00000E+00
         0.00000E+00
         0.00000E+00
         0.00000E+00
         0.00000E+00
         0.00000E+00
         0.00000E+00
         0.00000E+00
         0.00000E+00
         0.00000E+00
         0.00000E+00
         0.00000E+00
         0.00000E+00
         0.00000E+00
         0.00000E+00
         0.00000E+00
         0.00000E+00
         0.00000E+00
         0.00000E+00
         0.00000E+00
         0.00000E+00
         0.00000E+00
         0.00000E+00
         0.00000E+00
         0.00000E+00
         0.00000E+00
         0.00000E+00
         0.00000E+00
         0.00000E+00
         0.00000E+00
         0.00000E+00
         0.00000E+00
         0.00000E+00
         0.00000E+00
         0.00000E+00
         0.00000E+00
         0.00000E+00
         0.00000E+00
         0.00000E+00
         0.00000E+00
         0.00000E+00
         0.00000E+00
         0.00000E+00
         0.00000E+00
         0.00000E+00
         0.00000E+00
         0.00000E+00
         0.00000E+00
         0.00000E+00
         0.00000E+00
         0.00000E+00
         0.00000E+00
         0.00000E+00
         0.00000E+00
         0.00000E+00
         0.00000E+00
         0.00000E+00
         0.00000E+00
         0.00000E+00
         0.00000E+00
         0.00000E+00
         0.00000E+00
         0.00000E+00
         0.00000E+00
         0.00000E+00
         0.00000E+00
         0.00000E+00
         0.00000E+00
         0.00000E+00
         0.00000E+00
         0.00000E+00
         0.00000E+00
         0.00000E+00
         0.00000E+00
         0.00000E+00
         0.00000E+00
         0.00000E+00
         0.00000E+00
         0.00000E+00
         0.00000E+00
         0.00000E+00
         0.00000E+00
         0.00000E+00
         0.00000E+00
         0.00000E+00
         0.00000E+00
         0.00000E+00
         0.00000E+00
         0.00000E+00
         0.00000E+00
         0.00000E+00
         0.00000E+00
         0.00000E+00
         0.00000E+00
         0.00000E+00
         0.00000E+00
         0.00000E+00
         0.00000E+00
         0.00000E+00
         0.00000E+00
         0.00000E+00
         0.00000E+00
         0.00000E+00
         0.00000E+00
         0.00000E+00
         0.00000E+00
         0.00000E+00
         0.00000E+00
         0.00000E+00
         0.00000E+00
         0.00000E+00
         0.00000E+00
         0.00000E+00
         0.00000E+00
         0.00000E+00
         0.00000E+00
         0.00000E+00
         0.00000E+00
         0.00000E+00
         0.00000E+00
         0.00000E+00
         0.00000E+00
         0.00000E+00
         0.00000E+00
         0.00000E+00
         0.00000E+00
         0.00000E+00
         0.00000E+00
         0.00000E+00
         0.00000E+00
         0.00000E+00
         0.00000E+00
         0.00000E+00
         0.00000E+00
         0.00000E+00
         0.00000E+00
         0.00000E+00
         0.00000E+00
         0.00000E+00
         0.00000E+00
         0.00000E+00
         0.00000E+00
         0.00000E+00
         0.00000E+00
         0.00000E+00
         0.00000E+00
         0.00000E+00
         0.00000E+00
         0.00000E+00
         0.00000E+00
         0.00000E+00
         0.00000E+00
         0.00000E+00
         0.00000E+00
         0.00000E+00
         0.00000E+00
         0.00000E+00
         0.00000E+00
         0.00000E+00
         0.00000E+00
         0.00000E+00
         0.00000E+00
         0.00000E+00
         0.00000E+00
         0.00000E+00
         0.00000E+00
         0.00000E+00
         0.00000E+00
         0.00000E+00
         0.00000E+00
         0.00000E+00
         0.00000E+00
         0.00000E+00
         0.00000E+00
         0.00000E+00
         0.00000E+00
         0.00000E+00
         0.00000E+00
         0.00000E+00
         0.00000E+00
         0.00000E+00
         0.00000E+00
         0.00000E+00
         0.00000E+00
         0.00000E+00
         0.00000E+00
         0.00000E+00
         0.00000E+00
         0.00000E+00
         0.00000E+00
         0.00000E+00
         0.00000E+00
         0.00000E+00
         0.00000E+00
         0.00000E+00
         0.00000E+00
         0.00000E+00
         0.00000E+00
         0.00000E+00
         0.00000E+00
         0.00000E+00
         0.00000E+00
         0.00000E+00
         0.00000E+00
         0.00000E+00
         0.00000E+00
         0.00000E+00
         0.00000E+00
         0.00000E+00
         0.00000E+00
         0.00000E+00
         0.00000E+00
         0.00000E+00
         0.00000E+00
         0.00000E+00
         0.00000E+00
         0.00000E+00
         0.00000E+00
         0.00000E+00
         0.00000E+00
         0.00000E+00
         0.00000E+00
         0.00000E+00
         0.00000E+00
         0.00000E+00
         0.00000E+00
         0.00000E+00
         0.00000E+00
         0.00000E+00
         0.00000E+00
         0.00000E+00
         0.00000E+00
         0.00000E+00
         0.00000E+00
         0.00000E+00
         0.00000E+00
         0.00000E+00
         0.00000E+00
         0.00000E+00
         0.00000E+00
         0.00000E+00
         0.00000E+00
         0.00000E+00
         0.00000E+00
         0.00000E+00
         0.00000E+00
         0.00000E+00
         0.00000E+00
         0.00000E+00
         0.00000E+00
         0.00000E+00
         0.00000E+00
         0.00000E+00
         0.00000E+00
         0.00000E+00
         0.00000E+00
         0.00000E+00
         0.00000E+00
         0.00000E+00
         0.00000E+00
         0.00000E+00
         0.00000E+00
         0.00000E+00
         0.00000E+00
         0.00000E+00
         0.00000E+00
         0.00000E+00
         0.00000E+00
         0.00000E+00
         0.00000E+00
         0.00000E+00
         0.00000E+00
         0.00000E+00
         0.00000E+00
         0.00000E+00
         0.00000E+00
         0.00000E+00
         0.00000E+00
         0.00000E+00
         0.00000E+00
         0.00000E+00
         0.00000E+00
         0.00000E+00
         0.00000E+00
         0.00000E+00
         0.00000E+00
         0.00000E+00
         0.00000E+00
         0.00000E+00
         0.00000E+00
         0.00000E+00
         0.00000E+00
         0.00000E+00
         0.00000E+00
         0.00000E+00
         0.00000E+00
         0.00000E+00
         0.00000E+00
         0.00000E+00
         0.00000E+00
         0.00000E+00
         0.00000E+00
         0.00000E+00
         0.00000E+00
         0.00000E+00
         0.00000E+00
         0.00000E+00
         0.00000E+00
         0.00000E+00
         0.00000E+00
         0.00000E+00
         0.00000E+00
         0.00000E+00
         0.00000E+00
         0.00000E+00
         0.00000E+00
         0.00000E+00
         0.00000E+00
         0.00000E+00
         0.00000E+00
         0.00000E+00
         0.00000E+00
         0.00000E+00
         0.00000E+00
         0.00000E+00
         0.00000E+00
         0.00000E+00
         0.00000E+00
         0.00000E+00
         0.00000E+00
         0.00000E+00
         0.00000E+00
         0.00000E+00
         0.00000E+00
         0.00000E+00
         0.00000E+00
         0.00000E+00
         0.00000E+00
         0.00000E+00
         0.00000E+00
         0.00000E+00
         0.00000E+00
         0.00000E+00
         0.00000E+00
         0.00000E+00
         0.00000E+00
         0.00000E+00
         0.00000E+00
         0.00000E+00
         0.00000E+00
         0.00000E+00
         0.00000E+00
         0.00000E+00
         0.00000E+00
         0.00000E+00
         0.00000E+00
         0.00000E+00
         0.00000E+00
         0.00000E+00
         0.00000E+00
         0.00000E+00
         0.00000E+00
         0.00000E+00
         0.00000E+00
         0.00000E+00
         0.00000E+00
         0.00000E+00
         0.00000E+00
         0.00000E+00
         0.00000E+00
         0.00000E+00
         0.00000E+00
         0.00000E+00
         0.00000E+00
         0.00000E+00
         0.00000E+00
         0.00000E+00
         0.00000E+00
         0.00000E+00
         0.00000E+00
         0.00000E+00
         0.00000E+00
         0.00000E+00
         0.00000E+00
         0.00000E+00
         0.00000E+00
         0.00000E+00
         0.00000E+00
         0.00000E+00
         0.00000E+00
         0.00000E+00
         0.00000E+00
         0.00000E+00
         0.00000E+00
         0.00000E+00
         0.00000E+00
         0.00000E+00
         0.00000E+00
         0.00000E+00
         0.00000E+00
         0.00000E+00
         0.00000E+00
         0.00000E+00
         0.00000E+00
         0.00000E+00
         0.00000E+00
         0.00000E+00
         0.00000E+00
         0.00000E+00
         0.00000E+00
         0.00000E+00
         0.00000E+00
         0.00000E+00
         0.00000E+00
         0.00000E+00
         0.00000E+00
         0.00000E+00
         0.00000E+00
         0.00000E+00
         0.00000E+00
         0.00000E+00
         0.00000E+00
         0.00000E+00
         0.00000E+00
         0.00000E+00
         0.00000E+00
         0.00000E+00
         0.00000E+00
         0.00000E+00
         0.00000E+00
         0.00000E+00
         0.00000E+00
         0.00000E+00
         0.00000E+00
         0.00000E+00
         0.00000E+00
         0.00000E+00
         0.00000E+00
         0.00000E+00
         0.00000E+00
         0.00000E+00
         0.00000E+00
         0.00000E+00
         0.00000E+00
         0.00000E+00
         0.00000E+00
         0.00000E+00
         0.00000E+00
         0.00000E+00
         0.00000E+00
         0.00000E+00
         0.00000E+00
         0.00000E+00
         0.00000E+00
         0.00000E+00
         0.00000E+00
         0.00000E+00
         0.00000E+00
         0.00000E+00
         0.00000E+00
         0.00000E+00
         0.00000E+00
         0.00000E+00
         0.00000E+00
         0.00000E+00
         0.00000E+00
         0.00000E+00
         0.00000E+00
         0.00000E+00
         0.00000E+00
         0.00000E+00
         0.00000E+00
         0.00000E+00
         0.00000E+00
         0.00000E+00
         0.00000E+00
         0.00000E+00
         0.00000E+00
         0.00000E+00
         0.00000E+00
         0.00000E+00
         0.00000E+00
         0.00000E+00
         0.00000E+00
         0.00000E+00
         0.00000E+00
         0.00000E+00
         0.00000E+00
         0.00000E+00
         0.00000E+00
         0.00000E+00
         0.00000E+00
         0.00000E+00
         0.00000E+00
         0.00000E+00
         0.00000E+00
         0.00000E+00
         0.00000E+00
         0.00000E+00
         0.00000E+00
         0.00000E+00
         0.00000E+00
         0.00000E+00
         0.00000E+00
         0.00000E+00
         0.00000E+00
         0.00000E+00
         0.00000E+00
         0.00000E+00
         0.00000E+00
         0.00000E+00
         0.00000E+00
         0.00000E+00
         0.00000E+00
         0.00000E+00
         0.00000E+00
         0.00000E+00
         0.00000E+00
         0.00000E+00
         0.00000E+00
         0.00000E+00
         0.00000E+00
         0.00000E+00
         0.00000E+00
         0.00000E+00
         0.00000E+00
         0.00000E+00
         0.00000E+00
         0.00000E+00
         0.00000E+00
         0.00000E+00
         0.00000E+00
         0.00000E+00
         0.00000E+00
         0.00000E+00
         0.00000E+00
         0.00000E+00
         0.00000E+00
         0.00000E+00
         0.00000E+00
         0.00000E+00
         0.00000E+00
         0.00000E+00
         0.00000E+00
         0.00000E+00
         0.00000E+00
         0.00000E+00
         0.00000E+00
         0.00000E+00
         0.00000E+00
         0.00000E+00
         0.00000E+00
         0.00000E+00
         0.00000E+00
         0.00000E+00
         0.00000E+00
         0.00000E+00
         0.00000E+00
         0.00000E+00
         0.00000E+00
         0.00000E+00
         0.00000E+00
         0.00000E+00
         0.00000E+00
         0.00000E+00
         0.00000E+00
         0.00000E+00
         0.00000E+00
         0.00000E+00
         0.00000E+00
         0.00000E+00
         0.00000E+00
         0.00000E+00
         0.00000E+00
         0.00000E+00
         0.00000E+00
         0.00000E+00
         0.00000E+00
         0.00000E+00
         0.00000E+00
         0.00000E+00
         0.00000E+00
         0.00000E+00
         0.00000E+00
         0.00000E+00
         0.00000E+00
         0.00000E+00
         0.00000E+00
         0.00000E+00
         0.00000E+00
         0.00000E+00
         0.00000E+00
         0.00000E+00
         0.00000E+00
         0.00000E+00
         0.00000E+00
         0.00000E+00
         0.00000E+00
         0.00000E+00
         0.00000E+00
         0.00000E+00
         0.00000E+00
         0.00000E+00
         0.00000E+00
         0.00000E+00
         0.00000E+00
         0.00000E+00
         0.00000E+00
         0.00000E+00
         0.00000E+00
         0.00000E+00
         0.00000E+00
         0.00000E+00
         0.00000E+00
         0.00000E+00
         0.00000E+00
         0.00000E+00
         0.00000E+00
         0.00000E+00
         0.00000E+00
         0.00000E+00
         0.00000E+00
         0.00000E+00
         0.00000E+00
         0.00000E+00
         0.00000E+00
         0.00000E+00
         0.00000E+00
         0.00000E+00
         0.00000E+00
         0.00000E+00
         0.00000E+00
         0.00000E+00
         0.00000E+00
         0.00000E+00
         0.00000E+00
         0.00000E+00
         0.00000E+00
         0.00000E+00
         0.00000E+00
         0.00000E+00
         0.00000E+00
         0.00000E+00
         0.00000E+00
         0.00000E+00
         0.00000E+00
         0.00000E+00
         0.00000E+00
         0.00000E+00
         0.00000E+00
         0.00000E+00
         0.00000E+00
         0.00000E+00
         0.00000E+00
         0.00000E+00
         0.00000E+00
         0.00000E+00
         0.00000E+00
         0.00000E+00
         0.00000E+00
         0.00000E+00
         0.00000E+00
         0.00000E+00
         0.00000E+00
         0.00000E+00
         0.00000E+00
         0.00000E+00
         0.00000E+00
         0.00000E+00
         0.00000E+00
         0.00000E+00
         0.00000E+00
         0.00000E+00
         0.00000E+00
         0.00000E+00
         0.00000E+00
         0.00000E+00
         0.00000E+00
         0.00000E+00
         0.00000E+00
         0.00000E+00
         0.00000E+00
         0.00000E+00
         0.00000E+00
         0.00000E+00
         0.00000E+00
         0.00000E+00
         0.00000E+00
         0.00000E+00
         0.00000E+00
         0.00000E+00
         0.00000E+00
         0.00000E+00
         0.00000E+00
         0.00000E+00
         0.00000E+00
         0.00000E+00
         0.00000E+00
         0.00000E+00
         0.00000E+00
         0.00000E+00
         0.00000E+00
         0.00000E+00
         0.00000E+00
         0.00000E+00
         0.00000E+00
         0.00000E+00
         0.00000E+00
         0.00000E+00
         0.00000E+00
         0.00000E+00
         0.00000E+00
         0.00000E+00
         0.00000E+00
         0.00000E+00
         0.00000E+00
         0.00000E+00
         0.00000E+00
         0.00000E+00
         0.00000E+00
         0.00000E+00
         0.00000E+00
         0.00000E+00
         0.00000E+00
         0.00000E+00
         0.00000E+00
         0.00000E+00
         0.00000E+00
         0.00000E+00
         0.00000E+00
         0.00000E+00
         0.00000E+00
         0.00000E+00
         0.00000E+00
         0.00000E+00
         0.00000E+00
         0.00000E+00
         0.00000E+00
         0.00000E+00
         0.00000E+00
         0.00000E+00
         0.00000E+00
         0.00000E+00
         0.00000E+00
         0.00000E+00
         0.00000E+00
         0.00000E+00
         0.00000E+00
         0.00000E+00
         0.00000E+00
         0.00000E+00
         0.00000E+00
         0.00000E+00
         0.00000E+00
         0.00000E+00
         0.00000E+00
         0.00000E+00
         0.00000E+00
         0.00000E+00
         0.00000E+00
         0.00000E+00
         0.00000E+00
         0.00000E+00
         0.00000E+00
         0.00000E+00
         0.00000E+00
         0.00000E+00
         0.00000E+00
         0.00000E+00
         0.00000E+00
         0.00000E+00
         0.00000E+00
         0.00000E+00
         0.00000E+00
         0.00000E+00
         0.00000E+00
         0.00000E+00
         0.00000E+00
         0.00000E+00
         0.00000E+00
         0.00000E+00
         0.00000E+00
         0.00000E+00
         0.00000E+00
         0.00000E+00
         0.00000E+00
         0.00000E+00
         0.00000E+00
         0.00000E+00
         0.00000E+00
         0.00000E+00
         0.00000E+00
         0.00000E+00
         0.00000E+00
         0.00000E+00
         0.00000E+00
         0.00000E+00
         0.00000E+00
         0.00000E+00
         0.00000E+00
         0.00000E+00
         0.00000E+00
         0.00000E+00
         0.00000E+00
         0.00000E+00
         0.00000E+00
         0.00000E+00
         0.00000E+00
         0.00000E+00
         0.00000E+00
         0.00000E+00
         0.00000E+00
         0.00000E+00
         0.00000E+00
         0.00000E+00
         0.00000E+00
         0.00000E+00
         0.00000E+00
         0.00000E+00
  
SCALARS                 acceleration_y  double 1
LOOKUP_TABLE default
         0.00000E+00
         0.00000E+00
         0.00000E+00
         0.00000E+00
         0.00000E+00
         0.00000E+00
         0.00000E+00
         0.00000E+00
         0.00000E+00
         0.00000E+00
         0.00000E+00
         0.00000E+00
         0.00000E+00
         0.00000E+00
         0.00000E+00
         0.00000E+00
         0.00000E+00
         0.00000E+00
         0.00000E+00
         0.00000E+00
         0.00000E+00
         0.00000E+00
         0.00000E+00
         0.00000E+00
         0.00000E+00
         0.00000E+00
         0.00000E+00
         0.00000E+00
         0.00000E+00
         0.00000E+00
         0.00000E+00
         0.00000E+00
         0.00000E+00
         0.00000E+00
         0.00000E+00
         0.00000E+00
         0.00000E+00
         0.00000E+00
         0.00000E+00
         0.00000E+00
         0.00000E+00
         0.00000E+00
         0.00000E+00
         0.00000E+00
         0.00000E+00
         0.00000E+00
         0.00000E+00
         0.00000E+00
         0.00000E+00
         0.00000E+00
         0.00000E+00
         0.00000E+00
         0.00000E+00
         0.00000E+00
         0.00000E+00
         0.00000E+00
         0.00000E+00
         0.00000E+00
         0.00000E+00
         0.00000E+00
         0.00000E+00
         0.00000E+00
         0.00000E+00
         0.00000E+00
         0.00000E+00
         0.00000E+00
         0.00000E+00
         0.00000E+00
         0.00000E+00
         0.00000E+00
         0.00000E+00
         0.00000E+00
         0.00000E+00
         0.00000E+00
         0.00000E+00
         0.00000E+00
         0.00000E+00
         0.00000E+00
         0.00000E+00
         0.00000E+00
         0.00000E+00
         0.00000E+00
         0.00000E+00
         0.00000E+00
         0.00000E+00
         0.00000E+00
         0.00000E+00
         0.00000E+00
         0.00000E+00
         0.00000E+00
         0.00000E+00
         0.00000E+00
         0.00000E+00
         0.00000E+00
         0.00000E+00
         0.00000E+00
         0.00000E+00
         0.00000E+00
         0.00000E+00
         0.00000E+00
         0.00000E+00
         0.00000E+00
         0.00000E+00
         0.00000E+00
         0.00000E+00
         0.00000E+00
         0.00000E+00
         0.00000E+00
         0.00000E+00
         0.00000E+00
         0.00000E+00
         0.00000E+00
         0.00000E+00
         0.00000E+00
         0.00000E+00
         0.00000E+00
         0.00000E+00
         0.00000E+00
         0.00000E+00
         0.00000E+00
         0.00000E+00
         0.00000E+00
         0.00000E+00
         0.00000E+00
         0.00000E+00
         0.00000E+00
         0.00000E+00
         0.00000E+00
         0.00000E+00
         0.00000E+00
         0.00000E+00
         0.00000E+00
         0.00000E+00
         0.00000E+00
         0.00000E+00
         0.00000E+00
         0.00000E+00
         0.00000E+00
         0.00000E+00
         0.00000E+00
         0.00000E+00
         0.00000E+00
         0.00000E+00
         0.00000E+00
         0.00000E+00
         0.00000E+00
         0.00000E+00
         0.00000E+00
         0.00000E+00
         0.00000E+00
         0.00000E+00
         0.00000E+00
         0.00000E+00
         0.00000E+00
         0.00000E+00
         0.00000E+00
         0.00000E+00
         0.00000E+00
         0.00000E+00
         0.00000E+00
         0.00000E+00
         0.00000E+00
         0.00000E+00
         0.00000E+00
         0.00000E+00
         0.00000E+00
         0.00000E+00
         0.00000E+00
         0.00000E+00
         0.00000E+00
         0.00000E+00
         0.00000E+00
         0.00000E+00
         0.00000E+00
         0.00000E+00
         0.00000E+00
         0.00000E+00
         0.00000E+00
         0.00000E+00
         0.00000E+00
         0.00000E+00
         0.00000E+00
         0.00000E+00
         0.00000E+00
         0.00000E+00
         0.00000E+00
         0.00000E+00
         0.00000E+00
         0.00000E+00
         0.00000E+00
         0.00000E+00
         0.00000E+00
         0.00000E+00
         0.00000E+00
         0.00000E+00
         0.00000E+00
         0.00000E+00
         0.00000E+00
         0.00000E+00
         0.00000E+00
         0.00000E+00
         0.00000E+00
         0.00000E+00
         0.00000E+00
         0.00000E+00
         0.00000E+00
         0.00000E+00
         0.00000E+00
         0.00000E+00
         0.00000E+00
         0.00000E+00
         0.00000E+00
         0.00000E+00
         0.00000E+00
         0.00000E+00
         0.00000E+00
         0.00000E+00
         0.00000E+00
         0.00000E+00
         0.00000E+00
         0.00000E+00
         0.00000E+00
         0.00000E+00
         0.00000E+00
         0.00000E+00
         0.00000E+00
         0.00000E+00
         0.00000E+00
         0.00000E+00
         0.00000E+00
         0.00000E+00
         0.00000E+00
         0.00000E+00
         0.00000E+00
         0.00000E+00
         0.00000E+00
         0.00000E+00
         0.00000E+00
         0.00000E+00
         0.00000E+00
         0.00000E+00
         0.00000E+00
         0.00000E+00
         0.00000E+00
         0.00000E+00
         0.00000E+00
         0.00000E+00
         0.00000E+00
         0.00000E+00
         0.00000E+00
         0.00000E+00
         0.00000E+00
         0.00000E+00
         0.00000E+00
         0.00000E+00
         0.00000E+00
         0.00000E+00
         0.00000E+00
         0.00000E+00
         0.00000E+00
         0.00000E+00
         0.00000E+00
         0.00000E+00
         0.00000E+00
         0.00000E+00
         0.00000E+00
         0.00000E+00
         0.00000E+00
         0.00000E+00
         0.00000E+00
         0.00000E+00
         0.00000E+00
         0.00000E+00
         0.00000E+00
         0.00000E+00
         0.00000E+00
         0.00000E+00
         0.00000E+00
         0.00000E+00
         0.00000E+00
         0.00000E+00
         0.00000E+00
         0.00000E+00
         0.00000E+00
         0.00000E+00
         0.00000E+00
         0.00000E+00
         0.00000E+00
         0.00000E+00
         0.00000E+00
         0.00000E+00
         0.00000E+00
         0.00000E+00
         0.00000E+00
         0.00000E+00
         0.00000E+00
         0.00000E+00
         0.00000E+00
         0.00000E+00
         0.00000E+00
         0.00000E+00
         0.00000E+00
         0.00000E+00
         0.00000E+00
         0.00000E+00
         0.00000E+00
         0.00000E+00
         0.00000E+00
         0.00000E+00
         0.00000E+00
         0.00000E+00
         0.00000E+00
         0.00000E+00
         0.00000E+00
         0.00000E+00
         0.00000E+00
         0.00000E+00
         0.00000E+00
         0.00000E+00
         0.00000E+00
         0.00000E+00
         0.00000E+00
         0.00000E+00
         0.00000E+00
         0.00000E+00
         0.00000E+00
         0.00000E+00
         0.00000E+00
         0.00000E+00
         0.00000E+00
         0.00000E+00
         0.00000E+00
         0.00000E+00
         0.00000E+00
         0.00000E+00
         0.00000E+00
         0.00000E+00
         0.00000E+00
         0.00000E+00
         0.00000E+00
         0.00000E+00
         0.00000E+00
         0.00000E+00
         0.00000E+00
         0.00000E+00
         0.00000E+00
         0.00000E+00
         0.00000E+00
         0.00000E+00
         0.00000E+00
         0.00000E+00
         0.00000E+00
         0.00000E+00
         0.00000E+00
         0.00000E+00
         0.00000E+00
         0.00000E+00
         0.00000E+00
         0.00000E+00
         0.00000E+00
         0.00000E+00
         0.00000E+00
         0.00000E+00
         0.00000E+00
         0.00000E+00
         0.00000E+00
         0.00000E+00
         0.00000E+00
         0.00000E+00
         0.00000E+00
         0.00000E+00
         0.00000E+00
         0.00000E+00
         0.00000E+00
         0.00000E+00
         0.00000E+00
         0.00000E+00
         0.00000E+00
         0.00000E+00
         0.00000E+00
         0.00000E+00
         0.00000E+00
         0.00000E+00
         0.00000E+00
         0.00000E+00
         0.00000E+00
         0.00000E+00
         0.00000E+00
         0.00000E+00
         0.00000E+00
         0.00000E+00
         0.00000E+00
         0.00000E+00
         0.00000E+00
         0.00000E+00
         0.00000E+00
         0.00000E+00
         0.00000E+00
         0.00000E+00
         0.00000E+00
         0.00000E+00
         0.00000E+00
         0.00000E+00
         0.00000E+00
         0.00000E+00
         0.00000E+00
         0.00000E+00
         0.00000E+00
         0.00000E+00
         0.00000E+00
         0.00000E+00
         0.00000E+00
         0.00000E+00
         0.00000E+00
         0.00000E+00
         0.00000E+00
         0.00000E+00
         0.00000E+00
         0.00000E+00
         0.00000E+00
         0.00000E+00
         0.00000E+00
         0.00000E+00
         0.00000E+00
         0.00000E+00
         0.00000E+00
         0.00000E+00
         0.00000E+00
         0.00000E+00
         0.00000E+00
         0.00000E+00
         0.00000E+00
         0.00000E+00
         0.00000E+00
         0.00000E+00
         0.00000E+00
         0.00000E+00
         0.00000E+00
         0.00000E+00
         0.00000E+00
         0.00000E+00
         0.00000E+00
         0.00000E+00
         0.00000E+00
         0.00000E+00
         0.00000E+00
         0.00000E+00
         0.00000E+00
         0.00000E+00
         0.00000E+00
         0.00000E+00
         0.00000E+00
         0.00000E+00
         0.00000E+00
         0.00000E+00
         0.00000E+00
         0.00000E+00
         0.00000E+00
         0.00000E+00
         0.00000E+00
         0.00000E+00
         0.00000E+00
         0.00000E+00
         0.00000E+00
         0.00000E+00
         0.00000E+00
         0.00000E+00
         0.00000E+00
         0.00000E+00
         0.00000E+00
         0.00000E+00
         0.00000E+00
         0.00000E+00
         0.00000E+00
         0.00000E+00
         0.00000E+00
         0.00000E+00
         0.00000E+00
         0.00000E+00
         0.00000E+00
         0.00000E+00
         0.00000E+00
         0.00000E+00
         0.00000E+00
         0.00000E+00
         0.00000E+00
         0.00000E+00
         0.00000E+00
         0.00000E+00
         0.00000E+00
         0.00000E+00
         0.00000E+00
         0.00000E+00
         0.00000E+00
         0.00000E+00
         0.00000E+00
         0.00000E+00
         0.00000E+00
         0.00000E+00
         0.00000E+00
         0.00000E+00
         0.00000E+00
         0.00000E+00
         0.00000E+00
         0.00000E+00
         0.00000E+00
         0.00000E+00
         0.00000E+00
         0.00000E+00
         0.00000E+00
         0.00000E+00
         0.00000E+00
         0.00000E+00
         0.00000E+00
         0.00000E+00
         0.00000E+00
         0.00000E+00
         0.00000E+00
         0.00000E+00
         0.00000E+00
         0.00000E+00
         0.00000E+00
         0.00000E+00
         0.00000E+00
         0.00000E+00
         0.00000E+00
         0.00000E+00
         0.00000E+00
         0.00000E+00
         0.00000E+00
         0.00000E+00
         0.00000E+00
         0.00000E+00
         0.00000E+00
         0.00000E+00
         0.00000E+00
         0.00000E+00
         0.00000E+00
         0.00000E+00
         0.00000E+00
         0.00000E+00
         0.00000E+00
         0.00000E+00
         0.00000E+00
         0.00000E+00
         0.00000E+00
         0.00000E+00
         0.00000E+00
         0.00000E+00
         0.00000E+00
         0.00000E+00
         0.00000E+00
         0.00000E+00
         0.00000E+00
         0.00000E+00
         0.00000E+00
         0.00000E+00
         0.00000E+00
         0.00000E+00
         0.00000E+00
         0.00000E+00
         0.00000E+00
         0.00000E+00
         0.00000E+00
         0.00000E+00
         0.00000E+00
         0.00000E+00
         0.00000E+00
         0.00000E+00
         0.00000E+00
         0.00000E+00
         0.00000E+00
         0.00000E+00
         0.00000E+00
         0.00000E+00
         0.00000E+00
         0.00000E+00
         0.00000E+00
         0.00000E+00
         0.00000E+00
         0.00000E+00
         0.00000E+00
         0.00000E+00
         0.00000E+00
         0.00000E+00
         0.00000E+00
         0.00000E+00
         0.00000E+00
         0.00000E+00
         0.00000E+00
         0.00000E+00
         0.00000E+00
         0.00000E+00
         0.00000E+00
         0.00000E+00
         0.00000E+00
         0.00000E+00
         0.00000E+00
         0.00000E+00
         0.00000E+00
         0.00000E+00
         0.00000E+00
         0.00000E+00
         0.00000E+00
         0.00000E+00
         0.00000E+00
         0.00000E+00
         0.00000E+00
         0.00000E+00
         0.00000E+00
         0.00000E+00
         0.00000E+00
         0.00000E+00
         0.00000E+00
         0.00000E+00
         0.00000E+00
         0.00000E+00
         0.00000E+00
         0.00000E+00
         0.00000E+00
         0.00000E+00
         0.00000E+00
         0.00000E+00
         0.00000E+00
         0.00000E+00
         0.00000E+00
         0.00000E+00
         0.00000E+00
         0.00000E+00
         0.00000E+00
         0.00000E+00
         0.00000E+00
         0.00000E+00
         0.00000E+00
         0.00000E+00
         0.00000E+00
         0.00000E+00
         0.00000E+00
         0.00000E+00
         0.00000E+00
         0.00000E+00
         0.00000E+00
         0.00000E+00
         0.00000E+00
         0.00000E+00
         0.00000E+00
         0.00000E+00
         0.00000E+00
         0.00000E+00
         0.00000E+00
         0.00000E+00
         0.00000E+00
         0.00000E+00
         0.00000E+00
         0.00000E+00
         0.00000E+00
         0.00000E+00
         0.00000E+00
         0.00000E+00
         0.00000E+00
         0.00000E+00
         0.00000E+00
         0.00000E+00
         0.00000E+00
         0.00000E+00
         0.00000E+00
         0.00000E+00
         0.00000E+00
         0.00000E+00
         0.00000E+00
         0.00000E+00
         0.00000E+00
         0.00000E+00
         0.00000E+00
         0.00000E+00
         0.00000E+00
         0.00000E+00
         0.00000E+00
         0.00000E+00
         0.00000E+00
         0.00000E+00
         0.00000E+00
         0.00000E+00
         0.00000E+00
         0.00000E+00
         0.00000E+00
         0.00000E+00
         0.00000E+00
         0.00000E+00
         0.00000E+00
         0.00000E+00
         0.00000E+00
         0.00000E+00
         0.00000E+00
         0.00000E+00
         0.00000E+00
         0.00000E+00
         0.00000E+00
         0.00000E+00
         0.00000E+00
         0.00000E+00
         0.00000E+00
         0.00000E+00
         0.00000E+00
         0.00000E+00
         0.00000E+00
         0.00000E+00
         0.00000E+00
         0.00000E+00
         0.00000E+00
         0.00000E+00
         0.00000E+00
         0.00000E+00
         0.00000E+00
         0.00000E+00
         0.00000E+00
         0.00000E+00
         0.00000E+00
         0.00000E+00
         0.00000E+00
         0.00000E+00
         0.00000E+00
         0.00000E+00
         0.00000E+00
         0.00000E+00
         0.00000E+00
         0.00000E+00
         0.00000E+00
         0.00000E+00
         0.00000E+00
         0.00000E+00
         0.00000E+00
         0.00000E+00
         0.00000E+00
         0.00000E+00
         0.00000E+00
         0.00000E+00
         0.00000E+00
         0.00000E+00
         0.00000E+00
         0.00000E+00
         0.00000E+00
         0.00000E+00
         0.00000E+00
         0.00000E+00
         0.00000E+00
         0.00000E+00
         0.00000E+00
         0.00000E+00
         0.00000E+00
         0.00000E+00
         0.00000E+00
         0.00000E+00
         0.00000E+00
         0.00000E+00
         0.00000E+00
         0.00000E+00
         0.00000E+00
         0.00000E+00
         0.00000E+00
         0.00000E+00
         0.00000E+00
         0.00000E+00
         0.00000E+00
         0.00000E+00
         0.00000E+00
         0.00000E+00
         0.00000E+00
         0.00000E+00
         0.00000E+00
         0.00000E+00
         0.00000E+00
         0.00000E+00
         0.00000E+00
         0.00000E+00
         0.00000E+00
         0.00000E+00
         0.00000E+00
         0.00000E+00
         0.00000E+00
         0.00000E+00
         0.00000E+00
         0.00000E+00
         0.00000E+00
         0.00000E+00
         0.00000E+00
         0.00000E+00
         0.00000E+00
         0.00000E+00
         0.00000E+00
         0.00000E+00
         0.00000E+00
         0.00000E+00
         0.00000E+00
         0.00000E+00
         0.00000E+00
         0.00000E+00
         0.00000E+00
         0.00000E+00
         0.00000E+00
         0.00000E+00
         0.00000E+00
         0.00000E+00
         0.00000E+00
         0.00000E+00
         0.00000E+00
         0.00000E+00
         0.00000E+00
         0.00000E+00
         0.00000E+00
         0.00000E+00
         0.00000E+00
         0.00000E+00
         0.00000E+00
         0.00000E+00
         0.00000E+00
         0.00000E+00
         0.00000E+00
         0.00000E+00
         0.00000E+00
         0.00000E+00
         0.00000E+00
         0.00000E+00
         0.00000E+00
         0.00000E+00
         0.00000E+00
         0.00000E+00
         0.00000E+00
         0.00000E+00
         0.00000E+00
         0.00000E+00
         0.00000E+00
         0.00000E+00
         0.00000E+00
         0.00000E+00
         0.00000E+00
         0.00000E+00
         0.00000E+00
         0.00000E+00
         0.00000E+00
         0.00000E+00
         0.00000E+00
         0.00000E+00
         0.00000E+00
         0.00000E+00
         0.00000E+00
         0.00000E+00
         0.00000E+00
         0.00000E+00
         0.00000E+00
         0.00000E+00
         0.00000E+00
         0.00000E+00
         0.00000E+00
         0.00000E+00
         0.00000E+00
         0.00000E+00
         0.00000E+00
         0.00000E+00
         0.00000E+00
         0.00000E+00
         0.00000E+00
         0.00000E+00
         0.00000E+00
         0.00000E+00
         0.00000E+00
         0.00000E+00
         0.00000E+00
         0.00000E+00
         0.00000E+00
         0.00000E+00
         0.00000E+00
         0.00000E+00
         0.00000E+00
         0.00000E+00
         0.00000E+00
         0.00000E+00
         0.00000E+00
         0.00000E+00
         0.00000E+00
         0.00000E+00
         0.00000E+00
         0.00000E+00
         0.00000E+00
         0.00000E+00
         0.00000E+00
         0.00000E+00
         0.00000E+00
         0.00000E+00
         0.00000E+00
         0.00000E+00
         0.00000E+00
         0.00000E+00
         0.00000E+00
         0.00000E+00
         0.00000E+00
         0.00000E+00
         0.00000E+00
         0.00000E+00
         0.00000E+00
         0.00000E+00
         0.00000E+00
         0.00000E+00
         0.00000E+00
         0.00000E+00
         0.00000E+00
         0.00000E+00
         0.00000E+00
         0.00000E+00
         0.00000E+00
         0.00000E+00
         0.00000E+00
         0.00000E+00
         0.00000E+00
         0.00000E+00
         0.00000E+00
         0.00000E+00
         0.00000E+00
         0.00000E+00
         0.00000E+00
         0.00000E+00
         0.00000E+00
         0.00000E+00
         0.00000E+00
         0.00000E+00
         0.00000E+00
         0.00000E+00
         0.00000E+00
         0.00000E+00
         0.00000E+00
         0.00000E+00
         0.00000E+00
         0.00000E+00
         0.00000E+00
         0.00000E+00
         0.00000E+00
         0.00000E+00
         0.00000E+00
         0.00000E+00
         0.00000E+00
         0.00000E+00
         0.00000E+00
         0.00000E+00
         0.00000E+00
         0.00000E+00
         0.00000E+00
         0.00000E+00
         0.00000E+00
         0.00000E+00
         0.00000E+00
         0.00000E+00
         0.00000E+00
         0.00000E+00
         0.00000E+00
         0.00000E+00
         0.00000E+00
         0.00000E+00
         0.00000E+00
         0.00000E+00
         0.00000E+00
         0.00000E+00
         0.00000E+00
         0.00000E+00
         0.00000E+00
         0.00000E+00
         0.00000E+00
         0.00000E+00
         0.00000E+00
         0.00000E+00
         0.00000E+00
         0.00000E+00
         0.00000E+00
         0.00000E+00
         0.00000E+00
         0.00000E+00
         0.00000E+00
         0.00000E+00
         0.00000E+00
         0.00000E+00
         0.00000E+00
         0.00000E+00
         0.00000E+00
         0.00000E+00
         0.00000E+00
         0.00000E+00
         0.00000E+00
         0.00000E+00
         0.00000E+00
         0.00000E+00
         0.00000E+00
         0.00000E+00
         0.00000E+00
         0.00000E+00
         0.00000E+00
         0.00000E+00
         0.00000E+00
         0.00000E+00
         0.00000E+00
         0.00000E+00
         0.00000E+00
         0.00000E+00
         0.00000E+00
         0.00000E+00
         0.00000E+00
         0.00000E+00
         0.00000E+00
         0.00000E+00
         0.00000E+00
         0.00000E+00
         0.00000E+00
         0.00000E+00
         0.00000E+00
         0.00000E+00
         0.00000E+00
         0.00000E+00
         0.00000E+00
         0.00000E+00
         0.00000E+00
         0.00000E+00
         0.00000E+00
         0.00000E+00
         0.00000E+00
         0.00000E+00
         0.00000E+00
         0.00000E+00
         0.00000E+00
         0.00000E+00
         0.00000E+00
         0.00000E+00
         0.00000E+00
         0.00000E+00
         0.00000E+00
         0.00000E+00
         0.00000E+00
         0.00000E+00
         0.00000E+00
         0.00000E+00
         0.00000E+00
         0.00000E+00
         0.00000E+00
         0.00000E+00
         0.00000E+00
         0.00000E+00
         0.00000E+00
         0.00000E+00
         0.00000E+00
         0.00000E+00
         0.00000E+00
         0.00000E+00
         0.00000E+00
         0.00000E+00
         0.00000E+00
         0.00000E+00
         0.00000E+00
         0.00000E+00
         0.00000E+00
         0.00000E+00
         0.00000E+00
         0.00000E+00
         0.00000E+00
         0.00000E+00
         0.00000E+00
         0.00000E+00
         0.00000E+00
         0.00000E+00
         0.00000E+00
         0.00000E+00
         0.00000E+00
         0.00000E+00
         0.00000E+00
         0.00000E+00
         0.00000E+00
         0.00000E+00
         0.00000E+00
         0.00000E+00
         0.00000E+00
         0.00000E+00
         0.00000E+00
         0.00000E+00
         0.00000E+00
         0.00000E+00
         0.00000E+00
         0.00000E+00
         0.00000E+00
         0.00000E+00
         0.00000E+00
         0.00000E+00
         0.00000E+00
         0.00000E+00
         0.00000E+00
         0.00000E+00
         0.00000E+00
         0.00000E+00
         0.00000E+00
         0.00000E+00
         0.00000E+00
         0.00000E+00
         0.00000E+00
         0.00000E+00
         0.00000E+00
         0.00000E+00
         0.00000E+00
         0.00000E+00
         0.00000E+00
         0.00000E+00
         0.00000E+00
         0.00000E+00
         0.00000E+00
         0.00000E+00
         0.00000E+00
         0.00000E+00
         0.00000E+00
         0.00000E+00
         0.00000E+00
         0.00000E+00
         0.00000E+00
         0.00000E+00
         0.00000E+00
         0.00000E+00
         0.00000E+00
         0.00000E+00
         0.00000E+00
         0.00000E+00
         0.00000E+00
         0.00000E+00
         0.00000E+00
         0.00000E+00
         0.00000E+00
         0.00000E+00
         0.00000E+00
         0.00000E+00
         0.00000E+00
         0.00000E+00
         0.00000E+00
         0.00000E+00
         0.00000E+00
         0.00000E+00
         0.00000E+00
         0.00000E+00
         0.00000E+00
         0.00000E+00
         0.00000E+00
         0.00000E+00
         0.00000E+00
         0.00000E+00
         0.00000E+00
         0.00000E+00
         0.00000E+00
         0.00000E+00
         0.00000E+00
         0.00000E+00
         0.00000E+00
         0.00000E+00
         0.00000E+00
         0.00000E+00
         0.00000E+00
         0.00000E+00
         0.00000E+00
         0.00000E+00
         0.00000E+00
         0.00000E+00
         0.00000E+00
         0.00000E+00
         0.00000E+00
         0.00000E+00
         0.00000E+00
         0.00000E+00
         0.00000E+00
         0.00000E+00
         0.00000E+00
         0.00000E+00
         0.00000E+00
         0.00000E+00
         0.00000E+00
         0.00000E+00
         0.00000E+00
         0.00000E+00
         0.00000E+00
         0.00000E+00
         0.00000E+00
         0.00000E+00
         0.00000E+00
         0.00000E+00
         0.00000E+00
         0.00000E+00
         0.00000E+00
         0.00000E+00
         0.00000E+00
         0.00000E+00
         0.00000E+00
         0.00000E+00
         0.00000E+00
         0.00000E+00
         0.00000E+00
         0.00000E+00
         0.00000E+00
         0.00000E+00
         0.00000E+00
         0.00000E+00
         0.00000E+00
         0.00000E+00
         0.00000E+00
         0.00000E+00
         0.00000E+00
         0.00000E+00
         0.00000E+00
         0.00000E+00
         0.00000E+00
         0.00000E+00
         0.00000E+00
         0.00000E+00
         0.00000E+00
         0.00000E+00
         0.00000E+00
         0.00000E+00
         0.00000E+00
         0.00000E+00
         0.00000E+00
         0.00000E+00
         0.00000E+00
         0.00000E+00
         0.00000E+00
         0.00000E+00
         0.00000E+00
         0.00000E+00
         0.00000E+00
         0.00000E+00
         0.00000E+00
         0.00000E+00
         0.00000E+00
         0.00000E+00
         0.00000E+00
         0.00000E+00
         0.00000E+00
         0.00000E+00
         0.00000E+00
         0.00000E+00
         0.00000E+00
         0.00000E+00
         0.00000E+00
         0.00000E+00
         0.00000E+00
         0.00000E+00
         0.00000E+00
         0.00000E+00
         0.00000E+00
         0.00000E+00
         0.00000E+00
         0.00000E+00
         0.00000E+00
         0.00000E+00
         0.00000E+00
         0.00000E+00
         0.00000E+00
         0.00000E+00
         0.00000E+00
         0.00000E+00
         0.00000E+00
         0.00000E+00
         0.00000E+00
         0.00000E+00
         0.00000E+00
         0.00000E+00
         0.00000E+00
         0.00000E+00
         0.00000E+00
         0.00000E+00
         0.00000E+00
         0.00000E+00
         0.00000E+00
         0.00000E+00
         0.00000E+00
         0.00000E+00
         0.00000E+00
         0.00000E+00
         0.00000E+00
         0.00000E+00
         0.00000E+00
         0.00000E+00
         0.00000E+00
         0.00000E+00
         0.00000E+00
         0.00000E+00
         0.00000E+00
         0.00000E+00
         0.00000E+00
         0.00000E+00
         0.00000E+00
         0.00000E+00
         0.00000E+00
         0.00000E+00
         0.00000E+00
         0.00000E+00
         0.00000E+00
         0.00000E+00
         0.00000E+00
         0.00000E+00
         0.00000E+00
         0.00000E+00
         0.00000E+00
         0.00000E+00
         0.00000E+00
         0.00000E+00
         0.00000E+00
         0.00000E+00
         0.00000E+00
         0.00000E+00
         0.00000E+00
         0.00000E+00
         0.00000E+00
         0.00000E+00
         0.00000E+00
         0.00000E+00
         0.00000E+00
         0.00000E+00
         0.00000E+00
         0.00000E+00
         0.00000E+00
         0.00000E+00
         0.00000E+00
         0.00000E+00
         0.00000E+00
         0.00000E+00
         0.00000E+00
         0.00000E+00
         0.00000E+00
         0.00000E+00
         0.00000E+00
         0.00000E+00
         0.00000E+00
         0.00000E+00
         0.00000E+00
         0.00000E+00
         0.00000E+00
         0.00000E+00
         0.00000E+00
         0.00000E+00
         0.00000E+00
         0.00000E+00
         0.00000E+00
         0.00000E+00
         0.00000E+00
         0.00000E+00
         0.00000E+00
         0.00000E+00
         0.00000E+00
         0.00000E+00
         0.00000E+00
         0.00000E+00
         0.00000E+00
         0.00000E+00
         0.00000E+00
         0.00000E+00
         0.00000E+00
         0.00000E+00
         0.00000E+00
         0.00000E+00
         0.00000E+00
         0.00000E+00
         0.00000E+00
         0.00000E+00
         0.00000E+00
         0.00000E+00
         0.00000E+00
         0.00000E+00
         0.00000E+00
         0.00000E+00
         0.00000E+00
         0.00000E+00
         0.00000E+00
         0.00000E+00
         0.00000E+00
         0.00000E+00
         0.00000E+00
         0.00000E+00
         0.00000E+00
         0.00000E+00
         0.00000E+00
         0.00000E+00
         0.00000E+00
         0.00000E+00
         0.00000E+00
         0.00000E+00
         0.00000E+00
         0.00000E+00
         0.00000E+00
         0.00000E+00
         0.00000E+00
         0.00000E+00
         0.00000E+00
         0.00000E+00
         0.00000E+00
         0.00000E+00
         0.00000E+00
         0.00000E+00
         0.00000E+00
         0.00000E+00
         0.00000E+00
         0.00000E+00
         0.00000E+00
         0.00000E+00
         0.00000E+00
         0.00000E+00
         0.00000E+00
         0.00000E+00
         0.00000E+00
         0.00000E+00
         0.00000E+00
         0.00000E+00
         0.00000E+00
         0.00000E+00
         0.00000E+00
         0.00000E+00
         0.00000E+00
         0.00000E+00
         0.00000E+00
         0.00000E+00
         0.00000E+00
         0.00000E+00
         0.00000E+00
         0.00000E+00
         0.00000E+00
         0.00000E+00
         0.00000E+00
         0.00000E+00
         0.00000E+00
         0.00000E+00
         0.00000E+00
         0.00000E+00
         0.00000E+00
         0.00000E+00
         0.00000E+00
         0.00000E+00
         0.00000E+00
         0.00000E+00
         0.00000E+00
         0.00000E+00
         0.00000E+00
         0.00000E+00
         0.00000E+00
         0.00000E+00
         0.00000E+00
         0.00000E+00
         0.00000E+00
         0.00000E+00
         0.00000E+00
         0.00000E+00
         0.00000E+00
         0.00000E+00
         0.00000E+00
         0.00000E+00
         0.00000E+00
         0.00000E+00
         0.00000E+00
         0.00000E+00
         0.00000E+00
         0.00000E+00
         0.00000E+00
         0.00000E+00
         0.00000E+00
         0.00000E+00
         0.00000E+00
         0.00000E+00
         0.00000E+00
         0.00000E+00
         0.00000E+00
         0.00000E+00
         0.00000E+00
         0.00000E+00
         0.00000E+00
         0.00000E+00
         0.00000E+00
         0.00000E+00
         0.00000E+00
         0.00000E+00
         0.00000E+00
         0.00000E+00
         0.00000E+00
         0.00000E+00
         0.00000E+00
         0.00000E+00
         0.00000E+00
         0.00000E+00
         0.00000E+00
         0.00000E+00
         0.00000E+00
         0.00000E+00
         0.00000E+00
         0.00000E+00
         0.00000E+00
         0.00000E+00
         0.00000E+00
         0.00000E+00
         0.00000E+00
         0.00000E+00
         0.00000E+00
         0.00000E+00
         0.00000E+00
         0.00000E+00
         0.00000E+00
         0.00000E+00
         0.00000E+00
         0.00000E+00
         0.00000E+00
         0.00000E+00
         0.00000E+00
         0.00000E+00
         0.00000E+00
         0.00000E+00
         0.00000E+00
         0.00000E+00
         0.00000E+00
         0.00000E+00
         0.00000E+00
         0.00000E+00
         0.00000E+00
         0.00000E+00
         0.00000E+00
         0.00000E+00
         0.00000E+00
         0.00000E+00
         0.00000E+00
         0.00000E+00
         0.00000E+00
         0.00000E+00
         0.00000E+00
         0.00000E+00
         0.00000E+00
         0.00000E+00
         0.00000E+00
         0.00000E+00
         0.00000E+00
         0.00000E+00
         0.00000E+00
         0.00000E+00
         0.00000E+00
         0.00000E+00
         0.00000E+00
         0.00000E+00
         0.00000E+00
         0.00000E+00
         0.00000E+00
         0.00000E+00
         0.00000E+00
         0.00000E+00
         0.00000E+00
         0.00000E+00
         0.00000E+00
         0.00000E+00
         0.00000E+00
         0.00000E+00
         0.00000E+00
         0.00000E+00
         0.00000E+00
         0.00000E+00
         0.00000E+00
         0.00000E+00
         0.00000E+00
         0.00000E+00
         0.00000E+00
         0.00000E+00
         0.00000E+00
         0.00000E+00
         0.00000E+00
         0.00000E+00
         0.00000E+00
         0.00000E+00
         0.00000E+00
         0.00000E+00
         0.00000E+00
         0.00000E+00
         0.00000E+00
         0.00000E+00
         0.00000E+00
         0.00000E+00
         0.00000E+00
         0.00000E+00
         0.00000E+00
         0.00000E+00
         0.00000E+00
         0.00000E+00
         0.00000E+00
         0.00000E+00
         0.00000E+00
         0.00000E+00
         0.00000E+00
         0.00000E+00
         0.00000E+00
         0.00000E+00
         0.00000E+00
         0.00000E+00
         0.00000E+00
         0.00000E+00
         0.00000E+00
         0.00000E+00
         0.00000E+00
         0.00000E+00
         0.00000E+00
         0.00000E+00
         0.00000E+00
         0.00000E+00
         0.00000E+00
         0.00000E+00
         0.00000E+00
         0.00000E+00
         0.00000E+00
         0.00000E+00
         0.00000E+00
         0.00000E+00
         0.00000E+00
         0.00000E+00
         0.00000E+00
         0.00000E+00
         0.00000E+00
         0.00000E+00
         0.00000E+00
         0.00000E+00
         0.00000E+00
         0.00000E+00
         0.00000E+00
         0.00000E+00
         0.00000E+00
         0.00000E+00
         0.00000E+00
         0.00000E+00
         0.00000E+00
         0.00000E+00
         0.00000E+00
         0.00000E+00
         0.00000E+00
         0.00000E+00
         0.00000E+00
         0.00000E+00
         0.00000E+00
         0.00000E+00
         0.00000E+00
         0.00000E+00
         0.00000E+00
         0.00000E+00
         0.00000E+00
         0.00000E+00
         0.00000E+00
         0.00000E+00
         0.00000E+00
         0.00000E+00
         0.00000E+00
         0.00000E+00
         0.00000E+00
         0.00000E+00
         0.00000E+00
         0.00000E+00
         0.00000E+00
         0.00000E+00
         0.00000E+00
         0.00000E+00
         0.00000E+00
         0.00000E+00
         0.00000E+00
         0.00000E+00
         0.00000E+00
         0.00000E+00
         0.00000E+00
         0.00000E+00
         0.00000E+00
         0.00000E+00
         0.00000E+00
         0.00000E+00
         0.00000E+00
         0.00000E+00
         0.00000E+00
         0.00000E+00
         0.00000E+00
         0.00000E+00
         0.00000E+00
         0.00000E+00
         0.00000E+00
         0.00000E+00
         0.00000E+00
         0.00000E+00
         0.00000E+00
         0.00000E+00
         0.00000E+00
         0.00000E+00
         0.00000E+00
         0.00000E+00
         0.00000E+00
         0.00000E+00
         0.00000E+00
         0.00000E+00
         0.00000E+00
         0.00000E+00
         0.00000E+00
         0.00000E+00
         0.00000E+00
         0.00000E+00
         0.00000E+00
         0.00000E+00
         0.00000E+00
         0.00000E+00
         0.00000E+00
         0.00000E+00
         0.00000E+00
         0.00000E+00
         0.00000E+00
         0.00000E+00
         0.00000E+00
         0.00000E+00
         0.00000E+00
         0.00000E+00
         0.00000E+00
         0.00000E+00
         0.00000E+00
         0.00000E+00
         0.00000E+00
         0.00000E+00
         0.00000E+00
         0.00000E+00
         0.00000E+00
         0.00000E+00
         0.00000E+00
         0.00000E+00
         0.00000E+00
         0.00000E+00
         0.00000E+00
         0.00000E+00
         0.00000E+00
         0.00000E+00
         0.00000E+00
         0.00000E+00
         0.00000E+00
         0.00000E+00
         0.00000E+00
         0.00000E+00
         0.00000E+00
         0.00000E+00
         0.00000E+00
         0.00000E+00
         0.00000E+00
         0.00000E+00
         0.00000E+00
         0.00000E+00
         0.00000E+00
         0.00000E+00
         0.00000E+00
         0.00000E+00
         0.00000E+00
         0.00000E+00
         0.00000E+00
         0.00000E+00
         0.00000E+00
         0.00000E+00
         0.00000E+00
         0.00000E+00
         0.00000E+00
         0.00000E+00
         0.00000E+00
         0.00000E+00
         0.00000E+00
         0.00000E+00
         0.00000E+00
         0.00000E+00
         0.00000E+00
         0.00000E+00
         0.00000E+00
         0.00000E+00
         0.00000E+00
         0.00000E+00
         0.00000E+00
         0.00000E+00
         0.00000E+00
         0.00000E+00
         0.00000E+00
         0.00000E+00
         0.00000E+00
         0.00000E+00
         0.00000E+00
         0.00000E+00
         0.00000E+00
         0.00000E+00
         0.00000E+00
         0.00000E+00
         0.00000E+00
         0.00000E+00
         0.00000E+00
         0.00000E+00
         0.00000E+00
         0.00000E+00
         0.00000E+00
         0.00000E+00
         0.00000E+00
         0.00000E+00
         0.00000E+00
         0.00000E+00
         0.00000E+00
         0.00000E+00
         0.00000E+00
         0.00000E+00
         0.00000E+00
         0.00000E+00
         0.00000E+00
         0.00000E+00
         0.00000E+00
         0.00000E+00
         0.00000E+00
         0.00000E+00
         0.00000E+00
         0.00000E+00
         0.00000E+00
         0.00000E+00
         0.00000E+00
         0.00000E+00
         0.00000E+00
         0.00000E+00
         0.00000E+00
         0.00000E+00
         0.00000E+00
         0.00000E+00
         0.00000E+00
         0.00000E+00
         0.00000E+00
         0.00000E+00
         0.00000E+00
         0.00000E+00
         0.00000E+00
         0.00000E+00
         0.00000E+00
         0.00000E+00
         0.00000E+00
         0.00000E+00
         0.00000E+00
         0.00000E+00
         0.00000E+00
         0.00000E+00
         0.00000E+00
         0.00000E+00
         0.00000E+00
         0.00000E+00
         0.00000E+00
         0.00000E+00
         0.00000E+00
         0.00000E+00
         0.00000E+00
         0.00000E+00
         0.00000E+00
         0.00000E+00
         0.00000E+00
         0.00000E+00
         0.00000E+00
         0.00000E+00
         0.00000E+00
         0.00000E+00
         0.00000E+00
         0.00000E+00
         0.00000E+00
         0.00000E+00
         0.00000E+00
         0.00000E+00
         0.00000E+00
         0.00000E+00
         0.00000E+00
         0.00000E+00
         0.00000E+00
         0.00000E+00
         0.00000E+00
         0.00000E+00
         0.00000E+00
         0.00000E+00
         0.00000E+00
         0.00000E+00
         0.00000E+00
         0.00000E+00
         0.00000E+00
         0.00000E+00
         0.00000E+00
         0.00000E+00
         0.00000E+00
         0.00000E+00
         0.00000E+00
         0.00000E+00
         0.00000E+00
         0.00000E+00
         0.00000E+00
         0.00000E+00
         0.00000E+00
         0.00000E+00
         0.00000E+00
         0.00000E+00
         0.00000E+00
         0.00000E+00
         0.00000E+00
         0.00000E+00
         0.00000E+00
         0.00000E+00
         0.00000E+00
         0.00000E+00
         0.00000E+00
         0.00000E+00
         0.00000E+00
         0.00000E+00
         0.00000E+00
         0.00000E+00
         0.00000E+00
         0.00000E+00
         0.00000E+00
         0.00000E+00
         0.00000E+00
         0.00000E+00
         0.00000E+00
         0.00000E+00
         0.00000E+00
         0.00000E+00
         0.00000E+00
         0.00000E+00
         0.00000E+00
         0.00000E+00
         0.00000E+00
         0.00000E+00
         0.00000E+00
         0.00000E+00
         0.00000E+00
         0.00000E+00
         0.00000E+00
         0.00000E+00
         0.00000E+00
         0.00000E+00
         0.00000E+00
         0.00000E+00
         0.00000E+00
         0.00000E+00
         0.00000E+00
         0.00000E+00
         0.00000E+00
         0.00000E+00
         0.00000E+00
         0.00000E+00
         0.00000E+00
         0.00000E+00
         0.00000E+00
         0.00000E+00
         0.00000E+00
         0.00000E+00
         0.00000E+00
         0.00000E+00
         0.00000E+00
         0.00000E+00
         0.00000E+00
         0.00000E+00
         0.00000E+00
         0.00000E+00
         0.00000E+00
  
SCALARS                 acceleration_z  double 1
LOOKUP_TABLE default
         0.00000E+00
         0.00000E+00
         0.00000E+00
         0.00000E+00
         0.00000E+00
         0.00000E+00
         0.00000E+00
         0.00000E+00
         0.00000E+00
         0.00000E+00
         0.00000E+00
         0.00000E+00
         0.00000E+00
         0.00000E+00
         0.00000E+00
         0.00000E+00
         0.00000E+00
         0.00000E+00
         0.00000E+00
         0.00000E+00
         0.00000E+00
         0.00000E+00
         0.00000E+00
         0.00000E+00
         0.00000E+00
         0.00000E+00
         0.00000E+00
         0.00000E+00
         0.00000E+00
         0.00000E+00
         0.00000E+00
         0.00000E+00
         0.00000E+00
         0.00000E+00
         0.00000E+00
         0.00000E+00
         0.00000E+00
         0.00000E+00
         0.00000E+00
         0.00000E+00
         0.00000E+00
         0.00000E+00
         0.00000E+00
         0.00000E+00
         0.00000E+00
         0.00000E+00
         0.00000E+00
         0.00000E+00
         0.00000E+00
         0.00000E+00
         0.00000E+00
         0.00000E+00
         0.00000E+00
         0.00000E+00
         0.00000E+00
         0.00000E+00
         0.00000E+00
         0.00000E+00
         0.00000E+00
         0.00000E+00
         0.00000E+00
         0.00000E+00
         0.00000E+00
         0.00000E+00
         0.00000E+00
         0.00000E+00
         0.00000E+00
         0.00000E+00
         0.00000E+00
         0.00000E+00
         0.00000E+00
         0.00000E+00
         0.00000E+00
         0.00000E+00
         0.00000E+00
         0.00000E+00
         0.00000E+00
         0.00000E+00
         0.00000E+00
         0.00000E+00
         0.00000E+00
         0.00000E+00
         0.00000E+00
         0.00000E+00
         0.00000E+00
         0.00000E+00
         0.00000E+00
         0.00000E+00
         0.00000E+00
         0.00000E+00
         0.00000E+00
         0.00000E+00
         0.00000E+00
         0.00000E+00
         0.00000E+00
         0.00000E+00
         0.00000E+00
         0.00000E+00
         0.00000E+00
         0.00000E+00
         0.00000E+00
         0.00000E+00
         0.00000E+00
         0.00000E+00
         0.00000E+00
         0.00000E+00
         0.00000E+00
         0.00000E+00
         0.00000E+00
         0.00000E+00
         0.00000E+00
         0.00000E+00
         0.00000E+00
         0.00000E+00
         0.00000E+00
         0.00000E+00
         0.00000E+00
         0.00000E+00
         0.00000E+00
         0.00000E+00
         0.00000E+00
         0.00000E+00
         0.00000E+00
         0.00000E+00
         0.00000E+00
         0.00000E+00
         0.00000E+00
         0.00000E+00
         0.00000E+00
         0.00000E+00
         0.00000E+00
         0.00000E+00
         0.00000E+00
         0.00000E+00
         0.00000E+00
         0.00000E+00
         0.00000E+00
         0.00000E+00
         0.00000E+00
         0.00000E+00
         0.00000E+00
         0.00000E+00
         0.00000E+00
         0.00000E+00
         0.00000E+00
         0.00000E+00
         0.00000E+00
         0.00000E+00
         0.00000E+00
         0.00000E+00
         0.00000E+00
         0.00000E+00
         0.00000E+00
         0.00000E+00
         0.00000E+00
         0.00000E+00
         0.00000E+00
         0.00000E+00
         0.00000E+00
         0.00000E+00
         0.00000E+00
         0.00000E+00
         0.00000E+00
         0.00000E+00
         0.00000E+00
         0.00000E+00
         0.00000E+00
         0.00000E+00
         0.00000E+00
         0.00000E+00
         0.00000E+00
         0.00000E+00
         0.00000E+00
         0.00000E+00
         0.00000E+00
         0.00000E+00
         0.00000E+00
         0.00000E+00
         0.00000E+00
         0.00000E+00
         0.00000E+00
         0.00000E+00
         0.00000E+00
         0.00000E+00
         0.00000E+00
         0.00000E+00
         0.00000E+00
         0.00000E+00
         0.00000E+00
         0.00000E+00
         0.00000E+00
         0.00000E+00
         0.00000E+00
         0.00000E+00
         0.00000E+00
         0.00000E+00
         0.00000E+00
         0.00000E+00
         0.00000E+00
         0.00000E+00
         0.00000E+00
         0.00000E+00
         0.00000E+00
         0.00000E+00
         0.00000E+00
         0.00000E+00
         0.00000E+00
         0.00000E+00
         0.00000E+00
         0.00000E+00
         0.00000E+00
         0.00000E+00
         0.00000E+00
         0.00000E+00
         0.00000E+00
         0.00000E+00
         0.00000E+00
         0.00000E+00
         0.00000E+00
         0.00000E+00
         0.00000E+00
         0.00000E+00
         0.00000E+00
         0.00000E+00
         0.00000E+00
         0.00000E+00
         0.00000E+00
         0.00000E+00
         0.00000E+00
         0.00000E+00
         0.00000E+00
         0.00000E+00
         0.00000E+00
         0.00000E+00
         0.00000E+00
         0.00000E+00
         0.00000E+00
         0.00000E+00
         0.00000E+00
         0.00000E+00
         0.00000E+00
         0.00000E+00
         0.00000E+00
         0.00000E+00
         0.00000E+00
         0.00000E+00
         0.00000E+00
         0.00000E+00
         0.00000E+00
         0.00000E+00
         0.00000E+00
         0.00000E+00
         0.00000E+00
         0.00000E+00
         0.00000E+00
         0.00000E+00
         0.00000E+00
         0.00000E+00
         0.00000E+00
         0.00000E+00
         0.00000E+00
         0.00000E+00
         0.00000E+00
         0.00000E+00
         0.00000E+00
         0.00000E+00
         0.00000E+00
         0.00000E+00
         0.00000E+00
         0.00000E+00
         0.00000E+00
         0.00000E+00
         0.00000E+00
         0.00000E+00
         0.00000E+00
         0.00000E+00
         0.00000E+00
         0.00000E+00
         0.00000E+00
         0.00000E+00
         0.00000E+00
         0.00000E+00
         0.00000E+00
         0.00000E+00
         0.00000E+00
         0.00000E+00
         0.00000E+00
         0.00000E+00
         0.00000E+00
         0.00000E+00
         0.00000E+00
         0.00000E+00
         0.00000E+00
         0.00000E+00
         0.00000E+00
         0.00000E+00
         0.00000E+00
         0.00000E+00
         0.00000E+00
         0.00000E+00
         0.00000E+00
         0.00000E+00
         0.00000E+00
         0.00000E+00
         0.00000E+00
         0.00000E+00
         0.00000E+00
         0.00000E+00
         0.00000E+00
         0.00000E+00
         0.00000E+00
         0.00000E+00
         0.00000E+00
         0.00000E+00
         0.00000E+00
         0.00000E+00
         0.00000E+00
         0.00000E+00
         0.00000E+00
         0.00000E+00
         0.00000E+00
         0.00000E+00
         0.00000E+00
         0.00000E+00
         0.00000E+00
         0.00000E+00
         0.00000E+00
         0.00000E+00
         0.00000E+00
         0.00000E+00
         0.00000E+00
         0.00000E+00
         0.00000E+00
         0.00000E+00
         0.00000E+00
         0.00000E+00
         0.00000E+00
         0.00000E+00
         0.00000E+00
         0.00000E+00
         0.00000E+00
         0.00000E+00
         0.00000E+00
         0.00000E+00
         0.00000E+00
         0.00000E+00
         0.00000E+00
         0.00000E+00
         0.00000E+00
         0.00000E+00
         0.00000E+00
         0.00000E+00
         0.00000E+00
         0.00000E+00
         0.00000E+00
         0.00000E+00
         0.00000E+00
         0.00000E+00
         0.00000E+00
         0.00000E+00
         0.00000E+00
         0.00000E+00
         0.00000E+00
         0.00000E+00
         0.00000E+00
         0.00000E+00
         0.00000E+00
         0.00000E+00
         0.00000E+00
         0.00000E+00
         0.00000E+00
         0.00000E+00
         0.00000E+00
         0.00000E+00
         0.00000E+00
         0.00000E+00
         0.00000E+00
         0.00000E+00
         0.00000E+00
         0.00000E+00
         0.00000E+00
         0.00000E+00
         0.00000E+00
         0.00000E+00
         0.00000E+00
         0.00000E+00
         0.00000E+00
         0.00000E+00
         0.00000E+00
         0.00000E+00
         0.00000E+00
         0.00000E+00
         0.00000E+00
         0.00000E+00
         0.00000E+00
         0.00000E+00
         0.00000E+00
         0.00000E+00
         0.00000E+00
         0.00000E+00
         0.00000E+00
         0.00000E+00
         0.00000E+00
         0.00000E+00
         0.00000E+00
         0.00000E+00
         0.00000E+00
         0.00000E+00
         0.00000E+00
         0.00000E+00
         0.00000E+00
         0.00000E+00
         0.00000E+00
         0.00000E+00
         0.00000E+00
         0.00000E+00
         0.00000E+00
         0.00000E+00
         0.00000E+00
         0.00000E+00
         0.00000E+00
         0.00000E+00
         0.00000E+00
         0.00000E+00
         0.00000E+00
         0.00000E+00
         0.00000E+00
         0.00000E+00
         0.00000E+00
         0.00000E+00
         0.00000E+00
         0.00000E+00
         0.00000E+00
         0.00000E+00
         0.00000E+00
         0.00000E+00
         0.00000E+00
         0.00000E+00
         0.00000E+00
         0.00000E+00
         0.00000E+00
         0.00000E+00
         0.00000E+00
         0.00000E+00
         0.00000E+00
         0.00000E+00
         0.00000E+00
         0.00000E+00
         0.00000E+00
         0.00000E+00
         0.00000E+00
         0.00000E+00
         0.00000E+00
         0.00000E+00
         0.00000E+00
         0.00000E+00
         0.00000E+00
         0.00000E+00
         0.00000E+00
         0.00000E+00
         0.00000E+00
         0.00000E+00
         0.00000E+00
         0.00000E+00
         0.00000E+00
         0.00000E+00
         0.00000E+00
         0.00000E+00
         0.00000E+00
         0.00000E+00
         0.00000E+00
         0.00000E+00
         0.00000E+00
         0.00000E+00
         0.00000E+00
         0.00000E+00
         0.00000E+00
         0.00000E+00
         0.00000E+00
         0.00000E+00
         0.00000E+00
         0.00000E+00
         0.00000E+00
         0.00000E+00
         0.00000E+00
         0.00000E+00
         0.00000E+00
         0.00000E+00
         0.00000E+00
         0.00000E+00
         0.00000E+00
         0.00000E+00
         0.00000E+00
         0.00000E+00
         0.00000E+00
         0.00000E+00
         0.00000E+00
         0.00000E+00
         0.00000E+00
         0.00000E+00
         0.00000E+00
         0.00000E+00
         0.00000E+00
         0.00000E+00
         0.00000E+00
         0.00000E+00
         0.00000E+00
         0.00000E+00
         0.00000E+00
         0.00000E+00
         0.00000E+00
         0.00000E+00
         0.00000E+00
         0.00000E+00
         0.00000E+00
         0.00000E+00
         0.00000E+00
         0.00000E+00
         0.00000E+00
         0.00000E+00
         0.00000E+00
         0.00000E+00
         0.00000E+00
         0.00000E+00
         0.00000E+00
         0.00000E+00
         0.00000E+00
         0.00000E+00
         0.00000E+00
         0.00000E+00
         0.00000E+00
         0.00000E+00
         0.00000E+00
         0.00000E+00
         0.00000E+00
         0.00000E+00
         0.00000E+00
         0.00000E+00
         0.00000E+00
         0.00000E+00
         0.00000E+00
         0.00000E+00
         0.00000E+00
         0.00000E+00
         0.00000E+00
         0.00000E+00
         0.00000E+00
         0.00000E+00
         0.00000E+00
         0.00000E+00
         0.00000E+00
         0.00000E+00
         0.00000E+00
         0.00000E+00
         0.00000E+00
         0.00000E+00
         0.00000E+00
         0.00000E+00
         0.00000E+00
         0.00000E+00
         0.00000E+00
         0.00000E+00
         0.00000E+00
         0.00000E+00
         0.00000E+00
         0.00000E+00
         0.00000E+00
         0.00000E+00
         0.00000E+00
         0.00000E+00
         0.00000E+00
         0.00000E+00
         0.00000E+00
         0.00000E+00
         0.00000E+00
         0.00000E+00
         0.00000E+00
         0.00000E+00
         0.00000E+00
         0.00000E+00
         0.00000E+00
         0.00000E+00
         0.00000E+00
         0.00000E+00
         0.00000E+00
         0.00000E+00
         0.00000E+00
         0.00000E+00
         0.00000E+00
         0.00000E+00
         0.00000E+00
         0.00000E+00
         0.00000E+00
         0.00000E+00
         0.00000E+00
         0.00000E+00
         0.00000E+00
         0.00000E+00
         0.00000E+00
         0.00000E+00
         0.00000E+00
         0.00000E+00
         0.00000E+00
         0.00000E+00
         0.00000E+00
         0.00000E+00
         0.00000E+00
         0.00000E+00
         0.00000E+00
         0.00000E+00
         0.00000E+00
         0.00000E+00
         0.00000E+00
         0.00000E+00
         0.00000E+00
         0.00000E+00
         0.00000E+00
         0.00000E+00
         0.00000E+00
         0.00000E+00
         0.00000E+00
         0.00000E+00
         0.00000E+00
         0.00000E+00
         0.00000E+00
         0.00000E+00
         0.00000E+00
         0.00000E+00
         0.00000E+00
         0.00000E+00
         0.00000E+00
         0.00000E+00
         0.00000E+00
         0.00000E+00
         0.00000E+00
         0.00000E+00
         0.00000E+00
         0.00000E+00
         0.00000E+00
         0.00000E+00
         0.00000E+00
         0.00000E+00
         0.00000E+00
         0.00000E+00
         0.00000E+00
         0.00000E+00
         0.00000E+00
         0.00000E+00
         0.00000E+00
         0.00000E+00
         0.00000E+00
         0.00000E+00
         0.00000E+00
         0.00000E+00
         0.00000E+00
         0.00000E+00
         0.00000E+00
         0.00000E+00
         0.00000E+00
         0.00000E+00
         0.00000E+00
         0.00000E+00
         0.00000E+00
         0.00000E+00
         0.00000E+00
         0.00000E+00
         0.00000E+00
         0.00000E+00
         0.00000E+00
         0.00000E+00
         0.00000E+00
         0.00000E+00
         0.00000E+00
         0.00000E+00
         0.00000E+00
         0.00000E+00
         0.00000E+00
         0.00000E+00
         0.00000E+00
         0.00000E+00
         0.00000E+00
         0.00000E+00
         0.00000E+00
         0.00000E+00
         0.00000E+00
         0.00000E+00
         0.00000E+00
         0.00000E+00
         0.00000E+00
         0.00000E+00
         0.00000E+00
         0.00000E+00
         0.00000E+00
         0.00000E+00
         0.00000E+00
         0.00000E+00
         0.00000E+00
         0.00000E+00
         0.00000E+00
         0.00000E+00
         0.00000E+00
         0.00000E+00
         0.00000E+00
         0.00000E+00
         0.00000E+00
         0.00000E+00
         0.00000E+00
         0.00000E+00
         0.00000E+00
         0.00000E+00
         0.00000E+00
         0.00000E+00
         0.00000E+00
         0.00000E+00
         0.00000E+00
         0.00000E+00
         0.00000E+00
         0.00000E+00
         0.00000E+00
         0.00000E+00
         0.00000E+00
         0.00000E+00
         0.00000E+00
         0.00000E+00
         0.00000E+00
         0.00000E+00
         0.00000E+00
         0.00000E+00
         0.00000E+00
         0.00000E+00
         0.00000E+00
         0.00000E+00
         0.00000E+00
         0.00000E+00
         0.00000E+00
         0.00000E+00
         0.00000E+00
         0.00000E+00
         0.00000E+00
         0.00000E+00
         0.00000E+00
         0.00000E+00
         0.00000E+00
         0.00000E+00
         0.00000E+00
         0.00000E+00
         0.00000E+00
         0.00000E+00
         0.00000E+00
         0.00000E+00
         0.00000E+00
         0.00000E+00
         0.00000E+00
         0.00000E+00
         0.00000E+00
         0.00000E+00
         0.00000E+00
         0.00000E+00
         0.00000E+00
         0.00000E+00
         0.00000E+00
         0.00000E+00
         0.00000E+00
         0.00000E+00
         0.00000E+00
         0.00000E+00
         0.00000E+00
         0.00000E+00
         0.00000E+00
         0.00000E+00
         0.00000E+00
         0.00000E+00
         0.00000E+00
         0.00000E+00
         0.00000E+00
         0.00000E+00
         0.00000E+00
         0.00000E+00
         0.00000E+00
         0.00000E+00
         0.00000E+00
         0.00000E+00
         0.00000E+00
         0.00000E+00
         0.00000E+00
         0.00000E+00
         0.00000E+00
         0.00000E+00
         0.00000E+00
         0.00000E+00
         0.00000E+00
         0.00000E+00
         0.00000E+00
         0.00000E+00
         0.00000E+00
         0.00000E+00
         0.00000E+00
         0.00000E+00
         0.00000E+00
         0.00000E+00
         0.00000E+00
         0.00000E+00
         0.00000E+00
         0.00000E+00
         0.00000E+00
         0.00000E+00
         0.00000E+00
         0.00000E+00
         0.00000E+00
         0.00000E+00
         0.00000E+00
         0.00000E+00
         0.00000E+00
         0.00000E+00
         0.00000E+00
         0.00000E+00
         0.00000E+00
         0.00000E+00
         0.00000E+00
         0.00000E+00
         0.00000E+00
         0.00000E+00
         0.00000E+00
         0.00000E+00
         0.00000E+00
         0.00000E+00
         0.00000E+00
         0.00000E+00
         0.00000E+00
         0.00000E+00
         0.00000E+00
         0.00000E+00
         0.00000E+00
         0.00000E+00
         0.00000E+00
         0.00000E+00
         0.00000E+00
         0.00000E+00
         0.00000E+00
         0.00000E+00
         0.00000E+00
         0.00000E+00
         0.00000E+00
         0.00000E+00
         0.00000E+00
         0.00000E+00
         0.00000E+00
         0.00000E+00
         0.00000E+00
         0.00000E+00
         0.00000E+00
         0.00000E+00
         0.00000E+00
         0.00000E+00
         0.00000E+00
         0.00000E+00
         0.00000E+00
         0.00000E+00
         0.00000E+00
         0.00000E+00
         0.00000E+00
         0.00000E+00
         0.00000E+00
         0.00000E+00
         0.00000E+00
         0.00000E+00
         0.00000E+00
         0.00000E+00
         0.00000E+00
         0.00000E+00
         0.00000E+00
         0.00000E+00
         0.00000E+00
         0.00000E+00
         0.00000E+00
         0.00000E+00
         0.00000E+00
         0.00000E+00
         0.00000E+00
         0.00000E+00
         0.00000E+00
         0.00000E+00
         0.00000E+00
         0.00000E+00
         0.00000E+00
         0.00000E+00
         0.00000E+00
         0.00000E+00
         0.00000E+00
         0.00000E+00
         0.00000E+00
         0.00000E+00
         0.00000E+00
         0.00000E+00
         0.00000E+00
         0.00000E+00
         0.00000E+00
         0.00000E+00
         0.00000E+00
         0.00000E+00
         0.00000E+00
         0.00000E+00
         0.00000E+00
         0.00000E+00
         0.00000E+00
         0.00000E+00
         0.00000E+00
         0.00000E+00
         0.00000E+00
         0.00000E+00
         0.00000E+00
         0.00000E+00
         0.00000E+00
         0.00000E+00
         0.00000E+00
         0.00000E+00
         0.00000E+00
         0.00000E+00
         0.00000E+00
         0.00000E+00
         0.00000E+00
         0.00000E+00
         0.00000E+00
         0.00000E+00
         0.00000E+00
         0.00000E+00
         0.00000E+00
         0.00000E+00
         0.00000E+00
         0.00000E+00
         0.00000E+00
         0.00000E+00
         0.00000E+00
         0.00000E+00
         0.00000E+00
         0.00000E+00
         0.00000E+00
         0.00000E+00
         0.00000E+00
         0.00000E+00
         0.00000E+00
         0.00000E+00
         0.00000E+00
         0.00000E+00
         0.00000E+00
         0.00000E+00
         0.00000E+00
         0.00000E+00
         0.00000E+00
         0.00000E+00
         0.00000E+00
         0.00000E+00
         0.00000E+00
         0.00000E+00
         0.00000E+00
         0.00000E+00
         0.00000E+00
         0.00000E+00
         0.00000E+00
         0.00000E+00
         0.00000E+00
         0.00000E+00
         0.00000E+00
         0.00000E+00
         0.00000E+00
         0.00000E+00
         0.00000E+00
         0.00000E+00
         0.00000E+00
         0.00000E+00
         0.00000E+00
         0.00000E+00
         0.00000E+00
         0.00000E+00
         0.00000E+00
         0.00000E+00
         0.00000E+00
         0.00000E+00
         0.00000E+00
         0.00000E+00
         0.00000E+00
         0.00000E+00
         0.00000E+00
         0.00000E+00
         0.00000E+00
         0.00000E+00
         0.00000E+00
         0.00000E+00
         0.00000E+00
         0.00000E+00
         0.00000E+00
         0.00000E+00
         0.00000E+00
         0.00000E+00
         0.00000E+00
         0.00000E+00
         0.00000E+00
         0.00000E+00
         0.00000E+00
         0.00000E+00
         0.00000E+00
         0.00000E+00
         0.00000E+00
         0.00000E+00
         0.00000E+00
         0.00000E+00
         0.00000E+00
         0.00000E+00
         0.00000E+00
         0.00000E+00
         0.00000E+00
         0.00000E+00
         0.00000E+00
         0.00000E+00
         0.00000E+00
         0.00000E+00
         0.00000E+00
         0.00000E+00
         0.00000E+00
         0.00000E+00
         0.00000E+00
         0.00000E+00
         0.00000E+00
         0.00000E+00
         0.00000E+00
         0.00000E+00
         0.00000E+00
         0.00000E+00
         0.00000E+00
         0.00000E+00
         0.00000E+00
         0.00000E+00
         0.00000E+00
         0.00000E+00
         0.00000E+00
         0.00000E+00
         0.00000E+00
         0.00000E+00
         0.00000E+00
         0.00000E+00
         0.00000E+00
         0.00000E+00
         0.00000E+00
         0.00000E+00
         0.00000E+00
         0.00000E+00
         0.00000E+00
         0.00000E+00
         0.00000E+00
         0.00000E+00
         0.00000E+00
         0.00000E+00
         0.00000E+00
         0.00000E+00
         0.00000E+00
         0.00000E+00
         0.00000E+00
         0.00000E+00
         0.00000E+00
         0.00000E+00
         0.00000E+00
         0.00000E+00
         0.00000E+00
         0.00000E+00
         0.00000E+00
         0.00000E+00
         0.00000E+00
         0.00000E+00
         0.00000E+00
         0.00000E+00
         0.00000E+00
         0.00000E+00
         0.00000E+00
         0.00000E+00
         0.00000E+00
         0.00000E+00
         0.00000E+00
         0.00000E+00
         0.00000E+00
         0.00000E+00
         0.00000E+00
         0.00000E+00
         0.00000E+00
         0.00000E+00
         0.00000E+00
         0.00000E+00
         0.00000E+00
         0.00000E+00
         0.00000E+00
         0.00000E+00
         0.00000E+00
         0.00000E+00
         0.00000E+00
         0.00000E+00
         0.00000E+00
         0.00000E+00
         0.00000E+00
         0.00000E+00
         0.00000E+00
         0.00000E+00
         0.00000E+00
         0.00000E+00
         0.00000E+00
         0.00000E+00
         0.00000E+00
         0.00000E+00
         0.00000E+00
         0.00000E+00
         0.00000E+00
         0.00000E+00
         0.00000E+00
         0.00000E+00
         0.00000E+00
         0.00000E+00
         0.00000E+00
         0.00000E+00
         0.00000E+00
         0.00000E+00
         0.00000E+00
         0.00000E+00
         0.00000E+00
         0.00000E+00
         0.00000E+00
         0.00000E+00
         0.00000E+00
         0.00000E+00
         0.00000E+00
         0.00000E+00
         0.00000E+00
         0.00000E+00
         0.00000E+00
         0.00000E+00
         0.00000E+00
         0.00000E+00
         0.00000E+00
         0.00000E+00
         0.00000E+00
         0.00000E+00
         0.00000E+00
         0.00000E+00
         0.00000E+00
         0.00000E+00
         0.00000E+00
         0.00000E+00
         0.00000E+00
         0.00000E+00
         0.00000E+00
         0.00000E+00
         0.00000E+00
         0.00000E+00
         0.00000E+00
         0.00000E+00
         0.00000E+00
         0.00000E+00
         0.00000E+00
         0.00000E+00
         0.00000E+00
         0.00000E+00
         0.00000E+00
         0.00000E+00
         0.00000E+00
         0.00000E+00
         0.00000E+00
         0.00000E+00
         0.00000E+00
         0.00000E+00
         0.00000E+00
         0.00000E+00
         0.00000E+00
         0.00000E+00
         0.00000E+00
         0.00000E+00
         0.00000E+00
         0.00000E+00
         0.00000E+00
         0.00000E+00
         0.00000E+00
         0.00000E+00
         0.00000E+00
         0.00000E+00
         0.00000E+00
         0.00000E+00
         0.00000E+00
         0.00000E+00
         0.00000E+00
         0.00000E+00
         0.00000E+00
         0.00000E+00
         0.00000E+00
         0.00000E+00
         0.00000E+00
         0.00000E+00
         0.00000E+00
         0.00000E+00
         0.00000E+00
         0.00000E+00
         0.00000E+00
         0.00000E+00
         0.00000E+00
         0.00000E+00
         0.00000E+00
         0.00000E+00
         0.00000E+00
         0.00000E+00
         0.00000E+00
         0.00000E+00
         0.00000E+00
         0.00000E+00
         0.00000E+00
         0.00000E+00
         0.00000E+00
         0.00000E+00
         0.00000E+00
         0.00000E+00
         0.00000E+00
         0.00000E+00
         0.00000E+00
         0.00000E+00
         0.00000E+00
         0.00000E+00
         0.00000E+00
         0.00000E+00
         0.00000E+00
         0.00000E+00
         0.00000E+00
         0.00000E+00
         0.00000E+00
         0.00000E+00
         0.00000E+00
         0.00000E+00
         0.00000E+00
         0.00000E+00
         0.00000E+00
         0.00000E+00
         0.00000E+00
         0.00000E+00
         0.00000E+00
         0.00000E+00
         0.00000E+00
         0.00000E+00
         0.00000E+00
         0.00000E+00
         0.00000E+00
         0.00000E+00
         0.00000E+00
         0.00000E+00
         0.00000E+00
         0.00000E+00
         0.00000E+00
         0.00000E+00
         0.00000E+00
         0.00000E+00
         0.00000E+00
         0.00000E+00
         0.00000E+00
         0.00000E+00
         0.00000E+00
         0.00000E+00
         0.00000E+00
         0.00000E+00
         0.00000E+00
         0.00000E+00
         0.00000E+00
         0.00000E+00
         0.00000E+00
         0.00000E+00
         0.00000E+00
         0.00000E+00
         0.00000E+00
         0.00000E+00
         0.00000E+00
         0.00000E+00
         0.00000E+00
         0.00000E+00
         0.00000E+00
         0.00000E+00
         0.00000E+00
         0.00000E+00
         0.00000E+00
         0.00000E+00
         0.00000E+00
         0.00000E+00
         0.00000E+00
         0.00000E+00
         0.00000E+00
         0.00000E+00
         0.00000E+00
         0.00000E+00
         0.00000E+00
         0.00000E+00
         0.00000E+00
         0.00000E+00
         0.00000E+00
         0.00000E+00
         0.00000E+00
         0.00000E+00
         0.00000E+00
         0.00000E+00
         0.00000E+00
         0.00000E+00
         0.00000E+00
         0.00000E+00
         0.00000E+00
         0.00000E+00
         0.00000E+00
         0.00000E+00
         0.00000E+00
         0.00000E+00
         0.00000E+00
         0.00000E+00
         0.00000E+00
         0.00000E+00
         0.00000E+00
         0.00000E+00
         0.00000E+00
         0.00000E+00
         0.00000E+00
         0.00000E+00
         0.00000E+00
         0.00000E+00
         0.00000E+00
         0.00000E+00
         0.00000E+00
         0.00000E+00
         0.00000E+00
         0.00000E+00
         0.00000E+00
         0.00000E+00
         0.00000E+00
         0.00000E+00
         0.00000E+00
         0.00000E+00
         0.00000E+00
         0.00000E+00
         0.00000E+00
         0.00000E+00
         0.00000E+00
         0.00000E+00
         0.00000E+00
         0.00000E+00
         0.00000E+00
         0.00000E+00
         0.00000E+00
         0.00000E+00
         0.00000E+00
         0.00000E+00
         0.00000E+00
         0.00000E+00
         0.00000E+00
         0.00000E+00
         0.00000E+00
         0.00000E+00
         0.00000E+00
         0.00000E+00
         0.00000E+00
         0.00000E+00
         0.00000E+00
         0.00000E+00
         0.00000E+00
         0.00000E+00
         0.00000E+00
         0.00000E+00
         0.00000E+00
         0.00000E+00
         0.00000E+00
         0.00000E+00
         0.00000E+00
         0.00000E+00
         0.00000E+00
         0.00000E+00
         0.00000E+00
         0.00000E+00
         0.00000E+00
         0.00000E+00
         0.00000E+00
         0.00000E+00
         0.00000E+00
         0.00000E+00
         0.00000E+00
         0.00000E+00
         0.00000E+00
         0.00000E+00
         0.00000E+00
         0.00000E+00
         0.00000E+00
         0.00000E+00
         0.00000E+00
         0.00000E+00
         0.00000E+00
         0.00000E+00
         0.00000E+00
         0.00000E+00
         0.00000E+00
         0.00000E+00
         0.00000E+00
         0.00000E+00
         0.00000E+00
         0.00000E+00
         0.00000E+00
         0.00000E+00
         0.00000E+00
         0.00000E+00
         0.00000E+00
         0.00000E+00
         0.00000E+00
         0.00000E+00
         0.00000E+00
         0.00000E+00
         0.00000E+00
         0.00000E+00
         0.00000E+00
         0.00000E+00
         0.00000E+00
         0.00000E+00
         0.00000E+00
         0.00000E+00
         0.00000E+00
         0.00000E+00
         0.00000E+00
         0.00000E+00
         0.00000E+00
         0.00000E+00
         0.00000E+00
         0.00000E+00
         0.00000E+00
         0.00000E+00
         0.00000E+00
         0.00000E+00
         0.00000E+00
         0.00000E+00
         0.00000E+00
         0.00000E+00
         0.00000E+00
         0.00000E+00
         0.00000E+00
         0.00000E+00
         0.00000E+00
         0.00000E+00
         0.00000E+00
         0.00000E+00
         0.00000E+00
         0.00000E+00
         0.00000E+00
         0.00000E+00
         0.00000E+00
         0.00000E+00
         0.00000E+00
         0.00000E+00
         0.00000E+00
         0.00000E+00
         0.00000E+00
         0.00000E+00
         0.00000E+00
         0.00000E+00
         0.00000E+00
         0.00000E+00
         0.00000E+00
         0.00000E+00
         0.00000E+00
         0.00000E+00
         0.00000E+00
         0.00000E+00
         0.00000E+00
         0.00000E+00
         0.00000E+00
         0.00000E+00
         0.00000E+00
         0.00000E+00
         0.00000E+00
         0.00000E+00
         0.00000E+00
         0.00000E+00
         0.00000E+00
         0.00000E+00
         0.00000E+00
         0.00000E+00
         0.00000E+00
         0.00000E+00
         0.00000E+00
         0.00000E+00
         0.00000E+00
         0.00000E+00
         0.00000E+00
         0.00000E+00
         0.00000E+00
         0.00000E+00
         0.00000E+00
         0.00000E+00
         0.00000E+00
         0.00000E+00
         0.00000E+00
         0.00000E+00
         0.00000E+00
         0.00000E+00
         0.00000E+00
         0.00000E+00
         0.00000E+00
         0.00000E+00
         0.00000E+00
         0.00000E+00
         0.00000E+00
         0.00000E+00
         0.00000E+00
         0.00000E+00
         0.00000E+00
         0.00000E+00
         0.00000E+00
         0.00000E+00
         0.00000E+00
         0.00000E+00
         0.00000E+00
         0.00000E+00
         0.00000E+00
         0.00000E+00
         0.00000E+00
         0.00000E+00
         0.00000E+00
         0.00000E+00
         0.00000E+00
         0.00000E+00
         0.00000E+00
         0.00000E+00
         0.00000E+00
         0.00000E+00
         0.00000E+00
         0.00000E+00
         0.00000E+00
         0.00000E+00
         0.00000E+00
         0.00000E+00
         0.00000E+00
         0.00000E+00
         0.00000E+00
         0.00000E+00
         0.00000E+00
         0.00000E+00
         0.00000E+00
         0.00000E+00
         0.00000E+00
         0.00000E+00
         0.00000E+00
         0.00000E+00
         0.00000E+00
         0.00000E+00
         0.00000E+00
         0.00000E+00
         0.00000E+00
         0.00000E+00
         0.00000E+00
         0.00000E+00
         0.00000E+00
         0.00000E+00
         0.00000E+00
         0.00000E+00
         0.00000E+00
         0.00000E+00
         0.00000E+00
         0.00000E+00
         0.00000E+00
         0.00000E+00
         0.00000E+00
         0.00000E+00
         0.00000E+00
         0.00000E+00
         0.00000E+00
         0.00000E+00
         0.00000E+00
         0.00000E+00
         0.00000E+00
         0.00000E+00
         0.00000E+00
         0.00000E+00
         0.00000E+00
         0.00000E+00
         0.00000E+00
         0.00000E+00
         0.00000E+00
         0.00000E+00
         0.00000E+00
         0.00000E+00
         0.00000E+00
         0.00000E+00
         0.00000E+00
         0.00000E+00
         0.00000E+00
         0.00000E+00
         0.00000E+00
         0.00000E+00
         0.00000E+00
         0.00000E+00
         0.00000E+00
         0.00000E+00
         0.00000E+00
         0.00000E+00
         0.00000E+00
         0.00000E+00
         0.00000E+00
         0.00000E+00
         0.00000E+00
         0.00000E+00
         0.00000E+00
         0.00000E+00
         0.00000E+00
         0.00000E+00
         0.00000E+00
         0.00000E+00
         0.00000E+00
         0.00000E+00
         0.00000E+00
         0.00000E+00
         0.00000E+00
         0.00000E+00
         0.00000E+00
         0.00000E+00
         0.00000E+00
         0.00000E+00
         0.00000E+00
         0.00000E+00
         0.00000E+00
         0.00000E+00
         0.00000E+00
         0.00000E+00
         0.00000E+00
         0.00000E+00
         0.00000E+00
         0.00000E+00
         0.00000E+00
         0.00000E+00
         0.00000E+00
         0.00000E+00
         0.00000E+00
         0.00000E+00
         0.00000E+00
         0.00000E+00
         0.00000E+00
         0.00000E+00
         0.00000E+00
         0.00000E+00
         0.00000E+00
         0.00000E+00
         0.00000E+00
         0.00000E+00
         0.00000E+00
         0.00000E+00
         0.00000E+00
         0.00000E+00
         0.00000E+00
         0.00000E+00
         0.00000E+00
         0.00000E+00
         0.00000E+00
         0.00000E+00
         0.00000E+00
         0.00000E+00
         0.00000E+00
         0.00000E+00
         0.00000E+00
         0.00000E+00
         0.00000E+00
         0.00000E+00
         0.00000E+00
         0.00000E+00
         0.00000E+00
         0.00000E+00
         0.00000E+00
         0.00000E+00
         0.00000E+00
         0.00000E+00
         0.00000E+00
         0.00000E+00
         0.00000E+00
         0.00000E+00
         0.00000E+00
         0.00000E+00
         0.00000E+00
         0.00000E+00
         0.00000E+00
         0.00000E+00
         0.00000E+00
         0.00000E+00
         0.00000E+00
         0.00000E+00
         0.00000E+00
         0.00000E+00
         0.00000E+00
         0.00000E+00
         0.00000E+00
         0.00000E+00
         0.00000E+00
         0.00000E+00
         0.00000E+00
         0.00000E+00
         0.00000E+00
         0.00000E+00
         0.00000E+00
         0.00000E+00
         0.00000E+00
         0.00000E+00
         0.00000E+00
         0.00000E+00
         0.00000E+00
         0.00000E+00
         0.00000E+00
         0.00000E+00
         0.00000E+00
         0.00000E+00
         0.00000E+00
         0.00000E+00
         0.00000E+00
         0.00000E+00
         0.00000E+00
         0.00000E+00
         0.00000E+00
         0.00000E+00
         0.00000E+00
         0.00000E+00
         0.00000E+00
         0.00000E+00
         0.00000E+00
         0.00000E+00
         0.00000E+00
         0.00000E+00
         0.00000E+00
         0.00000E+00
         0.00000E+00
         0.00000E+00
         0.00000E+00
         0.00000E+00
         0.00000E+00
         0.00000E+00
         0.00000E+00
         0.00000E+00
         0.00000E+00
         0.00000E+00
         0.00000E+00
         0.00000E+00
         0.00000E+00
         0.00000E+00
         0.00000E+00
         0.00000E+00
         0.00000E+00
         0.00000E+00
         0.00000E+00
         0.00000E+00
         0.00000E+00
         0.00000E+00
         0.00000E+00
         0.00000E+00
         0.00000E+00
         0.00000E+00
         0.00000E+00
         0.00000E+00
         0.00000E+00
         0.00000E+00
         0.00000E+00
         0.00000E+00
         0.00000E+00
         0.00000E+00
         0.00000E+00
         0.00000E+00
         0.00000E+00
         0.00000E+00
         0.00000E+00
         0.00000E+00
         0.00000E+00
         0.00000E+00
         0.00000E+00
         0.00000E+00
         0.00000E+00
         0.00000E+00
         0.00000E+00
         0.00000E+00
         0.00000E+00
         0.00000E+00
         0.00000E+00
         0.00000E+00
         0.00000E+00
         0.00000E+00
         0.00000E+00
         0.00000E+00
         0.00000E+00
         0.00000E+00
         0.00000E+00
         0.00000E+00
         0.00000E+00
         0.00000E+00
         0.00000E+00
         0.00000E+00
         0.00000E+00
         0.00000E+00
         0.00000E+00
         0.00000E+00
         0.00000E+00
         0.00000E+00
         0.00000E+00
         0.00000E+00
         0.00000E+00
         0.00000E+00
         0.00000E+00
         0.00000E+00
         0.00000E+00
         0.00000E+00
         0.00000E+00
         0.00000E+00
         0.00000E+00
         0.00000E+00
         0.00000E+00
         0.00000E+00
         0.00000E+00
         0.00000E+00
         0.00000E+00
         0.00000E+00
         0.00000E+00
         0.00000E+00
         0.00000E+00
         0.00000E+00
         0.00000E+00
         0.00000E+00
         0.00000E+00
         0.00000E+00
         0.00000E+00
         0.00000E+00
         0.00000E+00
         0.00000E+00
         0.00000E+00
         0.00000E+00
         0.00000E+00
         0.00000E+00
         0.00000E+00
         0.00000E+00
         0.00000E+00
         0.00000E+00
         0.00000E+00
         0.00000E+00
         0.00000E+00
         0.00000E+00
         0.00000E+00
         0.00000E+00
         0.00000E+00
         0.00000E+00
         0.00000E+00
         0.00000E+00
         0.00000E+00
         0.00000E+00
         0.00000E+00
         0.00000E+00
         0.00000E+00
         0.00000E+00
         0.00000E+00
         0.00000E+00
         0.00000E+00
         0.00000E+00
         0.00000E+00
         0.00000E+00
         0.00000E+00
         0.00000E+00
         0.00000E+00
         0.00000E+00
         0.00000E+00
         0.00000E+00
         0.00000E+00
         0.00000E+00
         0.00000E+00
         0.00000E+00
         0.00000E+00
         0.00000E+00
         0.00000E+00
         0.00000E+00
         0.00000E+00
         0.00000E+00
         0.00000E+00
         0.00000E+00
         0.00000E+00
         0.00000E+00
         0.00000E+00
         0.00000E+00
         0.00000E+00
         0.00000E+00
         0.00000E+00
         0.00000E+00
         0.00000E+00
         0.00000E+00
         0.00000E+00
         0.00000E+00
         0.00000E+00
         0.00000E+00
         0.00000E+00
         0.00000E+00
         0.00000E+00
         0.00000E+00
         0.00000E+00
         0.00000E+00
         0.00000E+00
         0.00000E+00
         0.00000E+00
         0.00000E+00
         0.00000E+00
         0.00000E+00
         0.00000E+00
         0.00000E+00
         0.00000E+00
         0.00000E+00
         0.00000E+00
         0.00000E+00
         0.00000E+00
         0.00000E+00
         0.00000E+00
         0.00000E+00
         0.00000E+00
         0.00000E+00
         0.00000E+00
         0.00000E+00
         0.00000E+00
         0.00000E+00
         0.00000E+00
         0.00000E+00
         0.00000E+00
         0.00000E+00
         0.00000E+00
         0.00000E+00
         0.00000E+00
         0.00000E+00
         0.00000E+00
         0.00000E+00
         0.00000E+00
         0.00000E+00
         0.00000E+00
         0.00000E+00
         0.00000E+00
         0.00000E+00
         0.00000E+00
         0.00000E+00
         0.00000E+00
         0.00000E+00
         0.00000E+00
         0.00000E+00
         0.00000E+00
         0.00000E+00
         0.00000E+00
         0.00000E+00
         0.00000E+00
         0.00000E+00
         0.00000E+00
         0.00000E+00
         0.00000E+00
         0.00000E+00
         0.00000E+00
         0.00000E+00
         0.00000E+00
         0.00000E+00
  
SCALARS                         fint_x  double 1
LOOKUP_TABLE default
         0.00000E+00
         0.00000E+00
         0.00000E+00
         0.00000E+00
         0.00000E+00
         0.00000E+00
         0.00000E+00
         0.00000E+00
         0.00000E+00
         0.00000E+00
         0.00000E+00
         0.00000E+00
         0.00000E+00
         0.00000E+00
         0.00000E+00
         0.00000E+00
         0.00000E+00
         0.00000E+00
         0.00000E+00
         0.00000E+00
         0.00000E+00
         0.00000E+00
         0.00000E+00
         0.00000E+00
         0.00000E+00
         0.00000E+00
         0.00000E+00
         0.00000E+00
         0.00000E+00
         0.00000E+00
         0.00000E+00
         0.00000E+00
         0.00000E+00
         0.00000E+00
         0.00000E+00
         0.00000E+00
         0.00000E+00
         0.00000E+00
         0.00000E+00
         0.00000E+00
         0.00000E+00
         0.00000E+00
         0.00000E+00
         0.00000E+00
         0.00000E+00
         0.00000E+00
         0.00000E+00
         0.00000E+00
         0.00000E+00
         0.00000E+00
         0.00000E+00
         0.00000E+00
         0.00000E+00
         0.00000E+00
         0.00000E+00
         0.00000E+00
         0.00000E+00
         0.00000E+00
         0.00000E+00
         0.00000E+00
         0.00000E+00
         0.00000E+00
         0.00000E+00
         0.00000E+00
         0.00000E+00
         0.00000E+00
         0.00000E+00
         0.00000E+00
         0.00000E+00
         0.00000E+00
         0.00000E+00
         0.00000E+00
         0.00000E+00
         0.00000E+00
         0.00000E+00
         0.00000E+00
         0.00000E+00
         0.00000E+00
         0.00000E+00
         0.00000E+00
         0.00000E+00
         0.00000E+00
         0.00000E+00
         0.00000E+00
         0.00000E+00
         0.00000E+00
         0.00000E+00
         0.00000E+00
         0.00000E+00
         0.00000E+00
         0.00000E+00
         0.00000E+00
         0.00000E+00
         0.00000E+00
         0.00000E+00
         0.00000E+00
         0.00000E+00
         0.00000E+00
         0.00000E+00
         0.00000E+00
         0.00000E+00
         0.00000E+00
         0.00000E+00
         0.00000E+00
         0.00000E+00
         0.00000E+00
         0.00000E+00
         0.00000E+00
         0.00000E+00
         0.00000E+00
         0.00000E+00
         0.00000E+00
         0.00000E+00
         0.00000E+00
         0.00000E+00
         0.00000E+00
         0.00000E+00
         0.00000E+00
         0.00000E+00
         0.00000E+00
         0.00000E+00
         0.00000E+00
         0.00000E+00
         0.00000E+00
         0.00000E+00
         0.00000E+00
         0.00000E+00
         0.00000E+00
         0.00000E+00
         0.00000E+00
         0.00000E+00
         0.00000E+00
         0.00000E+00
         0.00000E+00
         0.00000E+00
         0.00000E+00
         0.00000E+00
         0.00000E+00
         0.00000E+00
         0.00000E+00
         0.00000E+00
         0.00000E+00
         0.00000E+00
         0.00000E+00
         0.00000E+00
         0.00000E+00
         0.00000E+00
         0.00000E+00
         0.00000E+00
         0.00000E+00
         0.00000E+00
         0.00000E+00
         0.00000E+00
         0.00000E+00
         0.00000E+00
         0.00000E+00
         0.00000E+00
         0.00000E+00
         0.00000E+00
         0.00000E+00
         0.00000E+00
         0.00000E+00
         0.00000E+00
         0.00000E+00
         0.00000E+00
         0.00000E+00
         0.00000E+00
         0.00000E+00
         0.00000E+00
         0.00000E+00
         0.00000E+00
         0.00000E+00
         0.00000E+00
         0.00000E+00
         0.00000E+00
         0.00000E+00
         0.00000E+00
         0.00000E+00
         0.00000E+00
         0.00000E+00
         0.00000E+00
         0.00000E+00
         0.00000E+00
         0.00000E+00
         0.00000E+00
         0.00000E+00
         0.00000E+00
         0.00000E+00
         0.00000E+00
         0.00000E+00
         0.00000E+00
         0.00000E+00
         0.00000E+00
         0.00000E+00
         0.00000E+00
         0.00000E+00
         0.00000E+00
         0.00000E+00
         0.00000E+00
         0.00000E+00
         0.00000E+00
         0.00000E+00
         0.00000E+00
         0.00000E+00
         0.00000E+00
         0.00000E+00
         0.00000E+00
         0.00000E+00
         0.00000E+00
         0.00000E+00
         0.00000E+00
         0.00000E+00
         0.00000E+00
         0.00000E+00
         0.00000E+00
         0.00000E+00
         0.00000E+00
         0.00000E+00
         0.00000E+00
         0.00000E+00
         0.00000E+00
         0.00000E+00
         0.00000E+00
         0.00000E+00
         0.00000E+00
         0.00000E+00
         0.00000E+00
         0.00000E+00
         0.00000E+00
         0.00000E+00
         0.00000E+00
         0.00000E+00
         0.00000E+00
         0.00000E+00
         0.00000E+00
         0.00000E+00
         0.00000E+00
         0.00000E+00
         0.00000E+00
         0.00000E+00
         0.00000E+00
         0.00000E+00
         0.00000E+00
         0.00000E+00
         0.00000E+00
         0.00000E+00
         0.00000E+00
         0.00000E+00
         0.00000E+00
         0.00000E+00
         0.00000E+00
         0.00000E+00
         0.00000E+00
         0.00000E+00
         0.00000E+00
         0.00000E+00
         0.00000E+00
         0.00000E+00
         0.00000E+00
         0.00000E+00
         0.00000E+00
         0.00000E+00
         0.00000E+00
         0.00000E+00
         0.00000E+00
         0.00000E+00
         0.00000E+00
         0.00000E+00
         0.00000E+00
         0.00000E+00
         0.00000E+00
         0.00000E+00
         0.00000E+00
         0.00000E+00
         0.00000E+00
         0.00000E+00
         0.00000E+00
         0.00000E+00
         0.00000E+00
         0.00000E+00
         0.00000E+00
         0.00000E+00
         0.00000E+00
         0.00000E+00
         0.00000E+00
         0.00000E+00
         0.00000E+00
         0.00000E+00
         0.00000E+00
         0.00000E+00
         0.00000E+00
         0.00000E+00
         0.00000E+00
         0.00000E+00
         0.00000E+00
         0.00000E+00
         0.00000E+00
         0.00000E+00
         0.00000E+00
         0.00000E+00
         0.00000E+00
         0.00000E+00
         0.00000E+00
         0.00000E+00
         0.00000E+00
         0.00000E+00
         0.00000E+00
         0.00000E+00
         0.00000E+00
         0.00000E+00
         0.00000E+00
         0.00000E+00
         0.00000E+00
         0.00000E+00
         0.00000E+00
         0.00000E+00
         0.00000E+00
         0.00000E+00
         0.00000E+00
         0.00000E+00
         0.00000E+00
         0.00000E+00
         0.00000E+00
         0.00000E+00
         0.00000E+00
         0.00000E+00
         0.00000E+00
         0.00000E+00
         0.00000E+00
         0.00000E+00
         0.00000E+00
         0.00000E+00
         0.00000E+00
         0.00000E+00
         0.00000E+00
         0.00000E+00
         0.00000E+00
         0.00000E+00
         0.00000E+00
         0.00000E+00
         0.00000E+00
         0.00000E+00
         0.00000E+00
         0.00000E+00
         0.00000E+00
         0.00000E+00
         0.00000E+00
         0.00000E+00
         0.00000E+00
         0.00000E+00
         0.00000E+00
         0.00000E+00
         0.00000E+00
         0.00000E+00
         0.00000E+00
         0.00000E+00
         0.00000E+00
         0.00000E+00
         0.00000E+00
         0.00000E+00
         0.00000E+00
         0.00000E+00
         0.00000E+00
         0.00000E+00
         0.00000E+00
         0.00000E+00
         0.00000E+00
         0.00000E+00
         0.00000E+00
         0.00000E+00
         0.00000E+00
         0.00000E+00
         0.00000E+00
         0.00000E+00
         0.00000E+00
         0.00000E+00
         0.00000E+00
         0.00000E+00
         0.00000E+00
         0.00000E+00
         0.00000E+00
         0.00000E+00
         0.00000E+00
         0.00000E+00
         0.00000E+00
         0.00000E+00
         0.00000E+00
         0.00000E+00
         0.00000E+00
         0.00000E+00
         0.00000E+00
         0.00000E+00
         0.00000E+00
         0.00000E+00
         0.00000E+00
         0.00000E+00
         0.00000E+00
         0.00000E+00
         0.00000E+00
         0.00000E+00
         0.00000E+00
         0.00000E+00
         0.00000E+00
         0.00000E+00
         0.00000E+00
         0.00000E+00
         0.00000E+00
         0.00000E+00
         0.00000E+00
         0.00000E+00
         0.00000E+00
         0.00000E+00
         0.00000E+00
         0.00000E+00
         0.00000E+00
         0.00000E+00
         0.00000E+00
         0.00000E+00
         0.00000E+00
         0.00000E+00
         0.00000E+00
         0.00000E+00
         0.00000E+00
         0.00000E+00
         0.00000E+00
         0.00000E+00
         0.00000E+00
         0.00000E+00
         0.00000E+00
         0.00000E+00
         0.00000E+00
         0.00000E+00
         0.00000E+00
         0.00000E+00
         0.00000E+00
         0.00000E+00
         0.00000E+00
         0.00000E+00
         0.00000E+00
         0.00000E+00
         0.00000E+00
         0.00000E+00
         0.00000E+00
         0.00000E+00
         0.00000E+00
         0.00000E+00
         0.00000E+00
         0.00000E+00
         0.00000E+00
         0.00000E+00
         0.00000E+00
         0.00000E+00
         0.00000E+00
         0.00000E+00
         0.00000E+00
         0.00000E+00
         0.00000E+00
         0.00000E+00
         0.00000E+00
         0.00000E+00
         0.00000E+00
         0.00000E+00
         0.00000E+00
         0.00000E+00
         0.00000E+00
         0.00000E+00
         0.00000E+00
         0.00000E+00
         0.00000E+00
         0.00000E+00
         0.00000E+00
         0.00000E+00
         0.00000E+00
         0.00000E+00
         0.00000E+00
         0.00000E+00
         0.00000E+00
         0.00000E+00
         0.00000E+00
         0.00000E+00
         0.00000E+00
         0.00000E+00
         0.00000E+00
         0.00000E+00
         0.00000E+00
         0.00000E+00
         0.00000E+00
         0.00000E+00
         0.00000E+00
         0.00000E+00
         0.00000E+00
         0.00000E+00
         0.00000E+00
         0.00000E+00
         0.00000E+00
         0.00000E+00
         0.00000E+00
         0.00000E+00
         0.00000E+00
         0.00000E+00
         0.00000E+00
         0.00000E+00
         0.00000E+00
         0.00000E+00
         0.00000E+00
         0.00000E+00
         0.00000E+00
         0.00000E+00
         0.00000E+00
         0.00000E+00
         0.00000E+00
         0.00000E+00
         0.00000E+00
         0.00000E+00
         0.00000E+00
         0.00000E+00
         0.00000E+00
         0.00000E+00
         0.00000E+00
         0.00000E+00
         0.00000E+00
         0.00000E+00
         0.00000E+00
         0.00000E+00
         0.00000E+00
         0.00000E+00
         0.00000E+00
         0.00000E+00
         0.00000E+00
         0.00000E+00
         0.00000E+00
         0.00000E+00
         0.00000E+00
         0.00000E+00
         0.00000E+00
         0.00000E+00
         0.00000E+00
         0.00000E+00
         0.00000E+00
         0.00000E+00
         0.00000E+00
         0.00000E+00
         0.00000E+00
         0.00000E+00
         0.00000E+00
         0.00000E+00
         0.00000E+00
         0.00000E+00
         0.00000E+00
         0.00000E+00
         0.00000E+00
         0.00000E+00
         0.00000E+00
         0.00000E+00
         0.00000E+00
         0.00000E+00
         0.00000E+00
         0.00000E+00
         0.00000E+00
         0.00000E+00
         0.00000E+00
         0.00000E+00
         0.00000E+00
         0.00000E+00
         0.00000E+00
         0.00000E+00
         0.00000E+00
         0.00000E+00
         0.00000E+00
         0.00000E+00
         0.00000E+00
         0.00000E+00
         0.00000E+00
         0.00000E+00
         0.00000E+00
         0.00000E+00
         0.00000E+00
         0.00000E+00
         0.00000E+00
         0.00000E+00
         0.00000E+00
         0.00000E+00
         0.00000E+00
         0.00000E+00
         0.00000E+00
         0.00000E+00
         0.00000E+00
         0.00000E+00
         0.00000E+00
         0.00000E+00
         0.00000E+00
         0.00000E+00
         0.00000E+00
         0.00000E+00
         0.00000E+00
         0.00000E+00
         0.00000E+00
         0.00000E+00
         0.00000E+00
         0.00000E+00
         0.00000E+00
         0.00000E+00
         0.00000E+00
         0.00000E+00
         0.00000E+00
         0.00000E+00
         0.00000E+00
         0.00000E+00
         0.00000E+00
         0.00000E+00
         0.00000E+00
         0.00000E+00
         0.00000E+00
         0.00000E+00
         0.00000E+00
         0.00000E+00
         0.00000E+00
         0.00000E+00
         0.00000E+00
         0.00000E+00
         0.00000E+00
         0.00000E+00
         0.00000E+00
         0.00000E+00
         0.00000E+00
         0.00000E+00
         0.00000E+00
         0.00000E+00
         0.00000E+00
         0.00000E+00
         0.00000E+00
         0.00000E+00
         0.00000E+00
         0.00000E+00
         0.00000E+00
         0.00000E+00
         0.00000E+00
         0.00000E+00
         0.00000E+00
         0.00000E+00
         0.00000E+00
         0.00000E+00
         0.00000E+00
         0.00000E+00
         0.00000E+00
         0.00000E+00
         0.00000E+00
         0.00000E+00
         0.00000E+00
         0.00000E+00
         0.00000E+00
         0.00000E+00
         0.00000E+00
         0.00000E+00
         0.00000E+00
         0.00000E+00
         0.00000E+00
         0.00000E+00
         0.00000E+00
         0.00000E+00
         0.00000E+00
         0.00000E+00
         0.00000E+00
         0.00000E+00
         0.00000E+00
         0.00000E+00
         0.00000E+00
         0.00000E+00
         0.00000E+00
         0.00000E+00
         0.00000E+00
         0.00000E+00
         0.00000E+00
         0.00000E+00
         0.00000E+00
         0.00000E+00
         0.00000E+00
         0.00000E+00
         0.00000E+00
         0.00000E+00
         0.00000E+00
         0.00000E+00
         0.00000E+00
         0.00000E+00
         0.00000E+00
         0.00000E+00
         0.00000E+00
         0.00000E+00
         0.00000E+00
         0.00000E+00
         0.00000E+00
         0.00000E+00
         0.00000E+00
         0.00000E+00
         0.00000E+00
         0.00000E+00
         0.00000E+00
         0.00000E+00
         0.00000E+00
         0.00000E+00
         0.00000E+00
         0.00000E+00
         0.00000E+00
         0.00000E+00
         0.00000E+00
         0.00000E+00
         0.00000E+00
         0.00000E+00
         0.00000E+00
         0.00000E+00
         0.00000E+00
         0.00000E+00
         0.00000E+00
         0.00000E+00
         0.00000E+00
         0.00000E+00
         0.00000E+00
         0.00000E+00
         0.00000E+00
         0.00000E+00
         0.00000E+00
         0.00000E+00
         0.00000E+00
         0.00000E+00
         0.00000E+00
         0.00000E+00
         0.00000E+00
         0.00000E+00
         0.00000E+00
         0.00000E+00
         0.00000E+00
         0.00000E+00
         0.00000E+00
         0.00000E+00
         0.00000E+00
         0.00000E+00
         0.00000E+00
         0.00000E+00
         0.00000E+00
         0.00000E+00
         0.00000E+00
         0.00000E+00
         0.00000E+00
         0.00000E+00
         0.00000E+00
         0.00000E+00
         0.00000E+00
         0.00000E+00
         0.00000E+00
         0.00000E+00
         0.00000E+00
         0.00000E+00
         0.00000E+00
         0.00000E+00
         0.00000E+00
         0.00000E+00
         0.00000E+00
         0.00000E+00
         0.00000E+00
         0.00000E+00
         0.00000E+00
         0.00000E+00
         0.00000E+00
         0.00000E+00
         0.00000E+00
         0.00000E+00
         0.00000E+00
         0.00000E+00
         0.00000E+00
         0.00000E+00
         0.00000E+00
         0.00000E+00
         0.00000E+00
         0.00000E+00
         0.00000E+00
         0.00000E+00
         0.00000E+00
         0.00000E+00
         0.00000E+00
         0.00000E+00
         0.00000E+00
         0.00000E+00
         0.00000E+00
         0.00000E+00
         0.00000E+00
         0.00000E+00
         0.00000E+00
         0.00000E+00
         0.00000E+00
         0.00000E+00
         0.00000E+00
         0.00000E+00
         0.00000E+00
         0.00000E+00
         0.00000E+00
         0.00000E+00
         0.00000E+00
         0.00000E+00
         0.00000E+00
         0.00000E+00
         0.00000E+00
         0.00000E+00
         0.00000E+00
         0.00000E+00
         0.00000E+00
         0.00000E+00
         0.00000E+00
         0.00000E+00
         0.00000E+00
         0.00000E+00
         0.00000E+00
         0.00000E+00
         0.00000E+00
         0.00000E+00
         0.00000E+00
         0.00000E+00
         0.00000E+00
         0.00000E+00
         0.00000E+00
         0.00000E+00
         0.00000E+00
         0.00000E+00
         0.00000E+00
         0.00000E+00
         0.00000E+00
         0.00000E+00
         0.00000E+00
         0.00000E+00
         0.00000E+00
         0.00000E+00
         0.00000E+00
         0.00000E+00
         0.00000E+00
         0.00000E+00
         0.00000E+00
         0.00000E+00
         0.00000E+00
         0.00000E+00
         0.00000E+00
         0.00000E+00
         0.00000E+00
         0.00000E+00
         0.00000E+00
         0.00000E+00
         0.00000E+00
         0.00000E+00
         0.00000E+00
         0.00000E+00
         0.00000E+00
         0.00000E+00
         0.00000E+00
         0.00000E+00
         0.00000E+00
         0.00000E+00
         0.00000E+00
         0.00000E+00
         0.00000E+00
         0.00000E+00
         0.00000E+00
         0.00000E+00
         0.00000E+00
         0.00000E+00
         0.00000E+00
         0.00000E+00
         0.00000E+00
         0.00000E+00
         0.00000E+00
         0.00000E+00
         0.00000E+00
         0.00000E+00
         0.00000E+00
         0.00000E+00
         0.00000E+00
         0.00000E+00
         0.00000E+00
         0.00000E+00
         0.00000E+00
         0.00000E+00
         0.00000E+00
         0.00000E+00
         0.00000E+00
         0.00000E+00
         0.00000E+00
         0.00000E+00
         0.00000E+00
         0.00000E+00
         0.00000E+00
         0.00000E+00
         0.00000E+00
         0.00000E+00
         0.00000E+00
         0.00000E+00
         0.00000E+00
         0.00000E+00
         0.00000E+00
         0.00000E+00
         0.00000E+00
         0.00000E+00
         0.00000E+00
         0.00000E+00
         0.00000E+00
         0.00000E+00
         0.00000E+00
         0.00000E+00
         0.00000E+00
         0.00000E+00
         0.00000E+00
         0.00000E+00
         0.00000E+00
         0.00000E+00
         0.00000E+00
         0.00000E+00
         0.00000E+00
         0.00000E+00
         0.00000E+00
         0.00000E+00
         0.00000E+00
         0.00000E+00
         0.00000E+00
         0.00000E+00
         0.00000E+00
         0.00000E+00
         0.00000E+00
         0.00000E+00
         0.00000E+00
         0.00000E+00
         0.00000E+00
         0.00000E+00
         0.00000E+00
         0.00000E+00
         0.00000E+00
         0.00000E+00
         0.00000E+00
         0.00000E+00
         0.00000E+00
         0.00000E+00
         0.00000E+00
         0.00000E+00
         0.00000E+00
         0.00000E+00
         0.00000E+00
         0.00000E+00
         0.00000E+00
         0.00000E+00
         0.00000E+00
         0.00000E+00
         0.00000E+00
         0.00000E+00
         0.00000E+00
         0.00000E+00
         0.00000E+00
         0.00000E+00
         0.00000E+00
         0.00000E+00
         0.00000E+00
         0.00000E+00
         0.00000E+00
         0.00000E+00
         0.00000E+00
         0.00000E+00
         0.00000E+00
         0.00000E+00
         0.00000E+00
         0.00000E+00
         0.00000E+00
         0.00000E+00
         0.00000E+00
         0.00000E+00
         0.00000E+00
         0.00000E+00
         0.00000E+00
         0.00000E+00
         0.00000E+00
         0.00000E+00
         0.00000E+00
         0.00000E+00
         0.00000E+00
         0.00000E+00
         0.00000E+00
         0.00000E+00
         0.00000E+00
         0.00000E+00
         0.00000E+00
         0.00000E+00
         0.00000E+00
         0.00000E+00
         0.00000E+00
         0.00000E+00
         0.00000E+00
         0.00000E+00
         0.00000E+00
         0.00000E+00
         0.00000E+00
         0.00000E+00
         0.00000E+00
         0.00000E+00
         0.00000E+00
         0.00000E+00
         0.00000E+00
         0.00000E+00
         0.00000E+00
         0.00000E+00
         0.00000E+00
         0.00000E+00
         0.00000E+00
         0.00000E+00
         0.00000E+00
         0.00000E+00
         0.00000E+00
         0.00000E+00
         0.00000E+00
         0.00000E+00
         0.00000E+00
         0.00000E+00
         0.00000E+00
         0.00000E+00
         0.00000E+00
         0.00000E+00
         0.00000E+00
         0.00000E+00
         0.00000E+00
         0.00000E+00
         0.00000E+00
         0.00000E+00
         0.00000E+00
         0.00000E+00
         0.00000E+00
         0.00000E+00
         0.00000E+00
         0.00000E+00
         0.00000E+00
         0.00000E+00
         0.00000E+00
         0.00000E+00
         0.00000E+00
         0.00000E+00
         0.00000E+00
         0.00000E+00
         0.00000E+00
         0.00000E+00
         0.00000E+00
         0.00000E+00
         0.00000E+00
         0.00000E+00
         0.00000E+00
         0.00000E+00
         0.00000E+00
         0.00000E+00
         0.00000E+00
         0.00000E+00
         0.00000E+00
         0.00000E+00
         0.00000E+00
         0.00000E+00
         0.00000E+00
         0.00000E+00
         0.00000E+00
         0.00000E+00
         0.00000E+00
         0.00000E+00
         0.00000E+00
         0.00000E+00
         0.00000E+00
         0.00000E+00
         0.00000E+00
         0.00000E+00
         0.00000E+00
         0.00000E+00
         0.00000E+00
         0.00000E+00
         0.00000E+00
         0.00000E+00
         0.00000E+00
         0.00000E+00
         0.00000E+00
         0.00000E+00
         0.00000E+00
         0.00000E+00
         0.00000E+00
         0.00000E+00
         0.00000E+00
         0.00000E+00
         0.00000E+00
         0.00000E+00
         0.00000E+00
         0.00000E+00
         0.00000E+00
         0.00000E+00
         0.00000E+00
         0.00000E+00
         0.00000E+00
         0.00000E+00
         0.00000E+00
         0.00000E+00
         0.00000E+00
         0.00000E+00
         0.00000E+00
         0.00000E+00
         0.00000E+00
         0.00000E+00
         0.00000E+00
         0.00000E+00
         0.00000E+00
         0.00000E+00
         0.00000E+00
         0.00000E+00
         0.00000E+00
         0.00000E+00
         0.00000E+00
         0.00000E+00
         0.00000E+00
         0.00000E+00
         0.00000E+00
         0.00000E+00
         0.00000E+00
         0.00000E+00
         0.00000E+00
         0.00000E+00
         0.00000E+00
         0.00000E+00
         0.00000E+00
         0.00000E+00
         0.00000E+00
         0.00000E+00
         0.00000E+00
         0.00000E+00
         0.00000E+00
         0.00000E+00
         0.00000E+00
         0.00000E+00
         0.00000E+00
         0.00000E+00
         0.00000E+00
         0.00000E+00
         0.00000E+00
         0.00000E+00
         0.00000E+00
         0.00000E+00
         0.00000E+00
         0.00000E+00
         0.00000E+00
         0.00000E+00
         0.00000E+00
         0.00000E+00
         0.00000E+00
         0.00000E+00
         0.00000E+00
         0.00000E+00
         0.00000E+00
         0.00000E+00
         0.00000E+00
         0.00000E+00
         0.00000E+00
         0.00000E+00
         0.00000E+00
         0.00000E+00
         0.00000E+00
         0.00000E+00
         0.00000E+00
         0.00000E+00
         0.00000E+00
         0.00000E+00
         0.00000E+00
         0.00000E+00
         0.00000E+00
         0.00000E+00
         0.00000E+00
         0.00000E+00
         0.00000E+00
         0.00000E+00
         0.00000E+00
         0.00000E+00
         0.00000E+00
         0.00000E+00
         0.00000E+00
         0.00000E+00
         0.00000E+00
         0.00000E+00
         0.00000E+00
         0.00000E+00
         0.00000E+00
         0.00000E+00
         0.00000E+00
         0.00000E+00
         0.00000E+00
         0.00000E+00
         0.00000E+00
         0.00000E+00
         0.00000E+00
         0.00000E+00
         0.00000E+00
         0.00000E+00
         0.00000E+00
         0.00000E+00
         0.00000E+00
         0.00000E+00
         0.00000E+00
         0.00000E+00
         0.00000E+00
         0.00000E+00
         0.00000E+00
         0.00000E+00
         0.00000E+00
         0.00000E+00
         0.00000E+00
         0.00000E+00
         0.00000E+00
         0.00000E+00
         0.00000E+00
         0.00000E+00
         0.00000E+00
         0.00000E+00
         0.00000E+00
         0.00000E+00
         0.00000E+00
         0.00000E+00
         0.00000E+00
         0.00000E+00
         0.00000E+00
         0.00000E+00
         0.00000E+00
         0.00000E+00
         0.00000E+00
         0.00000E+00
         0.00000E+00
         0.00000E+00
         0.00000E+00
         0.00000E+00
         0.00000E+00
         0.00000E+00
         0.00000E+00
         0.00000E+00
         0.00000E+00
         0.00000E+00
         0.00000E+00
         0.00000E+00
         0.00000E+00
         0.00000E+00
         0.00000E+00
         0.00000E+00
         0.00000E+00
         0.00000E+00
         0.00000E+00
         0.00000E+00
         0.00000E+00
         0.00000E+00
         0.00000E+00
         0.00000E+00
         0.00000E+00
         0.00000E+00
         0.00000E+00
         0.00000E+00
         0.00000E+00
         0.00000E+00
         0.00000E+00
         0.00000E+00
         0.00000E+00
         0.00000E+00
         0.00000E+00
         0.00000E+00
         0.00000E+00
         0.00000E+00
         0.00000E+00
         0.00000E+00
         0.00000E+00
         0.00000E+00
         0.00000E+00
         0.00000E+00
         0.00000E+00
         0.00000E+00
         0.00000E+00
         0.00000E+00
         0.00000E+00
         0.00000E+00
         0.00000E+00
         0.00000E+00
         0.00000E+00
         0.00000E+00
         0.00000E+00
         0.00000E+00
         0.00000E+00
         0.00000E+00
         0.00000E+00
         0.00000E+00
         0.00000E+00
         0.00000E+00
         0.00000E+00
         0.00000E+00
         0.00000E+00
         0.00000E+00
         0.00000E+00
         0.00000E+00
         0.00000E+00
         0.00000E+00
         0.00000E+00
         0.00000E+00
         0.00000E+00
         0.00000E+00
         0.00000E+00
         0.00000E+00
         0.00000E+00
         0.00000E+00
         0.00000E+00
         0.00000E+00
         0.00000E+00
         0.00000E+00
         0.00000E+00
         0.00000E+00
         0.00000E+00
         0.00000E+00
         0.00000E+00
         0.00000E+00
         0.00000E+00
         0.00000E+00
         0.00000E+00
         0.00000E+00
         0.00000E+00
         0.00000E+00
         0.00000E+00
         0.00000E+00
         0.00000E+00
         0.00000E+00
         0.00000E+00
         0.00000E+00
         0.00000E+00
         0.00000E+00
         0.00000E+00
         0.00000E+00
         0.00000E+00
         0.00000E+00
         0.00000E+00
         0.00000E+00
         0.00000E+00
         0.00000E+00
         0.00000E+00
         0.00000E+00
         0.00000E+00
         0.00000E+00
         0.00000E+00
         0.00000E+00
         0.00000E+00
         0.00000E+00
         0.00000E+00
         0.00000E+00
         0.00000E+00
         0.00000E+00
         0.00000E+00
         0.00000E+00
         0.00000E+00
         0.00000E+00
         0.00000E+00
         0.00000E+00
         0.00000E+00
         0.00000E+00
         0.00000E+00
         0.00000E+00
         0.00000E+00
         0.00000E+00
         0.00000E+00
         0.00000E+00
         0.00000E+00
         0.00000E+00
         0.00000E+00
         0.00000E+00
         0.00000E+00
         0.00000E+00
         0.00000E+00
         0.00000E+00
         0.00000E+00
         0.00000E+00
         0.00000E+00
         0.00000E+00
         0.00000E+00
         0.00000E+00
         0.00000E+00
         0.00000E+00
         0.00000E+00
         0.00000E+00
         0.00000E+00
         0.00000E+00
         0.00000E+00
         0.00000E+00
         0.00000E+00
         0.00000E+00
         0.00000E+00
         0.00000E+00
         0.00000E+00
         0.00000E+00
         0.00000E+00
         0.00000E+00
         0.00000E+00
         0.00000E+00
         0.00000E+00
         0.00000E+00
         0.00000E+00
         0.00000E+00
         0.00000E+00
         0.00000E+00
         0.00000E+00
         0.00000E+00
         0.00000E+00
         0.00000E+00
         0.00000E+00
         0.00000E+00
         0.00000E+00
         0.00000E+00
         0.00000E+00
         0.00000E+00
         0.00000E+00
         0.00000E+00
         0.00000E+00
         0.00000E+00
         0.00000E+00
         0.00000E+00
         0.00000E+00
         0.00000E+00
         0.00000E+00
         0.00000E+00
         0.00000E+00
         0.00000E+00
         0.00000E+00
         0.00000E+00
         0.00000E+00
         0.00000E+00
         0.00000E+00
         0.00000E+00
         0.00000E+00
         0.00000E+00
         0.00000E+00
         0.00000E+00
         0.00000E+00
         0.00000E+00
         0.00000E+00
         0.00000E+00
         0.00000E+00
         0.00000E+00
         0.00000E+00
         0.00000E+00
         0.00000E+00
         0.00000E+00
         0.00000E+00
         0.00000E+00
         0.00000E+00
         0.00000E+00
         0.00000E+00
         0.00000E+00
         0.00000E+00
         0.00000E+00
         0.00000E+00
         0.00000E+00
         0.00000E+00
         0.00000E+00
         0.00000E+00
         0.00000E+00
         0.00000E+00
         0.00000E+00
         0.00000E+00
         0.00000E+00
         0.00000E+00
         0.00000E+00
         0.00000E+00
         0.00000E+00
         0.00000E+00
         0.00000E+00
         0.00000E+00
         0.00000E+00
         0.00000E+00
         0.00000E+00
         0.00000E+00
         0.00000E+00
         0.00000E+00
         0.00000E+00
         0.00000E+00
         0.00000E+00
         0.00000E+00
         0.00000E+00
         0.00000E+00
         0.00000E+00
         0.00000E+00
         0.00000E+00
         0.00000E+00
         0.00000E+00
         0.00000E+00
         0.00000E+00
         0.00000E+00
         0.00000E+00
         0.00000E+00
         0.00000E+00
         0.00000E+00
         0.00000E+00
         0.00000E+00
         0.00000E+00
         0.00000E+00
         0.00000E+00
         0.00000E+00
         0.00000E+00
         0.00000E+00
         0.00000E+00
         0.00000E+00
         0.00000E+00
         0.00000E+00
         0.00000E+00
         0.00000E+00
         0.00000E+00
         0.00000E+00
         0.00000E+00
         0.00000E+00
         0.00000E+00
         0.00000E+00
         0.00000E+00
         0.00000E+00
         0.00000E+00
         0.00000E+00
         0.00000E+00
         0.00000E+00
         0.00000E+00
         0.00000E+00
         0.00000E+00
         0.00000E+00
         0.00000E+00
         0.00000E+00
         0.00000E+00
         0.00000E+00
         0.00000E+00
         0.00000E+00
         0.00000E+00
         0.00000E+00
         0.00000E+00
         0.00000E+00
         0.00000E+00
         0.00000E+00
         0.00000E+00
         0.00000E+00
         0.00000E+00
         0.00000E+00
         0.00000E+00
         0.00000E+00
         0.00000E+00
         0.00000E+00
         0.00000E+00
         0.00000E+00
         0.00000E+00
         0.00000E+00
         0.00000E+00
         0.00000E+00
         0.00000E+00
         0.00000E+00
         0.00000E+00
         0.00000E+00
         0.00000E+00
         0.00000E+00
         0.00000E+00
         0.00000E+00
         0.00000E+00
         0.00000E+00
         0.00000E+00
         0.00000E+00
         0.00000E+00
         0.00000E+00
         0.00000E+00
         0.00000E+00
         0.00000E+00
         0.00000E+00
         0.00000E+00
         0.00000E+00
         0.00000E+00
         0.00000E+00
         0.00000E+00
         0.00000E+00
         0.00000E+00
         0.00000E+00
         0.00000E+00
         0.00000E+00
         0.00000E+00
         0.00000E+00
         0.00000E+00
         0.00000E+00
         0.00000E+00
         0.00000E+00
         0.00000E+00
         0.00000E+00
         0.00000E+00
         0.00000E+00
         0.00000E+00
         0.00000E+00
         0.00000E+00
         0.00000E+00
         0.00000E+00
         0.00000E+00
         0.00000E+00
         0.00000E+00
         0.00000E+00
         0.00000E+00
         0.00000E+00
         0.00000E+00
         0.00000E+00
         0.00000E+00
         0.00000E+00
         0.00000E+00
         0.00000E+00
         0.00000E+00
         0.00000E+00
         0.00000E+00
         0.00000E+00
         0.00000E+00
         0.00000E+00
         0.00000E+00
         0.00000E+00
         0.00000E+00
         0.00000E+00
         0.00000E+00
         0.00000E+00
         0.00000E+00
         0.00000E+00
         0.00000E+00
         0.00000E+00
         0.00000E+00
         0.00000E+00
         0.00000E+00
         0.00000E+00
         0.00000E+00
         0.00000E+00
         0.00000E+00
         0.00000E+00
         0.00000E+00
         0.00000E+00
         0.00000E+00
         0.00000E+00
         0.00000E+00
         0.00000E+00
         0.00000E+00
         0.00000E+00
         0.00000E+00
         0.00000E+00
         0.00000E+00
         0.00000E+00
         0.00000E+00
         0.00000E+00
         0.00000E+00
         0.00000E+00
         0.00000E+00
         0.00000E+00
         0.00000E+00
         0.00000E+00
         0.00000E+00
         0.00000E+00
         0.00000E+00
         0.00000E+00
         0.00000E+00
         0.00000E+00
         0.00000E+00
         0.00000E+00
         0.00000E+00
         0.00000E+00
         0.00000E+00
         0.00000E+00
         0.00000E+00
         0.00000E+00
         0.00000E+00
         0.00000E+00
         0.00000E+00
         0.00000E+00
         0.00000E+00
         0.00000E+00
         0.00000E+00
         0.00000E+00
         0.00000E+00
         0.00000E+00
         0.00000E+00
         0.00000E+00
         0.00000E+00
         0.00000E+00
         0.00000E+00
         0.00000E+00
         0.00000E+00
         0.00000E+00
         0.00000E+00
         0.00000E+00
         0.00000E+00
         0.00000E+00
         0.00000E+00
         0.00000E+00
         0.00000E+00
         0.00000E+00
         0.00000E+00
         0.00000E+00
         0.00000E+00
         0.00000E+00
         0.00000E+00
         0.00000E+00
         0.00000E+00
         0.00000E+00
         0.00000E+00
         0.00000E+00
         0.00000E+00
         0.00000E+00
         0.00000E+00
         0.00000E+00
         0.00000E+00
         0.00000E+00
         0.00000E+00
         0.00000E+00
         0.00000E+00
         0.00000E+00
         0.00000E+00
         0.00000E+00
         0.00000E+00
         0.00000E+00
         0.00000E+00
         0.00000E+00
         0.00000E+00
         0.00000E+00
         0.00000E+00
         0.00000E+00
         0.00000E+00
         0.00000E+00
         0.00000E+00
         0.00000E+00
         0.00000E+00
         0.00000E+00
         0.00000E+00
         0.00000E+00
         0.00000E+00
         0.00000E+00
         0.00000E+00
         0.00000E+00
         0.00000E+00
         0.00000E+00
         0.00000E+00
         0.00000E+00
         0.00000E+00
         0.00000E+00
         0.00000E+00
         0.00000E+00
         0.00000E+00
         0.00000E+00
         0.00000E+00
         0.00000E+00
         0.00000E+00
         0.00000E+00
         0.00000E+00
         0.00000E+00
         0.00000E+00
         0.00000E+00
         0.00000E+00
         0.00000E+00
         0.00000E+00
         0.00000E+00
         0.00000E+00
         0.00000E+00
         0.00000E+00
         0.00000E+00
         0.00000E+00
         0.00000E+00
         0.00000E+00
         0.00000E+00
         0.00000E+00
         0.00000E+00
         0.00000E+00
         0.00000E+00
         0.00000E+00
         0.00000E+00
         0.00000E+00
         0.00000E+00
         0.00000E+00
         0.00000E+00
         0.00000E+00
         0.00000E+00
         0.00000E+00
         0.00000E+00
         0.00000E+00
         0.00000E+00
         0.00000E+00
         0.00000E+00
         0.00000E+00
         0.00000E+00
         0.00000E+00
         0.00000E+00
         0.00000E+00
         0.00000E+00
         0.00000E+00
         0.00000E+00
         0.00000E+00
         0.00000E+00
         0.00000E+00
         0.00000E+00
         0.00000E+00
         0.00000E+00
         0.00000E+00
         0.00000E+00
         0.00000E+00
         0.00000E+00
         0.00000E+00
         0.00000E+00
         0.00000E+00
         0.00000E+00
         0.00000E+00
         0.00000E+00
         0.00000E+00
         0.00000E+00
         0.00000E+00
         0.00000E+00
         0.00000E+00
         0.00000E+00
         0.00000E+00
         0.00000E+00
         0.00000E+00
         0.00000E+00
         0.00000E+00
         0.00000E+00
         0.00000E+00
         0.00000E+00
         0.00000E+00
         0.00000E+00
         0.00000E+00
         0.00000E+00
         0.00000E+00
         0.00000E+00
         0.00000E+00
         0.00000E+00
         0.00000E+00
         0.00000E+00
         0.00000E+00
         0.00000E+00
         0.00000E+00
         0.00000E+00
         0.00000E+00
         0.00000E+00
         0.00000E+00
         0.00000E+00
         0.00000E+00
         0.00000E+00
         0.00000E+00
         0.00000E+00
         0.00000E+00
         0.00000E+00
         0.00000E+00
         0.00000E+00
         0.00000E+00
         0.00000E+00
         0.00000E+00
         0.00000E+00
         0.00000E+00
         0.00000E+00
         0.00000E+00
         0.00000E+00
         0.00000E+00
         0.00000E+00
         0.00000E+00
         0.00000E+00
         0.00000E+00
         0.00000E+00
         0.00000E+00
         0.00000E+00
         0.00000E+00
         0.00000E+00
         0.00000E+00
         0.00000E+00
         0.00000E+00
         0.00000E+00
         0.00000E+00
         0.00000E+00
         0.00000E+00
         0.00000E+00
         0.00000E+00
         0.00000E+00
         0.00000E+00
         0.00000E+00
         0.00000E+00
         0.00000E+00
         0.00000E+00
         0.00000E+00
         0.00000E+00
         0.00000E+00
         0.00000E+00
         0.00000E+00
         0.00000E+00
         0.00000E+00
         0.00000E+00
         0.00000E+00
         0.00000E+00
         0.00000E+00
         0.00000E+00
         0.00000E+00
         0.00000E+00
         0.00000E+00
         0.00000E+00
         0.00000E+00
         0.00000E+00
         0.00000E+00
         0.00000E+00
         0.00000E+00
         0.00000E+00
         0.00000E+00
         0.00000E+00
         0.00000E+00
         0.00000E+00
         0.00000E+00
         0.00000E+00
         0.00000E+00
         0.00000E+00
         0.00000E+00
         0.00000E+00
         0.00000E+00
         0.00000E+00
         0.00000E+00
         0.00000E+00
         0.00000E+00
         0.00000E+00
         0.00000E+00
         0.00000E+00
         0.00000E+00
         0.00000E+00
         0.00000E+00
         0.00000E+00
         0.00000E+00
         0.00000E+00
         0.00000E+00
         0.00000E+00
         0.00000E+00
         0.00000E+00
         0.00000E+00
         0.00000E+00
         0.00000E+00
         0.00000E+00
         0.00000E+00
         0.00000E+00
         0.00000E+00
         0.00000E+00
         0.00000E+00
         0.00000E+00
         0.00000E+00
         0.00000E+00
         0.00000E+00
         0.00000E+00
         0.00000E+00
         0.00000E+00
         0.00000E+00
         0.00000E+00
         0.00000E+00
         0.00000E+00
         0.00000E+00
         0.00000E+00
         0.00000E+00
         0.00000E+00
         0.00000E+00
         0.00000E+00
         0.00000E+00
         0.00000E+00
         0.00000E+00
  
SCALARS                         fint_y  double 1
LOOKUP_TABLE default
         0.00000E+00
         0.00000E+00
         0.00000E+00
         0.00000E+00
         0.00000E+00
         0.00000E+00
         0.00000E+00
         0.00000E+00
         0.00000E+00
         0.00000E+00
         0.00000E+00
         0.00000E+00
         0.00000E+00
         0.00000E+00
         0.00000E+00
         0.00000E+00
         0.00000E+00
         0.00000E+00
         0.00000E+00
         0.00000E+00
         0.00000E+00
         0.00000E+00
         0.00000E+00
         0.00000E+00
         0.00000E+00
         0.00000E+00
         0.00000E+00
         0.00000E+00
         0.00000E+00
         0.00000E+00
         0.00000E+00
         0.00000E+00
         0.00000E+00
         0.00000E+00
         0.00000E+00
         0.00000E+00
         0.00000E+00
         0.00000E+00
         0.00000E+00
         0.00000E+00
         0.00000E+00
         0.00000E+00
         0.00000E+00
         0.00000E+00
         0.00000E+00
         0.00000E+00
         0.00000E+00
         0.00000E+00
         0.00000E+00
         0.00000E+00
         0.00000E+00
         0.00000E+00
         0.00000E+00
         0.00000E+00
         0.00000E+00
         0.00000E+00
         0.00000E+00
         0.00000E+00
         0.00000E+00
         0.00000E+00
         0.00000E+00
         0.00000E+00
         0.00000E+00
         0.00000E+00
         0.00000E+00
         0.00000E+00
         0.00000E+00
         0.00000E+00
         0.00000E+00
         0.00000E+00
         0.00000E+00
         0.00000E+00
         0.00000E+00
         0.00000E+00
         0.00000E+00
         0.00000E+00
         0.00000E+00
         0.00000E+00
         0.00000E+00
         0.00000E+00
         0.00000E+00
         0.00000E+00
         0.00000E+00
         0.00000E+00
         0.00000E+00
         0.00000E+00
         0.00000E+00
         0.00000E+00
         0.00000E+00
         0.00000E+00
         0.00000E+00
         0.00000E+00
         0.00000E+00
         0.00000E+00
         0.00000E+00
         0.00000E+00
         0.00000E+00
         0.00000E+00
         0.00000E+00
         0.00000E+00
         0.00000E+00
         0.00000E+00
         0.00000E+00
         0.00000E+00
         0.00000E+00
         0.00000E+00
         0.00000E+00
         0.00000E+00
         0.00000E+00
         0.00000E+00
         0.00000E+00
         0.00000E+00
         0.00000E+00
         0.00000E+00
         0.00000E+00
         0.00000E+00
         0.00000E+00
         0.00000E+00
         0.00000E+00
         0.00000E+00
         0.00000E+00
         0.00000E+00
         0.00000E+00
         0.00000E+00
         0.00000E+00
         0.00000E+00
         0.00000E+00
         0.00000E+00
         0.00000E+00
         0.00000E+00
         0.00000E+00
         0.00000E+00
         0.00000E+00
         0.00000E+00
         0.00000E+00
         0.00000E+00
         0.00000E+00
         0.00000E+00
         0.00000E+00
         0.00000E+00
         0.00000E+00
         0.00000E+00
         0.00000E+00
         0.00000E+00
         0.00000E+00
         0.00000E+00
         0.00000E+00
         0.00000E+00
         0.00000E+00
         0.00000E+00
         0.00000E+00
         0.00000E+00
         0.00000E+00
         0.00000E+00
         0.00000E+00
         0.00000E+00
         0.00000E+00
         0.00000E+00
         0.00000E+00
         0.00000E+00
         0.00000E+00
         0.00000E+00
         0.00000E+00
         0.00000E+00
         0.00000E+00
         0.00000E+00
         0.00000E+00
         0.00000E+00
         0.00000E+00
         0.00000E+00
         0.00000E+00
         0.00000E+00
         0.00000E+00
         0.00000E+00
         0.00000E+00
         0.00000E+00
         0.00000E+00
         0.00000E+00
         0.00000E+00
         0.00000E+00
         0.00000E+00
         0.00000E+00
         0.00000E+00
         0.00000E+00
         0.00000E+00
         0.00000E+00
         0.00000E+00
         0.00000E+00
         0.00000E+00
         0.00000E+00
         0.00000E+00
         0.00000E+00
         0.00000E+00
         0.00000E+00
         0.00000E+00
         0.00000E+00
         0.00000E+00
         0.00000E+00
         0.00000E+00
         0.00000E+00
         0.00000E+00
         0.00000E+00
         0.00000E+00
         0.00000E+00
         0.00000E+00
         0.00000E+00
         0.00000E+00
         0.00000E+00
         0.00000E+00
         0.00000E+00
         0.00000E+00
         0.00000E+00
         0.00000E+00
         0.00000E+00
         0.00000E+00
         0.00000E+00
         0.00000E+00
         0.00000E+00
         0.00000E+00
         0.00000E+00
         0.00000E+00
         0.00000E+00
         0.00000E+00
         0.00000E+00
         0.00000E+00
         0.00000E+00
         0.00000E+00
         0.00000E+00
         0.00000E+00
         0.00000E+00
         0.00000E+00
         0.00000E+00
         0.00000E+00
         0.00000E+00
         0.00000E+00
         0.00000E+00
         0.00000E+00
         0.00000E+00
         0.00000E+00
         0.00000E+00
         0.00000E+00
         0.00000E+00
         0.00000E+00
         0.00000E+00
         0.00000E+00
         0.00000E+00
         0.00000E+00
         0.00000E+00
         0.00000E+00
         0.00000E+00
         0.00000E+00
         0.00000E+00
         0.00000E+00
         0.00000E+00
         0.00000E+00
         0.00000E+00
         0.00000E+00
         0.00000E+00
         0.00000E+00
         0.00000E+00
         0.00000E+00
         0.00000E+00
         0.00000E+00
         0.00000E+00
         0.00000E+00
         0.00000E+00
         0.00000E+00
         0.00000E+00
         0.00000E+00
         0.00000E+00
         0.00000E+00
         0.00000E+00
         0.00000E+00
         0.00000E+00
         0.00000E+00
         0.00000E+00
         0.00000E+00
         0.00000E+00
         0.00000E+00
         0.00000E+00
         0.00000E+00
         0.00000E+00
         0.00000E+00
         0.00000E+00
         0.00000E+00
         0.00000E+00
         0.00000E+00
         0.00000E+00
         0.00000E+00
         0.00000E+00
         0.00000E+00
         0.00000E+00
         0.00000E+00
         0.00000E+00
         0.00000E+00
         0.00000E+00
         0.00000E+00
         0.00000E+00
         0.00000E+00
         0.00000E+00
         0.00000E+00
         0.00000E+00
         0.00000E+00
         0.00000E+00
         0.00000E+00
         0.00000E+00
         0.00000E+00
         0.00000E+00
         0.00000E+00
         0.00000E+00
         0.00000E+00
         0.00000E+00
         0.00000E+00
         0.00000E+00
         0.00000E+00
         0.00000E+00
         0.00000E+00
         0.00000E+00
         0.00000E+00
         0.00000E+00
         0.00000E+00
         0.00000E+00
         0.00000E+00
         0.00000E+00
         0.00000E+00
         0.00000E+00
         0.00000E+00
         0.00000E+00
         0.00000E+00
         0.00000E+00
         0.00000E+00
         0.00000E+00
         0.00000E+00
         0.00000E+00
         0.00000E+00
         0.00000E+00
         0.00000E+00
         0.00000E+00
         0.00000E+00
         0.00000E+00
         0.00000E+00
         0.00000E+00
         0.00000E+00
         0.00000E+00
         0.00000E+00
         0.00000E+00
         0.00000E+00
         0.00000E+00
         0.00000E+00
         0.00000E+00
         0.00000E+00
         0.00000E+00
         0.00000E+00
         0.00000E+00
         0.00000E+00
         0.00000E+00
         0.00000E+00
         0.00000E+00
         0.00000E+00
         0.00000E+00
         0.00000E+00
         0.00000E+00
         0.00000E+00
         0.00000E+00
         0.00000E+00
         0.00000E+00
         0.00000E+00
         0.00000E+00
         0.00000E+00
         0.00000E+00
         0.00000E+00
         0.00000E+00
         0.00000E+00
         0.00000E+00
         0.00000E+00
         0.00000E+00
         0.00000E+00
         0.00000E+00
         0.00000E+00
         0.00000E+00
         0.00000E+00
         0.00000E+00
         0.00000E+00
         0.00000E+00
         0.00000E+00
         0.00000E+00
         0.00000E+00
         0.00000E+00
         0.00000E+00
         0.00000E+00
         0.00000E+00
         0.00000E+00
         0.00000E+00
         0.00000E+00
         0.00000E+00
         0.00000E+00
         0.00000E+00
         0.00000E+00
         0.00000E+00
         0.00000E+00
         0.00000E+00
         0.00000E+00
         0.00000E+00
         0.00000E+00
         0.00000E+00
         0.00000E+00
         0.00000E+00
         0.00000E+00
         0.00000E+00
         0.00000E+00
         0.00000E+00
         0.00000E+00
         0.00000E+00
         0.00000E+00
         0.00000E+00
         0.00000E+00
         0.00000E+00
         0.00000E+00
         0.00000E+00
         0.00000E+00
         0.00000E+00
         0.00000E+00
         0.00000E+00
         0.00000E+00
         0.00000E+00
         0.00000E+00
         0.00000E+00
         0.00000E+00
         0.00000E+00
         0.00000E+00
         0.00000E+00
         0.00000E+00
         0.00000E+00
         0.00000E+00
         0.00000E+00
         0.00000E+00
         0.00000E+00
         0.00000E+00
         0.00000E+00
         0.00000E+00
         0.00000E+00
         0.00000E+00
         0.00000E+00
         0.00000E+00
         0.00000E+00
         0.00000E+00
         0.00000E+00
         0.00000E+00
         0.00000E+00
         0.00000E+00
         0.00000E+00
         0.00000E+00
         0.00000E+00
         0.00000E+00
         0.00000E+00
         0.00000E+00
         0.00000E+00
         0.00000E+00
         0.00000E+00
         0.00000E+00
         0.00000E+00
         0.00000E+00
         0.00000E+00
         0.00000E+00
         0.00000E+00
         0.00000E+00
         0.00000E+00
         0.00000E+00
         0.00000E+00
         0.00000E+00
         0.00000E+00
         0.00000E+00
         0.00000E+00
         0.00000E+00
         0.00000E+00
         0.00000E+00
         0.00000E+00
         0.00000E+00
         0.00000E+00
         0.00000E+00
         0.00000E+00
         0.00000E+00
         0.00000E+00
         0.00000E+00
         0.00000E+00
         0.00000E+00
         0.00000E+00
         0.00000E+00
         0.00000E+00
         0.00000E+00
         0.00000E+00
         0.00000E+00
         0.00000E+00
         0.00000E+00
         0.00000E+00
         0.00000E+00
         0.00000E+00
         0.00000E+00
         0.00000E+00
         0.00000E+00
         0.00000E+00
         0.00000E+00
         0.00000E+00
         0.00000E+00
         0.00000E+00
         0.00000E+00
         0.00000E+00
         0.00000E+00
         0.00000E+00
         0.00000E+00
         0.00000E+00
         0.00000E+00
         0.00000E+00
         0.00000E+00
         0.00000E+00
         0.00000E+00
         0.00000E+00
         0.00000E+00
         0.00000E+00
         0.00000E+00
         0.00000E+00
         0.00000E+00
         0.00000E+00
         0.00000E+00
         0.00000E+00
         0.00000E+00
         0.00000E+00
         0.00000E+00
         0.00000E+00
         0.00000E+00
         0.00000E+00
         0.00000E+00
         0.00000E+00
         0.00000E+00
         0.00000E+00
         0.00000E+00
         0.00000E+00
         0.00000E+00
         0.00000E+00
         0.00000E+00
         0.00000E+00
         0.00000E+00
         0.00000E+00
         0.00000E+00
         0.00000E+00
         0.00000E+00
         0.00000E+00
         0.00000E+00
         0.00000E+00
         0.00000E+00
         0.00000E+00
         0.00000E+00
         0.00000E+00
         0.00000E+00
         0.00000E+00
         0.00000E+00
         0.00000E+00
         0.00000E+00
         0.00000E+00
         0.00000E+00
         0.00000E+00
         0.00000E+00
         0.00000E+00
         0.00000E+00
         0.00000E+00
         0.00000E+00
         0.00000E+00
         0.00000E+00
         0.00000E+00
         0.00000E+00
         0.00000E+00
         0.00000E+00
         0.00000E+00
         0.00000E+00
         0.00000E+00
         0.00000E+00
         0.00000E+00
         0.00000E+00
         0.00000E+00
         0.00000E+00
         0.00000E+00
         0.00000E+00
         0.00000E+00
         0.00000E+00
         0.00000E+00
         0.00000E+00
         0.00000E+00
         0.00000E+00
         0.00000E+00
         0.00000E+00
         0.00000E+00
         0.00000E+00
         0.00000E+00
         0.00000E+00
         0.00000E+00
         0.00000E+00
         0.00000E+00
         0.00000E+00
         0.00000E+00
         0.00000E+00
         0.00000E+00
         0.00000E+00
         0.00000E+00
         0.00000E+00
         0.00000E+00
         0.00000E+00
         0.00000E+00
         0.00000E+00
         0.00000E+00
         0.00000E+00
         0.00000E+00
         0.00000E+00
         0.00000E+00
         0.00000E+00
         0.00000E+00
         0.00000E+00
         0.00000E+00
         0.00000E+00
         0.00000E+00
         0.00000E+00
         0.00000E+00
         0.00000E+00
         0.00000E+00
         0.00000E+00
         0.00000E+00
         0.00000E+00
         0.00000E+00
         0.00000E+00
         0.00000E+00
         0.00000E+00
         0.00000E+00
         0.00000E+00
         0.00000E+00
         0.00000E+00
         0.00000E+00
         0.00000E+00
         0.00000E+00
         0.00000E+00
         0.00000E+00
         0.00000E+00
         0.00000E+00
         0.00000E+00
         0.00000E+00
         0.00000E+00
         0.00000E+00
         0.00000E+00
         0.00000E+00
         0.00000E+00
         0.00000E+00
         0.00000E+00
         0.00000E+00
         0.00000E+00
         0.00000E+00
         0.00000E+00
         0.00000E+00
         0.00000E+00
         0.00000E+00
         0.00000E+00
         0.00000E+00
         0.00000E+00
         0.00000E+00
         0.00000E+00
         0.00000E+00
         0.00000E+00
         0.00000E+00
         0.00000E+00
         0.00000E+00
         0.00000E+00
         0.00000E+00
         0.00000E+00
         0.00000E+00
         0.00000E+00
         0.00000E+00
         0.00000E+00
         0.00000E+00
         0.00000E+00
         0.00000E+00
         0.00000E+00
         0.00000E+00
         0.00000E+00
         0.00000E+00
         0.00000E+00
         0.00000E+00
         0.00000E+00
         0.00000E+00
         0.00000E+00
         0.00000E+00
         0.00000E+00
         0.00000E+00
         0.00000E+00
         0.00000E+00
         0.00000E+00
         0.00000E+00
         0.00000E+00
         0.00000E+00
         0.00000E+00
         0.00000E+00
         0.00000E+00
         0.00000E+00
         0.00000E+00
         0.00000E+00
         0.00000E+00
         0.00000E+00
         0.00000E+00
         0.00000E+00
         0.00000E+00
         0.00000E+00
         0.00000E+00
         0.00000E+00
         0.00000E+00
         0.00000E+00
         0.00000E+00
         0.00000E+00
         0.00000E+00
         0.00000E+00
         0.00000E+00
         0.00000E+00
         0.00000E+00
         0.00000E+00
         0.00000E+00
         0.00000E+00
         0.00000E+00
         0.00000E+00
         0.00000E+00
         0.00000E+00
         0.00000E+00
         0.00000E+00
         0.00000E+00
         0.00000E+00
         0.00000E+00
         0.00000E+00
         0.00000E+00
         0.00000E+00
         0.00000E+00
         0.00000E+00
         0.00000E+00
         0.00000E+00
         0.00000E+00
         0.00000E+00
         0.00000E+00
         0.00000E+00
         0.00000E+00
         0.00000E+00
         0.00000E+00
         0.00000E+00
         0.00000E+00
         0.00000E+00
         0.00000E+00
         0.00000E+00
         0.00000E+00
         0.00000E+00
         0.00000E+00
         0.00000E+00
         0.00000E+00
         0.00000E+00
         0.00000E+00
         0.00000E+00
         0.00000E+00
         0.00000E+00
         0.00000E+00
         0.00000E+00
         0.00000E+00
         0.00000E+00
         0.00000E+00
         0.00000E+00
         0.00000E+00
         0.00000E+00
         0.00000E+00
         0.00000E+00
         0.00000E+00
         0.00000E+00
         0.00000E+00
         0.00000E+00
         0.00000E+00
         0.00000E+00
         0.00000E+00
         0.00000E+00
         0.00000E+00
         0.00000E+00
         0.00000E+00
         0.00000E+00
         0.00000E+00
         0.00000E+00
         0.00000E+00
         0.00000E+00
         0.00000E+00
         0.00000E+00
         0.00000E+00
         0.00000E+00
         0.00000E+00
         0.00000E+00
         0.00000E+00
         0.00000E+00
         0.00000E+00
         0.00000E+00
         0.00000E+00
         0.00000E+00
         0.00000E+00
         0.00000E+00
         0.00000E+00
         0.00000E+00
         0.00000E+00
         0.00000E+00
         0.00000E+00
         0.00000E+00
         0.00000E+00
         0.00000E+00
         0.00000E+00
         0.00000E+00
         0.00000E+00
         0.00000E+00
         0.00000E+00
         0.00000E+00
         0.00000E+00
         0.00000E+00
         0.00000E+00
         0.00000E+00
         0.00000E+00
         0.00000E+00
         0.00000E+00
         0.00000E+00
         0.00000E+00
         0.00000E+00
         0.00000E+00
         0.00000E+00
         0.00000E+00
         0.00000E+00
         0.00000E+00
         0.00000E+00
         0.00000E+00
         0.00000E+00
         0.00000E+00
         0.00000E+00
         0.00000E+00
         0.00000E+00
         0.00000E+00
         0.00000E+00
         0.00000E+00
         0.00000E+00
         0.00000E+00
         0.00000E+00
         0.00000E+00
         0.00000E+00
         0.00000E+00
         0.00000E+00
         0.00000E+00
         0.00000E+00
         0.00000E+00
         0.00000E+00
         0.00000E+00
         0.00000E+00
         0.00000E+00
         0.00000E+00
         0.00000E+00
         0.00000E+00
         0.00000E+00
         0.00000E+00
         0.00000E+00
         0.00000E+00
         0.00000E+00
         0.00000E+00
         0.00000E+00
         0.00000E+00
         0.00000E+00
         0.00000E+00
         0.00000E+00
         0.00000E+00
         0.00000E+00
         0.00000E+00
         0.00000E+00
         0.00000E+00
         0.00000E+00
         0.00000E+00
         0.00000E+00
         0.00000E+00
         0.00000E+00
         0.00000E+00
         0.00000E+00
         0.00000E+00
         0.00000E+00
         0.00000E+00
         0.00000E+00
         0.00000E+00
         0.00000E+00
         0.00000E+00
         0.00000E+00
         0.00000E+00
         0.00000E+00
         0.00000E+00
         0.00000E+00
         0.00000E+00
         0.00000E+00
         0.00000E+00
         0.00000E+00
         0.00000E+00
         0.00000E+00
         0.00000E+00
         0.00000E+00
         0.00000E+00
         0.00000E+00
         0.00000E+00
         0.00000E+00
         0.00000E+00
         0.00000E+00
         0.00000E+00
         0.00000E+00
         0.00000E+00
         0.00000E+00
         0.00000E+00
         0.00000E+00
         0.00000E+00
         0.00000E+00
         0.00000E+00
         0.00000E+00
         0.00000E+00
         0.00000E+00
         0.00000E+00
         0.00000E+00
         0.00000E+00
         0.00000E+00
         0.00000E+00
         0.00000E+00
         0.00000E+00
         0.00000E+00
         0.00000E+00
         0.00000E+00
         0.00000E+00
         0.00000E+00
         0.00000E+00
         0.00000E+00
         0.00000E+00
         0.00000E+00
         0.00000E+00
         0.00000E+00
         0.00000E+00
         0.00000E+00
         0.00000E+00
         0.00000E+00
         0.00000E+00
         0.00000E+00
         0.00000E+00
         0.00000E+00
         0.00000E+00
         0.00000E+00
         0.00000E+00
         0.00000E+00
         0.00000E+00
         0.00000E+00
         0.00000E+00
         0.00000E+00
         0.00000E+00
         0.00000E+00
         0.00000E+00
         0.00000E+00
         0.00000E+00
         0.00000E+00
         0.00000E+00
         0.00000E+00
         0.00000E+00
         0.00000E+00
         0.00000E+00
         0.00000E+00
         0.00000E+00
         0.00000E+00
         0.00000E+00
         0.00000E+00
         0.00000E+00
         0.00000E+00
         0.00000E+00
         0.00000E+00
         0.00000E+00
         0.00000E+00
         0.00000E+00
         0.00000E+00
         0.00000E+00
         0.00000E+00
         0.00000E+00
         0.00000E+00
         0.00000E+00
         0.00000E+00
         0.00000E+00
         0.00000E+00
         0.00000E+00
         0.00000E+00
         0.00000E+00
         0.00000E+00
         0.00000E+00
         0.00000E+00
         0.00000E+00
         0.00000E+00
         0.00000E+00
         0.00000E+00
         0.00000E+00
         0.00000E+00
         0.00000E+00
         0.00000E+00
         0.00000E+00
         0.00000E+00
         0.00000E+00
         0.00000E+00
         0.00000E+00
         0.00000E+00
         0.00000E+00
         0.00000E+00
         0.00000E+00
         0.00000E+00
         0.00000E+00
         0.00000E+00
         0.00000E+00
         0.00000E+00
         0.00000E+00
         0.00000E+00
         0.00000E+00
         0.00000E+00
         0.00000E+00
         0.00000E+00
         0.00000E+00
         0.00000E+00
         0.00000E+00
         0.00000E+00
         0.00000E+00
         0.00000E+00
         0.00000E+00
         0.00000E+00
         0.00000E+00
         0.00000E+00
         0.00000E+00
         0.00000E+00
         0.00000E+00
         0.00000E+00
         0.00000E+00
         0.00000E+00
         0.00000E+00
         0.00000E+00
         0.00000E+00
         0.00000E+00
         0.00000E+00
         0.00000E+00
         0.00000E+00
         0.00000E+00
         0.00000E+00
         0.00000E+00
         0.00000E+00
         0.00000E+00
         0.00000E+00
         0.00000E+00
         0.00000E+00
         0.00000E+00
         0.00000E+00
         0.00000E+00
         0.00000E+00
         0.00000E+00
         0.00000E+00
         0.00000E+00
         0.00000E+00
         0.00000E+00
         0.00000E+00
         0.00000E+00
         0.00000E+00
         0.00000E+00
         0.00000E+00
         0.00000E+00
         0.00000E+00
         0.00000E+00
         0.00000E+00
         0.00000E+00
         0.00000E+00
         0.00000E+00
         0.00000E+00
         0.00000E+00
         0.00000E+00
         0.00000E+00
         0.00000E+00
         0.00000E+00
         0.00000E+00
         0.00000E+00
         0.00000E+00
         0.00000E+00
         0.00000E+00
         0.00000E+00
         0.00000E+00
         0.00000E+00
         0.00000E+00
         0.00000E+00
         0.00000E+00
         0.00000E+00
         0.00000E+00
         0.00000E+00
         0.00000E+00
         0.00000E+00
         0.00000E+00
         0.00000E+00
         0.00000E+00
         0.00000E+00
         0.00000E+00
         0.00000E+00
         0.00000E+00
         0.00000E+00
         0.00000E+00
         0.00000E+00
         0.00000E+00
         0.00000E+00
         0.00000E+00
         0.00000E+00
         0.00000E+00
         0.00000E+00
         0.00000E+00
         0.00000E+00
         0.00000E+00
         0.00000E+00
         0.00000E+00
         0.00000E+00
         0.00000E+00
         0.00000E+00
         0.00000E+00
         0.00000E+00
         0.00000E+00
         0.00000E+00
         0.00000E+00
         0.00000E+00
         0.00000E+00
         0.00000E+00
         0.00000E+00
         0.00000E+00
         0.00000E+00
         0.00000E+00
         0.00000E+00
         0.00000E+00
         0.00000E+00
         0.00000E+00
         0.00000E+00
         0.00000E+00
         0.00000E+00
         0.00000E+00
         0.00000E+00
         0.00000E+00
         0.00000E+00
         0.00000E+00
         0.00000E+00
         0.00000E+00
         0.00000E+00
         0.00000E+00
         0.00000E+00
         0.00000E+00
         0.00000E+00
         0.00000E+00
         0.00000E+00
         0.00000E+00
         0.00000E+00
         0.00000E+00
         0.00000E+00
         0.00000E+00
         0.00000E+00
         0.00000E+00
         0.00000E+00
         0.00000E+00
         0.00000E+00
         0.00000E+00
         0.00000E+00
         0.00000E+00
         0.00000E+00
         0.00000E+00
         0.00000E+00
         0.00000E+00
         0.00000E+00
         0.00000E+00
         0.00000E+00
         0.00000E+00
         0.00000E+00
         0.00000E+00
         0.00000E+00
         0.00000E+00
         0.00000E+00
         0.00000E+00
         0.00000E+00
         0.00000E+00
         0.00000E+00
         0.00000E+00
         0.00000E+00
         0.00000E+00
         0.00000E+00
         0.00000E+00
         0.00000E+00
         0.00000E+00
         0.00000E+00
         0.00000E+00
         0.00000E+00
         0.00000E+00
         0.00000E+00
         0.00000E+00
         0.00000E+00
         0.00000E+00
         0.00000E+00
         0.00000E+00
         0.00000E+00
         0.00000E+00
         0.00000E+00
         0.00000E+00
         0.00000E+00
         0.00000E+00
         0.00000E+00
         0.00000E+00
         0.00000E+00
         0.00000E+00
         0.00000E+00
         0.00000E+00
         0.00000E+00
         0.00000E+00
         0.00000E+00
         0.00000E+00
         0.00000E+00
         0.00000E+00
         0.00000E+00
         0.00000E+00
         0.00000E+00
         0.00000E+00
         0.00000E+00
         0.00000E+00
         0.00000E+00
         0.00000E+00
         0.00000E+00
         0.00000E+00
         0.00000E+00
         0.00000E+00
         0.00000E+00
         0.00000E+00
         0.00000E+00
         0.00000E+00
         0.00000E+00
         0.00000E+00
         0.00000E+00
         0.00000E+00
         0.00000E+00
         0.00000E+00
         0.00000E+00
         0.00000E+00
         0.00000E+00
         0.00000E+00
         0.00000E+00
         0.00000E+00
         0.00000E+00
         0.00000E+00
         0.00000E+00
         0.00000E+00
         0.00000E+00
         0.00000E+00
         0.00000E+00
         0.00000E+00
         0.00000E+00
         0.00000E+00
         0.00000E+00
         0.00000E+00
         0.00000E+00
         0.00000E+00
         0.00000E+00
         0.00000E+00
         0.00000E+00
         0.00000E+00
         0.00000E+00
         0.00000E+00
         0.00000E+00
         0.00000E+00
         0.00000E+00
         0.00000E+00
         0.00000E+00
         0.00000E+00
         0.00000E+00
         0.00000E+00
         0.00000E+00
         0.00000E+00
         0.00000E+00
         0.00000E+00
         0.00000E+00
         0.00000E+00
         0.00000E+00
         0.00000E+00
         0.00000E+00
         0.00000E+00
         0.00000E+00
         0.00000E+00
         0.00000E+00
         0.00000E+00
         0.00000E+00
         0.00000E+00
         0.00000E+00
         0.00000E+00
         0.00000E+00
         0.00000E+00
         0.00000E+00
         0.00000E+00
         0.00000E+00
         0.00000E+00
         0.00000E+00
         0.00000E+00
         0.00000E+00
         0.00000E+00
         0.00000E+00
         0.00000E+00
         0.00000E+00
         0.00000E+00
         0.00000E+00
         0.00000E+00
         0.00000E+00
         0.00000E+00
         0.00000E+00
         0.00000E+00
         0.00000E+00
         0.00000E+00
         0.00000E+00
         0.00000E+00
         0.00000E+00
         0.00000E+00
         0.00000E+00
         0.00000E+00
         0.00000E+00
         0.00000E+00
         0.00000E+00
         0.00000E+00
         0.00000E+00
         0.00000E+00
         0.00000E+00
         0.00000E+00
         0.00000E+00
         0.00000E+00
         0.00000E+00
         0.00000E+00
         0.00000E+00
         0.00000E+00
         0.00000E+00
         0.00000E+00
         0.00000E+00
         0.00000E+00
         0.00000E+00
         0.00000E+00
         0.00000E+00
         0.00000E+00
         0.00000E+00
         0.00000E+00
         0.00000E+00
         0.00000E+00
         0.00000E+00
         0.00000E+00
         0.00000E+00
         0.00000E+00
         0.00000E+00
         0.00000E+00
         0.00000E+00
         0.00000E+00
         0.00000E+00
         0.00000E+00
         0.00000E+00
         0.00000E+00
         0.00000E+00
         0.00000E+00
         0.00000E+00
         0.00000E+00
         0.00000E+00
         0.00000E+00
         0.00000E+00
         0.00000E+00
         0.00000E+00
         0.00000E+00
         0.00000E+00
         0.00000E+00
         0.00000E+00
         0.00000E+00
         0.00000E+00
         0.00000E+00
         0.00000E+00
         0.00000E+00
         0.00000E+00
         0.00000E+00
         0.00000E+00
         0.00000E+00
         0.00000E+00
         0.00000E+00
         0.00000E+00
         0.00000E+00
         0.00000E+00
         0.00000E+00
         0.00000E+00
         0.00000E+00
         0.00000E+00
         0.00000E+00
         0.00000E+00
         0.00000E+00
         0.00000E+00
         0.00000E+00
         0.00000E+00
         0.00000E+00
         0.00000E+00
         0.00000E+00
         0.00000E+00
         0.00000E+00
         0.00000E+00
         0.00000E+00
         0.00000E+00
         0.00000E+00
         0.00000E+00
         0.00000E+00
         0.00000E+00
         0.00000E+00
         0.00000E+00
         0.00000E+00
         0.00000E+00
         0.00000E+00
         0.00000E+00
         0.00000E+00
         0.00000E+00
         0.00000E+00
         0.00000E+00
         0.00000E+00
         0.00000E+00
         0.00000E+00
         0.00000E+00
         0.00000E+00
         0.00000E+00
         0.00000E+00
         0.00000E+00
         0.00000E+00
         0.00000E+00
         0.00000E+00
         0.00000E+00
         0.00000E+00
         0.00000E+00
         0.00000E+00
         0.00000E+00
         0.00000E+00
         0.00000E+00
         0.00000E+00
         0.00000E+00
         0.00000E+00
         0.00000E+00
         0.00000E+00
         0.00000E+00
         0.00000E+00
         0.00000E+00
         0.00000E+00
         0.00000E+00
         0.00000E+00
         0.00000E+00
         0.00000E+00
         0.00000E+00
         0.00000E+00
         0.00000E+00
         0.00000E+00
         0.00000E+00
         0.00000E+00
         0.00000E+00
         0.00000E+00
         0.00000E+00
         0.00000E+00
         0.00000E+00
         0.00000E+00
         0.00000E+00
         0.00000E+00
         0.00000E+00
         0.00000E+00
         0.00000E+00
         0.00000E+00
         0.00000E+00
         0.00000E+00
         0.00000E+00
         0.00000E+00
         0.00000E+00
         0.00000E+00
         0.00000E+00
         0.00000E+00
         0.00000E+00
         0.00000E+00
         0.00000E+00
         0.00000E+00
         0.00000E+00
         0.00000E+00
         0.00000E+00
         0.00000E+00
         0.00000E+00
         0.00000E+00
         0.00000E+00
         0.00000E+00
         0.00000E+00
         0.00000E+00
         0.00000E+00
         0.00000E+00
         0.00000E+00
         0.00000E+00
         0.00000E+00
         0.00000E+00
         0.00000E+00
         0.00000E+00
         0.00000E+00
         0.00000E+00
         0.00000E+00
         0.00000E+00
         0.00000E+00
         0.00000E+00
         0.00000E+00
         0.00000E+00
         0.00000E+00
         0.00000E+00
         0.00000E+00
         0.00000E+00
         0.00000E+00
         0.00000E+00
         0.00000E+00
         0.00000E+00
         0.00000E+00
         0.00000E+00
         0.00000E+00
         0.00000E+00
         0.00000E+00
         0.00000E+00
         0.00000E+00
         0.00000E+00
         0.00000E+00
         0.00000E+00
         0.00000E+00
         0.00000E+00
         0.00000E+00
         0.00000E+00
         0.00000E+00
         0.00000E+00
         0.00000E+00
         0.00000E+00
         0.00000E+00
         0.00000E+00
         0.00000E+00
         0.00000E+00
         0.00000E+00
         0.00000E+00
         0.00000E+00
         0.00000E+00
         0.00000E+00
         0.00000E+00
         0.00000E+00
         0.00000E+00
         0.00000E+00
         0.00000E+00
         0.00000E+00
         0.00000E+00
         0.00000E+00
         0.00000E+00
         0.00000E+00
         0.00000E+00
         0.00000E+00
         0.00000E+00
         0.00000E+00
         0.00000E+00
         0.00000E+00
         0.00000E+00
         0.00000E+00
         0.00000E+00
         0.00000E+00
         0.00000E+00
         0.00000E+00
         0.00000E+00
         0.00000E+00
         0.00000E+00
         0.00000E+00
         0.00000E+00
         0.00000E+00
         0.00000E+00
         0.00000E+00
         0.00000E+00
         0.00000E+00
         0.00000E+00
         0.00000E+00
         0.00000E+00
         0.00000E+00
         0.00000E+00
         0.00000E+00
         0.00000E+00
         0.00000E+00
         0.00000E+00
         0.00000E+00
         0.00000E+00
         0.00000E+00
         0.00000E+00
         0.00000E+00
         0.00000E+00
         0.00000E+00
         0.00000E+00
         0.00000E+00
         0.00000E+00
         0.00000E+00
         0.00000E+00
         0.00000E+00
         0.00000E+00
         0.00000E+00
         0.00000E+00
         0.00000E+00
         0.00000E+00
         0.00000E+00
         0.00000E+00
         0.00000E+00
         0.00000E+00
         0.00000E+00
         0.00000E+00
         0.00000E+00
         0.00000E+00
         0.00000E+00
         0.00000E+00
         0.00000E+00
         0.00000E+00
         0.00000E+00
         0.00000E+00
         0.00000E+00
         0.00000E+00
         0.00000E+00
         0.00000E+00
         0.00000E+00
         0.00000E+00
         0.00000E+00
         0.00000E+00
         0.00000E+00
         0.00000E+00
         0.00000E+00
         0.00000E+00
         0.00000E+00
         0.00000E+00
         0.00000E+00
         0.00000E+00
         0.00000E+00
         0.00000E+00
         0.00000E+00
         0.00000E+00
         0.00000E+00
         0.00000E+00
         0.00000E+00
         0.00000E+00
         0.00000E+00
         0.00000E+00
         0.00000E+00
         0.00000E+00
         0.00000E+00
         0.00000E+00
         0.00000E+00
         0.00000E+00
         0.00000E+00
         0.00000E+00
         0.00000E+00
         0.00000E+00
         0.00000E+00
         0.00000E+00
         0.00000E+00
         0.00000E+00
         0.00000E+00
         0.00000E+00
         0.00000E+00
         0.00000E+00
         0.00000E+00
         0.00000E+00
         0.00000E+00
         0.00000E+00
         0.00000E+00
         0.00000E+00
         0.00000E+00
         0.00000E+00
         0.00000E+00
         0.00000E+00
         0.00000E+00
         0.00000E+00
         0.00000E+00
         0.00000E+00
         0.00000E+00
         0.00000E+00
         0.00000E+00
         0.00000E+00
         0.00000E+00
         0.00000E+00
         0.00000E+00
         0.00000E+00
         0.00000E+00
         0.00000E+00
         0.00000E+00
         0.00000E+00
         0.00000E+00
         0.00000E+00
         0.00000E+00
         0.00000E+00
         0.00000E+00
         0.00000E+00
         0.00000E+00
         0.00000E+00
         0.00000E+00
         0.00000E+00
         0.00000E+00
         0.00000E+00
         0.00000E+00
         0.00000E+00
         0.00000E+00
         0.00000E+00
         0.00000E+00
         0.00000E+00
         0.00000E+00
         0.00000E+00
         0.00000E+00
         0.00000E+00
         0.00000E+00
         0.00000E+00
         0.00000E+00
         0.00000E+00
         0.00000E+00
         0.00000E+00
         0.00000E+00
         0.00000E+00
         0.00000E+00
         0.00000E+00
         0.00000E+00
         0.00000E+00
         0.00000E+00
         0.00000E+00
         0.00000E+00
         0.00000E+00
         0.00000E+00
         0.00000E+00
         0.00000E+00
         0.00000E+00
         0.00000E+00
         0.00000E+00
         0.00000E+00
         0.00000E+00
         0.00000E+00
         0.00000E+00
         0.00000E+00
         0.00000E+00
         0.00000E+00
         0.00000E+00
         0.00000E+00
         0.00000E+00
         0.00000E+00
         0.00000E+00
         0.00000E+00
         0.00000E+00
         0.00000E+00
         0.00000E+00
         0.00000E+00
         0.00000E+00
         0.00000E+00
         0.00000E+00
         0.00000E+00
         0.00000E+00
         0.00000E+00
         0.00000E+00
         0.00000E+00
         0.00000E+00
         0.00000E+00
         0.00000E+00
         0.00000E+00
         0.00000E+00
         0.00000E+00
         0.00000E+00
         0.00000E+00
         0.00000E+00
         0.00000E+00
         0.00000E+00
         0.00000E+00
         0.00000E+00
         0.00000E+00
         0.00000E+00
         0.00000E+00
         0.00000E+00
         0.00000E+00
         0.00000E+00
         0.00000E+00
         0.00000E+00
         0.00000E+00
         0.00000E+00
         0.00000E+00
         0.00000E+00
         0.00000E+00
         0.00000E+00
         0.00000E+00
         0.00000E+00
         0.00000E+00
         0.00000E+00
         0.00000E+00
         0.00000E+00
         0.00000E+00
         0.00000E+00
         0.00000E+00
         0.00000E+00
         0.00000E+00
         0.00000E+00
         0.00000E+00
         0.00000E+00
         0.00000E+00
         0.00000E+00
         0.00000E+00
         0.00000E+00
         0.00000E+00
         0.00000E+00
         0.00000E+00
         0.00000E+00
         0.00000E+00
         0.00000E+00
         0.00000E+00
         0.00000E+00
         0.00000E+00
         0.00000E+00
         0.00000E+00
         0.00000E+00
         0.00000E+00
         0.00000E+00
         0.00000E+00
         0.00000E+00
         0.00000E+00
         0.00000E+00
         0.00000E+00
         0.00000E+00
         0.00000E+00
         0.00000E+00
         0.00000E+00
         0.00000E+00
         0.00000E+00
         0.00000E+00
         0.00000E+00
         0.00000E+00
         0.00000E+00
         0.00000E+00
         0.00000E+00
         0.00000E+00
         0.00000E+00
         0.00000E+00
         0.00000E+00
         0.00000E+00
         0.00000E+00
         0.00000E+00
         0.00000E+00
         0.00000E+00
         0.00000E+00
         0.00000E+00
         0.00000E+00
         0.00000E+00
         0.00000E+00
         0.00000E+00
         0.00000E+00
         0.00000E+00
         0.00000E+00
         0.00000E+00
         0.00000E+00
         0.00000E+00
         0.00000E+00
         0.00000E+00
         0.00000E+00
         0.00000E+00
         0.00000E+00
         0.00000E+00
         0.00000E+00
         0.00000E+00
         0.00000E+00
         0.00000E+00
         0.00000E+00
         0.00000E+00
         0.00000E+00
         0.00000E+00
         0.00000E+00
         0.00000E+00
         0.00000E+00
         0.00000E+00
         0.00000E+00
         0.00000E+00
         0.00000E+00
         0.00000E+00
         0.00000E+00
         0.00000E+00
         0.00000E+00
         0.00000E+00
         0.00000E+00
         0.00000E+00
         0.00000E+00
         0.00000E+00
         0.00000E+00
         0.00000E+00
         0.00000E+00
         0.00000E+00
         0.00000E+00
         0.00000E+00
         0.00000E+00
         0.00000E+00
         0.00000E+00
         0.00000E+00
         0.00000E+00
         0.00000E+00
         0.00000E+00
         0.00000E+00
         0.00000E+00
         0.00000E+00
         0.00000E+00
         0.00000E+00
         0.00000E+00
         0.00000E+00
         0.00000E+00
         0.00000E+00
         0.00000E+00
         0.00000E+00
         0.00000E+00
         0.00000E+00
         0.00000E+00
         0.00000E+00
         0.00000E+00
         0.00000E+00
         0.00000E+00
         0.00000E+00
         0.00000E+00
         0.00000E+00
         0.00000E+00
         0.00000E+00
         0.00000E+00
         0.00000E+00
         0.00000E+00
         0.00000E+00
         0.00000E+00
         0.00000E+00
         0.00000E+00
         0.00000E+00
         0.00000E+00
         0.00000E+00
         0.00000E+00
         0.00000E+00
         0.00000E+00
         0.00000E+00
         0.00000E+00
         0.00000E+00
         0.00000E+00
         0.00000E+00
         0.00000E+00
         0.00000E+00
         0.00000E+00
         0.00000E+00
         0.00000E+00
         0.00000E+00
         0.00000E+00
         0.00000E+00
         0.00000E+00
         0.00000E+00
         0.00000E+00
         0.00000E+00
         0.00000E+00
         0.00000E+00
         0.00000E+00
         0.00000E+00
         0.00000E+00
         0.00000E+00
         0.00000E+00
         0.00000E+00
         0.00000E+00
         0.00000E+00
         0.00000E+00
         0.00000E+00
  
SCALARS                         fint_z  double 1
LOOKUP_TABLE default
         0.00000E+00
         0.00000E+00
         0.00000E+00
         0.00000E+00
         0.00000E+00
         0.00000E+00
         0.00000E+00
         0.00000E+00
         0.00000E+00
         0.00000E+00
         0.00000E+00
         0.00000E+00
         0.00000E+00
         0.00000E+00
         0.00000E+00
         0.00000E+00
         0.00000E+00
         0.00000E+00
         0.00000E+00
         0.00000E+00
         0.00000E+00
         0.00000E+00
         0.00000E+00
         0.00000E+00
         0.00000E+00
         0.00000E+00
         0.00000E+00
         0.00000E+00
         0.00000E+00
         0.00000E+00
         0.00000E+00
         0.00000E+00
         0.00000E+00
         0.00000E+00
         0.00000E+00
         0.00000E+00
         0.00000E+00
         0.00000E+00
         0.00000E+00
         0.00000E+00
         0.00000E+00
         0.00000E+00
         0.00000E+00
         0.00000E+00
         0.00000E+00
         0.00000E+00
         0.00000E+00
         0.00000E+00
         0.00000E+00
         0.00000E+00
         0.00000E+00
         0.00000E+00
         0.00000E+00
         0.00000E+00
         0.00000E+00
         0.00000E+00
         0.00000E+00
         0.00000E+00
         0.00000E+00
         0.00000E+00
         0.00000E+00
         0.00000E+00
         0.00000E+00
         0.00000E+00
         0.00000E+00
         0.00000E+00
         0.00000E+00
         0.00000E+00
         0.00000E+00
         0.00000E+00
         0.00000E+00
         0.00000E+00
         0.00000E+00
         0.00000E+00
         0.00000E+00
         0.00000E+00
         0.00000E+00
         0.00000E+00
         0.00000E+00
         0.00000E+00
         0.00000E+00
         0.00000E+00
         0.00000E+00
         0.00000E+00
         0.00000E+00
         0.00000E+00
         0.00000E+00
         0.00000E+00
         0.00000E+00
         0.00000E+00
         0.00000E+00
         0.00000E+00
         0.00000E+00
         0.00000E+00
         0.00000E+00
         0.00000E+00
         0.00000E+00
         0.00000E+00
         0.00000E+00
         0.00000E+00
         0.00000E+00
         0.00000E+00
         0.00000E+00
         0.00000E+00
         0.00000E+00
         0.00000E+00
         0.00000E+00
         0.00000E+00
         0.00000E+00
         0.00000E+00
         0.00000E+00
         0.00000E+00
         0.00000E+00
         0.00000E+00
         0.00000E+00
         0.00000E+00
         0.00000E+00
         0.00000E+00
         0.00000E+00
         0.00000E+00
         0.00000E+00
         0.00000E+00
         0.00000E+00
         0.00000E+00
         0.00000E+00
         0.00000E+00
         0.00000E+00
         0.00000E+00
         0.00000E+00
         0.00000E+00
         0.00000E+00
         0.00000E+00
         0.00000E+00
         0.00000E+00
         0.00000E+00
         0.00000E+00
         0.00000E+00
         0.00000E+00
         0.00000E+00
         0.00000E+00
         0.00000E+00
         0.00000E+00
         0.00000E+00
         0.00000E+00
         0.00000E+00
         0.00000E+00
         0.00000E+00
         0.00000E+00
         0.00000E+00
         0.00000E+00
         0.00000E+00
         0.00000E+00
         0.00000E+00
         0.00000E+00
         0.00000E+00
         0.00000E+00
         0.00000E+00
         0.00000E+00
         0.00000E+00
         0.00000E+00
         0.00000E+00
         0.00000E+00
         0.00000E+00
         0.00000E+00
         0.00000E+00
         0.00000E+00
         0.00000E+00
         0.00000E+00
         0.00000E+00
         0.00000E+00
         0.00000E+00
         0.00000E+00
         0.00000E+00
         0.00000E+00
         0.00000E+00
         0.00000E+00
         0.00000E+00
         0.00000E+00
         0.00000E+00
         0.00000E+00
         0.00000E+00
         0.00000E+00
         0.00000E+00
         0.00000E+00
         0.00000E+00
         0.00000E+00
         0.00000E+00
         0.00000E+00
         0.00000E+00
         0.00000E+00
         0.00000E+00
         0.00000E+00
         0.00000E+00
         0.00000E+00
         0.00000E+00
         0.00000E+00
         0.00000E+00
         0.00000E+00
         0.00000E+00
         0.00000E+00
         0.00000E+00
         0.00000E+00
         0.00000E+00
         0.00000E+00
         0.00000E+00
         0.00000E+00
         0.00000E+00
         0.00000E+00
         0.00000E+00
         0.00000E+00
         0.00000E+00
         0.00000E+00
         0.00000E+00
         0.00000E+00
         0.00000E+00
         0.00000E+00
         0.00000E+00
         0.00000E+00
         0.00000E+00
         0.00000E+00
         0.00000E+00
         0.00000E+00
         0.00000E+00
         0.00000E+00
         0.00000E+00
         0.00000E+00
         0.00000E+00
         0.00000E+00
         0.00000E+00
         0.00000E+00
         0.00000E+00
         0.00000E+00
         0.00000E+00
         0.00000E+00
         0.00000E+00
         0.00000E+00
         0.00000E+00
         0.00000E+00
         0.00000E+00
         0.00000E+00
         0.00000E+00
         0.00000E+00
         0.00000E+00
         0.00000E+00
         0.00000E+00
         0.00000E+00
         0.00000E+00
         0.00000E+00
         0.00000E+00
         0.00000E+00
         0.00000E+00
         0.00000E+00
         0.00000E+00
         0.00000E+00
         0.00000E+00
         0.00000E+00
         0.00000E+00
         0.00000E+00
         0.00000E+00
         0.00000E+00
         0.00000E+00
         0.00000E+00
         0.00000E+00
         0.00000E+00
         0.00000E+00
         0.00000E+00
         0.00000E+00
         0.00000E+00
         0.00000E+00
         0.00000E+00
         0.00000E+00
         0.00000E+00
         0.00000E+00
         0.00000E+00
         0.00000E+00
         0.00000E+00
         0.00000E+00
         0.00000E+00
         0.00000E+00
         0.00000E+00
         0.00000E+00
         0.00000E+00
         0.00000E+00
         0.00000E+00
         0.00000E+00
         0.00000E+00
         0.00000E+00
         0.00000E+00
         0.00000E+00
         0.00000E+00
         0.00000E+00
         0.00000E+00
         0.00000E+00
         0.00000E+00
         0.00000E+00
         0.00000E+00
         0.00000E+00
         0.00000E+00
         0.00000E+00
         0.00000E+00
         0.00000E+00
         0.00000E+00
         0.00000E+00
         0.00000E+00
         0.00000E+00
         0.00000E+00
         0.00000E+00
         0.00000E+00
         0.00000E+00
         0.00000E+00
         0.00000E+00
         0.00000E+00
         0.00000E+00
         0.00000E+00
         0.00000E+00
         0.00000E+00
         0.00000E+00
         0.00000E+00
         0.00000E+00
         0.00000E+00
         0.00000E+00
         0.00000E+00
         0.00000E+00
         0.00000E+00
         0.00000E+00
         0.00000E+00
         0.00000E+00
         0.00000E+00
         0.00000E+00
         0.00000E+00
         0.00000E+00
         0.00000E+00
         0.00000E+00
         0.00000E+00
         0.00000E+00
         0.00000E+00
         0.00000E+00
         0.00000E+00
         0.00000E+00
         0.00000E+00
         0.00000E+00
         0.00000E+00
         0.00000E+00
         0.00000E+00
         0.00000E+00
         0.00000E+00
         0.00000E+00
         0.00000E+00
         0.00000E+00
         0.00000E+00
         0.00000E+00
         0.00000E+00
         0.00000E+00
         0.00000E+00
         0.00000E+00
         0.00000E+00
         0.00000E+00
         0.00000E+00
         0.00000E+00
         0.00000E+00
         0.00000E+00
         0.00000E+00
         0.00000E+00
         0.00000E+00
         0.00000E+00
         0.00000E+00
         0.00000E+00
         0.00000E+00
         0.00000E+00
         0.00000E+00
         0.00000E+00
         0.00000E+00
         0.00000E+00
         0.00000E+00
         0.00000E+00
         0.00000E+00
         0.00000E+00
         0.00000E+00
         0.00000E+00
         0.00000E+00
         0.00000E+00
         0.00000E+00
         0.00000E+00
         0.00000E+00
         0.00000E+00
         0.00000E+00
         0.00000E+00
         0.00000E+00
         0.00000E+00
         0.00000E+00
         0.00000E+00
         0.00000E+00
         0.00000E+00
         0.00000E+00
         0.00000E+00
         0.00000E+00
         0.00000E+00
         0.00000E+00
         0.00000E+00
         0.00000E+00
         0.00000E+00
         0.00000E+00
         0.00000E+00
         0.00000E+00
         0.00000E+00
         0.00000E+00
         0.00000E+00
         0.00000E+00
         0.00000E+00
         0.00000E+00
         0.00000E+00
         0.00000E+00
         0.00000E+00
         0.00000E+00
         0.00000E+00
         0.00000E+00
         0.00000E+00
         0.00000E+00
         0.00000E+00
         0.00000E+00
         0.00000E+00
         0.00000E+00
         0.00000E+00
         0.00000E+00
         0.00000E+00
         0.00000E+00
         0.00000E+00
         0.00000E+00
         0.00000E+00
         0.00000E+00
         0.00000E+00
         0.00000E+00
         0.00000E+00
         0.00000E+00
         0.00000E+00
         0.00000E+00
         0.00000E+00
         0.00000E+00
         0.00000E+00
         0.00000E+00
         0.00000E+00
         0.00000E+00
         0.00000E+00
         0.00000E+00
         0.00000E+00
         0.00000E+00
         0.00000E+00
         0.00000E+00
         0.00000E+00
         0.00000E+00
         0.00000E+00
         0.00000E+00
         0.00000E+00
         0.00000E+00
         0.00000E+00
         0.00000E+00
         0.00000E+00
         0.00000E+00
         0.00000E+00
         0.00000E+00
         0.00000E+00
         0.00000E+00
         0.00000E+00
         0.00000E+00
         0.00000E+00
         0.00000E+00
         0.00000E+00
         0.00000E+00
         0.00000E+00
         0.00000E+00
         0.00000E+00
         0.00000E+00
         0.00000E+00
         0.00000E+00
         0.00000E+00
         0.00000E+00
         0.00000E+00
         0.00000E+00
         0.00000E+00
         0.00000E+00
         0.00000E+00
         0.00000E+00
         0.00000E+00
         0.00000E+00
         0.00000E+00
         0.00000E+00
         0.00000E+00
         0.00000E+00
         0.00000E+00
         0.00000E+00
         0.00000E+00
         0.00000E+00
         0.00000E+00
         0.00000E+00
         0.00000E+00
         0.00000E+00
         0.00000E+00
         0.00000E+00
         0.00000E+00
         0.00000E+00
         0.00000E+00
         0.00000E+00
         0.00000E+00
         0.00000E+00
         0.00000E+00
         0.00000E+00
         0.00000E+00
         0.00000E+00
         0.00000E+00
         0.00000E+00
         0.00000E+00
         0.00000E+00
         0.00000E+00
         0.00000E+00
         0.00000E+00
         0.00000E+00
         0.00000E+00
         0.00000E+00
         0.00000E+00
         0.00000E+00
         0.00000E+00
         0.00000E+00
         0.00000E+00
         0.00000E+00
         0.00000E+00
         0.00000E+00
         0.00000E+00
         0.00000E+00
         0.00000E+00
         0.00000E+00
         0.00000E+00
         0.00000E+00
         0.00000E+00
         0.00000E+00
         0.00000E+00
         0.00000E+00
         0.00000E+00
         0.00000E+00
         0.00000E+00
         0.00000E+00
         0.00000E+00
         0.00000E+00
         0.00000E+00
         0.00000E+00
         0.00000E+00
         0.00000E+00
         0.00000E+00
         0.00000E+00
         0.00000E+00
         0.00000E+00
         0.00000E+00
         0.00000E+00
         0.00000E+00
         0.00000E+00
         0.00000E+00
         0.00000E+00
         0.00000E+00
         0.00000E+00
         0.00000E+00
         0.00000E+00
         0.00000E+00
         0.00000E+00
         0.00000E+00
         0.00000E+00
         0.00000E+00
         0.00000E+00
         0.00000E+00
         0.00000E+00
         0.00000E+00
         0.00000E+00
         0.00000E+00
         0.00000E+00
         0.00000E+00
         0.00000E+00
         0.00000E+00
         0.00000E+00
         0.00000E+00
         0.00000E+00
         0.00000E+00
         0.00000E+00
         0.00000E+00
         0.00000E+00
         0.00000E+00
         0.00000E+00
         0.00000E+00
         0.00000E+00
         0.00000E+00
         0.00000E+00
         0.00000E+00
         0.00000E+00
         0.00000E+00
         0.00000E+00
         0.00000E+00
         0.00000E+00
         0.00000E+00
         0.00000E+00
         0.00000E+00
         0.00000E+00
         0.00000E+00
         0.00000E+00
         0.00000E+00
         0.00000E+00
         0.00000E+00
         0.00000E+00
         0.00000E+00
         0.00000E+00
         0.00000E+00
         0.00000E+00
         0.00000E+00
         0.00000E+00
         0.00000E+00
         0.00000E+00
         0.00000E+00
         0.00000E+00
         0.00000E+00
         0.00000E+00
         0.00000E+00
         0.00000E+00
         0.00000E+00
         0.00000E+00
         0.00000E+00
         0.00000E+00
         0.00000E+00
         0.00000E+00
         0.00000E+00
         0.00000E+00
         0.00000E+00
         0.00000E+00
         0.00000E+00
         0.00000E+00
         0.00000E+00
         0.00000E+00
         0.00000E+00
         0.00000E+00
         0.00000E+00
         0.00000E+00
         0.00000E+00
         0.00000E+00
         0.00000E+00
         0.00000E+00
         0.00000E+00
         0.00000E+00
         0.00000E+00
         0.00000E+00
         0.00000E+00
         0.00000E+00
         0.00000E+00
         0.00000E+00
         0.00000E+00
         0.00000E+00
         0.00000E+00
         0.00000E+00
         0.00000E+00
         0.00000E+00
         0.00000E+00
         0.00000E+00
         0.00000E+00
         0.00000E+00
         0.00000E+00
         0.00000E+00
         0.00000E+00
         0.00000E+00
         0.00000E+00
         0.00000E+00
         0.00000E+00
         0.00000E+00
         0.00000E+00
         0.00000E+00
         0.00000E+00
         0.00000E+00
         0.00000E+00
         0.00000E+00
         0.00000E+00
         0.00000E+00
         0.00000E+00
         0.00000E+00
         0.00000E+00
         0.00000E+00
         0.00000E+00
         0.00000E+00
         0.00000E+00
         0.00000E+00
         0.00000E+00
         0.00000E+00
         0.00000E+00
         0.00000E+00
         0.00000E+00
         0.00000E+00
         0.00000E+00
         0.00000E+00
         0.00000E+00
         0.00000E+00
         0.00000E+00
         0.00000E+00
         0.00000E+00
         0.00000E+00
         0.00000E+00
         0.00000E+00
         0.00000E+00
         0.00000E+00
         0.00000E+00
         0.00000E+00
         0.00000E+00
         0.00000E+00
         0.00000E+00
         0.00000E+00
         0.00000E+00
         0.00000E+00
         0.00000E+00
         0.00000E+00
         0.00000E+00
         0.00000E+00
         0.00000E+00
         0.00000E+00
         0.00000E+00
         0.00000E+00
         0.00000E+00
         0.00000E+00
         0.00000E+00
         0.00000E+00
         0.00000E+00
         0.00000E+00
         0.00000E+00
         0.00000E+00
         0.00000E+00
         0.00000E+00
         0.00000E+00
         0.00000E+00
         0.00000E+00
         0.00000E+00
         0.00000E+00
         0.00000E+00
         0.00000E+00
         0.00000E+00
         0.00000E+00
         0.00000E+00
         0.00000E+00
         0.00000E+00
         0.00000E+00
         0.00000E+00
         0.00000E+00
         0.00000E+00
         0.00000E+00
         0.00000E+00
         0.00000E+00
         0.00000E+00
         0.00000E+00
         0.00000E+00
         0.00000E+00
         0.00000E+00
         0.00000E+00
         0.00000E+00
         0.00000E+00
         0.00000E+00
         0.00000E+00
         0.00000E+00
         0.00000E+00
         0.00000E+00
         0.00000E+00
         0.00000E+00
         0.00000E+00
         0.00000E+00
         0.00000E+00
         0.00000E+00
         0.00000E+00
         0.00000E+00
         0.00000E+00
         0.00000E+00
         0.00000E+00
         0.00000E+00
         0.00000E+00
         0.00000E+00
         0.00000E+00
         0.00000E+00
         0.00000E+00
         0.00000E+00
         0.00000E+00
         0.00000E+00
         0.00000E+00
         0.00000E+00
         0.00000E+00
         0.00000E+00
         0.00000E+00
         0.00000E+00
         0.00000E+00
         0.00000E+00
         0.00000E+00
         0.00000E+00
         0.00000E+00
         0.00000E+00
         0.00000E+00
         0.00000E+00
         0.00000E+00
         0.00000E+00
         0.00000E+00
         0.00000E+00
         0.00000E+00
         0.00000E+00
         0.00000E+00
         0.00000E+00
         0.00000E+00
         0.00000E+00
         0.00000E+00
         0.00000E+00
         0.00000E+00
         0.00000E+00
         0.00000E+00
         0.00000E+00
         0.00000E+00
         0.00000E+00
         0.00000E+00
         0.00000E+00
         0.00000E+00
         0.00000E+00
         0.00000E+00
         0.00000E+00
         0.00000E+00
         0.00000E+00
         0.00000E+00
         0.00000E+00
         0.00000E+00
         0.00000E+00
         0.00000E+00
         0.00000E+00
         0.00000E+00
         0.00000E+00
         0.00000E+00
         0.00000E+00
         0.00000E+00
         0.00000E+00
         0.00000E+00
         0.00000E+00
         0.00000E+00
         0.00000E+00
         0.00000E+00
         0.00000E+00
         0.00000E+00
         0.00000E+00
         0.00000E+00
         0.00000E+00
         0.00000E+00
         0.00000E+00
         0.00000E+00
         0.00000E+00
         0.00000E+00
         0.00000E+00
         0.00000E+00
         0.00000E+00
         0.00000E+00
         0.00000E+00
         0.00000E+00
         0.00000E+00
         0.00000E+00
         0.00000E+00
         0.00000E+00
         0.00000E+00
         0.00000E+00
         0.00000E+00
         0.00000E+00
         0.00000E+00
         0.00000E+00
         0.00000E+00
         0.00000E+00
         0.00000E+00
         0.00000E+00
         0.00000E+00
         0.00000E+00
         0.00000E+00
         0.00000E+00
         0.00000E+00
         0.00000E+00
         0.00000E+00
         0.00000E+00
         0.00000E+00
         0.00000E+00
         0.00000E+00
         0.00000E+00
         0.00000E+00
         0.00000E+00
         0.00000E+00
         0.00000E+00
         0.00000E+00
         0.00000E+00
         0.00000E+00
         0.00000E+00
         0.00000E+00
         0.00000E+00
         0.00000E+00
         0.00000E+00
         0.00000E+00
         0.00000E+00
         0.00000E+00
         0.00000E+00
         0.00000E+00
         0.00000E+00
         0.00000E+00
         0.00000E+00
         0.00000E+00
         0.00000E+00
         0.00000E+00
         0.00000E+00
         0.00000E+00
         0.00000E+00
         0.00000E+00
         0.00000E+00
         0.00000E+00
         0.00000E+00
         0.00000E+00
         0.00000E+00
         0.00000E+00
         0.00000E+00
         0.00000E+00
         0.00000E+00
         0.00000E+00
         0.00000E+00
         0.00000E+00
         0.00000E+00
         0.00000E+00
         0.00000E+00
         0.00000E+00
         0.00000E+00
         0.00000E+00
         0.00000E+00
         0.00000E+00
         0.00000E+00
         0.00000E+00
         0.00000E+00
         0.00000E+00
         0.00000E+00
         0.00000E+00
         0.00000E+00
         0.00000E+00
         0.00000E+00
         0.00000E+00
         0.00000E+00
         0.00000E+00
         0.00000E+00
         0.00000E+00
         0.00000E+00
         0.00000E+00
         0.00000E+00
         0.00000E+00
         0.00000E+00
         0.00000E+00
         0.00000E+00
         0.00000E+00
         0.00000E+00
         0.00000E+00
         0.00000E+00
         0.00000E+00
         0.00000E+00
         0.00000E+00
         0.00000E+00
         0.00000E+00
         0.00000E+00
         0.00000E+00
         0.00000E+00
         0.00000E+00
         0.00000E+00
         0.00000E+00
         0.00000E+00
         0.00000E+00
         0.00000E+00
         0.00000E+00
         0.00000E+00
         0.00000E+00
         0.00000E+00
         0.00000E+00
         0.00000E+00
         0.00000E+00
         0.00000E+00
         0.00000E+00
         0.00000E+00
         0.00000E+00
         0.00000E+00
         0.00000E+00
         0.00000E+00
         0.00000E+00
         0.00000E+00
         0.00000E+00
         0.00000E+00
         0.00000E+00
         0.00000E+00
         0.00000E+00
         0.00000E+00
         0.00000E+00
         0.00000E+00
         0.00000E+00
         0.00000E+00
         0.00000E+00
         0.00000E+00
         0.00000E+00
         0.00000E+00
         0.00000E+00
         0.00000E+00
         0.00000E+00
         0.00000E+00
         0.00000E+00
         0.00000E+00
         0.00000E+00
         0.00000E+00
         0.00000E+00
         0.00000E+00
         0.00000E+00
         0.00000E+00
         0.00000E+00
         0.00000E+00
         0.00000E+00
         0.00000E+00
         0.00000E+00
         0.00000E+00
         0.00000E+00
         0.00000E+00
         0.00000E+00
         0.00000E+00
         0.00000E+00
         0.00000E+00
         0.00000E+00
         0.00000E+00
         0.00000E+00
         0.00000E+00
         0.00000E+00
         0.00000E+00
         0.00000E+00
         0.00000E+00
         0.00000E+00
         0.00000E+00
         0.00000E+00
         0.00000E+00
         0.00000E+00
         0.00000E+00
         0.00000E+00
         0.00000E+00
         0.00000E+00
         0.00000E+00
         0.00000E+00
         0.00000E+00
         0.00000E+00
         0.00000E+00
         0.00000E+00
         0.00000E+00
         0.00000E+00
         0.00000E+00
         0.00000E+00
         0.00000E+00
         0.00000E+00
         0.00000E+00
         0.00000E+00
         0.00000E+00
         0.00000E+00
         0.00000E+00
         0.00000E+00
         0.00000E+00
         0.00000E+00
         0.00000E+00
         0.00000E+00
         0.00000E+00
         0.00000E+00
         0.00000E+00
         0.00000E+00
         0.00000E+00
         0.00000E+00
         0.00000E+00
         0.00000E+00
         0.00000E+00
         0.00000E+00
         0.00000E+00
         0.00000E+00
         0.00000E+00
         0.00000E+00
         0.00000E+00
         0.00000E+00
         0.00000E+00
         0.00000E+00
         0.00000E+00
         0.00000E+00
         0.00000E+00
         0.00000E+00
         0.00000E+00
         0.00000E+00
         0.00000E+00
         0.00000E+00
         0.00000E+00
         0.00000E+00
         0.00000E+00
         0.00000E+00
         0.00000E+00
         0.00000E+00
         0.00000E+00
         0.00000E+00
         0.00000E+00
         0.00000E+00
         0.00000E+00
         0.00000E+00
         0.00000E+00
         0.00000E+00
         0.00000E+00
         0.00000E+00
         0.00000E+00
         0.00000E+00
         0.00000E+00
         0.00000E+00
         0.00000E+00
         0.00000E+00
         0.00000E+00
         0.00000E+00
         0.00000E+00
         0.00000E+00
         0.00000E+00
         0.00000E+00
         0.00000E+00
         0.00000E+00
         0.00000E+00
         0.00000E+00
         0.00000E+00
         0.00000E+00
         0.00000E+00
         0.00000E+00
         0.00000E+00
         0.00000E+00
         0.00000E+00
         0.00000E+00
         0.00000E+00
         0.00000E+00
         0.00000E+00
         0.00000E+00
         0.00000E+00
         0.00000E+00
         0.00000E+00
         0.00000E+00
         0.00000E+00
         0.00000E+00
         0.00000E+00
         0.00000E+00
         0.00000E+00
         0.00000E+00
         0.00000E+00
         0.00000E+00
         0.00000E+00
         0.00000E+00
         0.00000E+00
         0.00000E+00
         0.00000E+00
         0.00000E+00
         0.00000E+00
         0.00000E+00
         0.00000E+00
         0.00000E+00
         0.00000E+00
         0.00000E+00
         0.00000E+00
         0.00000E+00
         0.00000E+00
         0.00000E+00
         0.00000E+00
         0.00000E+00
         0.00000E+00
         0.00000E+00
         0.00000E+00
         0.00000E+00
         0.00000E+00
         0.00000E+00
         0.00000E+00
         0.00000E+00
         0.00000E+00
         0.00000E+00
         0.00000E+00
         0.00000E+00
         0.00000E+00
         0.00000E+00
         0.00000E+00
         0.00000E+00
         0.00000E+00
         0.00000E+00
         0.00000E+00
         0.00000E+00
         0.00000E+00
         0.00000E+00
         0.00000E+00
         0.00000E+00
         0.00000E+00
         0.00000E+00
         0.00000E+00
         0.00000E+00
         0.00000E+00
         0.00000E+00
         0.00000E+00
         0.00000E+00
         0.00000E+00
         0.00000E+00
         0.00000E+00
         0.00000E+00
         0.00000E+00
         0.00000E+00
         0.00000E+00
         0.00000E+00
         0.00000E+00
         0.00000E+00
         0.00000E+00
         0.00000E+00
         0.00000E+00
         0.00000E+00
         0.00000E+00
         0.00000E+00
         0.00000E+00
         0.00000E+00
         0.00000E+00
         0.00000E+00
         0.00000E+00
         0.00000E+00
         0.00000E+00
         0.00000E+00
         0.00000E+00
         0.00000E+00
         0.00000E+00
         0.00000E+00
         0.00000E+00
         0.00000E+00
         0.00000E+00
         0.00000E+00
         0.00000E+00
         0.00000E+00
         0.00000E+00
         0.00000E+00
         0.00000E+00
         0.00000E+00
         0.00000E+00
         0.00000E+00
         0.00000E+00
         0.00000E+00
         0.00000E+00
         0.00000E+00
         0.00000E+00
         0.00000E+00
         0.00000E+00
         0.00000E+00
         0.00000E+00
         0.00000E+00
         0.00000E+00
         0.00000E+00
         0.00000E+00
         0.00000E+00
         0.00000E+00
         0.00000E+00
         0.00000E+00
         0.00000E+00
         0.00000E+00
         0.00000E+00
         0.00000E+00
         0.00000E+00
         0.00000E+00
         0.00000E+00
         0.00000E+00
         0.00000E+00
         0.00000E+00
         0.00000E+00
         0.00000E+00
         0.00000E+00
         0.00000E+00
         0.00000E+00
         0.00000E+00
         0.00000E+00
         0.00000E+00
         0.00000E+00
         0.00000E+00
         0.00000E+00
         0.00000E+00
         0.00000E+00
         0.00000E+00
         0.00000E+00
         0.00000E+00
         0.00000E+00
         0.00000E+00
         0.00000E+00
         0.00000E+00
         0.00000E+00
         0.00000E+00
         0.00000E+00
         0.00000E+00
         0.00000E+00
         0.00000E+00
         0.00000E+00
         0.00000E+00
         0.00000E+00
         0.00000E+00
         0.00000E+00
         0.00000E+00
         0.00000E+00
         0.00000E+00
         0.00000E+00
         0.00000E+00
         0.00000E+00
         0.00000E+00
         0.00000E+00
         0.00000E+00
         0.00000E+00
         0.00000E+00
         0.00000E+00
         0.00000E+00
         0.00000E+00
         0.00000E+00
         0.00000E+00
         0.00000E+00
         0.00000E+00
         0.00000E+00
         0.00000E+00
         0.00000E+00
         0.00000E+00
         0.00000E+00
         0.00000E+00
         0.00000E+00
         0.00000E+00
         0.00000E+00
         0.00000E+00
         0.00000E+00
         0.00000E+00
         0.00000E+00
         0.00000E+00
         0.00000E+00
         0.00000E+00
         0.00000E+00
         0.00000E+00
         0.00000E+00
         0.00000E+00
         0.00000E+00
         0.00000E+00
         0.00000E+00
         0.00000E+00
         0.00000E+00
         0.00000E+00
         0.00000E+00
         0.00000E+00
         0.00000E+00
         0.00000E+00
         0.00000E+00
         0.00000E+00
         0.00000E+00
         0.00000E+00
         0.00000E+00
         0.00000E+00
         0.00000E+00
         0.00000E+00
         0.00000E+00
         0.00000E+00
         0.00000E+00
         0.00000E+00
         0.00000E+00
         0.00000E+00
         0.00000E+00
         0.00000E+00
         0.00000E+00
         0.00000E+00
         0.00000E+00
         0.00000E+00
         0.00000E+00
         0.00000E+00
         0.00000E+00
         0.00000E+00
         0.00000E+00
         0.00000E+00
         0.00000E+00
         0.00000E+00
         0.00000E+00
         0.00000E+00
         0.00000E+00
         0.00000E+00
         0.00000E+00
         0.00000E+00
         0.00000E+00
         0.00000E+00
         0.00000E+00
         0.00000E+00
         0.00000E+00
         0.00000E+00
         0.00000E+00
         0.00000E+00
         0.00000E+00
         0.00000E+00
         0.00000E+00
         0.00000E+00
         0.00000E+00
         0.00000E+00
         0.00000E+00
         0.00000E+00
         0.00000E+00
         0.00000E+00
         0.00000E+00
         0.00000E+00
         0.00000E+00
         0.00000E+00
         0.00000E+00
         0.00000E+00
         0.00000E+00
         0.00000E+00
         0.00000E+00
         0.00000E+00
         0.00000E+00
         0.00000E+00
         0.00000E+00
         0.00000E+00
         0.00000E+00
         0.00000E+00
         0.00000E+00
         0.00000E+00
         0.00000E+00
         0.00000E+00
         0.00000E+00
         0.00000E+00
         0.00000E+00
         0.00000E+00
         0.00000E+00
         0.00000E+00
         0.00000E+00
         0.00000E+00
         0.00000E+00
         0.00000E+00
         0.00000E+00
         0.00000E+00
         0.00000E+00
         0.00000E+00
         0.00000E+00
         0.00000E+00
         0.00000E+00
         0.00000E+00
         0.00000E+00
         0.00000E+00
         0.00000E+00
         0.00000E+00
         0.00000E+00
         0.00000E+00
         0.00000E+00
         0.00000E+00
         0.00000E+00
         0.00000E+00
         0.00000E+00
         0.00000E+00
         0.00000E+00
         0.00000E+00
         0.00000E+00
         0.00000E+00
         0.00000E+00
         0.00000E+00
         0.00000E+00
         0.00000E+00
         0.00000E+00
         0.00000E+00
         0.00000E+00
         0.00000E+00
         0.00000E+00
         0.00000E+00
         0.00000E+00
         0.00000E+00
         0.00000E+00
         0.00000E+00
         0.00000E+00
         0.00000E+00
         0.00000E+00
         0.00000E+00
         0.00000E+00
         0.00000E+00
         0.00000E+00
         0.00000E+00
         0.00000E+00
         0.00000E+00
         0.00000E+00
         0.00000E+00
         0.00000E+00
         0.00000E+00
         0.00000E+00
         0.00000E+00
         0.00000E+00
         0.00000E+00
         0.00000E+00
         0.00000E+00
         0.00000E+00
         0.00000E+00
         0.00000E+00
         0.00000E+00
         0.00000E+00
         0.00000E+00
         0.00000E+00
         0.00000E+00
         0.00000E+00
         0.00000E+00
         0.00000E+00
         0.00000E+00
         0.00000E+00
         0.00000E+00
         0.00000E+00
         0.00000E+00
         0.00000E+00
         0.00000E+00
         0.00000E+00
         0.00000E+00
         0.00000E+00
         0.00000E+00
         0.00000E+00
         0.00000E+00
         0.00000E+00
         0.00000E+00
         0.00000E+00
         0.00000E+00
         0.00000E+00
         0.00000E+00
         0.00000E+00
         0.00000E+00
         0.00000E+00
         0.00000E+00
         0.00000E+00
         0.00000E+00
         0.00000E+00
         0.00000E+00
         0.00000E+00
         0.00000E+00
         0.00000E+00
         0.00000E+00
         0.00000E+00
         0.00000E+00
         0.00000E+00
         0.00000E+00
         0.00000E+00
         0.00000E+00
         0.00000E+00
         0.00000E+00
         0.00000E+00
         0.00000E+00
         0.00000E+00
         0.00000E+00
         0.00000E+00
         0.00000E+00
         0.00000E+00
         0.00000E+00
         0.00000E+00
         0.00000E+00
         0.00000E+00
         0.00000E+00
         0.00000E+00
         0.00000E+00
         0.00000E+00
         0.00000E+00
         0.00000E+00
         0.00000E+00
         0.00000E+00
         0.00000E+00
         0.00000E+00
         0.00000E+00
         0.00000E+00
         0.00000E+00
         0.00000E+00
         0.00000E+00
         0.00000E+00
         0.00000E+00
         0.00000E+00
         0.00000E+00
         0.00000E+00
         0.00000E+00
         0.00000E+00
         0.00000E+00
         0.00000E+00
         0.00000E+00
         0.00000E+00
         0.00000E+00
         0.00000E+00
         0.00000E+00
         0.00000E+00
         0.00000E+00
         0.00000E+00
         0.00000E+00
         0.00000E+00
         0.00000E+00
         0.00000E+00
         0.00000E+00
         0.00000E+00
         0.00000E+00
         0.00000E+00
         0.00000E+00
         0.00000E+00
         0.00000E+00
         0.00000E+00
         0.00000E+00
         0.00000E+00
         0.00000E+00
         0.00000E+00
         0.00000E+00
         0.00000E+00
         0.00000E+00
         0.00000E+00
         0.00000E+00
         0.00000E+00
         0.00000E+00
         0.00000E+00
         0.00000E+00
         0.00000E+00
         0.00000E+00
         0.00000E+00
         0.00000E+00
         0.00000E+00
         0.00000E+00
         0.00000E+00
         0.00000E+00
         0.00000E+00
         0.00000E+00
         0.00000E+00
         0.00000E+00
         0.00000E+00
         0.00000E+00
         0.00000E+00
         0.00000E+00
         0.00000E+00
         0.00000E+00
         0.00000E+00
         0.00000E+00
         0.00000E+00
         0.00000E+00
         0.00000E+00
         0.00000E+00
         0.00000E+00
         0.00000E+00
         0.00000E+00
         0.00000E+00
         0.00000E+00
         0.00000E+00
         0.00000E+00
         0.00000E+00
         0.00000E+00
         0.00000E+00
         0.00000E+00
         0.00000E+00
         0.00000E+00
         0.00000E+00
         0.00000E+00
         0.00000E+00
         0.00000E+00
         0.00000E+00
         0.00000E+00
         0.00000E+00
         0.00000E+00
         0.00000E+00
         0.00000E+00
         0.00000E+00
         0.00000E+00
         0.00000E+00
         0.00000E+00
         0.00000E+00
         0.00000E+00
         0.00000E+00
         0.00000E+00
         0.00000E+00
         0.00000E+00
         0.00000E+00
         0.00000E+00
         0.00000E+00
         0.00000E+00
         0.00000E+00
         0.00000E+00
         0.00000E+00
         0.00000E+00
         0.00000E+00
         0.00000E+00
         0.00000E+00
         0.00000E+00
         0.00000E+00
         0.00000E+00
         0.00000E+00
         0.00000E+00
         0.00000E+00
         0.00000E+00
         0.00000E+00
         0.00000E+00
         0.00000E+00
         0.00000E+00
         0.00000E+00
         0.00000E+00
         0.00000E+00
         0.00000E+00
         0.00000E+00
         0.00000E+00
         0.00000E+00
         0.00000E+00
         0.00000E+00
         0.00000E+00
         0.00000E+00
         0.00000E+00
         0.00000E+00
         0.00000E+00
         0.00000E+00
         0.00000E+00
         0.00000E+00
         0.00000E+00
         0.00000E+00
         0.00000E+00
         0.00000E+00
         0.00000E+00
         0.00000E+00
         0.00000E+00
         0.00000E+00
         0.00000E+00
         0.00000E+00
         0.00000E+00
         0.00000E+00
         0.00000E+00
         0.00000E+00
         0.00000E+00
         0.00000E+00
         0.00000E+00
         0.00000E+00
         0.00000E+00
         0.00000E+00
         0.00000E+00
         0.00000E+00
         0.00000E+00
         0.00000E+00
         0.00000E+00
         0.00000E+00
         0.00000E+00
         0.00000E+00
         0.00000E+00
         0.00000E+00
         0.00000E+00
         0.00000E+00
         0.00000E+00
         0.00000E+00
         0.00000E+00
         0.00000E+00
         0.00000E+00
         0.00000E+00
         0.00000E+00
         0.00000E+00
         0.00000E+00
         0.00000E+00
         0.00000E+00
         0.00000E+00
         0.00000E+00
         0.00000E+00
         0.00000E+00
         0.00000E+00
         0.00000E+00
         0.00000E+00
         0.00000E+00
         0.00000E+00
         0.00000E+00
         0.00000E+00
         0.00000E+00
         0.00000E+00
         0.00000E+00
         0.00000E+00
         0.00000E+00
         0.00000E+00
         0.00000E+00
         0.00000E+00
         0.00000E+00
         0.00000E+00
         0.00000E+00
         0.00000E+00
         0.00000E+00
         0.00000E+00
         0.00000E+00
         0.00000E+00
         0.00000E+00
         0.00000E+00
         0.00000E+00
         0.00000E+00
         0.00000E+00
         0.00000E+00
         0.00000E+00
         0.00000E+00
         0.00000E+00
         0.00000E+00
         0.00000E+00
         0.00000E+00
         0.00000E+00
         0.00000E+00
         0.00000E+00
         0.00000E+00
         0.00000E+00
         0.00000E+00
         0.00000E+00
         0.00000E+00
         0.00000E+00
         0.00000E+00
         0.00000E+00
         0.00000E+00
         0.00000E+00
         0.00000E+00
         0.00000E+00
         0.00000E+00
         0.00000E+00
         0.00000E+00
         0.00000E+00
         0.00000E+00
         0.00000E+00
         0.00000E+00
         0.00000E+00
         0.00000E+00
         0.00000E+00
         0.00000E+00
         0.00000E+00
         0.00000E+00
         0.00000E+00
         0.00000E+00
         0.00000E+00
         0.00000E+00
         0.00000E+00
         0.00000E+00
         0.00000E+00
         0.00000E+00
         0.00000E+00
         0.00000E+00
         0.00000E+00
         0.00000E+00
         0.00000E+00
         0.00000E+00
         0.00000E+00
         0.00000E+00
         0.00000E+00
         0.00000E+00
         0.00000E+00
         0.00000E+00
         0.00000E+00
         0.00000E+00
         0.00000E+00
         0.00000E+00
         0.00000E+00
         0.00000E+00
         0.00000E+00
         0.00000E+00
         0.00000E+00
         0.00000E+00
         0.00000E+00
         0.00000E+00
         0.00000E+00
         0.00000E+00
         0.00000E+00
         0.00000E+00
         0.00000E+00
         0.00000E+00
         0.00000E+00
         0.00000E+00
         0.00000E+00
         0.00000E+00
         0.00000E+00
         0.00000E+00
         0.00000E+00
         0.00000E+00
         0.00000E+00
         0.00000E+00
         0.00000E+00
         0.00000E+00
         0.00000E+00
         0.00000E+00
         0.00000E+00
         0.00000E+00
         0.00000E+00
         0.00000E+00
         0.00000E+00
         0.00000E+00
         0.00000E+00
         0.00000E+00
         0.00000E+00
         0.00000E+00
         0.00000E+00
         0.00000E+00
         0.00000E+00
         0.00000E+00
         0.00000E+00
         0.00000E+00
         0.00000E+00
         0.00000E+00
         0.00000E+00
         0.00000E+00
         0.00000E+00
         0.00000E+00
         0.00000E+00
         0.00000E+00
         0.00000E+00
         0.00000E+00
         0.00000E+00
         0.00000E+00
         0.00000E+00
         0.00000E+00
         0.00000E+00
         0.00000E+00
         0.00000E+00
         0.00000E+00
         0.00000E+00
         0.00000E+00
         0.00000E+00
         0.00000E+00
         0.00000E+00
         0.00000E+00
         0.00000E+00
         0.00000E+00
         0.00000E+00
         0.00000E+00
         0.00000E+00
         0.00000E+00
         0.00000E+00
         0.00000E+00
         0.00000E+00
         0.00000E+00
         0.00000E+00
         0.00000E+00
         0.00000E+00
         0.00000E+00
         0.00000E+00
         0.00000E+00
         0.00000E+00
         0.00000E+00
         0.00000E+00
         0.00000E+00
         0.00000E+00
         0.00000E+00
         0.00000E+00
         0.00000E+00
         0.00000E+00
         0.00000E+00
         0.00000E+00
         0.00000E+00
         0.00000E+00
         0.00000E+00
         0.00000E+00
         0.00000E+00
         0.00000E+00
         0.00000E+00
         0.00000E+00
         0.00000E+00
         0.00000E+00
         0.00000E+00
         0.00000E+00
         0.00000E+00
         0.00000E+00
         0.00000E+00
         0.00000E+00
         0.00000E+00
         0.00000E+00
         0.00000E+00
         0.00000E+00
         0.00000E+00
         0.00000E+00
         0.00000E+00
         0.00000E+00
         0.00000E+00
         0.00000E+00
         0.00000E+00
         0.00000E+00
         0.00000E+00
         0.00000E+00
         0.00000E+00
         0.00000E+00
         0.00000E+00
  
SCALARS        characteristic_distance  double 1
LOOKUP_TABLE default
         0.00000E+00
         0.00000E+00
         0.00000E+00
         0.00000E+00
         0.00000E+00
         0.00000E+00
         0.00000E+00
         0.00000E+00
         0.00000E+00
         0.00000E+00
         0.00000E+00
         0.00000E+00
         0.00000E+00
         0.00000E+00
         0.00000E+00
         0.00000E+00
         0.00000E+00
         0.00000E+00
         0.00000E+00
         0.00000E+00
         0.00000E+00
         0.00000E+00
         0.00000E+00
         0.00000E+00
         0.00000E+00
         0.00000E+00
         0.00000E+00
         0.00000E+00
         0.00000E+00
         0.00000E+00
         0.00000E+00
         0.00000E+00
         0.00000E+00
         0.00000E+00
         0.00000E+00
         0.00000E+00
         0.00000E+00
         0.00000E+00
         0.00000E+00
         0.00000E+00
         0.00000E+00
         0.00000E+00
         0.00000E+00
         0.00000E+00
         0.00000E+00
         0.00000E+00
         0.00000E+00
         0.00000E+00
         0.00000E+00
         0.00000E+00
         0.00000E+00
         0.00000E+00
         0.00000E+00
         0.00000E+00
         0.00000E+00
         0.00000E+00
         0.00000E+00
         0.00000E+00
         0.00000E+00
         0.00000E+00
         0.00000E+00
         0.00000E+00
         0.00000E+00
         0.00000E+00
         0.00000E+00
         0.00000E+00
         0.00000E+00
         0.00000E+00
         0.00000E+00
         0.00000E+00
         0.00000E+00
         0.00000E+00
         0.00000E+00
         0.00000E+00
         0.00000E+00
         0.00000E+00
         0.00000E+00
         0.00000E+00
         0.00000E+00
         0.00000E+00
         0.00000E+00
         0.00000E+00
         0.00000E+00
         0.00000E+00
         0.00000E+00
         0.00000E+00
         0.00000E+00
         0.00000E+00
         0.00000E+00
         0.00000E+00
         0.00000E+00
         0.00000E+00
         0.00000E+00
         0.00000E+00
         0.00000E+00
         0.00000E+00
         0.00000E+00
         0.00000E+00
         0.00000E+00
         0.00000E+00
         0.00000E+00
         0.00000E+00
         0.00000E+00
         0.00000E+00
         0.00000E+00
         0.00000E+00
         0.00000E+00
         0.00000E+00
         0.00000E+00
         0.00000E+00
         0.00000E+00
         0.00000E+00
         0.00000E+00
         0.00000E+00
         0.00000E+00
         0.00000E+00
         0.00000E+00
         0.00000E+00
         0.00000E+00
         0.00000E+00
         0.00000E+00
         0.00000E+00
         0.00000E+00
         0.00000E+00
         0.00000E+00
         0.00000E+00
         0.00000E+00
         0.00000E+00
         0.00000E+00
         0.00000E+00
         0.00000E+00
         0.00000E+00
         0.00000E+00
         0.00000E+00
         0.00000E+00
         0.00000E+00
         0.00000E+00
         0.00000E+00
         0.00000E+00
         0.00000E+00
         0.00000E+00
         0.00000E+00
         0.00000E+00
         0.00000E+00
         0.00000E+00
         0.00000E+00
         0.00000E+00
         0.00000E+00
         0.00000E+00
         0.00000E+00
         0.00000E+00
         0.00000E+00
         0.00000E+00
         0.00000E+00
         0.00000E+00
         0.00000E+00
         0.00000E+00
         0.00000E+00
         0.00000E+00
         0.00000E+00
         0.00000E+00
         0.00000E+00
         0.00000E+00
         0.00000E+00
         0.00000E+00
         0.00000E+00
         0.00000E+00
         0.00000E+00
         0.00000E+00
         0.00000E+00
         0.00000E+00
         0.00000E+00
         0.00000E+00
         0.00000E+00
         0.00000E+00
         0.00000E+00
         0.00000E+00
         0.00000E+00
         0.00000E+00
         0.00000E+00
         0.00000E+00
         0.00000E+00
         0.00000E+00
         0.00000E+00
         0.00000E+00
         0.00000E+00
         0.00000E+00
         0.00000E+00
         0.00000E+00
         0.00000E+00
         0.00000E+00
         0.00000E+00
         0.00000E+00
         0.00000E+00
         0.00000E+00
         0.00000E+00
         0.00000E+00
         0.00000E+00
         0.00000E+00
         0.00000E+00
         0.00000E+00
         0.00000E+00
         0.00000E+00
         0.00000E+00
         0.00000E+00
         0.00000E+00
         0.00000E+00
         0.00000E+00
         0.00000E+00
         0.00000E+00
         0.00000E+00
         0.00000E+00
         0.00000E+00
         0.00000E+00
         0.00000E+00
         0.00000E+00
         0.00000E+00
         0.00000E+00
         0.00000E+00
         0.00000E+00
         0.00000E+00
         0.00000E+00
         0.00000E+00
         0.00000E+00
         0.00000E+00
         0.00000E+00
         0.00000E+00
         0.00000E+00
         0.00000E+00
         0.00000E+00
         0.00000E+00
         0.00000E+00
         0.00000E+00
         0.00000E+00
         0.00000E+00
         0.00000E+00
         0.00000E+00
         0.00000E+00
         0.00000E+00
         0.00000E+00
         0.00000E+00
         0.00000E+00
         0.00000E+00
         0.00000E+00
         0.00000E+00
         0.00000E+00
         0.00000E+00
         0.00000E+00
         0.00000E+00
         0.00000E+00
         0.00000E+00
         0.00000E+00
         0.00000E+00
         0.00000E+00
         0.00000E+00
         0.00000E+00
         0.00000E+00
         0.00000E+00
         0.00000E+00
         0.00000E+00
         0.00000E+00
         0.00000E+00
         0.00000E+00
         0.00000E+00
         0.00000E+00
         0.00000E+00
         0.00000E+00
         0.00000E+00
         0.00000E+00
         0.00000E+00
         0.00000E+00
         0.00000E+00
         0.00000E+00
         0.00000E+00
         0.00000E+00
         0.00000E+00
         0.00000E+00
         0.00000E+00
         0.00000E+00
         0.00000E+00
         0.00000E+00
         0.00000E+00
         0.00000E+00
         0.00000E+00
         0.00000E+00
         0.00000E+00
         0.00000E+00
         0.00000E+00
         0.00000E+00
         0.00000E+00
         0.00000E+00
         0.00000E+00
         0.00000E+00
         0.00000E+00
         0.00000E+00
         0.00000E+00
         0.00000E+00
         0.00000E+00
         0.00000E+00
         0.00000E+00
         0.00000E+00
         0.00000E+00
         0.00000E+00
         0.00000E+00
         0.00000E+00
         0.00000E+00
         0.00000E+00
         0.00000E+00
         0.00000E+00
         0.00000E+00
         0.00000E+00
         0.00000E+00
         0.00000E+00
         0.00000E+00
         0.00000E+00
         0.00000E+00
         0.00000E+00
         0.00000E+00
         0.00000E+00
         0.00000E+00
         0.00000E+00
         0.00000E+00
         0.00000E+00
         0.00000E+00
         0.00000E+00
         0.00000E+00
         0.00000E+00
         0.00000E+00
         0.00000E+00
         0.00000E+00
         0.00000E+00
         0.00000E+00
         0.00000E+00
         0.00000E+00
         0.00000E+00
         0.00000E+00
         0.00000E+00
         0.00000E+00
         0.00000E+00
         0.00000E+00
         0.00000E+00
         0.00000E+00
         0.00000E+00
         0.00000E+00
         0.00000E+00
         0.00000E+00
         0.00000E+00
         0.00000E+00
         0.00000E+00
         0.00000E+00
         0.00000E+00
         0.00000E+00
         0.00000E+00
         0.00000E+00
         0.00000E+00
         0.00000E+00
         0.00000E+00
         0.00000E+00
         0.00000E+00
         0.00000E+00
         0.00000E+00
         0.00000E+00
         0.00000E+00
         0.00000E+00
         0.00000E+00
         0.00000E+00
         0.00000E+00
         0.00000E+00
         0.00000E+00
         0.00000E+00
         0.00000E+00
         0.00000E+00
         0.00000E+00
         0.00000E+00
         0.00000E+00
         0.00000E+00
         0.00000E+00
         0.00000E+00
         0.00000E+00
         0.00000E+00
         0.00000E+00
         0.00000E+00
         0.00000E+00
         0.00000E+00
         0.00000E+00
         0.00000E+00
         0.00000E+00
         0.00000E+00
         0.00000E+00
         0.00000E+00
         0.00000E+00
         0.00000E+00
         0.00000E+00
         0.00000E+00
         0.00000E+00
         0.00000E+00
         0.00000E+00
         0.00000E+00
         0.00000E+00
         0.00000E+00
         0.00000E+00
         0.00000E+00
         0.00000E+00
         0.00000E+00
         0.00000E+00
         0.00000E+00
         0.00000E+00
         0.00000E+00
         0.00000E+00
         0.00000E+00
         0.00000E+00
         0.00000E+00
         0.00000E+00
         0.00000E+00
         0.00000E+00
         0.00000E+00
         0.00000E+00
         0.00000E+00
         0.00000E+00
         0.00000E+00
         0.00000E+00
         0.00000E+00
         0.00000E+00
         0.00000E+00
         0.00000E+00
         0.00000E+00
         0.00000E+00
         0.00000E+00
         0.00000E+00
         0.00000E+00
         0.00000E+00
         0.00000E+00
         0.00000E+00
         0.00000E+00
         0.00000E+00
         0.00000E+00
         0.00000E+00
         0.00000E+00
         0.00000E+00
         0.00000E+00
         0.00000E+00
         0.00000E+00
         0.00000E+00
         0.00000E+00
         0.00000E+00
         0.00000E+00
         0.00000E+00
         0.00000E+00
         0.00000E+00
         0.00000E+00
         0.00000E+00
         0.00000E+00
         0.00000E+00
         0.00000E+00
         0.00000E+00
         0.00000E+00
         0.00000E+00
         0.00000E+00
         0.00000E+00
         0.00000E+00
         0.00000E+00
         0.00000E+00
         0.00000E+00
         0.00000E+00
         0.00000E+00
         0.00000E+00
         0.00000E+00
         0.00000E+00
         0.00000E+00
         0.00000E+00
         0.00000E+00
         0.00000E+00
         0.00000E+00
         0.00000E+00
         0.00000E+00
         0.00000E+00
         0.00000E+00
         0.00000E+00
         0.00000E+00
         0.00000E+00
         0.00000E+00
         0.00000E+00
         0.00000E+00
         0.00000E+00
         0.00000E+00
         0.00000E+00
         0.00000E+00
         0.00000E+00
         0.00000E+00
         0.00000E+00
         0.00000E+00
         0.00000E+00
         0.00000E+00
         0.00000E+00
         0.00000E+00
         0.00000E+00
         0.00000E+00
         0.00000E+00
         0.00000E+00
         0.00000E+00
         0.00000E+00
         0.00000E+00
         0.00000E+00
         0.00000E+00
         0.00000E+00
         0.00000E+00
         0.00000E+00
         0.00000E+00
         0.00000E+00
         0.00000E+00
         0.00000E+00
         0.00000E+00
         0.00000E+00
         0.00000E+00
         0.00000E+00
         0.00000E+00
         0.00000E+00
         0.00000E+00
         0.00000E+00
         0.00000E+00
         0.00000E+00
         0.00000E+00
         0.00000E+00
         0.00000E+00
         0.00000E+00
         0.00000E+00
         0.00000E+00
         0.00000E+00
         0.00000E+00
         0.00000E+00
         0.00000E+00
         0.00000E+00
         0.00000E+00
         0.00000E+00
         0.00000E+00
         0.00000E+00
         0.00000E+00
         0.00000E+00
         0.00000E+00
         0.00000E+00
         0.00000E+00
         0.00000E+00
         0.00000E+00
         0.00000E+00
         0.00000E+00
         0.00000E+00
         0.00000E+00
         0.00000E+00
         0.00000E+00
         0.00000E+00
         0.00000E+00
         0.00000E+00
         0.00000E+00
         0.00000E+00
         0.00000E+00
         0.00000E+00
         0.00000E+00
         0.00000E+00
         0.00000E+00
         0.00000E+00
         0.00000E+00
         0.00000E+00
         0.00000E+00
         0.00000E+00
         0.00000E+00
         0.00000E+00
         0.00000E+00
         0.00000E+00
         0.00000E+00
         0.00000E+00
         0.00000E+00
         0.00000E+00
         0.00000E+00
         0.00000E+00
         0.00000E+00
         0.00000E+00
         0.00000E+00
         0.00000E+00
         0.00000E+00
         0.00000E+00
         0.00000E+00
         0.00000E+00
         0.00000E+00
         0.00000E+00
         0.00000E+00
         0.00000E+00
         0.00000E+00
         0.00000E+00
         0.00000E+00
         0.00000E+00
         0.00000E+00
         0.00000E+00
         0.00000E+00
         0.00000E+00
         0.00000E+00
         0.00000E+00
         0.00000E+00
         0.00000E+00
         0.00000E+00
         0.00000E+00
         0.00000E+00
         0.00000E+00
         0.00000E+00
         0.00000E+00
         0.00000E+00
         0.00000E+00
         0.00000E+00
         0.00000E+00
         0.00000E+00
         0.00000E+00
         0.00000E+00
         0.00000E+00
         0.00000E+00
         0.00000E+00
         0.00000E+00
         0.00000E+00
         0.00000E+00
         0.00000E+00
         0.00000E+00
         0.00000E+00
         0.00000E+00
         0.00000E+00
         0.00000E+00
         0.00000E+00
         0.00000E+00
         0.00000E+00
         0.00000E+00
         0.00000E+00
         0.00000E+00
         0.00000E+00
         0.00000E+00
         0.00000E+00
         0.00000E+00
         0.00000E+00
         0.00000E+00
         0.00000E+00
         0.00000E+00
         0.00000E+00
         0.00000E+00
         0.00000E+00
         0.00000E+00
         0.00000E+00
         0.00000E+00
         0.00000E+00
         0.00000E+00
         0.00000E+00
         0.00000E+00
         0.00000E+00
         0.00000E+00
         0.00000E+00
         0.00000E+00
         0.00000E+00
         0.00000E+00
         0.00000E+00
         0.00000E+00
         0.00000E+00
         0.00000E+00
         0.00000E+00
         0.00000E+00
         0.00000E+00
         0.00000E+00
         0.00000E+00
         0.00000E+00
         0.00000E+00
         0.00000E+00
         0.00000E+00
         0.00000E+00
         0.00000E+00
         0.00000E+00
         0.00000E+00
         0.00000E+00
         0.00000E+00
         0.00000E+00
         0.00000E+00
         0.00000E+00
         0.00000E+00
         0.00000E+00
         0.00000E+00
         0.00000E+00
         0.00000E+00
         0.00000E+00
         0.00000E+00
         0.00000E+00
         0.00000E+00
         0.00000E+00
         0.00000E+00
         0.00000E+00
         0.00000E+00
         0.00000E+00
         0.00000E+00
         0.00000E+00
         0.00000E+00
         0.00000E+00
         0.00000E+00
         0.00000E+00
         0.00000E+00
         0.00000E+00
         0.00000E+00
         0.00000E+00
         0.00000E+00
         0.00000E+00
         0.00000E+00
         0.00000E+00
         0.00000E+00
         0.00000E+00
         0.00000E+00
         0.00000E+00
         0.00000E+00
         0.00000E+00
         0.00000E+00
         0.00000E+00
         0.00000E+00
         0.00000E+00
         0.00000E+00
         0.00000E+00
         0.00000E+00
         0.00000E+00
         0.00000E+00
         0.00000E+00
         0.00000E+00
         0.00000E+00
         0.00000E+00
         0.00000E+00
         0.00000E+00
         0.00000E+00
         0.00000E+00
         0.00000E+00
         0.00000E+00
         0.00000E+00
         0.00000E+00
         0.00000E+00
         0.00000E+00
         0.00000E+00
         0.00000E+00
         0.00000E+00
         0.00000E+00
         0.00000E+00
         0.00000E+00
         0.00000E+00
         0.00000E+00
         0.00000E+00
         0.00000E+00
         0.00000E+00
         0.00000E+00
         0.00000E+00
         0.00000E+00
         0.00000E+00
         0.00000E+00
         0.00000E+00
         0.00000E+00
         0.00000E+00
         0.00000E+00
         0.00000E+00
         0.00000E+00
         0.00000E+00
         0.00000E+00
         0.00000E+00
         0.00000E+00
         0.00000E+00
         0.00000E+00
         0.00000E+00
         0.00000E+00
         0.00000E+00
         0.00000E+00
         0.00000E+00
         0.00000E+00
         0.00000E+00
         0.00000E+00
         0.00000E+00
         0.00000E+00
         0.00000E+00
         0.00000E+00
         0.00000E+00
         0.00000E+00
         0.00000E+00
         0.00000E+00
         0.00000E+00
         0.00000E+00
         0.00000E+00
         0.00000E+00
         0.00000E+00
         0.00000E+00
         0.00000E+00
         0.00000E+00
         0.00000E+00
         0.00000E+00
         0.00000E+00
         0.00000E+00
         0.00000E+00
         0.00000E+00
         0.00000E+00
         0.00000E+00
         0.00000E+00
         0.00000E+00
         0.00000E+00
         0.00000E+00
         0.00000E+00
         0.00000E+00
         0.00000E+00
         0.00000E+00
         0.00000E+00
         0.00000E+00
         0.00000E+00
         0.00000E+00
         0.00000E+00
         0.00000E+00
         0.00000E+00
         0.00000E+00
         0.00000E+00
         0.00000E+00
         0.00000E+00
         0.00000E+00
         0.00000E+00
         0.00000E+00
         0.00000E+00
         0.00000E+00
         0.00000E+00
         0.00000E+00
         0.00000E+00
         0.00000E+00
         0.00000E+00
         0.00000E+00
         0.00000E+00
         0.00000E+00
         0.00000E+00
         0.00000E+00
         0.00000E+00
         0.00000E+00
         0.00000E+00
         0.00000E+00
         0.00000E+00
         0.00000E+00
         0.00000E+00
         0.00000E+00
         0.00000E+00
         0.00000E+00
         0.00000E+00
         0.00000E+00
         0.00000E+00
         0.00000E+00
         0.00000E+00
         0.00000E+00
         0.00000E+00
         0.00000E+00
         0.00000E+00
         0.00000E+00
         0.00000E+00
         0.00000E+00
         0.00000E+00
         0.00000E+00
         0.00000E+00
         0.00000E+00
         0.00000E+00
         0.00000E+00
         0.00000E+00
         0.00000E+00
         0.00000E+00
         0.00000E+00
         0.00000E+00
         0.00000E+00
         0.00000E+00
         0.00000E+00
         0.00000E+00
         0.00000E+00
         0.00000E+00
         0.00000E+00
         0.00000E+00
         0.00000E+00
         0.00000E+00
         0.00000E+00
         0.00000E+00
         0.00000E+00
         0.00000E+00
         0.00000E+00
         0.00000E+00
         0.00000E+00
         0.00000E+00
         0.00000E+00
         0.00000E+00
         0.00000E+00
         0.00000E+00
         0.00000E+00
         0.00000E+00
         0.00000E+00
         0.00000E+00
         0.00000E+00
         0.00000E+00
         0.00000E+00
         0.00000E+00
         0.00000E+00
         0.00000E+00
         0.00000E+00
         0.00000E+00
         0.00000E+00
         0.00000E+00
         0.00000E+00
         0.00000E+00
         0.00000E+00
         0.00000E+00
         0.00000E+00
         0.00000E+00
         0.00000E+00
         0.00000E+00
         0.00000E+00
         0.00000E+00
         0.00000E+00
         0.00000E+00
         0.00000E+00
         0.00000E+00
         0.00000E+00
         0.00000E+00
         0.00000E+00
         0.00000E+00
         0.00000E+00
         0.00000E+00
         0.00000E+00
         0.00000E+00
         0.00000E+00
         0.00000E+00
         0.00000E+00
         0.00000E+00
         0.00000E+00
         0.00000E+00
         0.00000E+00
         0.00000E+00
         0.00000E+00
         0.00000E+00
         0.00000E+00
         0.00000E+00
         0.00000E+00
         0.00000E+00
         0.00000E+00
         0.00000E+00
         0.00000E+00
         0.00000E+00
         0.00000E+00
         0.00000E+00
         0.00000E+00
         0.00000E+00
         0.00000E+00
         0.00000E+00
         0.00000E+00
         0.00000E+00
         0.00000E+00
         0.00000E+00
         0.00000E+00
         0.00000E+00
         0.00000E+00
         0.00000E+00
         0.00000E+00
         0.00000E+00
         0.00000E+00
         0.00000E+00
         0.00000E+00
         0.00000E+00
         0.00000E+00
         0.00000E+00
         0.00000E+00
         0.00000E+00
         0.00000E+00
         0.00000E+00
         0.00000E+00
         0.00000E+00
         0.00000E+00
         0.00000E+00
         0.00000E+00
         0.00000E+00
         0.00000E+00
         0.00000E+00
         0.00000E+00
         0.00000E+00
         0.00000E+00
         0.00000E+00
         0.00000E+00
         0.00000E+00
         0.00000E+00
         0.00000E+00
         0.00000E+00
         0.00000E+00
         0.00000E+00
         0.00000E+00
         0.00000E+00
         0.00000E+00
         0.00000E+00
         0.00000E+00
         0.00000E+00
         0.00000E+00
         0.00000E+00
         0.00000E+00
         0.00000E+00
         0.00000E+00
         0.00000E+00
         0.00000E+00
         0.00000E+00
         0.00000E+00
         0.00000E+00
         0.00000E+00
         0.00000E+00
         0.00000E+00
         0.00000E+00
         0.00000E+00
         0.00000E+00
         0.00000E+00
         0.00000E+00
         0.00000E+00
         0.00000E+00
         0.00000E+00
         0.00000E+00
         0.00000E+00
         0.00000E+00
         0.00000E+00
         0.00000E+00
         0.00000E+00
         0.00000E+00
         0.00000E+00
         0.00000E+00
         0.00000E+00
         0.00000E+00
         0.00000E+00
         0.00000E+00
         0.00000E+00
         0.00000E+00
         0.00000E+00
         0.00000E+00
         0.00000E+00
         0.00000E+00
         0.00000E+00
         0.00000E+00
         0.00000E+00
         0.00000E+00
         0.00000E+00
         0.00000E+00
         0.00000E+00
         0.00000E+00
         0.00000E+00
         0.00000E+00
         0.00000E+00
         0.00000E+00
         0.00000E+00
         0.00000E+00
         0.00000E+00
         0.00000E+00
         0.00000E+00
         0.00000E+00
         0.00000E+00
         0.00000E+00
         0.00000E+00
         0.00000E+00
         0.00000E+00
         0.00000E+00
         0.00000E+00
         0.00000E+00
         0.00000E+00
         0.00000E+00
         0.00000E+00
         0.00000E+00
         0.00000E+00
         0.00000E+00
         0.00000E+00
         0.00000E+00
         0.00000E+00
         0.00000E+00
         0.00000E+00
         0.00000E+00
         0.00000E+00
         0.00000E+00
         0.00000E+00
         0.00000E+00
         0.00000E+00
         0.00000E+00
         0.00000E+00
         0.00000E+00
         0.00000E+00
         0.00000E+00
         0.00000E+00
         0.00000E+00
         0.00000E+00
         0.00000E+00
         0.00000E+00
         0.00000E+00
         0.00000E+00
         0.00000E+00
         0.00000E+00
         0.00000E+00
         0.00000E+00
         0.00000E+00
         0.00000E+00
         0.00000E+00
         0.00000E+00
         0.00000E+00
         0.00000E+00
         0.00000E+00
         0.00000E+00
         0.00000E+00
         0.00000E+00
         0.00000E+00
         0.00000E+00
         0.00000E+00
         0.00000E+00
         0.00000E+00
         0.00000E+00
         0.00000E+00
         0.00000E+00
         0.00000E+00
         0.00000E+00
         0.00000E+00
         0.00000E+00
         0.00000E+00
         0.00000E+00
         0.00000E+00
         0.00000E+00
         0.00000E+00
         0.00000E+00
         0.00000E+00
         0.00000E+00
         0.00000E+00
         0.00000E+00
         0.00000E+00
         0.00000E+00
         0.00000E+00
         0.00000E+00
         0.00000E+00
         0.00000E+00
         0.00000E+00
         0.00000E+00
         0.00000E+00
         0.00000E+00
         0.00000E+00
         0.00000E+00
         0.00000E+00
         0.00000E+00
         0.00000E+00
         0.00000E+00
         0.00000E+00
         0.00000E+00
         0.00000E+00
         0.00000E+00
         0.00000E+00
         0.00000E+00
         0.00000E+00
         0.00000E+00
         0.00000E+00
         0.00000E+00
         0.00000E+00
         0.00000E+00
         0.00000E+00
         0.00000E+00
         0.00000E+00
         0.00000E+00
         0.00000E+00
         0.00000E+00
         0.00000E+00
         0.00000E+00
         0.00000E+00
         0.00000E+00
         0.00000E+00
         0.00000E+00
         0.00000E+00
         0.00000E+00
         0.00000E+00
         0.00000E+00
         0.00000E+00
         0.00000E+00
         0.00000E+00
         0.00000E+00
         0.00000E+00
         0.00000E+00
         0.00000E+00
         0.00000E+00
         0.00000E+00
         0.00000E+00
         0.00000E+00
         0.00000E+00
         0.00000E+00
         0.00000E+00
         0.00000E+00
         0.00000E+00
         0.00000E+00
         0.00000E+00
         0.00000E+00
         0.00000E+00
         0.00000E+00
         0.00000E+00
         0.00000E+00
         0.00000E+00
         0.00000E+00
         0.00000E+00
         0.00000E+00
         0.00000E+00
         0.00000E+00
         0.00000E+00
         0.00000E+00
         0.00000E+00
         0.00000E+00
         0.00000E+00
         0.00000E+00
         0.00000E+00
         0.00000E+00
         0.00000E+00
         0.00000E+00
         0.00000E+00
         0.00000E+00
         0.00000E+00
         0.00000E+00
         0.00000E+00
         0.00000E+00
         0.00000E+00
         0.00000E+00
         0.00000E+00
         0.00000E+00
         0.00000E+00
         0.00000E+00
         0.00000E+00
         0.00000E+00
         0.00000E+00
         0.00000E+00
         0.00000E+00
         0.00000E+00
         0.00000E+00
         0.00000E+00
         0.00000E+00
         0.00000E+00
         0.00000E+00
         0.00000E+00
         0.00000E+00
         0.00000E+00
         0.00000E+00
         0.00000E+00
         0.00000E+00
         0.00000E+00
         0.00000E+00
         0.00000E+00
         0.00000E+00
         0.00000E+00
         0.00000E+00
         0.00000E+00
         0.00000E+00
         0.00000E+00
         0.00000E+00
         0.00000E+00
         0.00000E+00
         0.00000E+00
         0.00000E+00
         0.00000E+00
         0.00000E+00
         0.00000E+00
         0.00000E+00
         0.00000E+00
         0.00000E+00
         0.00000E+00
         0.00000E+00
         0.00000E+00
         0.00000E+00
         0.00000E+00
         0.00000E+00
         0.00000E+00
         0.00000E+00
         0.00000E+00
         0.00000E+00
         0.00000E+00
         0.00000E+00
         0.00000E+00
         0.00000E+00
         0.00000E+00
         0.00000E+00
         0.00000E+00
         0.00000E+00
         0.00000E+00
         0.00000E+00
         0.00000E+00
         0.00000E+00
         0.00000E+00
         0.00000E+00
         0.00000E+00
         0.00000E+00
         0.00000E+00
         0.00000E+00
         0.00000E+00
         0.00000E+00
         0.00000E+00
         0.00000E+00
         0.00000E+00
         0.00000E+00
         0.00000E+00
         0.00000E+00
         0.00000E+00
         0.00000E+00
         0.00000E+00
         0.00000E+00
         0.00000E+00
         0.00000E+00
         0.00000E+00
         0.00000E+00
         0.00000E+00
         0.00000E+00
         0.00000E+00
         0.00000E+00
         0.00000E+00
         0.00000E+00
         0.00000E+00
         0.00000E+00
         0.00000E+00
         0.00000E+00
         0.00000E+00
         0.00000E+00
         0.00000E+00
         0.00000E+00
         0.00000E+00
         0.00000E+00
         0.00000E+00
         0.00000E+00
         0.00000E+00
         0.00000E+00
         0.00000E+00
         0.00000E+00
         0.00000E+00
         0.00000E+00
         0.00000E+00
         0.00000E+00
         0.00000E+00
         0.00000E+00
         0.00000E+00
         0.00000E+00
         0.00000E+00
         0.00000E+00
         0.00000E+00
         0.00000E+00
         0.00000E+00
         0.00000E+00
         0.00000E+00
         0.00000E+00
         0.00000E+00
         0.00000E+00
         0.00000E+00
         0.00000E+00
         0.00000E+00
         0.00000E+00
         0.00000E+00
         0.00000E+00
         0.00000E+00
         0.00000E+00
         0.00000E+00
         0.00000E+00
         0.00000E+00
         0.00000E+00
         0.00000E+00
         0.00000E+00
         0.00000E+00
         0.00000E+00
         0.00000E+00
         0.00000E+00
         0.00000E+00
         0.00000E+00
         0.00000E+00
         0.00000E+00
         0.00000E+00
         0.00000E+00
         0.00000E+00
         0.00000E+00
         0.00000E+00
         0.00000E+00
         0.00000E+00
         0.00000E+00
         0.00000E+00
         0.00000E+00
         0.00000E+00
         0.00000E+00
         0.00000E+00
         0.00000E+00
         0.00000E+00
         0.00000E+00
         0.00000E+00
         0.00000E+00
         0.00000E+00
         0.00000E+00
         0.00000E+00
         0.00000E+00
         0.00000E+00
         0.00000E+00
         0.00000E+00
         0.00000E+00
         0.00000E+00
         0.00000E+00
         0.00000E+00
         0.00000E+00
         0.00000E+00
         0.00000E+00
         0.00000E+00
         0.00000E+00
         0.00000E+00
         0.00000E+00
         0.00000E+00
         0.00000E+00
         0.00000E+00
         0.00000E+00
         0.00000E+00
         0.00000E+00
         0.00000E+00
         0.00000E+00
         0.00000E+00
         0.00000E+00
         0.00000E+00
         0.00000E+00
         0.00000E+00
         0.00000E+00
         0.00000E+00
         0.00000E+00
         0.00000E+00
         0.00000E+00
         0.00000E+00
         0.00000E+00
         0.00000E+00
         0.00000E+00
         0.00000E+00
         0.00000E+00
         0.00000E+00
         0.00000E+00
         0.00000E+00
         0.00000E+00
         0.00000E+00
         0.00000E+00
         0.00000E+00
         0.00000E+00
         0.00000E+00
         0.00000E+00
         0.00000E+00
         0.00000E+00
         0.00000E+00
         0.00000E+00
         0.00000E+00
         0.00000E+00
         0.00000E+00
         0.00000E+00
         0.00000E+00
         0.00000E+00
         0.00000E+00
         0.00000E+00
         0.00000E+00
         0.00000E+00
         0.00000E+00
         0.00000E+00
         0.00000E+00
         0.00000E+00
         0.00000E+00
         0.00000E+00
         0.00000E+00
         0.00000E+00
         0.00000E+00
         0.00000E+00
         0.00000E+00
         0.00000E+00
         0.00000E+00
         0.00000E+00
         0.00000E+00
         0.00000E+00
         0.00000E+00
         0.00000E+00
         0.00000E+00
         0.00000E+00
         0.00000E+00
         0.00000E+00
         0.00000E+00
         0.00000E+00
         0.00000E+00
         0.00000E+00
         0.00000E+00
         0.00000E+00
         0.00000E+00
         0.00000E+00
         0.00000E+00
         0.00000E+00
         0.00000E+00
         0.00000E+00
         0.00000E+00
         0.00000E+00
         0.00000E+00
         0.00000E+00
         0.00000E+00
         0.00000E+00
         0.00000E+00
         0.00000E+00
         0.00000E+00
         0.00000E+00
         0.00000E+00
         0.00000E+00
         0.00000E+00
         0.00000E+00
         0.00000E+00
         0.00000E+00
         0.00000E+00
         0.00000E+00
         0.00000E+00
         0.00000E+00
         0.00000E+00
         0.00000E+00
         0.00000E+00
         0.00000E+00
         0.00000E+00
         0.00000E+00
         0.00000E+00
         0.00000E+00
         0.00000E+00
         0.00000E+00
         0.00000E+00
         0.00000E+00
         0.00000E+00
         0.00000E+00
         0.00000E+00
         0.00000E+00
         0.00000E+00
         0.00000E+00
         0.00000E+00
         0.00000E+00
         0.00000E+00
         0.00000E+00
         0.00000E+00
         0.00000E+00
         0.00000E+00
         0.00000E+00
         0.00000E+00
         0.00000E+00
         0.00000E+00
         0.00000E+00
         0.00000E+00
         0.00000E+00
         0.00000E+00
         0.00000E+00
         0.00000E+00
         0.00000E+00
         0.00000E+00
         0.00000E+00
         0.00000E+00
         0.00000E+00
         0.00000E+00
         0.00000E+00
         0.00000E+00
         0.00000E+00
         0.00000E+00
         0.00000E+00
         0.00000E+00
         0.00000E+00
         0.00000E+00
         0.00000E+00
         0.00000E+00
         0.00000E+00
         0.00000E+00
         0.00000E+00
         0.00000E+00
         0.00000E+00
         0.00000E+00
         0.00000E+00
         0.00000E+00
         0.00000E+00
         0.00000E+00
         0.00000E+00
         0.00000E+00
         0.00000E+00
         0.00000E+00
         0.00000E+00
         0.00000E+00
         0.00000E+00
         0.00000E+00
         0.00000E+00
         0.00000E+00
         0.00000E+00
         0.00000E+00
         0.00000E+00
         0.00000E+00
         0.00000E+00
         0.00000E+00
         0.00000E+00
         0.00000E+00
         0.00000E+00
         0.00000E+00
         0.00000E+00
         0.00000E+00
         0.00000E+00
         0.00000E+00
         0.00000E+00
         0.00000E+00
         0.00000E+00
         0.00000E+00
         0.00000E+00
         0.00000E+00
         0.00000E+00
         0.00000E+00
         0.00000E+00
         0.00000E+00
         0.00000E+00
         0.00000E+00
         0.00000E+00
         0.00000E+00
         0.00000E+00
         0.00000E+00
         0.00000E+00
         0.00000E+00
         0.00000E+00
         0.00000E+00
         0.00000E+00
         0.00000E+00
         0.00000E+00
         0.00000E+00
         0.00000E+00
         0.00000E+00
         0.00000E+00
         0.00000E+00
         0.00000E+00
         0.00000E+00
         0.00000E+00
         0.00000E+00
         0.00000E+00
         0.00000E+00
         0.00000E+00
         0.00000E+00
         0.00000E+00
         0.00000E+00
         0.00000E+00
         0.00000E+00
         0.00000E+00
         0.00000E+00
         0.00000E+00
         0.00000E+00
         0.00000E+00
         0.00000E+00
         0.00000E+00
         0.00000E+00
         0.00000E+00
         0.00000E+00
         0.00000E+00
         0.00000E+00
         0.00000E+00
         0.00000E+00
         0.00000E+00
         0.00000E+00
         0.00000E+00
         0.00000E+00
         0.00000E+00
         0.00000E+00
         0.00000E+00
         0.00000E+00
         0.00000E+00
         0.00000E+00
         0.00000E+00
         0.00000E+00
         0.00000E+00
         0.00000E+00
         0.00000E+00
         0.00000E+00
         0.00000E+00
         0.00000E+00
         0.00000E+00
         0.00000E+00
         0.00000E+00
         0.00000E+00
         0.00000E+00
         0.00000E+00
         0.00000E+00
         0.00000E+00
         0.00000E+00
         0.00000E+00
         0.00000E+00
         0.00000E+00
         0.00000E+00
         0.00000E+00
         0.00000E+00
         0.00000E+00
         0.00000E+00
         0.00000E+00
         0.00000E+00
         0.00000E+00
         0.00000E+00
         0.00000E+00
         0.00000E+00
         0.00000E+00
         0.00000E+00
         0.00000E+00
         0.00000E+00
         0.00000E+00
         0.00000E+00
         0.00000E+00
         0.00000E+00
         0.00000E+00
         0.00000E+00
         0.00000E+00
         0.00000E+00
         0.00000E+00
         0.00000E+00
         0.00000E+00
         0.00000E+00
         0.00000E+00
         0.00000E+00
         0.00000E+00
         0.00000E+00
         0.00000E+00
         0.00000E+00
         0.00000E+00
         0.00000E+00
         0.00000E+00
         0.00000E+00
         0.00000E+00
         0.00000E+00
         0.00000E+00
         0.00000E+00
         0.00000E+00
         0.00000E+00
         0.00000E+00
         0.00000E+00
         0.00000E+00
         0.00000E+00
         0.00000E+00
         0.00000E+00
         0.00000E+00
         0.00000E+00
         0.00000E+00
         0.00000E+00
         0.00000E+00
         0.00000E+00
         0.00000E+00
         0.00000E+00
         0.00000E+00
         0.00000E+00
         0.00000E+00
         0.00000E+00
         0.00000E+00
         0.00000E+00
         0.00000E+00
         0.00000E+00
         0.00000E+00
         0.00000E+00
         0.00000E+00
         0.00000E+00
         0.00000E+00
         0.00000E+00
         0.00000E+00
         0.00000E+00
         0.00000E+00
         0.00000E+00
         0.00000E+00
         0.00000E+00
         0.00000E+00
         0.00000E+00
         0.00000E+00
         0.00000E+00
         0.00000E+00
         0.00000E+00
         0.00000E+00
         0.00000E+00
         0.00000E+00
         0.00000E+00
         0.00000E+00
         0.00000E+00
         0.00000E+00
         0.00000E+00
         0.00000E+00
         0.00000E+00
         0.00000E+00
         0.00000E+00
         0.00000E+00
         0.00000E+00
         0.00000E+00
         0.00000E+00
         0.00000E+00
         0.00000E+00
         0.00000E+00
         0.00000E+00
         0.00000E+00
         0.00000E+00
         0.00000E+00
         0.00000E+00
         0.00000E+00
         0.00000E+00
         0.00000E+00
         0.00000E+00
         0.00000E+00
         0.00000E+00
         0.00000E+00
         0.00000E+00
         0.00000E+00
         0.00000E+00
         0.00000E+00
         0.00000E+00
         0.00000E+00
         0.00000E+00
         0.00000E+00
         0.00000E+00
         0.00000E+00
         0.00000E+00
         0.00000E+00
         0.00000E+00
         0.00000E+00
         0.00000E+00
         0.00000E+00
         0.00000E+00
         0.00000E+00
         0.00000E+00
         0.00000E+00
         0.00000E+00
         0.00000E+00
         0.00000E+00
         0.00000E+00
         0.00000E+00
         0.00000E+00
         0.00000E+00
         0.00000E+00
         0.00000E+00
         0.00000E+00
         0.00000E+00
         0.00000E+00
         0.00000E+00
         0.00000E+00
         0.00000E+00
         0.00000E+00
         0.00000E+00
         0.00000E+00
         0.00000E+00
         0.00000E+00
         0.00000E+00
         0.00000E+00
         0.00000E+00
         0.00000E+00
         0.00000E+00
         0.00000E+00
         0.00000E+00
         0.00000E+00
         0.00000E+00
         0.00000E+00
         0.00000E+00
         0.00000E+00
         0.00000E+00
         0.00000E+00
         0.00000E+00
         0.00000E+00
         0.00000E+00
         0.00000E+00
         0.00000E+00
         0.00000E+00
         0.00000E+00
         0.00000E+00
         0.00000E+00
         0.00000E+00
         0.00000E+00
         0.00000E+00
         0.00000E+00
         0.00000E+00
         0.00000E+00
         0.00000E+00
         0.00000E+00
         0.00000E+00
         0.00000E+00
         0.00000E+00
         0.00000E+00
         0.00000E+00
         0.00000E+00
         0.00000E+00
         0.00000E+00
         0.00000E+00
         0.00000E+00
         0.00000E+00
         0.00000E+00
         0.00000E+00
         0.00000E+00
         0.00000E+00
         0.00000E+00
         0.00000E+00
         0.00000E+00
         0.00000E+00
         0.00000E+00
         0.00000E+00
         0.00000E+00
         0.00000E+00
         0.00000E+00
         0.00000E+00
         0.00000E+00
         0.00000E+00
         0.00000E+00
         0.00000E+00
         0.00000E+00
         0.00000E+00
         0.00000E+00
         0.00000E+00
         0.00000E+00
         0.00000E+00
         0.00000E+00
         0.00000E+00
         0.00000E+00
         0.00000E+00
         0.00000E+00
         0.00000E+00
         0.00000E+00
         0.00000E+00
         0.00000E+00
         0.00000E+00
         0.00000E+00
         0.00000E+00
         0.00000E+00
         0.00000E+00
         0.00000E+00
         0.00000E+00
         0.00000E+00
         0.00000E+00
         0.00000E+00
         0.00000E+00
         0.00000E+00
         0.00000E+00
         0.00000E+00
         0.00000E+00
         0.00000E+00
         0.00000E+00
         0.00000E+00
         0.00000E+00
         0.00000E+00
         0.00000E+00
         0.00000E+00
         0.00000E+00
         0.00000E+00
         0.00000E+00
         0.00000E+00
         0.00000E+00
         0.00000E+00
         0.00000E+00
         0.00000E+00
         0.00000E+00
         0.00000E+00
         0.00000E+00
         0.00000E+00
         0.00000E+00
         0.00000E+00
         0.00000E+00
         0.00000E+00
         0.00000E+00
         0.00000E+00
         0.00000E+00
         0.00000E+00
         0.00000E+00
         0.00000E+00
         0.00000E+00
         0.00000E+00
         0.00000E+00
         0.00000E+00
         0.00000E+00
         0.00000E+00
         0.00000E+00
         0.00000E+00
         0.00000E+00
         0.00000E+00
         0.00000E+00
         0.00000E+00
         0.00000E+00
         0.00000E+00
         0.00000E+00
  
SCALARS                   max_wave_vel  double 1
LOOKUP_TABLE default
         0.00000E+00
         0.00000E+00
         0.00000E+00
         0.00000E+00
         0.00000E+00
         0.00000E+00
         0.00000E+00
         0.00000E+00
         0.00000E+00
         0.00000E+00
         0.00000E+00
         0.00000E+00
         0.00000E+00
         0.00000E+00
         0.00000E+00
         0.00000E+00
         0.00000E+00
         0.00000E+00
         0.00000E+00
         0.00000E+00
         0.00000E+00
         0.00000E+00
         0.00000E+00
         0.00000E+00
         0.00000E+00
         0.00000E+00
         0.00000E+00
         0.00000E+00
         0.00000E+00
         0.00000E+00
         0.00000E+00
         0.00000E+00
         0.00000E+00
         0.00000E+00
         0.00000E+00
         0.00000E+00
         0.00000E+00
         0.00000E+00
         0.00000E+00
         0.00000E+00
         0.00000E+00
         0.00000E+00
         0.00000E+00
         0.00000E+00
         0.00000E+00
         0.00000E+00
         0.00000E+00
         0.00000E+00
         0.00000E+00
         0.00000E+00
         0.00000E+00
         0.00000E+00
         0.00000E+00
         0.00000E+00
         0.00000E+00
         0.00000E+00
         0.00000E+00
         0.00000E+00
         0.00000E+00
         0.00000E+00
         0.00000E+00
         0.00000E+00
         0.00000E+00
         0.00000E+00
         0.00000E+00
         0.00000E+00
         0.00000E+00
         0.00000E+00
         0.00000E+00
         0.00000E+00
         0.00000E+00
         0.00000E+00
         0.00000E+00
         0.00000E+00
         0.00000E+00
         0.00000E+00
         0.00000E+00
         0.00000E+00
         0.00000E+00
         0.00000E+00
         0.00000E+00
         0.00000E+00
         0.00000E+00
         0.00000E+00
         0.00000E+00
         0.00000E+00
         0.00000E+00
         0.00000E+00
         0.00000E+00
         0.00000E+00
         0.00000E+00
         0.00000E+00
         0.00000E+00
         0.00000E+00
         0.00000E+00
         0.00000E+00
         0.00000E+00
         0.00000E+00
         0.00000E+00
         0.00000E+00
         0.00000E+00
         0.00000E+00
         0.00000E+00
         0.00000E+00
         0.00000E+00
         0.00000E+00
         0.00000E+00
         0.00000E+00
         0.00000E+00
         0.00000E+00
         0.00000E+00
         0.00000E+00
         0.00000E+00
         0.00000E+00
         0.00000E+00
         0.00000E+00
         0.00000E+00
         0.00000E+00
         0.00000E+00
         0.00000E+00
         0.00000E+00
         0.00000E+00
         0.00000E+00
         0.00000E+00
         0.00000E+00
         0.00000E+00
         0.00000E+00
         0.00000E+00
         0.00000E+00
         0.00000E+00
         0.00000E+00
         0.00000E+00
         0.00000E+00
         0.00000E+00
         0.00000E+00
         0.00000E+00
         0.00000E+00
         0.00000E+00
         0.00000E+00
         0.00000E+00
         0.00000E+00
         0.00000E+00
         0.00000E+00
         0.00000E+00
         0.00000E+00
         0.00000E+00
         0.00000E+00
         0.00000E+00
         0.00000E+00
         0.00000E+00
         0.00000E+00
         0.00000E+00
         0.00000E+00
         0.00000E+00
         0.00000E+00
         0.00000E+00
         0.00000E+00
         0.00000E+00
         0.00000E+00
         0.00000E+00
         0.00000E+00
         0.00000E+00
         0.00000E+00
         0.00000E+00
         0.00000E+00
         0.00000E+00
         0.00000E+00
         0.00000E+00
         0.00000E+00
         0.00000E+00
         0.00000E+00
         0.00000E+00
         0.00000E+00
         0.00000E+00
         0.00000E+00
         0.00000E+00
         0.00000E+00
         0.00000E+00
         0.00000E+00
         0.00000E+00
         0.00000E+00
         0.00000E+00
         0.00000E+00
         0.00000E+00
         0.00000E+00
         0.00000E+00
         0.00000E+00
         0.00000E+00
         0.00000E+00
         0.00000E+00
         0.00000E+00
         0.00000E+00
         0.00000E+00
         0.00000E+00
         0.00000E+00
         0.00000E+00
         0.00000E+00
         0.00000E+00
         0.00000E+00
         0.00000E+00
         0.00000E+00
         0.00000E+00
         0.00000E+00
         0.00000E+00
         0.00000E+00
         0.00000E+00
         0.00000E+00
         0.00000E+00
         0.00000E+00
         0.00000E+00
         0.00000E+00
         0.00000E+00
         0.00000E+00
         0.00000E+00
         0.00000E+00
         0.00000E+00
         0.00000E+00
         0.00000E+00
         0.00000E+00
         0.00000E+00
         0.00000E+00
         0.00000E+00
         0.00000E+00
         0.00000E+00
         0.00000E+00
         0.00000E+00
         0.00000E+00
         0.00000E+00
         0.00000E+00
         0.00000E+00
         0.00000E+00
         0.00000E+00
         0.00000E+00
         0.00000E+00
         0.00000E+00
         0.00000E+00
         0.00000E+00
         0.00000E+00
         0.00000E+00
         0.00000E+00
         0.00000E+00
         0.00000E+00
         0.00000E+00
         0.00000E+00
         0.00000E+00
         0.00000E+00
         0.00000E+00
         0.00000E+00
         0.00000E+00
         0.00000E+00
         0.00000E+00
         0.00000E+00
         0.00000E+00
         0.00000E+00
         0.00000E+00
         0.00000E+00
         0.00000E+00
         0.00000E+00
         0.00000E+00
         0.00000E+00
         0.00000E+00
         0.00000E+00
         0.00000E+00
         0.00000E+00
         0.00000E+00
         0.00000E+00
         0.00000E+00
         0.00000E+00
         0.00000E+00
         0.00000E+00
         0.00000E+00
         0.00000E+00
         0.00000E+00
         0.00000E+00
         0.00000E+00
         0.00000E+00
         0.00000E+00
         0.00000E+00
         0.00000E+00
         0.00000E+00
         0.00000E+00
         0.00000E+00
         0.00000E+00
         0.00000E+00
         0.00000E+00
         0.00000E+00
         0.00000E+00
         0.00000E+00
         0.00000E+00
         0.00000E+00
         0.00000E+00
         0.00000E+00
         0.00000E+00
         0.00000E+00
         0.00000E+00
         0.00000E+00
         0.00000E+00
         0.00000E+00
         0.00000E+00
         0.00000E+00
         0.00000E+00
         0.00000E+00
         0.00000E+00
         0.00000E+00
         0.00000E+00
         0.00000E+00
         0.00000E+00
         0.00000E+00
         0.00000E+00
         0.00000E+00
         0.00000E+00
         0.00000E+00
         0.00000E+00
         0.00000E+00
         0.00000E+00
         0.00000E+00
         0.00000E+00
         0.00000E+00
         0.00000E+00
         0.00000E+00
         0.00000E+00
         0.00000E+00
         0.00000E+00
         0.00000E+00
         0.00000E+00
         0.00000E+00
         0.00000E+00
         0.00000E+00
         0.00000E+00
         0.00000E+00
         0.00000E+00
         0.00000E+00
         0.00000E+00
         0.00000E+00
         0.00000E+00
         0.00000E+00
         0.00000E+00
         0.00000E+00
         0.00000E+00
         0.00000E+00
         0.00000E+00
         0.00000E+00
         0.00000E+00
         0.00000E+00
         0.00000E+00
         0.00000E+00
         0.00000E+00
         0.00000E+00
         0.00000E+00
         0.00000E+00
         0.00000E+00
         0.00000E+00
         0.00000E+00
         0.00000E+00
         0.00000E+00
         0.00000E+00
         0.00000E+00
         0.00000E+00
         0.00000E+00
         0.00000E+00
         0.00000E+00
         0.00000E+00
         0.00000E+00
         0.00000E+00
         0.00000E+00
         0.00000E+00
         0.00000E+00
         0.00000E+00
         0.00000E+00
         0.00000E+00
         0.00000E+00
         0.00000E+00
         0.00000E+00
         0.00000E+00
         0.00000E+00
         0.00000E+00
         0.00000E+00
         0.00000E+00
         0.00000E+00
         0.00000E+00
         0.00000E+00
         0.00000E+00
         0.00000E+00
         0.00000E+00
         0.00000E+00
         0.00000E+00
         0.00000E+00
         0.00000E+00
         0.00000E+00
         0.00000E+00
         0.00000E+00
         0.00000E+00
         0.00000E+00
         0.00000E+00
         0.00000E+00
         0.00000E+00
         0.00000E+00
         0.00000E+00
         0.00000E+00
         0.00000E+00
         0.00000E+00
         0.00000E+00
         0.00000E+00
         0.00000E+00
         0.00000E+00
         0.00000E+00
         0.00000E+00
         0.00000E+00
         0.00000E+00
         0.00000E+00
         0.00000E+00
         0.00000E+00
         0.00000E+00
         0.00000E+00
         0.00000E+00
         0.00000E+00
         0.00000E+00
         0.00000E+00
         0.00000E+00
         0.00000E+00
         0.00000E+00
         0.00000E+00
         0.00000E+00
         0.00000E+00
         0.00000E+00
         0.00000E+00
         0.00000E+00
         0.00000E+00
         0.00000E+00
         0.00000E+00
         0.00000E+00
         0.00000E+00
         0.00000E+00
         0.00000E+00
         0.00000E+00
         0.00000E+00
         0.00000E+00
         0.00000E+00
         0.00000E+00
         0.00000E+00
         0.00000E+00
         0.00000E+00
         0.00000E+00
         0.00000E+00
         0.00000E+00
         0.00000E+00
         0.00000E+00
         0.00000E+00
         0.00000E+00
         0.00000E+00
         0.00000E+00
         0.00000E+00
         0.00000E+00
         0.00000E+00
         0.00000E+00
         0.00000E+00
         0.00000E+00
         0.00000E+00
         0.00000E+00
         0.00000E+00
         0.00000E+00
         0.00000E+00
         0.00000E+00
         0.00000E+00
         0.00000E+00
         0.00000E+00
         0.00000E+00
         0.00000E+00
         0.00000E+00
         0.00000E+00
         0.00000E+00
         0.00000E+00
         0.00000E+00
         0.00000E+00
         0.00000E+00
         0.00000E+00
         0.00000E+00
         0.00000E+00
         0.00000E+00
         0.00000E+00
         0.00000E+00
         0.00000E+00
         0.00000E+00
         0.00000E+00
         0.00000E+00
         0.00000E+00
         0.00000E+00
         0.00000E+00
         0.00000E+00
         0.00000E+00
         0.00000E+00
         0.00000E+00
         0.00000E+00
         0.00000E+00
         0.00000E+00
         0.00000E+00
         0.00000E+00
         0.00000E+00
         0.00000E+00
         0.00000E+00
         0.00000E+00
         0.00000E+00
         0.00000E+00
         0.00000E+00
         0.00000E+00
         0.00000E+00
         0.00000E+00
         0.00000E+00
         0.00000E+00
         0.00000E+00
         0.00000E+00
         0.00000E+00
         0.00000E+00
         0.00000E+00
         0.00000E+00
         0.00000E+00
         0.00000E+00
         0.00000E+00
         0.00000E+00
         0.00000E+00
         0.00000E+00
         0.00000E+00
         0.00000E+00
         0.00000E+00
         0.00000E+00
         0.00000E+00
         0.00000E+00
         0.00000E+00
         0.00000E+00
         0.00000E+00
         0.00000E+00
         0.00000E+00
         0.00000E+00
         0.00000E+00
         0.00000E+00
         0.00000E+00
         0.00000E+00
         0.00000E+00
         0.00000E+00
         0.00000E+00
         0.00000E+00
         0.00000E+00
         0.00000E+00
         0.00000E+00
         0.00000E+00
         0.00000E+00
         0.00000E+00
         0.00000E+00
         0.00000E+00
         0.00000E+00
         0.00000E+00
         0.00000E+00
         0.00000E+00
         0.00000E+00
         0.00000E+00
         0.00000E+00
         0.00000E+00
         0.00000E+00
         0.00000E+00
         0.00000E+00
         0.00000E+00
         0.00000E+00
         0.00000E+00
         0.00000E+00
         0.00000E+00
         0.00000E+00
         0.00000E+00
         0.00000E+00
         0.00000E+00
         0.00000E+00
         0.00000E+00
         0.00000E+00
         0.00000E+00
         0.00000E+00
         0.00000E+00
         0.00000E+00
         0.00000E+00
         0.00000E+00
         0.00000E+00
         0.00000E+00
         0.00000E+00
         0.00000E+00
         0.00000E+00
         0.00000E+00
         0.00000E+00
         0.00000E+00
         0.00000E+00
         0.00000E+00
         0.00000E+00
         0.00000E+00
         0.00000E+00
         0.00000E+00
         0.00000E+00
         0.00000E+00
         0.00000E+00
         0.00000E+00
         0.00000E+00
         0.00000E+00
         0.00000E+00
         0.00000E+00
         0.00000E+00
         0.00000E+00
         0.00000E+00
         0.00000E+00
         0.00000E+00
         0.00000E+00
         0.00000E+00
         0.00000E+00
         0.00000E+00
         0.00000E+00
         0.00000E+00
         0.00000E+00
         0.00000E+00
         0.00000E+00
         0.00000E+00
         0.00000E+00
         0.00000E+00
         0.00000E+00
         0.00000E+00
         0.00000E+00
         0.00000E+00
         0.00000E+00
         0.00000E+00
         0.00000E+00
         0.00000E+00
         0.00000E+00
         0.00000E+00
         0.00000E+00
         0.00000E+00
         0.00000E+00
         0.00000E+00
         0.00000E+00
         0.00000E+00
         0.00000E+00
         0.00000E+00
         0.00000E+00
         0.00000E+00
         0.00000E+00
         0.00000E+00
         0.00000E+00
         0.00000E+00
         0.00000E+00
         0.00000E+00
         0.00000E+00
         0.00000E+00
         0.00000E+00
         0.00000E+00
         0.00000E+00
         0.00000E+00
         0.00000E+00
         0.00000E+00
         0.00000E+00
         0.00000E+00
         0.00000E+00
         0.00000E+00
         0.00000E+00
         0.00000E+00
         0.00000E+00
         0.00000E+00
         0.00000E+00
         0.00000E+00
         0.00000E+00
         0.00000E+00
         0.00000E+00
         0.00000E+00
         0.00000E+00
         0.00000E+00
         0.00000E+00
         0.00000E+00
         0.00000E+00
         0.00000E+00
         0.00000E+00
         0.00000E+00
         0.00000E+00
         0.00000E+00
         0.00000E+00
         0.00000E+00
         0.00000E+00
         0.00000E+00
         0.00000E+00
         0.00000E+00
         0.00000E+00
         0.00000E+00
         0.00000E+00
         0.00000E+00
         0.00000E+00
         0.00000E+00
         0.00000E+00
         0.00000E+00
         0.00000E+00
         0.00000E+00
         0.00000E+00
         0.00000E+00
         0.00000E+00
         0.00000E+00
         0.00000E+00
         0.00000E+00
         0.00000E+00
         0.00000E+00
         0.00000E+00
         0.00000E+00
         0.00000E+00
         0.00000E+00
         0.00000E+00
         0.00000E+00
         0.00000E+00
         0.00000E+00
         0.00000E+00
         0.00000E+00
         0.00000E+00
         0.00000E+00
         0.00000E+00
         0.00000E+00
         0.00000E+00
         0.00000E+00
         0.00000E+00
         0.00000E+00
         0.00000E+00
         0.00000E+00
         0.00000E+00
         0.00000E+00
         0.00000E+00
         0.00000E+00
         0.00000E+00
         0.00000E+00
         0.00000E+00
         0.00000E+00
         0.00000E+00
         0.00000E+00
         0.00000E+00
         0.00000E+00
         0.00000E+00
         0.00000E+00
         0.00000E+00
         0.00000E+00
         0.00000E+00
         0.00000E+00
         0.00000E+00
         0.00000E+00
         0.00000E+00
         0.00000E+00
         0.00000E+00
         0.00000E+00
         0.00000E+00
         0.00000E+00
         0.00000E+00
         0.00000E+00
         0.00000E+00
         0.00000E+00
         0.00000E+00
         0.00000E+00
         0.00000E+00
         0.00000E+00
         0.00000E+00
         0.00000E+00
         0.00000E+00
         0.00000E+00
         0.00000E+00
         0.00000E+00
         0.00000E+00
         0.00000E+00
         0.00000E+00
         0.00000E+00
         0.00000E+00
         0.00000E+00
         0.00000E+00
         0.00000E+00
         0.00000E+00
         0.00000E+00
         0.00000E+00
         0.00000E+00
         0.00000E+00
         0.00000E+00
         0.00000E+00
         0.00000E+00
         0.00000E+00
         0.00000E+00
         0.00000E+00
         0.00000E+00
         0.00000E+00
         0.00000E+00
         0.00000E+00
         0.00000E+00
         0.00000E+00
         0.00000E+00
         0.00000E+00
         0.00000E+00
         0.00000E+00
         0.00000E+00
         0.00000E+00
         0.00000E+00
         0.00000E+00
         0.00000E+00
         0.00000E+00
         0.00000E+00
         0.00000E+00
         0.00000E+00
         0.00000E+00
         0.00000E+00
         0.00000E+00
         0.00000E+00
         0.00000E+00
         0.00000E+00
         0.00000E+00
         0.00000E+00
         0.00000E+00
         0.00000E+00
         0.00000E+00
         0.00000E+00
         0.00000E+00
         0.00000E+00
         0.00000E+00
         0.00000E+00
         0.00000E+00
         0.00000E+00
         0.00000E+00
         0.00000E+00
         0.00000E+00
         0.00000E+00
         0.00000E+00
         0.00000E+00
         0.00000E+00
         0.00000E+00
         0.00000E+00
         0.00000E+00
         0.00000E+00
         0.00000E+00
         0.00000E+00
         0.00000E+00
         0.00000E+00
         0.00000E+00
         0.00000E+00
         0.00000E+00
         0.00000E+00
         0.00000E+00
         0.00000E+00
         0.00000E+00
         0.00000E+00
         0.00000E+00
         0.00000E+00
         0.00000E+00
         0.00000E+00
         0.00000E+00
         0.00000E+00
         0.00000E+00
         0.00000E+00
         0.00000E+00
         0.00000E+00
         0.00000E+00
         0.00000E+00
         0.00000E+00
         0.00000E+00
         0.00000E+00
         0.00000E+00
         0.00000E+00
         0.00000E+00
         0.00000E+00
         0.00000E+00
         0.00000E+00
         0.00000E+00
         0.00000E+00
         0.00000E+00
         0.00000E+00
         0.00000E+00
         0.00000E+00
         0.00000E+00
         0.00000E+00
         0.00000E+00
         0.00000E+00
         0.00000E+00
         0.00000E+00
         0.00000E+00
         0.00000E+00
         0.00000E+00
         0.00000E+00
         0.00000E+00
         0.00000E+00
         0.00000E+00
         0.00000E+00
         0.00000E+00
         0.00000E+00
         0.00000E+00
         0.00000E+00
         0.00000E+00
         0.00000E+00
         0.00000E+00
         0.00000E+00
         0.00000E+00
         0.00000E+00
         0.00000E+00
         0.00000E+00
         0.00000E+00
         0.00000E+00
         0.00000E+00
         0.00000E+00
         0.00000E+00
         0.00000E+00
         0.00000E+00
         0.00000E+00
         0.00000E+00
         0.00000E+00
         0.00000E+00
         0.00000E+00
         0.00000E+00
         0.00000E+00
         0.00000E+00
         0.00000E+00
         0.00000E+00
         0.00000E+00
         0.00000E+00
         0.00000E+00
         0.00000E+00
         0.00000E+00
         0.00000E+00
         0.00000E+00
         0.00000E+00
         0.00000E+00
         0.00000E+00
         0.00000E+00
         0.00000E+00
         0.00000E+00
         0.00000E+00
         0.00000E+00
         0.00000E+00
         0.00000E+00
         0.00000E+00
         0.00000E+00
         0.00000E+00
         0.00000E+00
         0.00000E+00
         0.00000E+00
         0.00000E+00
         0.00000E+00
         0.00000E+00
         0.00000E+00
         0.00000E+00
         0.00000E+00
         0.00000E+00
         0.00000E+00
         0.00000E+00
         0.00000E+00
         0.00000E+00
         0.00000E+00
         0.00000E+00
         0.00000E+00
         0.00000E+00
         0.00000E+00
         0.00000E+00
         0.00000E+00
         0.00000E+00
         0.00000E+00
         0.00000E+00
         0.00000E+00
         0.00000E+00
         0.00000E+00
         0.00000E+00
         0.00000E+00
         0.00000E+00
         0.00000E+00
         0.00000E+00
         0.00000E+00
         0.00000E+00
         0.00000E+00
         0.00000E+00
         0.00000E+00
         0.00000E+00
         0.00000E+00
         0.00000E+00
         0.00000E+00
         0.00000E+00
         0.00000E+00
         0.00000E+00
         0.00000E+00
         0.00000E+00
         0.00000E+00
         0.00000E+00
         0.00000E+00
         0.00000E+00
         0.00000E+00
         0.00000E+00
         0.00000E+00
         0.00000E+00
         0.00000E+00
         0.00000E+00
         0.00000E+00
         0.00000E+00
         0.00000E+00
         0.00000E+00
         0.00000E+00
         0.00000E+00
         0.00000E+00
         0.00000E+00
         0.00000E+00
         0.00000E+00
         0.00000E+00
         0.00000E+00
         0.00000E+00
         0.00000E+00
         0.00000E+00
         0.00000E+00
         0.00000E+00
         0.00000E+00
         0.00000E+00
         0.00000E+00
         0.00000E+00
         0.00000E+00
         0.00000E+00
         0.00000E+00
         0.00000E+00
         0.00000E+00
         0.00000E+00
         0.00000E+00
         0.00000E+00
         0.00000E+00
         0.00000E+00
         0.00000E+00
         0.00000E+00
         0.00000E+00
         0.00000E+00
         0.00000E+00
         0.00000E+00
         0.00000E+00
         0.00000E+00
         0.00000E+00
         0.00000E+00
         0.00000E+00
         0.00000E+00
         0.00000E+00
         0.00000E+00
         0.00000E+00
         0.00000E+00
         0.00000E+00
         0.00000E+00
         0.00000E+00
         0.00000E+00
         0.00000E+00
         0.00000E+00
         0.00000E+00
         0.00000E+00
         0.00000E+00
         0.00000E+00
         0.00000E+00
         0.00000E+00
         0.00000E+00
         0.00000E+00
         0.00000E+00
         0.00000E+00
         0.00000E+00
         0.00000E+00
         0.00000E+00
         0.00000E+00
         0.00000E+00
         0.00000E+00
         0.00000E+00
         0.00000E+00
         0.00000E+00
         0.00000E+00
         0.00000E+00
         0.00000E+00
         0.00000E+00
         0.00000E+00
         0.00000E+00
         0.00000E+00
         0.00000E+00
         0.00000E+00
         0.00000E+00
         0.00000E+00
         0.00000E+00
         0.00000E+00
         0.00000E+00
         0.00000E+00
         0.00000E+00
         0.00000E+00
         0.00000E+00
         0.00000E+00
         0.00000E+00
         0.00000E+00
         0.00000E+00
         0.00000E+00
         0.00000E+00
         0.00000E+00
         0.00000E+00
         0.00000E+00
         0.00000E+00
         0.00000E+00
         0.00000E+00
         0.00000E+00
         0.00000E+00
         0.00000E+00
         0.00000E+00
         0.00000E+00
         0.00000E+00
         0.00000E+00
         0.00000E+00
         0.00000E+00
         0.00000E+00
         0.00000E+00
         0.00000E+00
         0.00000E+00
         0.00000E+00
         0.00000E+00
         0.00000E+00
         0.00000E+00
         0.00000E+00
         0.00000E+00
         0.00000E+00
         0.00000E+00
         0.00000E+00
         0.00000E+00
         0.00000E+00
         0.00000E+00
         0.00000E+00
         0.00000E+00
         0.00000E+00
         0.00000E+00
         0.00000E+00
         0.00000E+00
         0.00000E+00
         0.00000E+00
         0.00000E+00
         0.00000E+00
         0.00000E+00
         0.00000E+00
         0.00000E+00
         0.00000E+00
         0.00000E+00
         0.00000E+00
         0.00000E+00
         0.00000E+00
         0.00000E+00
         0.00000E+00
         0.00000E+00
         0.00000E+00
         0.00000E+00
         0.00000E+00
         0.00000E+00
         0.00000E+00
         0.00000E+00
         0.00000E+00
         0.00000E+00
         0.00000E+00
         0.00000E+00
         0.00000E+00
         0.00000E+00
         0.00000E+00
         0.00000E+00
         0.00000E+00
         0.00000E+00
         0.00000E+00
         0.00000E+00
         0.00000E+00
         0.00000E+00
         0.00000E+00
         0.00000E+00
         0.00000E+00
         0.00000E+00
         0.00000E+00
         0.00000E+00
         0.00000E+00
         0.00000E+00
         0.00000E+00
         0.00000E+00
         0.00000E+00
         0.00000E+00
         0.00000E+00
         0.00000E+00
         0.00000E+00
         0.00000E+00
         0.00000E+00
         0.00000E+00
         0.00000E+00
         0.00000E+00
         0.00000E+00
         0.00000E+00
         0.00000E+00
         0.00000E+00
         0.00000E+00
         0.00000E+00
         0.00000E+00
         0.00000E+00
         0.00000E+00
         0.00000E+00
         0.00000E+00
         0.00000E+00
         0.00000E+00
         0.00000E+00
         0.00000E+00
         0.00000E+00
         0.00000E+00
         0.00000E+00
         0.00000E+00
         0.00000E+00
         0.00000E+00
         0.00000E+00
         0.00000E+00
         0.00000E+00
         0.00000E+00
         0.00000E+00
         0.00000E+00
         0.00000E+00
         0.00000E+00
         0.00000E+00
         0.00000E+00
         0.00000E+00
         0.00000E+00
         0.00000E+00
         0.00000E+00
         0.00000E+00
         0.00000E+00
         0.00000E+00
         0.00000E+00
         0.00000E+00
         0.00000E+00
         0.00000E+00
         0.00000E+00
         0.00000E+00
         0.00000E+00
         0.00000E+00
         0.00000E+00
         0.00000E+00
         0.00000E+00
         0.00000E+00
         0.00000E+00
         0.00000E+00
         0.00000E+00
         0.00000E+00
         0.00000E+00
         0.00000E+00
         0.00000E+00
         0.00000E+00
         0.00000E+00
         0.00000E+00
         0.00000E+00
         0.00000E+00
         0.00000E+00
         0.00000E+00
         0.00000E+00
         0.00000E+00
         0.00000E+00
         0.00000E+00
         0.00000E+00
         0.00000E+00
         0.00000E+00
         0.00000E+00
         0.00000E+00
         0.00000E+00
         0.00000E+00
         0.00000E+00
         0.00000E+00
         0.00000E+00
         0.00000E+00
         0.00000E+00
         0.00000E+00
         0.00000E+00
         0.00000E+00
         0.00000E+00
         0.00000E+00
         0.00000E+00
         0.00000E+00
         0.00000E+00
         0.00000E+00
         0.00000E+00
         0.00000E+00
         0.00000E+00
         0.00000E+00
         0.00000E+00
         0.00000E+00
         0.00000E+00
         0.00000E+00
         0.00000E+00
         0.00000E+00
         0.00000E+00
         0.00000E+00
         0.00000E+00
         0.00000E+00
         0.00000E+00
         0.00000E+00
         0.00000E+00
         0.00000E+00
         0.00000E+00
         0.00000E+00
         0.00000E+00
         0.00000E+00
         0.00000E+00
         0.00000E+00
         0.00000E+00
         0.00000E+00
         0.00000E+00
         0.00000E+00
         0.00000E+00
         0.00000E+00
         0.00000E+00
         0.00000E+00
         0.00000E+00
         0.00000E+00
         0.00000E+00
         0.00000E+00
         0.00000E+00
         0.00000E+00
         0.00000E+00
         0.00000E+00
         0.00000E+00
         0.00000E+00
         0.00000E+00
         0.00000E+00
         0.00000E+00
         0.00000E+00
         0.00000E+00
         0.00000E+00
         0.00000E+00
         0.00000E+00
         0.00000E+00
         0.00000E+00
         0.00000E+00
         0.00000E+00
         0.00000E+00
         0.00000E+00
         0.00000E+00
         0.00000E+00
         0.00000E+00
         0.00000E+00
         0.00000E+00
         0.00000E+00
         0.00000E+00
         0.00000E+00
         0.00000E+00
         0.00000E+00
         0.00000E+00
         0.00000E+00
         0.00000E+00
         0.00000E+00
         0.00000E+00
         0.00000E+00
         0.00000E+00
         0.00000E+00
         0.00000E+00
         0.00000E+00
         0.00000E+00
         0.00000E+00
         0.00000E+00
         0.00000E+00
         0.00000E+00
         0.00000E+00
         0.00000E+00
         0.00000E+00
         0.00000E+00
         0.00000E+00
         0.00000E+00
         0.00000E+00
         0.00000E+00
         0.00000E+00
         0.00000E+00
         0.00000E+00
         0.00000E+00
         0.00000E+00
         0.00000E+00
         0.00000E+00
         0.00000E+00
         0.00000E+00
         0.00000E+00
         0.00000E+00
         0.00000E+00
         0.00000E+00
         0.00000E+00
         0.00000E+00
         0.00000E+00
         0.00000E+00
         0.00000E+00
         0.00000E+00
         0.00000E+00
         0.00000E+00
         0.00000E+00
         0.00000E+00
         0.00000E+00
         0.00000E+00
         0.00000E+00
         0.00000E+00
         0.00000E+00
         0.00000E+00
         0.00000E+00
         0.00000E+00
         0.00000E+00
         0.00000E+00
         0.00000E+00
         0.00000E+00
         0.00000E+00
         0.00000E+00
         0.00000E+00
         0.00000E+00
         0.00000E+00
         0.00000E+00
         0.00000E+00
         0.00000E+00
         0.00000E+00
         0.00000E+00
         0.00000E+00
         0.00000E+00
         0.00000E+00
         0.00000E+00
         0.00000E+00
         0.00000E+00
         0.00000E+00
         0.00000E+00
         0.00000E+00
         0.00000E+00
         0.00000E+00
         0.00000E+00
         0.00000E+00
         0.00000E+00
         0.00000E+00
         0.00000E+00
         0.00000E+00
         0.00000E+00
         0.00000E+00
         0.00000E+00
         0.00000E+00
         0.00000E+00
         0.00000E+00
         0.00000E+00
         0.00000E+00
         0.00000E+00
         0.00000E+00
         0.00000E+00
         0.00000E+00
         0.00000E+00
         0.00000E+00
         0.00000E+00
         0.00000E+00
         0.00000E+00
         0.00000E+00
         0.00000E+00
         0.00000E+00
         0.00000E+00
         0.00000E+00
         0.00000E+00
         0.00000E+00
         0.00000E+00
         0.00000E+00
         0.00000E+00
         0.00000E+00
         0.00000E+00
         0.00000E+00
         0.00000E+00
         0.00000E+00
         0.00000E+00
         0.00000E+00
         0.00000E+00
         0.00000E+00
         0.00000E+00
         0.00000E+00
         0.00000E+00
         0.00000E+00
         0.00000E+00
         0.00000E+00
         0.00000E+00
         0.00000E+00
         0.00000E+00
         0.00000E+00
         0.00000E+00
         0.00000E+00
         0.00000E+00
         0.00000E+00
         0.00000E+00
         0.00000E+00
         0.00000E+00
         0.00000E+00
         0.00000E+00
         0.00000E+00
         0.00000E+00
         0.00000E+00
         0.00000E+00
         0.00000E+00
         0.00000E+00
         0.00000E+00
         0.00000E+00
         0.00000E+00
         0.00000E+00
         0.00000E+00
         0.00000E+00
         0.00000E+00
         0.00000E+00
         0.00000E+00
         0.00000E+00
         0.00000E+00
         0.00000E+00
         0.00000E+00
         0.00000E+00
         0.00000E+00
         0.00000E+00
         0.00000E+00
         0.00000E+00
         0.00000E+00
         0.00000E+00
         0.00000E+00
         0.00000E+00
         0.00000E+00
         0.00000E+00
         0.00000E+00
         0.00000E+00
         0.00000E+00
         0.00000E+00
         0.00000E+00
         0.00000E+00
         0.00000E+00
         0.00000E+00
         0.00000E+00
         0.00000E+00
         0.00000E+00
         0.00000E+00
         0.00000E+00
         0.00000E+00
         0.00000E+00
         0.00000E+00
         0.00000E+00
         0.00000E+00
         0.00000E+00
         0.00000E+00
         0.00000E+00
         0.00000E+00
         0.00000E+00
         0.00000E+00
         0.00000E+00
         0.00000E+00
         0.00000E+00
         0.00000E+00
         0.00000E+00
         0.00000E+00
         0.00000E+00
         0.00000E+00
         0.00000E+00
         0.00000E+00
         0.00000E+00
         0.00000E+00
         0.00000E+00
         0.00000E+00
         0.00000E+00
         0.00000E+00
         0.00000E+00
         0.00000E+00
         0.00000E+00
         0.00000E+00
         0.00000E+00
         0.00000E+00
         0.00000E+00
         0.00000E+00
         0.00000E+00
         0.00000E+00
         0.00000E+00
         0.00000E+00
         0.00000E+00
         0.00000E+00
         0.00000E+00
         0.00000E+00
         0.00000E+00
         0.00000E+00
         0.00000E+00
         0.00000E+00
         0.00000E+00
         0.00000E+00
         0.00000E+00
         0.00000E+00
         0.00000E+00
         0.00000E+00
         0.00000E+00
         0.00000E+00
         0.00000E+00
         0.00000E+00
         0.00000E+00
         0.00000E+00
         0.00000E+00
         0.00000E+00
         0.00000E+00
         0.00000E+00
         0.00000E+00
         0.00000E+00
         0.00000E+00
         0.00000E+00
         0.00000E+00
         0.00000E+00
         0.00000E+00
         0.00000E+00
         0.00000E+00
         0.00000E+00
         0.00000E+00
         0.00000E+00
         0.00000E+00
         0.00000E+00
         0.00000E+00
         0.00000E+00
         0.00000E+00
         0.00000E+00
         0.00000E+00
         0.00000E+00
         0.00000E+00
         0.00000E+00
         0.00000E+00
         0.00000E+00
         0.00000E+00
         0.00000E+00
         0.00000E+00
         0.00000E+00
         0.00000E+00
         0.00000E+00
         0.00000E+00
         0.00000E+00
         0.00000E+00
         0.00000E+00
         0.00000E+00
         0.00000E+00
         0.00000E+00
         0.00000E+00
         0.00000E+00
         0.00000E+00
         0.00000E+00
         0.00000E+00
         0.00000E+00
         0.00000E+00
         0.00000E+00
         0.00000E+00
         0.00000E+00
         0.00000E+00
         0.00000E+00
         0.00000E+00
         0.00000E+00
         0.00000E+00
         0.00000E+00
         0.00000E+00
         0.00000E+00
         0.00000E+00
         0.00000E+00
         0.00000E+00
         0.00000E+00
         0.00000E+00
         0.00000E+00
         0.00000E+00
         0.00000E+00
         0.00000E+00
         0.00000E+00
         0.00000E+00
         0.00000E+00
         0.00000E+00
         0.00000E+00
         0.00000E+00
         0.00000E+00
         0.00000E+00
         0.00000E+00
         0.00000E+00
         0.00000E+00
         0.00000E+00
         0.00000E+00
         0.00000E+00
         0.00000E+00
         0.00000E+00
         0.00000E+00
         0.00000E+00
         0.00000E+00
         0.00000E+00
         0.00000E+00
         0.00000E+00
         0.00000E+00
         0.00000E+00
         0.00000E+00
         0.00000E+00
         0.00000E+00
         0.00000E+00
         0.00000E+00
         0.00000E+00
         0.00000E+00
         0.00000E+00
         0.00000E+00
         0.00000E+00
         0.00000E+00
         0.00000E+00
         0.00000E+00
         0.00000E+00
         0.00000E+00
         0.00000E+00
         0.00000E+00
         0.00000E+00
         0.00000E+00
         0.00000E+00
         0.00000E+00
         0.00000E+00
         0.00000E+00
         0.00000E+00
         0.00000E+00
         0.00000E+00
         0.00000E+00
         0.00000E+00
         0.00000E+00
         0.00000E+00
         0.00000E+00
         0.00000E+00
         0.00000E+00
         0.00000E+00
         0.00000E+00
         0.00000E+00
         0.00000E+00
         0.00000E+00
         0.00000E+00
         0.00000E+00
         0.00000E+00
         0.00000E+00
         0.00000E+00
         0.00000E+00
         0.00000E+00
         0.00000E+00
         0.00000E+00
         0.00000E+00
         0.00000E+00
         0.00000E+00
         0.00000E+00
         0.00000E+00
         0.00000E+00
         0.00000E+00
         0.00000E+00
         0.00000E+00
         0.00000E+00
         0.00000E+00
         0.00000E+00
         0.00000E+00
         0.00000E+00
         0.00000E+00
         0.00000E+00
         0.00000E+00
         0.00000E+00
         0.00000E+00
         0.00000E+00
         0.00000E+00
         0.00000E+00
         0.00000E+00
         0.00000E+00
         0.00000E+00
         0.00000E+00
         0.00000E+00
         0.00000E+00
         0.00000E+00
         0.00000E+00
         0.00000E+00
         0.00000E+00
         0.00000E+00
         0.00000E+00
         0.00000E+00
         0.00000E+00
         0.00000E+00
         0.00000E+00
         0.00000E+00
         0.00000E+00
         0.00000E+00
         0.00000E+00
         0.00000E+00
         0.00000E+00
         0.00000E+00
         0.00000E+00
         0.00000E+00
         0.00000E+00
         0.00000E+00
         0.00000E+00
         0.00000E+00
         0.00000E+00
         0.00000E+00
         0.00000E+00
         0.00000E+00
         0.00000E+00
         0.00000E+00
         0.00000E+00
         0.00000E+00
         0.00000E+00
         0.00000E+00
         0.00000E+00
         0.00000E+00
         0.00000E+00
         0.00000E+00
         0.00000E+00
         0.00000E+00
         0.00000E+00
         0.00000E+00
         0.00000E+00
         0.00000E+00
         0.00000E+00
         0.00000E+00
         0.00000E+00
         0.00000E+00
         0.00000E+00
         0.00000E+00
         0.00000E+00
         0.00000E+00
         0.00000E+00
         0.00000E+00
         0.00000E+00
         0.00000E+00
         0.00000E+00
         0.00000E+00
         0.00000E+00
         0.00000E+00
         0.00000E+00
         0.00000E+00
         0.00000E+00
         0.00000E+00
         0.00000E+00
         0.00000E+00
         0.00000E+00
         0.00000E+00
         0.00000E+00
         0.00000E+00
         0.00000E+00
         0.00000E+00
         0.00000E+00
         0.00000E+00
         0.00000E+00
         0.00000E+00
         0.00000E+00
         0.00000E+00
         0.00000E+00
         0.00000E+00
         0.00000E+00
         0.00000E+00
         0.00000E+00
         0.00000E+00
         0.00000E+00
         0.00000E+00
         0.00000E+00
         0.00000E+00
         0.00000E+00
         0.00000E+00
         0.00000E+00
         0.00000E+00
         0.00000E+00
         0.00000E+00
         0.00000E+00
         0.00000E+00
         0.00000E+00
         0.00000E+00
         0.00000E+00
         0.00000E+00
         0.00000E+00
         0.00000E+00
         0.00000E+00
         0.00000E+00
         0.00000E+00
         0.00000E+00
         0.00000E+00
         0.00000E+00
         0.00000E+00
         0.00000E+00
         0.00000E+00
         0.00000E+00
         0.00000E+00
         0.00000E+00
         0.00000E+00
         0.00000E+00
         0.00000E+00
         0.00000E+00
         0.00000E+00
         0.00000E+00
         0.00000E+00
         0.00000E+00
         0.00000E+00
         0.00000E+00
         0.00000E+00
         0.00000E+00
         0.00000E+00
         0.00000E+00
         0.00000E+00
         0.00000E+00
         0.00000E+00
         0.00000E+00
         0.00000E+00
         0.00000E+00
         0.00000E+00
         0.00000E+00
         0.00000E+00
         0.00000E+00
         0.00000E+00
         0.00000E+00
         0.00000E+00
         0.00000E+00
         0.00000E+00
         0.00000E+00
         0.00000E+00
         0.00000E+00
         0.00000E+00
         0.00000E+00
         0.00000E+00
         0.00000E+00
         0.00000E+00
         0.00000E+00
         0.00000E+00
         0.00000E+00
         0.00000E+00
         0.00000E+00
         0.00000E+00
         0.00000E+00
         0.00000E+00
         0.00000E+00
         0.00000E+00
         0.00000E+00
         0.00000E+00
         0.00000E+00
         0.00000E+00
         0.00000E+00
         0.00000E+00
         0.00000E+00
         0.00000E+00
         0.00000E+00
         0.00000E+00
         0.00000E+00
         0.00000E+00
         0.00000E+00
         0.00000E+00
         0.00000E+00
         0.00000E+00
         0.00000E+00
         0.00000E+00
         0.00000E+00
         0.00000E+00
         0.00000E+00
         0.00000E+00
         0.00000E+00
         0.00000E+00
         0.00000E+00
         0.00000E+00
         0.00000E+00
         0.00000E+00
         0.00000E+00
         0.00000E+00
         0.00000E+00
         0.00000E+00
         0.00000E+00
         0.00000E+00
         0.00000E+00
         0.00000E+00
         0.00000E+00
         0.00000E+00
         0.00000E+00
         0.00000E+00
         0.00000E+00
         0.00000E+00
         0.00000E+00
         0.00000E+00
         0.00000E+00
         0.00000E+00
         0.00000E+00
         0.00000E+00
         0.00000E+00
         0.00000E+00
         0.00000E+00
         0.00000E+00
         0.00000E+00
         0.00000E+00
  
SCALARS                      eps_shear  double 1
LOOKUP_TABLE default
         0.00000E+00
         0.00000E+00
         0.00000E+00
         0.00000E+00
         0.00000E+00
         0.00000E+00
         0.00000E+00
         0.00000E+00
         0.00000E+00
         0.00000E+00
         0.00000E+00
         0.00000E+00
         0.00000E+00
         0.00000E+00
         0.00000E+00
         0.00000E+00
         0.00000E+00
         0.00000E+00
         0.00000E+00
         0.00000E+00
         0.00000E+00
         0.00000E+00
         0.00000E+00
         0.00000E+00
         0.00000E+00
         0.00000E+00
         0.00000E+00
         0.00000E+00
         0.00000E+00
         0.00000E+00
         0.00000E+00
         0.00000E+00
         0.00000E+00
         0.00000E+00
         0.00000E+00
         0.00000E+00
         0.00000E+00
         0.00000E+00
         0.00000E+00
         0.00000E+00
         0.00000E+00
         0.00000E+00
         0.00000E+00
         0.00000E+00
         0.00000E+00
         0.00000E+00
         0.00000E+00
         0.00000E+00
         0.00000E+00
         0.00000E+00
         0.00000E+00
         0.00000E+00
         0.00000E+00
         0.00000E+00
         0.00000E+00
         0.00000E+00
         0.00000E+00
         0.00000E+00
         0.00000E+00
         0.00000E+00
         0.00000E+00
         0.00000E+00
         0.00000E+00
         0.00000E+00
         0.00000E+00
         0.00000E+00
         0.00000E+00
         0.00000E+00
         0.00000E+00
         0.00000E+00
         0.00000E+00
         0.00000E+00
         0.00000E+00
         0.00000E+00
         0.00000E+00
         0.00000E+00
         0.00000E+00
         0.00000E+00
         0.00000E+00
         0.00000E+00
         0.00000E+00
         0.00000E+00
         0.00000E+00
         0.00000E+00
         0.00000E+00
         0.00000E+00
         0.00000E+00
         0.00000E+00
         0.00000E+00
         0.00000E+00
         0.00000E+00
         0.00000E+00
         0.00000E+00
         0.00000E+00
         0.00000E+00
         0.00000E+00
         0.00000E+00
         0.00000E+00
         0.00000E+00
         0.00000E+00
         0.00000E+00
         0.00000E+00
         0.00000E+00
         0.00000E+00
         0.00000E+00
         0.00000E+00
         0.00000E+00
         0.00000E+00
         0.00000E+00
         0.00000E+00
         0.00000E+00
         0.00000E+00
         0.00000E+00
         0.00000E+00
         0.00000E+00
         0.00000E+00
         0.00000E+00
         0.00000E+00
         0.00000E+00
         0.00000E+00
         0.00000E+00
         0.00000E+00
         0.00000E+00
         0.00000E+00
         0.00000E+00
         0.00000E+00
         0.00000E+00
         0.00000E+00
         0.00000E+00
         0.00000E+00
         0.00000E+00
         0.00000E+00
         0.00000E+00
         0.00000E+00
         0.00000E+00
         0.00000E+00
         0.00000E+00
         0.00000E+00
         0.00000E+00
         0.00000E+00
         0.00000E+00
         0.00000E+00
         0.00000E+00
         0.00000E+00
         0.00000E+00
         0.00000E+00
         0.00000E+00
         0.00000E+00
         0.00000E+00
         0.00000E+00
         0.00000E+00
         0.00000E+00
         0.00000E+00
         0.00000E+00
         0.00000E+00
         0.00000E+00
         0.00000E+00
         0.00000E+00
         0.00000E+00
         0.00000E+00
         0.00000E+00
         0.00000E+00
         0.00000E+00
         0.00000E+00
         0.00000E+00
         0.00000E+00
         0.00000E+00
         0.00000E+00
         0.00000E+00
         0.00000E+00
         0.00000E+00
         0.00000E+00
         0.00000E+00
         0.00000E+00
         0.00000E+00
         0.00000E+00
         0.00000E+00
         0.00000E+00
         0.00000E+00
         0.00000E+00
         0.00000E+00
         0.00000E+00
         0.00000E+00
         0.00000E+00
         0.00000E+00
         0.00000E+00
         0.00000E+00
         0.00000E+00
         0.00000E+00
         0.00000E+00
         0.00000E+00
         0.00000E+00
         0.00000E+00
         0.00000E+00
         0.00000E+00
         0.00000E+00
         0.00000E+00
         0.00000E+00
         0.00000E+00
         0.00000E+00
         0.00000E+00
         0.00000E+00
         0.00000E+00
         0.00000E+00
         0.00000E+00
         0.00000E+00
         0.00000E+00
         0.00000E+00
         0.00000E+00
         0.00000E+00
         0.00000E+00
         0.00000E+00
         0.00000E+00
         0.00000E+00
         0.00000E+00
         0.00000E+00
         0.00000E+00
         0.00000E+00
         0.00000E+00
         0.00000E+00
         0.00000E+00
         0.00000E+00
         0.00000E+00
         0.00000E+00
         0.00000E+00
         0.00000E+00
         0.00000E+00
         0.00000E+00
         0.00000E+00
         0.00000E+00
         0.00000E+00
         0.00000E+00
         0.00000E+00
         0.00000E+00
         0.00000E+00
         0.00000E+00
         0.00000E+00
         0.00000E+00
         0.00000E+00
         0.00000E+00
         0.00000E+00
         0.00000E+00
         0.00000E+00
         0.00000E+00
         0.00000E+00
         0.00000E+00
         0.00000E+00
         0.00000E+00
         0.00000E+00
         0.00000E+00
         0.00000E+00
         0.00000E+00
         0.00000E+00
         0.00000E+00
         0.00000E+00
         0.00000E+00
         0.00000E+00
         0.00000E+00
         0.00000E+00
         0.00000E+00
         0.00000E+00
         0.00000E+00
         0.00000E+00
         0.00000E+00
         0.00000E+00
         0.00000E+00
         0.00000E+00
         0.00000E+00
         0.00000E+00
         0.00000E+00
         0.00000E+00
         0.00000E+00
         0.00000E+00
         0.00000E+00
         0.00000E+00
         0.00000E+00
         0.00000E+00
         0.00000E+00
         0.00000E+00
         0.00000E+00
         0.00000E+00
         0.00000E+00
         0.00000E+00
         0.00000E+00
         0.00000E+00
         0.00000E+00
         0.00000E+00
         0.00000E+00
         0.00000E+00
         0.00000E+00
         0.00000E+00
         0.00000E+00
         0.00000E+00
         0.00000E+00
         0.00000E+00
         0.00000E+00
         0.00000E+00
         0.00000E+00
         0.00000E+00
         0.00000E+00
         0.00000E+00
         0.00000E+00
         0.00000E+00
         0.00000E+00
         0.00000E+00
         0.00000E+00
         0.00000E+00
         0.00000E+00
         0.00000E+00
         0.00000E+00
         0.00000E+00
         0.00000E+00
         0.00000E+00
         0.00000E+00
         0.00000E+00
         0.00000E+00
         0.00000E+00
         0.00000E+00
         0.00000E+00
         0.00000E+00
         0.00000E+00
         0.00000E+00
         0.00000E+00
         0.00000E+00
         0.00000E+00
         0.00000E+00
         0.00000E+00
         0.00000E+00
         0.00000E+00
         0.00000E+00
         0.00000E+00
         0.00000E+00
         0.00000E+00
         0.00000E+00
         0.00000E+00
         0.00000E+00
         0.00000E+00
         0.00000E+00
         0.00000E+00
         0.00000E+00
         0.00000E+00
         0.00000E+00
         0.00000E+00
         0.00000E+00
         0.00000E+00
         0.00000E+00
         0.00000E+00
         0.00000E+00
         0.00000E+00
         0.00000E+00
         0.00000E+00
         0.00000E+00
         0.00000E+00
         0.00000E+00
         0.00000E+00
         0.00000E+00
         0.00000E+00
         0.00000E+00
         0.00000E+00
         0.00000E+00
         0.00000E+00
         0.00000E+00
         0.00000E+00
         0.00000E+00
         0.00000E+00
         0.00000E+00
         0.00000E+00
         0.00000E+00
         0.00000E+00
         0.00000E+00
         0.00000E+00
         0.00000E+00
         0.00000E+00
         0.00000E+00
         0.00000E+00
         0.00000E+00
         0.00000E+00
         0.00000E+00
         0.00000E+00
         0.00000E+00
         0.00000E+00
         0.00000E+00
         0.00000E+00
         0.00000E+00
         0.00000E+00
         0.00000E+00
         0.00000E+00
         0.00000E+00
         0.00000E+00
         0.00000E+00
         0.00000E+00
         0.00000E+00
         0.00000E+00
         0.00000E+00
         0.00000E+00
         0.00000E+00
         0.00000E+00
         0.00000E+00
         0.00000E+00
         0.00000E+00
         0.00000E+00
         0.00000E+00
         0.00000E+00
         0.00000E+00
         0.00000E+00
         0.00000E+00
         0.00000E+00
         0.00000E+00
         0.00000E+00
         0.00000E+00
         0.00000E+00
         0.00000E+00
         0.00000E+00
         0.00000E+00
         0.00000E+00
         0.00000E+00
         0.00000E+00
         0.00000E+00
         0.00000E+00
         0.00000E+00
         0.00000E+00
         0.00000E+00
         0.00000E+00
         0.00000E+00
         0.00000E+00
         0.00000E+00
         0.00000E+00
         0.00000E+00
         0.00000E+00
         0.00000E+00
         0.00000E+00
         0.00000E+00
         0.00000E+00
         0.00000E+00
         0.00000E+00
         0.00000E+00
         0.00000E+00
         0.00000E+00
         0.00000E+00
         0.00000E+00
         0.00000E+00
         0.00000E+00
         0.00000E+00
         0.00000E+00
         0.00000E+00
         0.00000E+00
         0.00000E+00
         0.00000E+00
         0.00000E+00
         0.00000E+00
         0.00000E+00
         0.00000E+00
         0.00000E+00
         0.00000E+00
         0.00000E+00
         0.00000E+00
         0.00000E+00
         0.00000E+00
         0.00000E+00
         0.00000E+00
         0.00000E+00
         0.00000E+00
         0.00000E+00
         0.00000E+00
         0.00000E+00
         0.00000E+00
         0.00000E+00
         0.00000E+00
         0.00000E+00
         0.00000E+00
         0.00000E+00
         0.00000E+00
         0.00000E+00
         0.00000E+00
         0.00000E+00
         0.00000E+00
         0.00000E+00
         0.00000E+00
         0.00000E+00
         0.00000E+00
         0.00000E+00
         0.00000E+00
         0.00000E+00
         0.00000E+00
         0.00000E+00
         0.00000E+00
         0.00000E+00
         0.00000E+00
         0.00000E+00
         0.00000E+00
         0.00000E+00
         0.00000E+00
         0.00000E+00
         0.00000E+00
         0.00000E+00
         0.00000E+00
         0.00000E+00
         0.00000E+00
         0.00000E+00
         0.00000E+00
         0.00000E+00
         0.00000E+00
         0.00000E+00
         0.00000E+00
         0.00000E+00
         0.00000E+00
         0.00000E+00
         0.00000E+00
         0.00000E+00
         0.00000E+00
         0.00000E+00
         0.00000E+00
         0.00000E+00
         0.00000E+00
         0.00000E+00
         0.00000E+00
         0.00000E+00
         0.00000E+00
         0.00000E+00
         0.00000E+00
         0.00000E+00
         0.00000E+00
         0.00000E+00
         0.00000E+00
         0.00000E+00
         0.00000E+00
         0.00000E+00
         0.00000E+00
         0.00000E+00
         0.00000E+00
         0.00000E+00
         0.00000E+00
         0.00000E+00
         0.00000E+00
         0.00000E+00
         0.00000E+00
         0.00000E+00
         0.00000E+00
         0.00000E+00
         0.00000E+00
         0.00000E+00
         0.00000E+00
         0.00000E+00
         0.00000E+00
         0.00000E+00
         0.00000E+00
         0.00000E+00
         0.00000E+00
         0.00000E+00
         0.00000E+00
         0.00000E+00
         0.00000E+00
         0.00000E+00
         0.00000E+00
         0.00000E+00
         0.00000E+00
         0.00000E+00
         0.00000E+00
         0.00000E+00
         0.00000E+00
         0.00000E+00
         0.00000E+00
         0.00000E+00
         0.00000E+00
         0.00000E+00
         0.00000E+00
         0.00000E+00
         0.00000E+00
         0.00000E+00
         0.00000E+00
         0.00000E+00
         0.00000E+00
         0.00000E+00
         0.00000E+00
         0.00000E+00
         0.00000E+00
         0.00000E+00
         0.00000E+00
         0.00000E+00
         0.00000E+00
         0.00000E+00
         0.00000E+00
         0.00000E+00
         0.00000E+00
         0.00000E+00
         0.00000E+00
         0.00000E+00
         0.00000E+00
         0.00000E+00
         0.00000E+00
         0.00000E+00
         0.00000E+00
         0.00000E+00
         0.00000E+00
         0.00000E+00
         0.00000E+00
         0.00000E+00
         0.00000E+00
         0.00000E+00
         0.00000E+00
         0.00000E+00
         0.00000E+00
         0.00000E+00
         0.00000E+00
         0.00000E+00
         0.00000E+00
         0.00000E+00
         0.00000E+00
         0.00000E+00
         0.00000E+00
         0.00000E+00
         0.00000E+00
         0.00000E+00
         0.00000E+00
         0.00000E+00
         0.00000E+00
         0.00000E+00
         0.00000E+00
         0.00000E+00
         0.00000E+00
         0.00000E+00
         0.00000E+00
         0.00000E+00
         0.00000E+00
         0.00000E+00
         0.00000E+00
         0.00000E+00
         0.00000E+00
         0.00000E+00
         0.00000E+00
         0.00000E+00
         0.00000E+00
         0.00000E+00
         0.00000E+00
         0.00000E+00
         0.00000E+00
         0.00000E+00
         0.00000E+00
         0.00000E+00
         0.00000E+00
         0.00000E+00
         0.00000E+00
         0.00000E+00
         0.00000E+00
         0.00000E+00
         0.00000E+00
         0.00000E+00
         0.00000E+00
         0.00000E+00
         0.00000E+00
         0.00000E+00
         0.00000E+00
         0.00000E+00
         0.00000E+00
         0.00000E+00
         0.00000E+00
         0.00000E+00
         0.00000E+00
         0.00000E+00
         0.00000E+00
         0.00000E+00
         0.00000E+00
         0.00000E+00
         0.00000E+00
         0.00000E+00
         0.00000E+00
         0.00000E+00
         0.00000E+00
         0.00000E+00
         0.00000E+00
         0.00000E+00
         0.00000E+00
         0.00000E+00
         0.00000E+00
         0.00000E+00
         0.00000E+00
         0.00000E+00
         0.00000E+00
         0.00000E+00
         0.00000E+00
         0.00000E+00
         0.00000E+00
         0.00000E+00
         0.00000E+00
         0.00000E+00
         0.00000E+00
         0.00000E+00
         0.00000E+00
         0.00000E+00
         0.00000E+00
         0.00000E+00
         0.00000E+00
         0.00000E+00
         0.00000E+00
         0.00000E+00
         0.00000E+00
         0.00000E+00
         0.00000E+00
         0.00000E+00
         0.00000E+00
         0.00000E+00
         0.00000E+00
         0.00000E+00
         0.00000E+00
         0.00000E+00
         0.00000E+00
         0.00000E+00
         0.00000E+00
         0.00000E+00
         0.00000E+00
         0.00000E+00
         0.00000E+00
         0.00000E+00
         0.00000E+00
         0.00000E+00
         0.00000E+00
         0.00000E+00
         0.00000E+00
         0.00000E+00
         0.00000E+00
         0.00000E+00
         0.00000E+00
         0.00000E+00
         0.00000E+00
         0.00000E+00
         0.00000E+00
         0.00000E+00
         0.00000E+00
         0.00000E+00
         0.00000E+00
         0.00000E+00
         0.00000E+00
         0.00000E+00
         0.00000E+00
         0.00000E+00
         0.00000E+00
         0.00000E+00
         0.00000E+00
         0.00000E+00
         0.00000E+00
         0.00000E+00
         0.00000E+00
         0.00000E+00
         0.00000E+00
         0.00000E+00
         0.00000E+00
         0.00000E+00
         0.00000E+00
         0.00000E+00
         0.00000E+00
         0.00000E+00
         0.00000E+00
         0.00000E+00
         0.00000E+00
         0.00000E+00
         0.00000E+00
         0.00000E+00
         0.00000E+00
         0.00000E+00
         0.00000E+00
         0.00000E+00
         0.00000E+00
         0.00000E+00
         0.00000E+00
         0.00000E+00
         0.00000E+00
         0.00000E+00
         0.00000E+00
         0.00000E+00
         0.00000E+00
         0.00000E+00
         0.00000E+00
         0.00000E+00
         0.00000E+00
         0.00000E+00
         0.00000E+00
         0.00000E+00
         0.00000E+00
         0.00000E+00
         0.00000E+00
         0.00000E+00
         0.00000E+00
         0.00000E+00
         0.00000E+00
         0.00000E+00
         0.00000E+00
         0.00000E+00
         0.00000E+00
         0.00000E+00
         0.00000E+00
         0.00000E+00
         0.00000E+00
         0.00000E+00
         0.00000E+00
         0.00000E+00
         0.00000E+00
         0.00000E+00
         0.00000E+00
         0.00000E+00
         0.00000E+00
         0.00000E+00
         0.00000E+00
         0.00000E+00
         0.00000E+00
         0.00000E+00
         0.00000E+00
         0.00000E+00
         0.00000E+00
         0.00000E+00
         0.00000E+00
         0.00000E+00
         0.00000E+00
         0.00000E+00
         0.00000E+00
         0.00000E+00
         0.00000E+00
         0.00000E+00
         0.00000E+00
         0.00000E+00
         0.00000E+00
         0.00000E+00
         0.00000E+00
         0.00000E+00
         0.00000E+00
         0.00000E+00
         0.00000E+00
         0.00000E+00
         0.00000E+00
         0.00000E+00
         0.00000E+00
         0.00000E+00
         0.00000E+00
         0.00000E+00
         0.00000E+00
         0.00000E+00
         0.00000E+00
         0.00000E+00
         0.00000E+00
         0.00000E+00
         0.00000E+00
         0.00000E+00
         0.00000E+00
         0.00000E+00
         0.00000E+00
         0.00000E+00
         0.00000E+00
         0.00000E+00
         0.00000E+00
         0.00000E+00
         0.00000E+00
         0.00000E+00
         0.00000E+00
         0.00000E+00
         0.00000E+00
         0.00000E+00
         0.00000E+00
         0.00000E+00
         0.00000E+00
         0.00000E+00
         0.00000E+00
         0.00000E+00
         0.00000E+00
         0.00000E+00
         0.00000E+00
         0.00000E+00
         0.00000E+00
         0.00000E+00
         0.00000E+00
         0.00000E+00
         0.00000E+00
         0.00000E+00
         0.00000E+00
         0.00000E+00
         0.00000E+00
         0.00000E+00
         0.00000E+00
         0.00000E+00
         0.00000E+00
         0.00000E+00
         0.00000E+00
         0.00000E+00
         0.00000E+00
         0.00000E+00
         0.00000E+00
         0.00000E+00
         0.00000E+00
         0.00000E+00
         0.00000E+00
         0.00000E+00
         0.00000E+00
         0.00000E+00
         0.00000E+00
         0.00000E+00
         0.00000E+00
         0.00000E+00
         0.00000E+00
         0.00000E+00
         0.00000E+00
         0.00000E+00
         0.00000E+00
         0.00000E+00
         0.00000E+00
         0.00000E+00
         0.00000E+00
         0.00000E+00
         0.00000E+00
         0.00000E+00
         0.00000E+00
         0.00000E+00
         0.00000E+00
         0.00000E+00
         0.00000E+00
         0.00000E+00
         0.00000E+00
         0.00000E+00
         0.00000E+00
         0.00000E+00
         0.00000E+00
         0.00000E+00
         0.00000E+00
         0.00000E+00
         0.00000E+00
         0.00000E+00
         0.00000E+00
         0.00000E+00
         0.00000E+00
         0.00000E+00
         0.00000E+00
         0.00000E+00
         0.00000E+00
         0.00000E+00
         0.00000E+00
         0.00000E+00
         0.00000E+00
         0.00000E+00
         0.00000E+00
         0.00000E+00
         0.00000E+00
         0.00000E+00
         0.00000E+00
         0.00000E+00
         0.00000E+00
         0.00000E+00
         0.00000E+00
         0.00000E+00
         0.00000E+00
         0.00000E+00
         0.00000E+00
         0.00000E+00
         0.00000E+00
         0.00000E+00
         0.00000E+00
         0.00000E+00
         0.00000E+00
         0.00000E+00
         0.00000E+00
         0.00000E+00
         0.00000E+00
         0.00000E+00
         0.00000E+00
         0.00000E+00
         0.00000E+00
         0.00000E+00
         0.00000E+00
         0.00000E+00
         0.00000E+00
         0.00000E+00
         0.00000E+00
         0.00000E+00
         0.00000E+00
         0.00000E+00
         0.00000E+00
         0.00000E+00
         0.00000E+00
         0.00000E+00
         0.00000E+00
         0.00000E+00
         0.00000E+00
         0.00000E+00
         0.00000E+00
         0.00000E+00
         0.00000E+00
         0.00000E+00
         0.00000E+00
         0.00000E+00
         0.00000E+00
         0.00000E+00
         0.00000E+00
         0.00000E+00
         0.00000E+00
         0.00000E+00
         0.00000E+00
         0.00000E+00
         0.00000E+00
         0.00000E+00
         0.00000E+00
         0.00000E+00
         0.00000E+00
         0.00000E+00
         0.00000E+00
         0.00000E+00
         0.00000E+00
         0.00000E+00
         0.00000E+00
         0.00000E+00
         0.00000E+00
         0.00000E+00
         0.00000E+00
         0.00000E+00
         0.00000E+00
         0.00000E+00
         0.00000E+00
         0.00000E+00
         0.00000E+00
         0.00000E+00
         0.00000E+00
         0.00000E+00
         0.00000E+00
         0.00000E+00
         0.00000E+00
         0.00000E+00
         0.00000E+00
         0.00000E+00
         0.00000E+00
         0.00000E+00
         0.00000E+00
         0.00000E+00
         0.00000E+00
         0.00000E+00
         0.00000E+00
         0.00000E+00
         0.00000E+00
         0.00000E+00
         0.00000E+00
         0.00000E+00
         0.00000E+00
         0.00000E+00
         0.00000E+00
         0.00000E+00
         0.00000E+00
         0.00000E+00
         0.00000E+00
         0.00000E+00
         0.00000E+00
         0.00000E+00
         0.00000E+00
         0.00000E+00
         0.00000E+00
         0.00000E+00
         0.00000E+00
         0.00000E+00
         0.00000E+00
         0.00000E+00
         0.00000E+00
         0.00000E+00
         0.00000E+00
         0.00000E+00
         0.00000E+00
         0.00000E+00
         0.00000E+00
         0.00000E+00
         0.00000E+00
         0.00000E+00
         0.00000E+00
         0.00000E+00
         0.00000E+00
         0.00000E+00
         0.00000E+00
         0.00000E+00
         0.00000E+00
         0.00000E+00
         0.00000E+00
         0.00000E+00
         0.00000E+00
         0.00000E+00
         0.00000E+00
         0.00000E+00
         0.00000E+00
         0.00000E+00
         0.00000E+00
         0.00000E+00
         0.00000E+00
         0.00000E+00
         0.00000E+00
         0.00000E+00
         0.00000E+00
         0.00000E+00
         0.00000E+00
         0.00000E+00
         0.00000E+00
         0.00000E+00
         0.00000E+00
         0.00000E+00
         0.00000E+00
         0.00000E+00
         0.00000E+00
         0.00000E+00
         0.00000E+00
         0.00000E+00
         0.00000E+00
         0.00000E+00
         0.00000E+00
         0.00000E+00
         0.00000E+00
         0.00000E+00
         0.00000E+00
         0.00000E+00
         0.00000E+00
         0.00000E+00
         0.00000E+00
         0.00000E+00
         0.00000E+00
         0.00000E+00
         0.00000E+00
         0.00000E+00
         0.00000E+00
         0.00000E+00
         0.00000E+00
         0.00000E+00
         0.00000E+00
         0.00000E+00
         0.00000E+00
         0.00000E+00
         0.00000E+00
         0.00000E+00
         0.00000E+00
         0.00000E+00
         0.00000E+00
         0.00000E+00
         0.00000E+00
         0.00000E+00
         0.00000E+00
         0.00000E+00
         0.00000E+00
         0.00000E+00
         0.00000E+00
         0.00000E+00
         0.00000E+00
         0.00000E+00
         0.00000E+00
         0.00000E+00
         0.00000E+00
         0.00000E+00
         0.00000E+00
         0.00000E+00
         0.00000E+00
         0.00000E+00
         0.00000E+00
         0.00000E+00
         0.00000E+00
         0.00000E+00
         0.00000E+00
         0.00000E+00
         0.00000E+00
         0.00000E+00
         0.00000E+00
         0.00000E+00
         0.00000E+00
         0.00000E+00
         0.00000E+00
         0.00000E+00
         0.00000E+00
         0.00000E+00
         0.00000E+00
         0.00000E+00
         0.00000E+00
         0.00000E+00
         0.00000E+00
         0.00000E+00
         0.00000E+00
         0.00000E+00
         0.00000E+00
         0.00000E+00
         0.00000E+00
         0.00000E+00
         0.00000E+00
         0.00000E+00
         0.00000E+00
         0.00000E+00
         0.00000E+00
         0.00000E+00
         0.00000E+00
         0.00000E+00
         0.00000E+00
         0.00000E+00
         0.00000E+00
         0.00000E+00
         0.00000E+00
         0.00000E+00
         0.00000E+00
         0.00000E+00
         0.00000E+00
         0.00000E+00
         0.00000E+00
         0.00000E+00
         0.00000E+00
         0.00000E+00
         0.00000E+00
         0.00000E+00
         0.00000E+00
         0.00000E+00
         0.00000E+00
         0.00000E+00
         0.00000E+00
         0.00000E+00
         0.00000E+00
         0.00000E+00
         0.00000E+00
         0.00000E+00
         0.00000E+00
         0.00000E+00
         0.00000E+00
         0.00000E+00
         0.00000E+00
         0.00000E+00
         0.00000E+00
         0.00000E+00
         0.00000E+00
         0.00000E+00
         0.00000E+00
         0.00000E+00
         0.00000E+00
         0.00000E+00
         0.00000E+00
         0.00000E+00
         0.00000E+00
         0.00000E+00
         0.00000E+00
         0.00000E+00
         0.00000E+00
         0.00000E+00
         0.00000E+00
         0.00000E+00
         0.00000E+00
         0.00000E+00
         0.00000E+00
         0.00000E+00
         0.00000E+00
         0.00000E+00
         0.00000E+00
         0.00000E+00
         0.00000E+00
         0.00000E+00
         0.00000E+00
         0.00000E+00
         0.00000E+00
         0.00000E+00
         0.00000E+00
         0.00000E+00
         0.00000E+00
         0.00000E+00
         0.00000E+00
         0.00000E+00
         0.00000E+00
         0.00000E+00
         0.00000E+00
         0.00000E+00
         0.00000E+00
         0.00000E+00
         0.00000E+00
         0.00000E+00
         0.00000E+00
         0.00000E+00
         0.00000E+00
         0.00000E+00
         0.00000E+00
         0.00000E+00
         0.00000E+00
         0.00000E+00
         0.00000E+00
         0.00000E+00
         0.00000E+00
         0.00000E+00
         0.00000E+00
         0.00000E+00
         0.00000E+00
         0.00000E+00
         0.00000E+00
         0.00000E+00
         0.00000E+00
         0.00000E+00
         0.00000E+00
         0.00000E+00
         0.00000E+00
         0.00000E+00
         0.00000E+00
         0.00000E+00
         0.00000E+00
         0.00000E+00
         0.00000E+00
         0.00000E+00
         0.00000E+00
         0.00000E+00
         0.00000E+00
         0.00000E+00
         0.00000E+00
         0.00000E+00
         0.00000E+00
         0.00000E+00
         0.00000E+00
         0.00000E+00
         0.00000E+00
         0.00000E+00
         0.00000E+00
         0.00000E+00
         0.00000E+00
         0.00000E+00
         0.00000E+00
         0.00000E+00
         0.00000E+00
         0.00000E+00
         0.00000E+00
         0.00000E+00
         0.00000E+00
         0.00000E+00
         0.00000E+00
         0.00000E+00
         0.00000E+00
         0.00000E+00
         0.00000E+00
         0.00000E+00
         0.00000E+00
         0.00000E+00
         0.00000E+00
         0.00000E+00
         0.00000E+00
         0.00000E+00
         0.00000E+00
         0.00000E+00
         0.00000E+00
         0.00000E+00
         0.00000E+00
         0.00000E+00
         0.00000E+00
         0.00000E+00
         0.00000E+00
         0.00000E+00
         0.00000E+00
         0.00000E+00
         0.00000E+00
         0.00000E+00
         0.00000E+00
         0.00000E+00
         0.00000E+00
         0.00000E+00
         0.00000E+00
         0.00000E+00
         0.00000E+00
         0.00000E+00
         0.00000E+00
         0.00000E+00
         0.00000E+00
         0.00000E+00
         0.00000E+00
         0.00000E+00
         0.00000E+00
         0.00000E+00
         0.00000E+00
         0.00000E+00
         0.00000E+00
         0.00000E+00
         0.00000E+00
         0.00000E+00
         0.00000E+00
         0.00000E+00
         0.00000E+00
         0.00000E+00
         0.00000E+00
         0.00000E+00
         0.00000E+00
         0.00000E+00
         0.00000E+00
         0.00000E+00
         0.00000E+00
         0.00000E+00
         0.00000E+00
         0.00000E+00
         0.00000E+00
         0.00000E+00
         0.00000E+00
         0.00000E+00
         0.00000E+00
         0.00000E+00
         0.00000E+00
         0.00000E+00
         0.00000E+00
         0.00000E+00
         0.00000E+00
         0.00000E+00
         0.00000E+00
         0.00000E+00
         0.00000E+00
         0.00000E+00
         0.00000E+00
         0.00000E+00
         0.00000E+00
         0.00000E+00
         0.00000E+00
         0.00000E+00
         0.00000E+00
         0.00000E+00
         0.00000E+00
         0.00000E+00
         0.00000E+00
         0.00000E+00
         0.00000E+00
         0.00000E+00
         0.00000E+00
         0.00000E+00
         0.00000E+00
         0.00000E+00
         0.00000E+00
         0.00000E+00
         0.00000E+00
         0.00000E+00
         0.00000E+00
         0.00000E+00
         0.00000E+00
         0.00000E+00
         0.00000E+00
         0.00000E+00
         0.00000E+00
         0.00000E+00
         0.00000E+00
         0.00000E+00
         0.00000E+00
         0.00000E+00
         0.00000E+00
         0.00000E+00
         0.00000E+00
         0.00000E+00
         0.00000E+00
         0.00000E+00
         0.00000E+00
         0.00000E+00
         0.00000E+00
         0.00000E+00
         0.00000E+00
         0.00000E+00
         0.00000E+00
         0.00000E+00
         0.00000E+00
         0.00000E+00
         0.00000E+00
         0.00000E+00
         0.00000E+00
         0.00000E+00
         0.00000E+00
         0.00000E+00
         0.00000E+00
         0.00000E+00
         0.00000E+00
         0.00000E+00
         0.00000E+00
         0.00000E+00
         0.00000E+00
         0.00000E+00
         0.00000E+00
         0.00000E+00
         0.00000E+00
         0.00000E+00
         0.00000E+00
         0.00000E+00
         0.00000E+00
         0.00000E+00
         0.00000E+00
         0.00000E+00
         0.00000E+00
         0.00000E+00
         0.00000E+00
         0.00000E+00
         0.00000E+00
         0.00000E+00
         0.00000E+00
         0.00000E+00
         0.00000E+00
         0.00000E+00
         0.00000E+00
         0.00000E+00
         0.00000E+00
         0.00000E+00
         0.00000E+00
         0.00000E+00
         0.00000E+00
         0.00000E+00
         0.00000E+00
         0.00000E+00
         0.00000E+00
         0.00000E+00
         0.00000E+00
         0.00000E+00
         0.00000E+00
         0.00000E+00
         0.00000E+00
         0.00000E+00
         0.00000E+00
         0.00000E+00
         0.00000E+00
         0.00000E+00
         0.00000E+00
         0.00000E+00
         0.00000E+00
         0.00000E+00
         0.00000E+00
         0.00000E+00
         0.00000E+00
         0.00000E+00
         0.00000E+00
         0.00000E+00
         0.00000E+00
         0.00000E+00
         0.00000E+00
         0.00000E+00
         0.00000E+00
         0.00000E+00
         0.00000E+00
         0.00000E+00
         0.00000E+00
         0.00000E+00
         0.00000E+00
         0.00000E+00
         0.00000E+00
         0.00000E+00
         0.00000E+00
         0.00000E+00
         0.00000E+00
         0.00000E+00
         0.00000E+00
         0.00000E+00
         0.00000E+00
         0.00000E+00
         0.00000E+00
         0.00000E+00
         0.00000E+00
         0.00000E+00
         0.00000E+00
         0.00000E+00
         0.00000E+00
         0.00000E+00
         0.00000E+00
         0.00000E+00
         0.00000E+00
         0.00000E+00
         0.00000E+00
         0.00000E+00
         0.00000E+00
         0.00000E+00
         0.00000E+00
         0.00000E+00
         0.00000E+00
         0.00000E+00
         0.00000E+00
         0.00000E+00
         0.00000E+00
         0.00000E+00
         0.00000E+00
         0.00000E+00
         0.00000E+00
         0.00000E+00
         0.00000E+00
         0.00000E+00
         0.00000E+00
         0.00000E+00
         0.00000E+00
         0.00000E+00
         0.00000E+00
         0.00000E+00
         0.00000E+00
         0.00000E+00
         0.00000E+00
         0.00000E+00
         0.00000E+00
         0.00000E+00
         0.00000E+00
         0.00000E+00
         0.00000E+00
         0.00000E+00
         0.00000E+00
         0.00000E+00
         0.00000E+00
         0.00000E+00
         0.00000E+00
         0.00000E+00
         0.00000E+00
         0.00000E+00
         0.00000E+00
         0.00000E+00
         0.00000E+00
         0.00000E+00
         0.00000E+00
         0.00000E+00
         0.00000E+00
         0.00000E+00
         0.00000E+00
         0.00000E+00
         0.00000E+00
         0.00000E+00
         0.00000E+00
         0.00000E+00
         0.00000E+00
         0.00000E+00
         0.00000E+00
         0.00000E+00
         0.00000E+00
         0.00000E+00
         0.00000E+00
         0.00000E+00
         0.00000E+00
         0.00000E+00
         0.00000E+00
         0.00000E+00
         0.00000E+00
         0.00000E+00
         0.00000E+00
         0.00000E+00
         0.00000E+00
         0.00000E+00
         0.00000E+00
         0.00000E+00
         0.00000E+00
         0.00000E+00
         0.00000E+00
         0.00000E+00
         0.00000E+00
         0.00000E+00
         0.00000E+00
         0.00000E+00
         0.00000E+00
         0.00000E+00
         0.00000E+00
         0.00000E+00
         0.00000E+00
         0.00000E+00
         0.00000E+00
         0.00000E+00
         0.00000E+00
         0.00000E+00
         0.00000E+00
         0.00000E+00
         0.00000E+00
         0.00000E+00
         0.00000E+00
         0.00000E+00
         0.00000E+00
         0.00000E+00
         0.00000E+00
         0.00000E+00
         0.00000E+00
         0.00000E+00
         0.00000E+00
         0.00000E+00
         0.00000E+00
         0.00000E+00
         0.00000E+00
         0.00000E+00
         0.00000E+00
         0.00000E+00
         0.00000E+00
         0.00000E+00
         0.00000E+00
         0.00000E+00
         0.00000E+00
         0.00000E+00
         0.00000E+00
         0.00000E+00
         0.00000E+00
         0.00000E+00
         0.00000E+00
         0.00000E+00
         0.00000E+00
         0.00000E+00
         0.00000E+00
         0.00000E+00
         0.00000E+00
         0.00000E+00
         0.00000E+00
         0.00000E+00
         0.00000E+00
         0.00000E+00
         0.00000E+00
         0.00000E+00
         0.00000E+00
         0.00000E+00
         0.00000E+00
         0.00000E+00
         0.00000E+00
         0.00000E+00
         0.00000E+00
         0.00000E+00
         0.00000E+00
         0.00000E+00
         0.00000E+00
         0.00000E+00
         0.00000E+00
         0.00000E+00
         0.00000E+00
         0.00000E+00
         0.00000E+00
         0.00000E+00
         0.00000E+00
         0.00000E+00
         0.00000E+00
         0.00000E+00
         0.00000E+00
         0.00000E+00
         0.00000E+00
         0.00000E+00
         0.00000E+00
         0.00000E+00
         0.00000E+00
         0.00000E+00
         0.00000E+00
         0.00000E+00
         0.00000E+00
         0.00000E+00
         0.00000E+00
         0.00000E+00
         0.00000E+00
         0.00000E+00
         0.00000E+00
         0.00000E+00
         0.00000E+00
         0.00000E+00
         0.00000E+00
         0.00000E+00
         0.00000E+00
         0.00000E+00
         0.00000E+00
         0.00000E+00
         0.00000E+00
         0.00000E+00
         0.00000E+00
         0.00000E+00
         0.00000E+00
         0.00000E+00
         0.00000E+00
         0.00000E+00
         0.00000E+00
         0.00000E+00
         0.00000E+00
         0.00000E+00
         0.00000E+00
         0.00000E+00
         0.00000E+00
         0.00000E+00
         0.00000E+00
         0.00000E+00
         0.00000E+00
         0.00000E+00
         0.00000E+00
         0.00000E+00
         0.00000E+00
         0.00000E+00
         0.00000E+00
         0.00000E+00
         0.00000E+00
         0.00000E+00
         0.00000E+00
         0.00000E+00
         0.00000E+00
         0.00000E+00
         0.00000E+00
         0.00000E+00
         0.00000E+00
         0.00000E+00
         0.00000E+00
         0.00000E+00
         0.00000E+00
         0.00000E+00
         0.00000E+00
         0.00000E+00
         0.00000E+00
         0.00000E+00
         0.00000E+00
         0.00000E+00
         0.00000E+00
         0.00000E+00
         0.00000E+00
         0.00000E+00
         0.00000E+00
         0.00000E+00
         0.00000E+00
         0.00000E+00
         0.00000E+00
         0.00000E+00
         0.00000E+00
         0.00000E+00
         0.00000E+00
         0.00000E+00
         0.00000E+00
         0.00000E+00
         0.00000E+00
         0.00000E+00
         0.00000E+00
         0.00000E+00
         0.00000E+00
         0.00000E+00
         0.00000E+00
         0.00000E+00
         0.00000E+00
         0.00000E+00
         0.00000E+00
         0.00000E+00
         0.00000E+00
         0.00000E+00
         0.00000E+00
         0.00000E+00
         0.00000E+00
         0.00000E+00
         0.00000E+00
         0.00000E+00
         0.00000E+00
         0.00000E+00
         0.00000E+00
         0.00000E+00
         0.00000E+00
         0.00000E+00
         0.00000E+00
         0.00000E+00
         0.00000E+00
         0.00000E+00
         0.00000E+00
         0.00000E+00
         0.00000E+00
         0.00000E+00
         0.00000E+00
         0.00000E+00
         0.00000E+00
         0.00000E+00
         0.00000E+00
         0.00000E+00
         0.00000E+00
         0.00000E+00
         0.00000E+00
         0.00000E+00
         0.00000E+00
         0.00000E+00
         0.00000E+00
         0.00000E+00
         0.00000E+00
         0.00000E+00
         0.00000E+00
         0.00000E+00
         0.00000E+00
         0.00000E+00
         0.00000E+00
         0.00000E+00
         0.00000E+00
         0.00000E+00
         0.00000E+00
         0.00000E+00
         0.00000E+00
         0.00000E+00
         0.00000E+00
         0.00000E+00
         0.00000E+00
         0.00000E+00
         0.00000E+00
         0.00000E+00
         0.00000E+00
         0.00000E+00
         0.00000E+00
         0.00000E+00
         0.00000E+00
         0.00000E+00
         0.00000E+00
         0.00000E+00
         0.00000E+00
         0.00000E+00
         0.00000E+00
         0.00000E+00
         0.00000E+00
         0.00000E+00
         0.00000E+00
         0.00000E+00
         0.00000E+00
         0.00000E+00
         0.00000E+00
         0.00000E+00
         0.00000E+00
         0.00000E+00
         0.00000E+00
         0.00000E+00
         0.00000E+00
         0.00000E+00
         0.00000E+00
         0.00000E+00
         0.00000E+00
         0.00000E+00
         0.00000E+00
         0.00000E+00
         0.00000E+00
         0.00000E+00
         0.00000E+00
         0.00000E+00
         0.00000E+00
         0.00000E+00
         0.00000E+00
         0.00000E+00
         0.00000E+00
         0.00000E+00
         0.00000E+00
         0.00000E+00
         0.00000E+00
         0.00000E+00
         0.00000E+00
         0.00000E+00
         0.00000E+00
         0.00000E+00
         0.00000E+00
         0.00000E+00
         0.00000E+00
         0.00000E+00
         0.00000E+00
         0.00000E+00
         0.00000E+00
         0.00000E+00
         0.00000E+00
         0.00000E+00
         0.00000E+00
         0.00000E+00
         0.00000E+00
         0.00000E+00
         0.00000E+00
         0.00000E+00
         0.00000E+00
         0.00000E+00
         0.00000E+00
         0.00000E+00
         0.00000E+00
         0.00000E+00
         0.00000E+00
         0.00000E+00
         0.00000E+00
         0.00000E+00
         0.00000E+00
         0.00000E+00
         0.00000E+00
         0.00000E+00
         0.00000E+00
         0.00000E+00
         0.00000E+00
         0.00000E+00
         0.00000E+00
         0.00000E+00
         0.00000E+00
         0.00000E+00
         0.00000E+00
         0.00000E+00
         0.00000E+00
  
SCALARS                        eps_vol  double 1
LOOKUP_TABLE default
         0.00000E+00
         0.00000E+00
         0.00000E+00
         0.00000E+00
         0.00000E+00
         0.00000E+00
         0.00000E+00
         0.00000E+00
         0.00000E+00
         0.00000E+00
         0.00000E+00
         0.00000E+00
         0.00000E+00
         0.00000E+00
         0.00000E+00
         0.00000E+00
         0.00000E+00
         0.00000E+00
         0.00000E+00
         0.00000E+00
         0.00000E+00
         0.00000E+00
         0.00000E+00
         0.00000E+00
         0.00000E+00
         0.00000E+00
         0.00000E+00
         0.00000E+00
         0.00000E+00
         0.00000E+00
         0.00000E+00
         0.00000E+00
         0.00000E+00
         0.00000E+00
         0.00000E+00
         0.00000E+00
         0.00000E+00
         0.00000E+00
         0.00000E+00
         0.00000E+00
         0.00000E+00
         0.00000E+00
         0.00000E+00
         0.00000E+00
         0.00000E+00
         0.00000E+00
         0.00000E+00
         0.00000E+00
         0.00000E+00
         0.00000E+00
         0.00000E+00
         0.00000E+00
         0.00000E+00
         0.00000E+00
         0.00000E+00
         0.00000E+00
         0.00000E+00
         0.00000E+00
         0.00000E+00
         0.00000E+00
         0.00000E+00
         0.00000E+00
         0.00000E+00
         0.00000E+00
         0.00000E+00
         0.00000E+00
         0.00000E+00
         0.00000E+00
         0.00000E+00
         0.00000E+00
         0.00000E+00
         0.00000E+00
         0.00000E+00
         0.00000E+00
         0.00000E+00
         0.00000E+00
         0.00000E+00
         0.00000E+00
         0.00000E+00
         0.00000E+00
         0.00000E+00
         0.00000E+00
         0.00000E+00
         0.00000E+00
         0.00000E+00
         0.00000E+00
         0.00000E+00
         0.00000E+00
         0.00000E+00
         0.00000E+00
         0.00000E+00
         0.00000E+00
         0.00000E+00
         0.00000E+00
         0.00000E+00
         0.00000E+00
         0.00000E+00
         0.00000E+00
         0.00000E+00
         0.00000E+00
         0.00000E+00
         0.00000E+00
         0.00000E+00
         0.00000E+00
         0.00000E+00
         0.00000E+00
         0.00000E+00
         0.00000E+00
         0.00000E+00
         0.00000E+00
         0.00000E+00
         0.00000E+00
         0.00000E+00
         0.00000E+00
         0.00000E+00
         0.00000E+00
         0.00000E+00
         0.00000E+00
         0.00000E+00
         0.00000E+00
         0.00000E+00
         0.00000E+00
         0.00000E+00
         0.00000E+00
         0.00000E+00
         0.00000E+00
         0.00000E+00
         0.00000E+00
         0.00000E+00
         0.00000E+00
         0.00000E+00
         0.00000E+00
         0.00000E+00
         0.00000E+00
         0.00000E+00
         0.00000E+00
         0.00000E+00
         0.00000E+00
         0.00000E+00
         0.00000E+00
         0.00000E+00
         0.00000E+00
         0.00000E+00
         0.00000E+00
         0.00000E+00
         0.00000E+00
         0.00000E+00
         0.00000E+00
         0.00000E+00
         0.00000E+00
         0.00000E+00
         0.00000E+00
         0.00000E+00
         0.00000E+00
         0.00000E+00
         0.00000E+00
         0.00000E+00
         0.00000E+00
         0.00000E+00
         0.00000E+00
         0.00000E+00
         0.00000E+00
         0.00000E+00
         0.00000E+00
         0.00000E+00
         0.00000E+00
         0.00000E+00
         0.00000E+00
         0.00000E+00
         0.00000E+00
         0.00000E+00
         0.00000E+00
         0.00000E+00
         0.00000E+00
         0.00000E+00
         0.00000E+00
         0.00000E+00
         0.00000E+00
         0.00000E+00
         0.00000E+00
         0.00000E+00
         0.00000E+00
         0.00000E+00
         0.00000E+00
         0.00000E+00
         0.00000E+00
         0.00000E+00
         0.00000E+00
         0.00000E+00
         0.00000E+00
         0.00000E+00
         0.00000E+00
         0.00000E+00
         0.00000E+00
         0.00000E+00
         0.00000E+00
         0.00000E+00
         0.00000E+00
         0.00000E+00
         0.00000E+00
         0.00000E+00
         0.00000E+00
         0.00000E+00
         0.00000E+00
         0.00000E+00
         0.00000E+00
         0.00000E+00
         0.00000E+00
         0.00000E+00
         0.00000E+00
         0.00000E+00
         0.00000E+00
         0.00000E+00
         0.00000E+00
         0.00000E+00
         0.00000E+00
         0.00000E+00
         0.00000E+00
         0.00000E+00
         0.00000E+00
         0.00000E+00
         0.00000E+00
         0.00000E+00
         0.00000E+00
         0.00000E+00
         0.00000E+00
         0.00000E+00
         0.00000E+00
         0.00000E+00
         0.00000E+00
         0.00000E+00
         0.00000E+00
         0.00000E+00
         0.00000E+00
         0.00000E+00
         0.00000E+00
         0.00000E+00
         0.00000E+00
         0.00000E+00
         0.00000E+00
         0.00000E+00
         0.00000E+00
         0.00000E+00
         0.00000E+00
         0.00000E+00
         0.00000E+00
         0.00000E+00
         0.00000E+00
         0.00000E+00
         0.00000E+00
         0.00000E+00
         0.00000E+00
         0.00000E+00
         0.00000E+00
         0.00000E+00
         0.00000E+00
         0.00000E+00
         0.00000E+00
         0.00000E+00
         0.00000E+00
         0.00000E+00
         0.00000E+00
         0.00000E+00
         0.00000E+00
         0.00000E+00
         0.00000E+00
         0.00000E+00
         0.00000E+00
         0.00000E+00
         0.00000E+00
         0.00000E+00
         0.00000E+00
         0.00000E+00
         0.00000E+00
         0.00000E+00
         0.00000E+00
         0.00000E+00
         0.00000E+00
         0.00000E+00
         0.00000E+00
         0.00000E+00
         0.00000E+00
         0.00000E+00
         0.00000E+00
         0.00000E+00
         0.00000E+00
         0.00000E+00
         0.00000E+00
         0.00000E+00
         0.00000E+00
         0.00000E+00
         0.00000E+00
         0.00000E+00
         0.00000E+00
         0.00000E+00
         0.00000E+00
         0.00000E+00
         0.00000E+00
         0.00000E+00
         0.00000E+00
         0.00000E+00
         0.00000E+00
         0.00000E+00
         0.00000E+00
         0.00000E+00
         0.00000E+00
         0.00000E+00
         0.00000E+00
         0.00000E+00
         0.00000E+00
         0.00000E+00
         0.00000E+00
         0.00000E+00
         0.00000E+00
         0.00000E+00
         0.00000E+00
         0.00000E+00
         0.00000E+00
         0.00000E+00
         0.00000E+00
         0.00000E+00
         0.00000E+00
         0.00000E+00
         0.00000E+00
         0.00000E+00
         0.00000E+00
         0.00000E+00
         0.00000E+00
         0.00000E+00
         0.00000E+00
         0.00000E+00
         0.00000E+00
         0.00000E+00
         0.00000E+00
         0.00000E+00
         0.00000E+00
         0.00000E+00
         0.00000E+00
         0.00000E+00
         0.00000E+00
         0.00000E+00
         0.00000E+00
         0.00000E+00
         0.00000E+00
         0.00000E+00
         0.00000E+00
         0.00000E+00
         0.00000E+00
         0.00000E+00
         0.00000E+00
         0.00000E+00
         0.00000E+00
         0.00000E+00
         0.00000E+00
         0.00000E+00
         0.00000E+00
         0.00000E+00
         0.00000E+00
         0.00000E+00
         0.00000E+00
         0.00000E+00
         0.00000E+00
         0.00000E+00
         0.00000E+00
         0.00000E+00
         0.00000E+00
         0.00000E+00
         0.00000E+00
         0.00000E+00
         0.00000E+00
         0.00000E+00
         0.00000E+00
         0.00000E+00
         0.00000E+00
         0.00000E+00
         0.00000E+00
         0.00000E+00
         0.00000E+00
         0.00000E+00
         0.00000E+00
         0.00000E+00
         0.00000E+00
         0.00000E+00
         0.00000E+00
         0.00000E+00
         0.00000E+00
         0.00000E+00
         0.00000E+00
         0.00000E+00
         0.00000E+00
         0.00000E+00
         0.00000E+00
         0.00000E+00
         0.00000E+00
         0.00000E+00
         0.00000E+00
         0.00000E+00
         0.00000E+00
         0.00000E+00
         0.00000E+00
         0.00000E+00
         0.00000E+00
         0.00000E+00
         0.00000E+00
         0.00000E+00
         0.00000E+00
         0.00000E+00
         0.00000E+00
         0.00000E+00
         0.00000E+00
         0.00000E+00
         0.00000E+00
         0.00000E+00
         0.00000E+00
         0.00000E+00
         0.00000E+00
         0.00000E+00
         0.00000E+00
         0.00000E+00
         0.00000E+00
         0.00000E+00
         0.00000E+00
         0.00000E+00
         0.00000E+00
         0.00000E+00
         0.00000E+00
         0.00000E+00
         0.00000E+00
         0.00000E+00
         0.00000E+00
         0.00000E+00
         0.00000E+00
         0.00000E+00
         0.00000E+00
         0.00000E+00
         0.00000E+00
         0.00000E+00
         0.00000E+00
         0.00000E+00
         0.00000E+00
         0.00000E+00
         0.00000E+00
         0.00000E+00
         0.00000E+00
         0.00000E+00
         0.00000E+00
         0.00000E+00
         0.00000E+00
         0.00000E+00
         0.00000E+00
         0.00000E+00
         0.00000E+00
         0.00000E+00
         0.00000E+00
         0.00000E+00
         0.00000E+00
         0.00000E+00
         0.00000E+00
         0.00000E+00
         0.00000E+00
         0.00000E+00
         0.00000E+00
         0.00000E+00
         0.00000E+00
         0.00000E+00
         0.00000E+00
         0.00000E+00
         0.00000E+00
         0.00000E+00
         0.00000E+00
         0.00000E+00
         0.00000E+00
         0.00000E+00
         0.00000E+00
         0.00000E+00
         0.00000E+00
         0.00000E+00
         0.00000E+00
         0.00000E+00
         0.00000E+00
         0.00000E+00
         0.00000E+00
         0.00000E+00
         0.00000E+00
         0.00000E+00
         0.00000E+00
         0.00000E+00
         0.00000E+00
         0.00000E+00
         0.00000E+00
         0.00000E+00
         0.00000E+00
         0.00000E+00
         0.00000E+00
         0.00000E+00
         0.00000E+00
         0.00000E+00
         0.00000E+00
         0.00000E+00
         0.00000E+00
         0.00000E+00
         0.00000E+00
         0.00000E+00
         0.00000E+00
         0.00000E+00
         0.00000E+00
         0.00000E+00
         0.00000E+00
         0.00000E+00
         0.00000E+00
         0.00000E+00
         0.00000E+00
         0.00000E+00
         0.00000E+00
         0.00000E+00
         0.00000E+00
         0.00000E+00
         0.00000E+00
         0.00000E+00
         0.00000E+00
         0.00000E+00
         0.00000E+00
         0.00000E+00
         0.00000E+00
         0.00000E+00
         0.00000E+00
         0.00000E+00
         0.00000E+00
         0.00000E+00
         0.00000E+00
         0.00000E+00
         0.00000E+00
         0.00000E+00
         0.00000E+00
         0.00000E+00
         0.00000E+00
         0.00000E+00
         0.00000E+00
         0.00000E+00
         0.00000E+00
         0.00000E+00
         0.00000E+00
         0.00000E+00
         0.00000E+00
         0.00000E+00
         0.00000E+00
         0.00000E+00
         0.00000E+00
         0.00000E+00
         0.00000E+00
         0.00000E+00
         0.00000E+00
         0.00000E+00
         0.00000E+00
         0.00000E+00
         0.00000E+00
         0.00000E+00
         0.00000E+00
         0.00000E+00
         0.00000E+00
         0.00000E+00
         0.00000E+00
         0.00000E+00
         0.00000E+00
         0.00000E+00
         0.00000E+00
         0.00000E+00
         0.00000E+00
         0.00000E+00
         0.00000E+00
         0.00000E+00
         0.00000E+00
         0.00000E+00
         0.00000E+00
         0.00000E+00
         0.00000E+00
         0.00000E+00
         0.00000E+00
         0.00000E+00
         0.00000E+00
         0.00000E+00
         0.00000E+00
         0.00000E+00
         0.00000E+00
         0.00000E+00
         0.00000E+00
         0.00000E+00
         0.00000E+00
         0.00000E+00
         0.00000E+00
         0.00000E+00
         0.00000E+00
         0.00000E+00
         0.00000E+00
         0.00000E+00
         0.00000E+00
         0.00000E+00
         0.00000E+00
         0.00000E+00
         0.00000E+00
         0.00000E+00
         0.00000E+00
         0.00000E+00
         0.00000E+00
         0.00000E+00
         0.00000E+00
         0.00000E+00
         0.00000E+00
         0.00000E+00
         0.00000E+00
         0.00000E+00
         0.00000E+00
         0.00000E+00
         0.00000E+00
         0.00000E+00
         0.00000E+00
         0.00000E+00
         0.00000E+00
         0.00000E+00
         0.00000E+00
         0.00000E+00
         0.00000E+00
         0.00000E+00
         0.00000E+00
         0.00000E+00
         0.00000E+00
         0.00000E+00
         0.00000E+00
         0.00000E+00
         0.00000E+00
         0.00000E+00
         0.00000E+00
         0.00000E+00
         0.00000E+00
         0.00000E+00
         0.00000E+00
         0.00000E+00
         0.00000E+00
         0.00000E+00
         0.00000E+00
         0.00000E+00
         0.00000E+00
         0.00000E+00
         0.00000E+00
         0.00000E+00
         0.00000E+00
         0.00000E+00
         0.00000E+00
         0.00000E+00
         0.00000E+00
         0.00000E+00
         0.00000E+00
         0.00000E+00
         0.00000E+00
         0.00000E+00
         0.00000E+00
         0.00000E+00
         0.00000E+00
         0.00000E+00
         0.00000E+00
         0.00000E+00
         0.00000E+00
         0.00000E+00
         0.00000E+00
         0.00000E+00
         0.00000E+00
         0.00000E+00
         0.00000E+00
         0.00000E+00
         0.00000E+00
         0.00000E+00
         0.00000E+00
         0.00000E+00
         0.00000E+00
         0.00000E+00
         0.00000E+00
         0.00000E+00
         0.00000E+00
         0.00000E+00
         0.00000E+00
         0.00000E+00
         0.00000E+00
         0.00000E+00
         0.00000E+00
         0.00000E+00
         0.00000E+00
         0.00000E+00
         0.00000E+00
         0.00000E+00
         0.00000E+00
         0.00000E+00
         0.00000E+00
         0.00000E+00
         0.00000E+00
         0.00000E+00
         0.00000E+00
         0.00000E+00
         0.00000E+00
         0.00000E+00
         0.00000E+00
         0.00000E+00
         0.00000E+00
         0.00000E+00
         0.00000E+00
         0.00000E+00
         0.00000E+00
         0.00000E+00
         0.00000E+00
         0.00000E+00
         0.00000E+00
         0.00000E+00
         0.00000E+00
         0.00000E+00
         0.00000E+00
         0.00000E+00
         0.00000E+00
         0.00000E+00
         0.00000E+00
         0.00000E+00
         0.00000E+00
         0.00000E+00
         0.00000E+00
         0.00000E+00
         0.00000E+00
         0.00000E+00
         0.00000E+00
         0.00000E+00
         0.00000E+00
         0.00000E+00
         0.00000E+00
         0.00000E+00
         0.00000E+00
         0.00000E+00
         0.00000E+00
         0.00000E+00
         0.00000E+00
         0.00000E+00
         0.00000E+00
         0.00000E+00
         0.00000E+00
         0.00000E+00
         0.00000E+00
         0.00000E+00
         0.00000E+00
         0.00000E+00
         0.00000E+00
         0.00000E+00
         0.00000E+00
         0.00000E+00
         0.00000E+00
         0.00000E+00
         0.00000E+00
         0.00000E+00
         0.00000E+00
         0.00000E+00
         0.00000E+00
         0.00000E+00
         0.00000E+00
         0.00000E+00
         0.00000E+00
         0.00000E+00
         0.00000E+00
         0.00000E+00
         0.00000E+00
         0.00000E+00
         0.00000E+00
         0.00000E+00
         0.00000E+00
         0.00000E+00
         0.00000E+00
         0.00000E+00
         0.00000E+00
         0.00000E+00
         0.00000E+00
         0.00000E+00
         0.00000E+00
         0.00000E+00
         0.00000E+00
         0.00000E+00
         0.00000E+00
         0.00000E+00
         0.00000E+00
         0.00000E+00
         0.00000E+00
         0.00000E+00
         0.00000E+00
         0.00000E+00
         0.00000E+00
         0.00000E+00
         0.00000E+00
         0.00000E+00
         0.00000E+00
         0.00000E+00
         0.00000E+00
         0.00000E+00
         0.00000E+00
         0.00000E+00
         0.00000E+00
         0.00000E+00
         0.00000E+00
         0.00000E+00
         0.00000E+00
         0.00000E+00
         0.00000E+00
         0.00000E+00
         0.00000E+00
         0.00000E+00
         0.00000E+00
         0.00000E+00
         0.00000E+00
         0.00000E+00
         0.00000E+00
         0.00000E+00
         0.00000E+00
         0.00000E+00
         0.00000E+00
         0.00000E+00
         0.00000E+00
         0.00000E+00
         0.00000E+00
         0.00000E+00
         0.00000E+00
         0.00000E+00
         0.00000E+00
         0.00000E+00
         0.00000E+00
         0.00000E+00
         0.00000E+00
         0.00000E+00
         0.00000E+00
         0.00000E+00
         0.00000E+00
         0.00000E+00
         0.00000E+00
         0.00000E+00
         0.00000E+00
         0.00000E+00
         0.00000E+00
         0.00000E+00
         0.00000E+00
         0.00000E+00
         0.00000E+00
         0.00000E+00
         0.00000E+00
         0.00000E+00
         0.00000E+00
         0.00000E+00
         0.00000E+00
         0.00000E+00
         0.00000E+00
         0.00000E+00
         0.00000E+00
         0.00000E+00
         0.00000E+00
         0.00000E+00
         0.00000E+00
         0.00000E+00
         0.00000E+00
         0.00000E+00
         0.00000E+00
         0.00000E+00
         0.00000E+00
         0.00000E+00
         0.00000E+00
         0.00000E+00
         0.00000E+00
         0.00000E+00
         0.00000E+00
         0.00000E+00
         0.00000E+00
         0.00000E+00
         0.00000E+00
         0.00000E+00
         0.00000E+00
         0.00000E+00
         0.00000E+00
         0.00000E+00
         0.00000E+00
         0.00000E+00
         0.00000E+00
         0.00000E+00
         0.00000E+00
         0.00000E+00
         0.00000E+00
         0.00000E+00
         0.00000E+00
         0.00000E+00
         0.00000E+00
         0.00000E+00
         0.00000E+00
         0.00000E+00
         0.00000E+00
         0.00000E+00
         0.00000E+00
         0.00000E+00
         0.00000E+00
         0.00000E+00
         0.00000E+00
         0.00000E+00
         0.00000E+00
         0.00000E+00
         0.00000E+00
         0.00000E+00
         0.00000E+00
         0.00000E+00
         0.00000E+00
         0.00000E+00
         0.00000E+00
         0.00000E+00
         0.00000E+00
         0.00000E+00
         0.00000E+00
         0.00000E+00
         0.00000E+00
         0.00000E+00
         0.00000E+00
         0.00000E+00
         0.00000E+00
         0.00000E+00
         0.00000E+00
         0.00000E+00
         0.00000E+00
         0.00000E+00
         0.00000E+00
         0.00000E+00
         0.00000E+00
         0.00000E+00
         0.00000E+00
         0.00000E+00
         0.00000E+00
         0.00000E+00
         0.00000E+00
         0.00000E+00
         0.00000E+00
         0.00000E+00
         0.00000E+00
         0.00000E+00
         0.00000E+00
         0.00000E+00
         0.00000E+00
         0.00000E+00
         0.00000E+00
         0.00000E+00
         0.00000E+00
         0.00000E+00
         0.00000E+00
         0.00000E+00
         0.00000E+00
         0.00000E+00
         0.00000E+00
         0.00000E+00
         0.00000E+00
         0.00000E+00
         0.00000E+00
         0.00000E+00
         0.00000E+00
         0.00000E+00
         0.00000E+00
         0.00000E+00
         0.00000E+00
         0.00000E+00
         0.00000E+00
         0.00000E+00
         0.00000E+00
         0.00000E+00
         0.00000E+00
         0.00000E+00
         0.00000E+00
         0.00000E+00
         0.00000E+00
         0.00000E+00
         0.00000E+00
         0.00000E+00
         0.00000E+00
         0.00000E+00
         0.00000E+00
         0.00000E+00
         0.00000E+00
         0.00000E+00
         0.00000E+00
         0.00000E+00
         0.00000E+00
         0.00000E+00
         0.00000E+00
         0.00000E+00
         0.00000E+00
         0.00000E+00
         0.00000E+00
         0.00000E+00
         0.00000E+00
         0.00000E+00
         0.00000E+00
         0.00000E+00
         0.00000E+00
         0.00000E+00
         0.00000E+00
         0.00000E+00
         0.00000E+00
         0.00000E+00
         0.00000E+00
         0.00000E+00
         0.00000E+00
         0.00000E+00
         0.00000E+00
         0.00000E+00
         0.00000E+00
         0.00000E+00
         0.00000E+00
         0.00000E+00
         0.00000E+00
         0.00000E+00
         0.00000E+00
         0.00000E+00
         0.00000E+00
         0.00000E+00
         0.00000E+00
         0.00000E+00
         0.00000E+00
         0.00000E+00
         0.00000E+00
         0.00000E+00
         0.00000E+00
         0.00000E+00
         0.00000E+00
         0.00000E+00
         0.00000E+00
         0.00000E+00
         0.00000E+00
         0.00000E+00
         0.00000E+00
         0.00000E+00
         0.00000E+00
         0.00000E+00
         0.00000E+00
         0.00000E+00
         0.00000E+00
         0.00000E+00
         0.00000E+00
         0.00000E+00
         0.00000E+00
         0.00000E+00
         0.00000E+00
         0.00000E+00
         0.00000E+00
         0.00000E+00
         0.00000E+00
         0.00000E+00
         0.00000E+00
         0.00000E+00
         0.00000E+00
         0.00000E+00
         0.00000E+00
         0.00000E+00
         0.00000E+00
         0.00000E+00
         0.00000E+00
         0.00000E+00
         0.00000E+00
         0.00000E+00
         0.00000E+00
         0.00000E+00
         0.00000E+00
         0.00000E+00
         0.00000E+00
         0.00000E+00
         0.00000E+00
         0.00000E+00
         0.00000E+00
         0.00000E+00
         0.00000E+00
         0.00000E+00
         0.00000E+00
         0.00000E+00
         0.00000E+00
         0.00000E+00
         0.00000E+00
         0.00000E+00
         0.00000E+00
         0.00000E+00
         0.00000E+00
         0.00000E+00
         0.00000E+00
         0.00000E+00
         0.00000E+00
         0.00000E+00
         0.00000E+00
         0.00000E+00
         0.00000E+00
         0.00000E+00
         0.00000E+00
         0.00000E+00
         0.00000E+00
         0.00000E+00
         0.00000E+00
         0.00000E+00
         0.00000E+00
         0.00000E+00
         0.00000E+00
         0.00000E+00
         0.00000E+00
         0.00000E+00
         0.00000E+00
         0.00000E+00
         0.00000E+00
         0.00000E+00
         0.00000E+00
         0.00000E+00
         0.00000E+00
         0.00000E+00
         0.00000E+00
         0.00000E+00
         0.00000E+00
         0.00000E+00
         0.00000E+00
         0.00000E+00
         0.00000E+00
         0.00000E+00
         0.00000E+00
         0.00000E+00
         0.00000E+00
         0.00000E+00
         0.00000E+00
         0.00000E+00
         0.00000E+00
         0.00000E+00
         0.00000E+00
         0.00000E+00
         0.00000E+00
         0.00000E+00
         0.00000E+00
         0.00000E+00
         0.00000E+00
         0.00000E+00
         0.00000E+00
         0.00000E+00
         0.00000E+00
         0.00000E+00
         0.00000E+00
         0.00000E+00
         0.00000E+00
         0.00000E+00
         0.00000E+00
         0.00000E+00
         0.00000E+00
         0.00000E+00
         0.00000E+00
         0.00000E+00
         0.00000E+00
         0.00000E+00
         0.00000E+00
         0.00000E+00
         0.00000E+00
         0.00000E+00
         0.00000E+00
         0.00000E+00
         0.00000E+00
         0.00000E+00
         0.00000E+00
         0.00000E+00
         0.00000E+00
         0.00000E+00
         0.00000E+00
         0.00000E+00
         0.00000E+00
         0.00000E+00
         0.00000E+00
         0.00000E+00
         0.00000E+00
         0.00000E+00
         0.00000E+00
         0.00000E+00
         0.00000E+00
         0.00000E+00
         0.00000E+00
         0.00000E+00
         0.00000E+00
         0.00000E+00
         0.00000E+00
         0.00000E+00
         0.00000E+00
         0.00000E+00
         0.00000E+00
         0.00000E+00
         0.00000E+00
         0.00000E+00
         0.00000E+00
         0.00000E+00
         0.00000E+00
         0.00000E+00
         0.00000E+00
         0.00000E+00
         0.00000E+00
         0.00000E+00
         0.00000E+00
         0.00000E+00
         0.00000E+00
         0.00000E+00
         0.00000E+00
         0.00000E+00
         0.00000E+00
         0.00000E+00
         0.00000E+00
         0.00000E+00
         0.00000E+00
         0.00000E+00
         0.00000E+00
         0.00000E+00
         0.00000E+00
         0.00000E+00
         0.00000E+00
         0.00000E+00
         0.00000E+00
         0.00000E+00
         0.00000E+00
         0.00000E+00
         0.00000E+00
         0.00000E+00
         0.00000E+00
         0.00000E+00
         0.00000E+00
         0.00000E+00
         0.00000E+00
         0.00000E+00
         0.00000E+00
         0.00000E+00
         0.00000E+00
         0.00000E+00
         0.00000E+00
         0.00000E+00
         0.00000E+00
         0.00000E+00
         0.00000E+00
         0.00000E+00
         0.00000E+00
         0.00000E+00
         0.00000E+00
         0.00000E+00
         0.00000E+00
         0.00000E+00
         0.00000E+00
         0.00000E+00
         0.00000E+00
         0.00000E+00
         0.00000E+00
         0.00000E+00
         0.00000E+00
         0.00000E+00
         0.00000E+00
         0.00000E+00
         0.00000E+00
         0.00000E+00
         0.00000E+00
         0.00000E+00
         0.00000E+00
         0.00000E+00
         0.00000E+00
         0.00000E+00
         0.00000E+00
         0.00000E+00
         0.00000E+00
         0.00000E+00
         0.00000E+00
         0.00000E+00
         0.00000E+00
         0.00000E+00
         0.00000E+00
         0.00000E+00
         0.00000E+00
         0.00000E+00
         0.00000E+00
         0.00000E+00
         0.00000E+00
         0.00000E+00
         0.00000E+00
         0.00000E+00
         0.00000E+00
         0.00000E+00
         0.00000E+00
         0.00000E+00
         0.00000E+00
         0.00000E+00
         0.00000E+00
         0.00000E+00
         0.00000E+00
         0.00000E+00
         0.00000E+00
         0.00000E+00
         0.00000E+00
         0.00000E+00
         0.00000E+00
         0.00000E+00
         0.00000E+00
         0.00000E+00
         0.00000E+00
         0.00000E+00
         0.00000E+00
         0.00000E+00
         0.00000E+00
         0.00000E+00
         0.00000E+00
         0.00000E+00
         0.00000E+00
         0.00000E+00
         0.00000E+00
         0.00000E+00
         0.00000E+00
         0.00000E+00
         0.00000E+00
         0.00000E+00
         0.00000E+00
         0.00000E+00
         0.00000E+00
         0.00000E+00
         0.00000E+00
         0.00000E+00
         0.00000E+00
         0.00000E+00
         0.00000E+00
         0.00000E+00
         0.00000E+00
         0.00000E+00
         0.00000E+00
         0.00000E+00
         0.00000E+00
         0.00000E+00
         0.00000E+00
         0.00000E+00
         0.00000E+00
         0.00000E+00
         0.00000E+00
         0.00000E+00
         0.00000E+00
         0.00000E+00
         0.00000E+00
         0.00000E+00
         0.00000E+00
         0.00000E+00
         0.00000E+00
         0.00000E+00
         0.00000E+00
         0.00000E+00
         0.00000E+00
         0.00000E+00
         0.00000E+00
         0.00000E+00
         0.00000E+00
         0.00000E+00
         0.00000E+00
         0.00000E+00
         0.00000E+00
         0.00000E+00
         0.00000E+00
         0.00000E+00
         0.00000E+00
         0.00000E+00
         0.00000E+00
         0.00000E+00
         0.00000E+00
         0.00000E+00
         0.00000E+00
         0.00000E+00
         0.00000E+00
         0.00000E+00
         0.00000E+00
         0.00000E+00
         0.00000E+00
         0.00000E+00
         0.00000E+00
         0.00000E+00
         0.00000E+00
         0.00000E+00
         0.00000E+00
         0.00000E+00
         0.00000E+00
         0.00000E+00
         0.00000E+00
         0.00000E+00
         0.00000E+00
         0.00000E+00
         0.00000E+00
         0.00000E+00
         0.00000E+00
         0.00000E+00
         0.00000E+00
         0.00000E+00
         0.00000E+00
         0.00000E+00
         0.00000E+00
         0.00000E+00
         0.00000E+00
         0.00000E+00
         0.00000E+00
         0.00000E+00
         0.00000E+00
         0.00000E+00
         0.00000E+00
         0.00000E+00
         0.00000E+00
         0.00000E+00
         0.00000E+00
         0.00000E+00
         0.00000E+00
         0.00000E+00
         0.00000E+00
         0.00000E+00
         0.00000E+00
         0.00000E+00
         0.00000E+00
         0.00000E+00
         0.00000E+00
         0.00000E+00
         0.00000E+00
         0.00000E+00
         0.00000E+00
         0.00000E+00
         0.00000E+00
         0.00000E+00
         0.00000E+00
         0.00000E+00
         0.00000E+00
         0.00000E+00
         0.00000E+00
         0.00000E+00
         0.00000E+00
         0.00000E+00
         0.00000E+00
         0.00000E+00
         0.00000E+00
         0.00000E+00
         0.00000E+00
         0.00000E+00
         0.00000E+00
         0.00000E+00
         0.00000E+00
         0.00000E+00
         0.00000E+00
         0.00000E+00
         0.00000E+00
         0.00000E+00
         0.00000E+00
         0.00000E+00
         0.00000E+00
         0.00000E+00
         0.00000E+00
         0.00000E+00
         0.00000E+00
         0.00000E+00
         0.00000E+00
         0.00000E+00
         0.00000E+00
         0.00000E+00
         0.00000E+00
         0.00000E+00
         0.00000E+00
         0.00000E+00
         0.00000E+00
         0.00000E+00
         0.00000E+00
         0.00000E+00
         0.00000E+00
         0.00000E+00
         0.00000E+00
         0.00000E+00
         0.00000E+00
         0.00000E+00
         0.00000E+00
         0.00000E+00
         0.00000E+00
         0.00000E+00
         0.00000E+00
         0.00000E+00
         0.00000E+00
         0.00000E+00
         0.00000E+00
         0.00000E+00
         0.00000E+00
         0.00000E+00
         0.00000E+00
         0.00000E+00
         0.00000E+00
         0.00000E+00
         0.00000E+00
         0.00000E+00
         0.00000E+00
         0.00000E+00
         0.00000E+00
         0.00000E+00
         0.00000E+00
         0.00000E+00
         0.00000E+00
         0.00000E+00
         0.00000E+00
         0.00000E+00
         0.00000E+00
         0.00000E+00
         0.00000E+00
         0.00000E+00
         0.00000E+00
         0.00000E+00
         0.00000E+00
         0.00000E+00
         0.00000E+00
         0.00000E+00
         0.00000E+00
         0.00000E+00
         0.00000E+00
         0.00000E+00
         0.00000E+00
         0.00000E+00
         0.00000E+00
         0.00000E+00
         0.00000E+00
         0.00000E+00
         0.00000E+00
         0.00000E+00
         0.00000E+00
         0.00000E+00
         0.00000E+00
         0.00000E+00
         0.00000E+00
         0.00000E+00
         0.00000E+00
         0.00000E+00
         0.00000E+00
         0.00000E+00
         0.00000E+00
         0.00000E+00
         0.00000E+00
         0.00000E+00
         0.00000E+00
         0.00000E+00
         0.00000E+00
         0.00000E+00
         0.00000E+00
         0.00000E+00
         0.00000E+00
         0.00000E+00
         0.00000E+00
         0.00000E+00
         0.00000E+00
         0.00000E+00
         0.00000E+00
         0.00000E+00
         0.00000E+00
         0.00000E+00
         0.00000E+00
         0.00000E+00
         0.00000E+00
         0.00000E+00
         0.00000E+00
         0.00000E+00
         0.00000E+00
         0.00000E+00
         0.00000E+00
         0.00000E+00
         0.00000E+00
         0.00000E+00
         0.00000E+00
         0.00000E+00
         0.00000E+00
         0.00000E+00
         0.00000E+00
         0.00000E+00
         0.00000E+00
         0.00000E+00
         0.00000E+00
         0.00000E+00
         0.00000E+00
         0.00000E+00
         0.00000E+00
         0.00000E+00
         0.00000E+00
         0.00000E+00
         0.00000E+00
         0.00000E+00
         0.00000E+00
         0.00000E+00
         0.00000E+00
         0.00000E+00
         0.00000E+00
         0.00000E+00
         0.00000E+00
         0.00000E+00
         0.00000E+00
         0.00000E+00
         0.00000E+00
         0.00000E+00
         0.00000E+00
         0.00000E+00
         0.00000E+00
         0.00000E+00
         0.00000E+00
         0.00000E+00
         0.00000E+00
         0.00000E+00
         0.00000E+00
         0.00000E+00
         0.00000E+00
         0.00000E+00
         0.00000E+00
         0.00000E+00
         0.00000E+00
         0.00000E+00
         0.00000E+00
         0.00000E+00
         0.00000E+00
         0.00000E+00
         0.00000E+00
         0.00000E+00
         0.00000E+00
         0.00000E+00
         0.00000E+00
         0.00000E+00
         0.00000E+00
         0.00000E+00
         0.00000E+00
         0.00000E+00
         0.00000E+00
         0.00000E+00
         0.00000E+00
         0.00000E+00
         0.00000E+00
         0.00000E+00
         0.00000E+00
         0.00000E+00
         0.00000E+00
         0.00000E+00
         0.00000E+00
         0.00000E+00
         0.00000E+00
         0.00000E+00
         0.00000E+00
         0.00000E+00
         0.00000E+00
         0.00000E+00
         0.00000E+00
         0.00000E+00
         0.00000E+00
         0.00000E+00
         0.00000E+00
         0.00000E+00
         0.00000E+00
         0.00000E+00
         0.00000E+00
         0.00000E+00
         0.00000E+00
         0.00000E+00
         0.00000E+00
         0.00000E+00
         0.00000E+00
         0.00000E+00
         0.00000E+00
         0.00000E+00
         0.00000E+00
         0.00000E+00
         0.00000E+00
         0.00000E+00
         0.00000E+00
         0.00000E+00
         0.00000E+00
         0.00000E+00
         0.00000E+00
         0.00000E+00
         0.00000E+00
         0.00000E+00
         0.00000E+00
         0.00000E+00
         0.00000E+00
         0.00000E+00
         0.00000E+00
         0.00000E+00
         0.00000E+00
         0.00000E+00
         0.00000E+00
         0.00000E+00
         0.00000E+00
         0.00000E+00
         0.00000E+00
         0.00000E+00
         0.00000E+00
         0.00000E+00
         0.00000E+00
         0.00000E+00
         0.00000E+00
         0.00000E+00
         0.00000E+00
         0.00000E+00
         0.00000E+00
         0.00000E+00
         0.00000E+00
         0.00000E+00
         0.00000E+00
         0.00000E+00
         0.00000E+00
         0.00000E+00
         0.00000E+00
         0.00000E+00
         0.00000E+00
         0.00000E+00
         0.00000E+00
         0.00000E+00
         0.00000E+00
         0.00000E+00
         0.00000E+00
         0.00000E+00
         0.00000E+00
         0.00000E+00
         0.00000E+00
         0.00000E+00
         0.00000E+00
         0.00000E+00
         0.00000E+00
         0.00000E+00
         0.00000E+00
         0.00000E+00
         0.00000E+00
         0.00000E+00
         0.00000E+00
         0.00000E+00
         0.00000E+00
         0.00000E+00
         0.00000E+00
         0.00000E+00
         0.00000E+00
         0.00000E+00
         0.00000E+00
         0.00000E+00
         0.00000E+00
         0.00000E+00
         0.00000E+00
         0.00000E+00
         0.00000E+00
         0.00000E+00
         0.00000E+00
         0.00000E+00
         0.00000E+00
         0.00000E+00
         0.00000E+00
         0.00000E+00
         0.00000E+00
         0.00000E+00
         0.00000E+00
         0.00000E+00
         0.00000E+00
         0.00000E+00
         0.00000E+00
         0.00000E+00
         0.00000E+00
         0.00000E+00
         0.00000E+00
         0.00000E+00
         0.00000E+00
         0.00000E+00
         0.00000E+00
         0.00000E+00
         0.00000E+00
         0.00000E+00
         0.00000E+00
         0.00000E+00
         0.00000E+00
         0.00000E+00
         0.00000E+00
         0.00000E+00
         0.00000E+00
         0.00000E+00
         0.00000E+00
         0.00000E+00
         0.00000E+00
         0.00000E+00
         0.00000E+00
         0.00000E+00
         0.00000E+00
         0.00000E+00
         0.00000E+00
         0.00000E+00
         0.00000E+00
         0.00000E+00
         0.00000E+00
         0.00000E+00
         0.00000E+00
         0.00000E+00
         0.00000E+00
         0.00000E+00
         0.00000E+00
         0.00000E+00
         0.00000E+00
         0.00000E+00
         0.00000E+00
         0.00000E+00
         0.00000E+00
         0.00000E+00
         0.00000E+00
         0.00000E+00
         0.00000E+00
         0.00000E+00
         0.00000E+00
         0.00000E+00
         0.00000E+00
         0.00000E+00
         0.00000E+00
         0.00000E+00
         0.00000E+00
         0.00000E+00
         0.00000E+00
         0.00000E+00
         0.00000E+00
         0.00000E+00
         0.00000E+00
         0.00000E+00
         0.00000E+00
         0.00000E+00
         0.00000E+00
         0.00000E+00
         0.00000E+00
         0.00000E+00
         0.00000E+00
         0.00000E+00
         0.00000E+00
         0.00000E+00
         0.00000E+00
         0.00000E+00
         0.00000E+00
         0.00000E+00
         0.00000E+00
         0.00000E+00
         0.00000E+00
         0.00000E+00
         0.00000E+00
         0.00000E+00
         0.00000E+00
         0.00000E+00
         0.00000E+00
         0.00000E+00
         0.00000E+00
         0.00000E+00
         0.00000E+00
         0.00000E+00
         0.00000E+00
         0.00000E+00
         0.00000E+00
         0.00000E+00
         0.00000E+00
         0.00000E+00
         0.00000E+00
         0.00000E+00
         0.00000E+00
         0.00000E+00
         0.00000E+00
         0.00000E+00
         0.00000E+00
         0.00000E+00
         0.00000E+00
         0.00000E+00
         0.00000E+00
         0.00000E+00
         0.00000E+00
         0.00000E+00
         0.00000E+00
         0.00000E+00
         0.00000E+00
         0.00000E+00
         0.00000E+00
         0.00000E+00
         0.00000E+00
         0.00000E+00
         0.00000E+00
         0.00000E+00
         0.00000E+00
         0.00000E+00
         0.00000E+00
         0.00000E+00
         0.00000E+00
         0.00000E+00
         0.00000E+00
         0.00000E+00
         0.00000E+00
         0.00000E+00
         0.00000E+00
         0.00000E+00
         0.00000E+00
         0.00000E+00
         0.00000E+00
         0.00000E+00
         0.00000E+00
         0.00000E+00
         0.00000E+00
         0.00000E+00
         0.00000E+00
         0.00000E+00
         0.00000E+00
         0.00000E+00
         0.00000E+00
         0.00000E+00
         0.00000E+00
         0.00000E+00
         0.00000E+00
         0.00000E+00
         0.00000E+00
         0.00000E+00
         0.00000E+00
         0.00000E+00
         0.00000E+00
         0.00000E+00
         0.00000E+00
         0.00000E+00
         0.00000E+00
         0.00000E+00
         0.00000E+00
         0.00000E+00
         0.00000E+00
         0.00000E+00
         0.00000E+00
         0.00000E+00
         0.00000E+00
         0.00000E+00
         0.00000E+00
         0.00000E+00
         0.00000E+00
         0.00000E+00
         0.00000E+00
         0.00000E+00
         0.00000E+00
         0.00000E+00
         0.00000E+00
         0.00000E+00
         0.00000E+00
         0.00000E+00
         0.00000E+00
         0.00000E+00
         0.00000E+00
         0.00000E+00
         0.00000E+00
         0.00000E+00
         0.00000E+00
         0.00000E+00
         0.00000E+00
         0.00000E+00
         0.00000E+00
         0.00000E+00
         0.00000E+00
         0.00000E+00
         0.00000E+00
         0.00000E+00
         0.00000E+00
         0.00000E+00
         0.00000E+00
         0.00000E+00
         0.00000E+00
         0.00000E+00
         0.00000E+00
  
SCALARS                            eps  double 1
LOOKUP_TABLE default
         0.39127E+01
         0.38630E+01
         0.38945E+01
         0.39511E+01
         0.00000E+00
         0.00000E+00
         0.00000E+00
         0.00000E+00
         0.38615E+01
         0.38782E+01
         0.00000E+00
         0.00000E+00
         0.37910E+01
         0.37883E+01
         0.00000E+00
         0.00000E+00
         0.39428E+01
         0.37922E+01
         0.00000E+00
         0.00000E+00
         0.37368E+01
         0.36940E+01
         0.37624E+01
         0.00000E+00
         0.00000E+00
         0.00000E+00
         0.36955E+01
         0.36328E+01
         0.00000E+00
         0.00000E+00
         0.39400E+01
         0.38746E+01
         0.40035E+01
         0.00000E+00
         0.00000E+00
         0.00000E+00
         0.39022E+01
         0.38187E+01
         0.00000E+00
         0.00000E+00
         0.38692E+01
         0.38048E+01
         0.00000E+00
         0.00000E+00
         0.39237E+01
         0.39478E+01
         0.00000E+00
         0.00000E+00
         0.37530E+01
         0.00000E+00
         0.39431E+01
         0.00000E+00
         0.36774E+01
         0.00000E+00
         0.36576E+01
         0.00000E+00
         0.36580E+01
         0.37281E+01
         0.00000E+00
         0.00000E+00
         0.39387E+01
         0.39136E+01
         0.00000E+00
         0.00000E+00
         0.39544E+01
         0.00000E+00
         0.39245E+01
         0.00000E+00
         0.38463E+01
         0.38381E+01
         0.00000E+00
         0.00000E+00
         0.38202E+01
         0.00000E+00
         0.36105E+01
         0.00000E+00
         0.35996E+01
         0.00000E+00
         0.36052E+01
         0.00000E+00
         0.36359E+01
         0.36672E+01
         0.00000E+00
         0.00000E+00
         0.37305E+01
         0.00000E+00
         0.39225E+01
         0.00000E+00
         0.38927E+01
         0.00000E+00
         0.38685E+01
         0.38546E+01
         0.00000E+00
         0.00000E+00
         0.38711E+01
         0.00000E+00
         0.38829E+01
         0.00000E+00
         0.38723E+01
         0.00000E+00
         0.38688E+01
         0.38794E+01
         0.00000E+00
         0.00000E+00
         0.38109E+01
         0.38396E+01
         0.00000E+00
         0.00000E+00
         0.38059E+01
         0.00000E+00
         0.38391E+01
         0.00000E+00
         0.38066E+01
         0.00000E+00
         0.37352E+01
         0.00000E+00
         0.36662E+01
         0.00000E+00
         0.36246E+01
         0.00000E+00
         0.36204E+01
         0.00000E+00
         0.36216E+01
         0.00000E+00
         0.36666E+01
         0.00000E+00
         0.37513E+01
         0.00000E+00
         0.38440E+01
         0.00000E+00
         0.38978E+01
         0.00000E+00
         0.39511E+01
         0.00000E+00
         0.39863E+01
         0.00000E+00
         0.39852E+01
         0.00000E+00
         0.38988E+01
         0.00000E+00
         0.38385E+01
         0.00000E+00
         0.38186E+01
         0.00000E+00
         0.38510E+01
         0.00000E+00
         0.38676E+01
         0.00000E+00
         0.38389E+01
         0.00000E+00
         0.38389E+01
         0.00000E+00
         0.38605E+01
         0.00000E+00
         0.38885E+01
         0.00000E+00
         0.31455E+00
         0.31650E+00
         0.31624E+00
         0.31362E+00
         0.31828E+00
         0.31606E+00
         0.31871E+00
         0.31737E+00
         0.31406E+00
         0.31620E+00
         0.32005E+00
         0.32054E+00
         0.31946E+00
         0.31931E+00
         0.32011E+00
         0.31376E+00
         0.31427E+00
         0.31281E+00
         0.31670E+00
         0.31604E+00
         0.31704E+00
         0.31644E+00
         0.31755E+00
         0.31720E+00
         0.31611E+00
         0.31618E+00
         0.31801E+00
         0.31785E+00
         0.31911E+00
         0.31718E+00
         0.31401E+00
         0.31652E+00
         0.31403E+00
         0.31571E+00
         0.32078E+00
         0.31930E+00
         0.31857E+00
         0.31948E+00
         0.31956E+00
         0.32085E+00
         0.32178E+00
         0.31952E+00
         0.31703E+00
         0.31736E+00
         0.31866E+00
         0.32075E+00
         0.31896E+00
         0.31685E+00
         0.31700E+00
         0.31864E+00
         0.32020E+00
         0.31809E+00
         0.32437E+00
         0.32316E+00
         0.32347E+00
         0.32321E+00
         0.32343E+00
         0.32434E+00
         0.32497E+00
         0.32496E+00
         0.32482E+00
         0.32496E+00
         0.32516E+00
         0.32339E+00
         0.32235E+00
         0.32194E+00
         0.32147E+00
         0.32111E+00
         0.32121E+00
         0.32204E+00
         0.32406E+00
         0.32371E+00
         0.32289E+00
         0.32280E+00
         0.32294E+00
         0.32356E+00
         0.32261E+00
         0.32226E+00
         0.38296E-02
         0.10552E-02
         0.81920E-03
         0.00000E+00
         0.40982E-02
         0.18673E-02
         0.00000E+00
         0.37147E-02
         0.11606E-02
         0.33190E-02
         0.25629E-04
         0.10470E-01
         0.71774E-02
         0.20164E-02
         0.11119E-01
         0.19271E-02
         0.00000E+00
         0.00000E+00
         0.28371E-03
         0.00000E+00
         0.75467E-02
         0.68827E-02
         0.66194E-02
         0.00000E+00
         0.10359E-02
         0.00000E+00
         0.17263E-02
         0.00000E+00
         0.00000E+00
         0.13866E-02
         0.11928E-02
         0.00000E+00
         0.00000E+00
         0.00000E+00
         0.62233E-02
         0.24600E-02
         0.41077E-02
         0.84727E-02
         0.57811E-02
         0.51613E-02
         0.86695E-02
         0.75595E-02
         0.76311E-02
         0.51892E-02
         0.42963E-02
         0.70435E-02
         0.35281E-02
         0.25310E-02
         0.15403E-02
         0.23828E-02
         0.58936E-02
         0.30584E-02
         0.36978E-01
         0.37946E-01
         0.39825E-01
         0.39510E-01
         0.42351E-01
         0.45734E-01
         0.43741E-01
         0.38503E-01
         0.37432E-01
         0.40308E-01
         0.39433E-01
         0.38849E-01
         0.31511E-01
         0.29785E-01
         0.33061E-01
         0.35660E-01
         0.37138E-01
         0.40880E-01
         0.39189E-01
         0.40345E-01
         0.35979E-01
         0.33985E-01
         0.36475E-01
         0.35580E-01
         0.36714E-01
         0.36376E-01
         0.38349E-02
         0.10561E-02
         0.82142E-03
         0.00000E+00
         0.40949E-02
         0.18645E-02
         0.00000E+00
         0.37213E-02
         0.11680E-02
         0.33380E-02
         0.25558E-04
         0.10469E-01
         0.71815E-02
         0.20044E-02
         0.11134E-01
         0.19311E-02
         0.00000E+00
         0.00000E+00
         0.28567E-03
         0.00000E+00
         0.75475E-02
         0.68820E-02
         0.66188E-02
         0.00000E+00
         0.10537E-02
         0.00000E+00
         0.17279E-02
         0.00000E+00
         0.00000E+00
         0.13945E-02
         0.11969E-02
         0.00000E+00
         0.00000E+00
         0.00000E+00
         0.62275E-02
         0.24584E-02
         0.41060E-02
         0.84908E-02
         0.58012E-02
         0.51729E-02
         0.86774E-02
         0.75651E-02
         0.76324E-02
         0.51890E-02
         0.42948E-02
         0.70429E-02
         0.35282E-02
         0.25307E-02
         0.15336E-02
         0.23752E-02
         0.58885E-02
         0.30488E-02
         0.36963E-01
         0.37937E-01
         0.39824E-01
         0.39510E-01
         0.42343E-01
         0.45717E-01
         0.43722E-01
         0.38492E-01
         0.37422E-01
         0.40294E-01
         0.39426E-01
         0.38850E-01
         0.31508E-01
         0.29783E-01
         0.33065E-01
         0.35669E-01
         0.37148E-01
         0.40890E-01
         0.39186E-01
         0.40342E-01
         0.35974E-01
         0.33983E-01
         0.36462E-01
         0.35554E-01
         0.36692E-01
         0.36354E-01
         0.38402E-02
         0.10571E-02
         0.82366E-03
         0.00000E+00
         0.40916E-02
         0.18617E-02
         0.00000E+00
         0.37279E-02
         0.11754E-02
         0.33569E-02
         0.25528E-04
         0.10469E-01
         0.71855E-02
         0.19924E-02
         0.11149E-01
         0.19352E-02
         0.00000E+00
         0.00000E+00
         0.28767E-03
         0.00000E+00
         0.75486E-02
         0.68813E-02
         0.66183E-02
         0.00000E+00
         0.10714E-02
         0.00000E+00
         0.17295E-02
         0.00000E+00
         0.00000E+00
         0.14022E-02
         0.12011E-02
         0.00000E+00
         0.00000E+00
         0.00000E+00
         0.62318E-02
         0.24570E-02
         0.41043E-02
         0.85090E-02
         0.58214E-02
         0.51845E-02
         0.86855E-02
         0.75708E-02
         0.76338E-02
         0.51893E-02
         0.42936E-02
         0.70427E-02
         0.35283E-02
         0.25303E-02
         0.15271E-02
         0.23677E-02
         0.58836E-02
         0.30394E-02
         0.36949E-01
         0.37927E-01
         0.39824E-01
         0.39511E-01
         0.42336E-01
         0.45700E-01
         0.43702E-01
         0.38481E-01
         0.37411E-01
         0.40281E-01
         0.39419E-01
         0.38852E-01
         0.31504E-01
         0.29782E-01
         0.33070E-01
         0.35679E-01
         0.37159E-01
         0.40899E-01
         0.39184E-01
         0.40340E-01
         0.35970E-01
         0.33980E-01
         0.36448E-01
         0.35528E-01
         0.36669E-01
         0.36333E-01
         0.38455E-02
         0.10580E-02
         0.82590E-03
         0.00000E+00
         0.40882E-02
         0.18589E-02
         0.00000E+00
         0.37345E-02
         0.11828E-02
         0.33754E-02
         0.25539E-04
         0.10469E-01
         0.71898E-02
         0.19804E-02
         0.11164E-01
         0.19397E-02
         0.00000E+00
         0.00000E+00
         0.28984E-03
         0.00000E+00
         0.75499E-02
         0.68810E-02
         0.66184E-02
         0.00000E+00
         0.10887E-02
         0.00000E+00
         0.17308E-02
         0.00000E+00
         0.00000E+00
         0.14092E-02
         0.12055E-02
         0.00000E+00
         0.00000E+00
         0.00000E+00
         0.62358E-02
         0.24554E-02
         0.41026E-02
         0.85273E-02
         0.58419E-02
         0.51968E-02
         0.86940E-02
         0.75767E-02
         0.76358E-02
         0.51902E-02
         0.42927E-02
         0.70425E-02
         0.35288E-02
         0.25300E-02
         0.15205E-02
         0.23601E-02
         0.58784E-02
         0.30298E-02
         0.36934E-01
         0.37917E-01
         0.39824E-01
         0.39511E-01
         0.42328E-01
         0.45684E-01
         0.43682E-01
         0.38470E-01
         0.37401E-01
         0.40268E-01
         0.39412E-01
         0.38854E-01
         0.31502E-01
         0.29781E-01
         0.33075E-01
         0.35690E-01
         0.37171E-01
         0.40909E-01
         0.39181E-01
         0.40337E-01
         0.35966E-01
         0.33978E-01
         0.36434E-01
         0.35503E-01
         0.36647E-01
         0.36312E-01
         0.38507E-02
         0.10590E-02
         0.82814E-03
         0.00000E+00
         0.40850E-02
         0.18560E-02
         0.00000E+00
         0.37409E-02
         0.11901E-02
         0.33934E-02
         0.25617E-04
         0.10468E-01
         0.71939E-02
         0.19684E-02
         0.11178E-01
         0.19446E-02
         0.00000E+00
         0.00000E+00
         0.29205E-03
         0.00000E+00
         0.75516E-02
         0.68807E-02
         0.66190E-02
         0.00000E+00
         0.11056E-02
         0.00000E+00
         0.17320E-02
         0.00000E+00
         0.00000E+00
         0.14154E-02
         0.12100E-02
         0.00000E+00
         0.00000E+00
         0.00000E+00
         0.62400E-02
         0.24539E-02
         0.41009E-02
         0.85456E-02
         0.58628E-02
         0.52096E-02
         0.87031E-02
         0.75829E-02
         0.76383E-02
         0.51919E-02
         0.42924E-02
         0.70430E-02
         0.35296E-02
         0.25299E-02
         0.15140E-02
         0.23524E-02
         0.58735E-02
         0.30203E-02
         0.36919E-01
         0.37907E-01
         0.39824E-01
         0.39511E-01
         0.42321E-01
         0.45667E-01
         0.43662E-01
         0.38458E-01
         0.37391E-01
         0.40255E-01
         0.39405E-01
         0.38857E-01
         0.31500E-01
         0.29780E-01
         0.33080E-01
         0.35702E-01
         0.37184E-01
         0.40920E-01
         0.39179E-01
         0.40335E-01
         0.35962E-01
         0.33976E-01
         0.36421E-01
         0.35477E-01
         0.36624E-01
         0.36291E-01
         0.38557E-02
         0.10597E-02
         0.83029E-03
         0.00000E+00
         0.40817E-02
         0.18532E-02
         0.00000E+00
         0.37470E-02
         0.11975E-02
         0.34110E-02
         0.25956E-04
         0.10468E-01
         0.71981E-02
         0.19564E-02
         0.11193E-01
         0.19496E-02
         0.00000E+00
         0.00000E+00
         0.29427E-03
         0.00000E+00
         0.75535E-02
         0.68807E-02
         0.66200E-02
         0.00000E+00
         0.11221E-02
         0.00000E+00
         0.17331E-02
         0.00000E+00
         0.00000E+00
         0.14215E-02
         0.12144E-02
         0.00000E+00
         0.00000E+00
         0.00000E+00
         0.62444E-02
         0.24526E-02
         0.40995E-02
         0.85641E-02
         0.58839E-02
         0.52228E-02
         0.87124E-02
         0.75893E-02
         0.76410E-02
         0.51940E-02
         0.42926E-02
         0.70439E-02
         0.35305E-02
         0.25300E-02
         0.15078E-02
         0.23450E-02
         0.58686E-02
         0.30110E-02
         0.36905E-01
         0.37897E-01
         0.39823E-01
         0.39511E-01
         0.42313E-01
         0.45651E-01
         0.43643E-01
         0.38447E-01
         0.37380E-01
         0.40241E-01
         0.39398E-01
         0.38859E-01
         0.31499E-01
         0.29779E-01
         0.33085E-01
         0.35715E-01
         0.37198E-01
         0.40931E-01
         0.39177E-01
         0.40332E-01
         0.35958E-01
         0.33973E-01
         0.36407E-01
         0.35452E-01
         0.36602E-01
         0.36270E-01
         0.38603E-02
         0.10598E-02
         0.83235E-03
         0.00000E+00
         0.40786E-02
         0.18504E-02
         0.00000E+00
         0.37521E-02
         0.12050E-02
         0.34278E-02
         0.26758E-04
         0.10468E-01
         0.72027E-02
         0.19445E-02
         0.11208E-01
         0.19546E-02
         0.00000E+00
         0.00000E+00
         0.29655E-03
         0.00000E+00
         0.75553E-02
         0.68807E-02
         0.66211E-02
         0.00000E+00
         0.11381E-02
         0.00000E+00
         0.17344E-02
         0.00000E+00
         0.00000E+00
         0.14275E-02
         0.12185E-02
         0.00000E+00
         0.00000E+00
         0.00000E+00
         0.62487E-02
         0.24515E-02
         0.40983E-02
         0.85827E-02
         0.59052E-02
         0.52359E-02
         0.87219E-02
         0.75958E-02
         0.76438E-02
         0.51961E-02
         0.42931E-02
         0.70453E-02
         0.35320E-02
         0.25307E-02
         0.15025E-02
         0.23379E-02
         0.58642E-02
         0.30017E-02
         0.36890E-01
         0.37887E-01
         0.39823E-01
         0.39512E-01
         0.42305E-01
         0.45634E-01
         0.43623E-01
         0.38436E-01
         0.37370E-01
         0.40228E-01
         0.39391E-01
         0.38862E-01
         0.31498E-01
         0.29779E-01
         0.33091E-01
         0.35729E-01
         0.37212E-01
         0.40942E-01
         0.39174E-01
         0.40329E-01
         0.35954E-01
         0.33972E-01
         0.36393E-01
         0.35426E-01
         0.36579E-01
         0.36249E-01
         0.38647E-02
         0.10598E-02
         0.83438E-03
         0.00000E+00
         0.40756E-02
         0.18476E-02
         0.00000E+00
         0.37568E-02
         0.12126E-02
         0.34443E-02
         0.27833E-04
         0.10468E-01
         0.72074E-02
         0.19327E-02
         0.11223E-01
         0.19597E-02
         0.00000E+00
         0.00000E+00
         0.29881E-03
         0.00000E+00
         0.75572E-02
         0.68807E-02
         0.66221E-02
         0.00000E+00
         0.11539E-02
         0.00000E+00
         0.17357E-02
         0.00000E+00
         0.00000E+00
         0.14335E-02
         0.12225E-02
         0.00000E+00
         0.00000E+00
         0.00000E+00
         0.62534E-02
         0.24507E-02
         0.40973E-02
         0.86015E-02
         0.59266E-02
         0.52493E-02
         0.87314E-02
         0.76024E-02
         0.76466E-02
         0.51985E-02
         0.42938E-02
         0.70469E-02
         0.35336E-02
         0.25315E-02
         0.14976E-02
         0.23310E-02
         0.58598E-02
         0.29926E-02
         0.36876E-01
         0.37877E-01
         0.39823E-01
         0.39512E-01
         0.42298E-01
         0.45617E-01
         0.43603E-01
         0.38425E-01
         0.37360E-01
         0.40215E-01
         0.39384E-01
         0.38865E-01
         0.31497E-01
         0.29778E-01
         0.33096E-01
         0.35742E-01
         0.37226E-01
         0.40952E-01
         0.39171E-01
         0.40327E-01
         0.35950E-01
         0.33970E-01
         0.36379E-01
         0.35401E-01
         0.36557E-01
         0.36227E-01
         0.38690E-02
         0.10598E-02
         0.83637E-03
         0.00000E+00
         0.40725E-02
         0.18447E-02
         0.00000E+00
         0.37616E-02
         0.12202E-02
         0.34607E-02
         0.28825E-04
         0.10468E-01
         0.72121E-02
         0.19210E-02
         0.11239E-01
         0.19647E-02
         0.00000E+00
         0.00000E+00
         0.30105E-03
         0.00000E+00
         0.75590E-02
         0.68808E-02
         0.66232E-02
         0.00000E+00
         0.11696E-02
         0.00000E+00
         0.17371E-02
         0.00000E+00
         0.00000E+00
         0.14395E-02
         0.12265E-02
         0.00000E+00
         0.00000E+00
         0.00000E+00
         0.62581E-02
         0.24497E-02
         0.40963E-02
         0.86202E-02
         0.59481E-02
         0.52624E-02
         0.87409E-02
         0.76090E-02
         0.76494E-02
         0.52009E-02
         0.42946E-02
         0.70486E-02
         0.35352E-02
         0.25324E-02
         0.14927E-02
         0.23241E-02
         0.58557E-02
         0.29834E-02
         0.36861E-01
         0.37868E-01
         0.39822E-01
         0.39512E-01
         0.42290E-01
         0.45600E-01
         0.43583E-01
         0.38413E-01
         0.37349E-01
         0.40201E-01
         0.39377E-01
         0.38868E-01
         0.31495E-01
         0.29778E-01
         0.33102E-01
         0.35755E-01
         0.37240E-01
         0.40962E-01
         0.39168E-01
         0.40324E-01
         0.35947E-01
         0.33968E-01
         0.36366E-01
         0.35376E-01
         0.36534E-01
         0.36206E-01
         0.38733E-02
         0.10598E-02
         0.83834E-03
         0.00000E+00
         0.40694E-02
         0.18419E-02
         0.00000E+00
         0.37663E-02
         0.12278E-02
         0.34771E-02
         0.29999E-04
         0.10468E-01
         0.72169E-02
         0.19092E-02
         0.11254E-01
         0.19697E-02
         0.00000E+00
         0.00000E+00
         0.30326E-03
         0.00000E+00
         0.75609E-02
         0.68807E-02
         0.66242E-02
         0.00000E+00
         0.11854E-02
         0.00000E+00
         0.17385E-02
         0.00000E+00
         0.00000E+00
         0.14455E-02
         0.12304E-02
         0.00000E+00
         0.00000E+00
         0.00000E+00
         0.62625E-02
         0.24489E-02
         0.40953E-02
         0.86390E-02
         0.59695E-02
         0.52757E-02
         0.87503E-02
         0.76155E-02
         0.76522E-02
         0.52033E-02
         0.42954E-02
         0.70502E-02
         0.35368E-02
         0.25334E-02
         0.14878E-02
         0.23171E-02
         0.58513E-02
         0.29742E-02
         0.36846E-01
         0.37858E-01
         0.39821E-01
         0.39512E-01
         0.42283E-01
         0.45584E-01
         0.43563E-01
         0.38402E-01
         0.37339E-01
         0.40188E-01
         0.39370E-01
         0.38871E-01
         0.31494E-01
         0.29777E-01
         0.33108E-01
         0.35768E-01
         0.37255E-01
         0.40973E-01
         0.39166E-01
         0.40321E-01
         0.35943E-01
         0.33967E-01
         0.36352E-01
         0.35350E-01
         0.36512E-01
         0.36185E-01
         0.38776E-02
         0.10597E-02
         0.84035E-03
         0.00000E+00
         0.40664E-02
         0.18391E-02
         0.00000E+00
         0.37710E-02
         0.12354E-02
         0.34936E-02
         0.31195E-04
         0.10468E-01
         0.72216E-02
         0.18975E-02
         0.11269E-01
         0.19747E-02
         0.00000E+00
         0.00000E+00
         0.30552E-03
         0.00000E+00
         0.75626E-02
         0.68807E-02
         0.66253E-02
         0.00000E+00
         0.12011E-02
         0.00000E+00
         0.17399E-02
         0.00000E+00
         0.00000E+00
         0.14515E-02
         0.12344E-02
         0.00000E+00
         0.00000E+00
         0.00000E+00
         0.62672E-02
         0.24480E-02
         0.40944E-02
         0.86579E-02
         0.59910E-02
         0.52888E-02
         0.87598E-02
         0.76220E-02
         0.76550E-02
         0.52055E-02
         0.42961E-02
         0.70519E-02
         0.35385E-02
         0.25343E-02
         0.14829E-02
         0.23102E-02
         0.58471E-02
         0.29651E-02
         0.36831E-01
         0.37848E-01
         0.39821E-01
         0.39512E-01
         0.42275E-01
         0.45567E-01
         0.43542E-01
         0.38391E-01
         0.37329E-01
         0.40174E-01
         0.39363E-01
         0.38873E-01
         0.31493E-01
         0.29776E-01
         0.33113E-01
         0.35781E-01
         0.37269E-01
         0.40983E-01
         0.39163E-01
         0.40319E-01
         0.35940E-01
         0.33965E-01
         0.36338E-01
         0.35325E-01
         0.36490E-01
         0.36164E-01
         0.38819E-02
         0.10597E-02
         0.84233E-03
         0.00000E+00
         0.40634E-02
         0.18363E-02
         0.00000E+00
         0.37757E-02
         0.12431E-02
         0.35100E-02
         0.32439E-04
         0.10468E-01
         0.72262E-02
         0.18859E-02
         0.11284E-01
         0.19798E-02
         0.00000E+00
         0.00000E+00
         0.30775E-03
         0.00000E+00
         0.75645E-02
         0.68807E-02
         0.66264E-02
         0.00000E+00
         0.12167E-02
         0.00000E+00
         0.17413E-02
         0.00000E+00
         0.00000E+00
         0.14576E-02
         0.12384E-02
         0.00000E+00
         0.00000E+00
         0.00000E+00
         0.62719E-02
         0.24471E-02
         0.40934E-02
         0.86767E-02
         0.60125E-02
         0.53021E-02
         0.87693E-02
         0.76285E-02
         0.76578E-02
         0.52079E-02
         0.42968E-02
         0.70536E-02
         0.35401E-02
         0.25353E-02
         0.14781E-02
         0.23034E-02
         0.58428E-02
         0.29559E-02
         0.36817E-01
         0.37838E-01
         0.39820E-01
         0.39513E-01
         0.42268E-01
         0.45550E-01
         0.43522E-01
         0.38379E-01
         0.37319E-01
         0.40160E-01
         0.39356E-01
         0.38876E-01
         0.31491E-01
         0.29776E-01
         0.33119E-01
         0.35794E-01
         0.37283E-01
         0.40993E-01
         0.39160E-01
         0.40316E-01
         0.35936E-01
         0.33963E-01
         0.36324E-01
         0.35299E-01
         0.36467E-01
         0.36143E-01
         0.38863E-02
         0.10596E-02
         0.84433E-03
         0.00000E+00
         0.40603E-02
         0.18335E-02
         0.00000E+00
         0.37804E-02
         0.12507E-02
         0.35263E-02
         0.33731E-04
         0.10468E-01
         0.72311E-02
         0.18741E-02
         0.11299E-01
         0.19848E-02
         0.00000E+00
         0.00000E+00
         0.30999E-03
         0.00000E+00
         0.75663E-02
         0.68807E-02
         0.66274E-02
         0.00000E+00
         0.12323E-02
         0.00000E+00
         0.17427E-02
         0.00000E+00
         0.00000E+00
         0.14635E-02
         0.12423E-02
         0.00000E+00
         0.00000E+00
         0.00000E+00
         0.62765E-02
         0.24464E-02
         0.40924E-02
         0.86954E-02
         0.60341E-02
         0.53153E-02
         0.87789E-02
         0.76350E-02
         0.76606E-02
         0.52103E-02
         0.42977E-02
         0.70550E-02
         0.35418E-02
         0.25362E-02
         0.14732E-02
         0.22965E-02
         0.58384E-02
         0.29467E-02
         0.36802E-01
         0.37829E-01
         0.39820E-01
         0.39513E-01
         0.42260E-01
         0.45533E-01
         0.43502E-01
         0.38368E-01
         0.37309E-01
         0.40147E-01
         0.39349E-01
         0.38879E-01
         0.31490E-01
         0.29775E-01
         0.33124E-01
         0.35807E-01
         0.37297E-01
         0.41003E-01
         0.39157E-01
         0.40313E-01
         0.35933E-01
         0.33961E-01
         0.36310E-01
         0.35274E-01
         0.36445E-01
         0.36122E-01
         0.38905E-02
         0.10596E-02
         0.84632E-03
         0.00000E+00
         0.40574E-02
         0.18307E-02
         0.00000E+00
         0.37850E-02
         0.12584E-02
         0.35427E-02
         0.35069E-04
         0.10468E-01
         0.72357E-02
         0.18625E-02
         0.11314E-01
         0.19898E-02
         0.00000E+00
         0.00000E+00
         0.31223E-03
         0.00000E+00
         0.75681E-02
         0.68806E-02
         0.66285E-02
         0.00000E+00
         0.12480E-02
         0.00000E+00
         0.17440E-02
         0.00000E+00
         0.00000E+00
         0.14695E-02
         0.12463E-02
         0.00000E+00
         0.00000E+00
         0.00000E+00
         0.62812E-02
         0.24455E-02
         0.40914E-02
         0.87143E-02
         0.60557E-02
         0.53284E-02
         0.87884E-02
         0.76415E-02
         0.76635E-02
         0.52127E-02
         0.42985E-02
         0.70567E-02
         0.35435E-02
         0.25371E-02
         0.14683E-02
         0.22896E-02
         0.58342E-02
         0.29376E-02
         0.36787E-01
         0.37819E-01
         0.39819E-01
         0.39513E-01
         0.42253E-01
         0.45516E-01
         0.43482E-01
         0.38357E-01
         0.37298E-01
         0.40133E-01
         0.39342E-01
         0.38882E-01
         0.31489E-01
         0.29775E-01
         0.33130E-01
         0.35820E-01
         0.37311E-01
         0.41014E-01
         0.39154E-01
         0.40311E-01
         0.35929E-01
         0.33960E-01
         0.36296E-01
         0.35249E-01
         0.36423E-01
         0.36101E-01
         0.38948E-02
         0.10596E-02
         0.84830E-03
         0.00000E+00
         0.40543E-02
         0.18278E-02
         0.00000E+00
         0.37897E-02
         0.12660E-02
         0.35590E-02
         0.36447E-04
         0.10469E-01
         0.72404E-02
         0.18508E-02
         0.11329E-01
         0.19948E-02
         0.00000E+00
         0.00000E+00
         0.31447E-03
         0.00000E+00
         0.75700E-02
         0.68806E-02
         0.66294E-02
         0.00000E+00
         0.12636E-02
         0.00000E+00
         0.17454E-02
         0.00000E+00
         0.00000E+00
         0.14754E-02
         0.12502E-02
         0.00000E+00
         0.00000E+00
         0.00000E+00
         0.62857E-02
         0.24447E-02
         0.40905E-02
         0.87332E-02
         0.60773E-02
         0.53415E-02
         0.87978E-02
         0.76481E-02
         0.76662E-02
         0.52150E-02
         0.42992E-02
         0.70584E-02
         0.35450E-02
         0.25381E-02
         0.14634E-02
         0.22826E-02
         0.58299E-02
         0.29284E-02
         0.36772E-01
         0.37809E-01
         0.39818E-01
         0.39513E-01
         0.42245E-01
         0.45500E-01
         0.43461E-01
         0.38345E-01
         0.37288E-01
         0.40119E-01
         0.39335E-01
         0.38885E-01
         0.31487E-01
         0.29774E-01
         0.33135E-01
         0.35833E-01
         0.37325E-01
         0.41024E-01
         0.39151E-01
         0.40308E-01
         0.35926E-01
         0.33958E-01
         0.36282E-01
         0.35223E-01
         0.36401E-01
         0.36080E-01
         0.38991E-02
         0.10595E-02
         0.85026E-03
         0.00000E+00
         0.40512E-02
         0.18251E-02
         0.00000E+00
         0.37944E-02
         0.12737E-02
         0.35754E-02
         0.37863E-04
         0.10469E-01
         0.72452E-02
         0.18392E-02
         0.11344E-01
         0.19998E-02
         0.00000E+00
         0.00000E+00
         0.31671E-03
         0.00000E+00
         0.75718E-02
         0.68806E-02
         0.66305E-02
         0.00000E+00
         0.12792E-02
         0.00000E+00
         0.17467E-02
         0.00000E+00
         0.00000E+00
         0.14814E-02
         0.12541E-02
         0.00000E+00
         0.00000E+00
         0.00000E+00
         0.62905E-02
         0.24439E-02
         0.40895E-02
         0.87521E-02
         0.60988E-02
         0.53545E-02
         0.88072E-02
         0.76545E-02
         0.76690E-02
         0.52172E-02
         0.43001E-02
         0.70600E-02
         0.35467E-02
         0.25390E-02
         0.14586E-02
         0.22758E-02
         0.58256E-02
         0.29192E-02
         0.36758E-01
         0.37800E-01
         0.39818E-01
         0.39513E-01
         0.42238E-01
         0.45483E-01
         0.43441E-01
         0.38334E-01
         0.37278E-01
         0.40105E-01
         0.39328E-01
         0.38887E-01
         0.31486E-01
         0.29773E-01
         0.33141E-01
         0.35846E-01
         0.37339E-01
         0.41034E-01
         0.39149E-01
         0.40305E-01
         0.35922E-01
         0.33956E-01
         0.36268E-01
         0.35198E-01
         0.36379E-01
         0.36059E-01
         0.39033E-02
         0.10594E-02
         0.85226E-03
         0.00000E+00
         0.40483E-02
         0.18223E-02
         0.00000E+00
         0.37991E-02
         0.12814E-02
         0.35916E-02
         0.39334E-04
         0.10469E-01
         0.72499E-02
         0.18275E-02
         0.11360E-01
         0.20048E-02
         0.00000E+00
         0.00000E+00
         0.31895E-03
         0.00000E+00
         0.75737E-02
         0.68805E-02
         0.66315E-02
         0.00000E+00
         0.12948E-02
         0.00000E+00
         0.17480E-02
         0.00000E+00
         0.00000E+00
         0.14872E-02
         0.12581E-02
         0.00000E+00
         0.00000E+00
         0.00000E+00
         0.62953E-02
         0.24430E-02
         0.40885E-02
         0.87710E-02
         0.61204E-02
         0.53675E-02
         0.88165E-02
         0.76610E-02
         0.76717E-02
         0.52197E-02
         0.43009E-02
         0.70617E-02
         0.35484E-02
         0.25400E-02
         0.14538E-02
         0.22689E-02
         0.58213E-02
         0.29102E-02
         0.36743E-01
         0.37790E-01
         0.39817E-01
         0.39514E-01
         0.42230E-01
         0.45466E-01
         0.43420E-01
         0.38322E-01
         0.37268E-01
         0.40091E-01
         0.39321E-01
         0.38891E-01
         0.31485E-01
         0.29773E-01
         0.33146E-01
         0.35859E-01
         0.37353E-01
         0.41045E-01
         0.39146E-01
         0.40302E-01
         0.35919E-01
         0.33954E-01
         0.36254E-01
         0.35172E-01
         0.36356E-01
         0.36038E-01
         0.39076E-02
         0.10594E-02
         0.85424E-03
         0.00000E+00
         0.40453E-02
         0.18195E-02
         0.00000E+00
         0.38037E-02
         0.12892E-02
         0.36078E-02
         0.40824E-04
         0.10469E-01
         0.72546E-02
         0.18158E-02
         0.11375E-01
         0.20098E-02
         0.00000E+00
         0.00000E+00
         0.32122E-03
         0.00000E+00
         0.75755E-02
         0.68804E-02
         0.66327E-02
         0.00000E+00
         0.13103E-02
         0.00000E+00
         0.17489E-02
         0.00000E+00
         0.00000E+00
         0.14928E-02
         0.12621E-02
         0.00000E+00
         0.00000E+00
         0.00000E+00
         0.62999E-02
         0.24423E-02
         0.40875E-02
         0.87901E-02
         0.61420E-02
         0.53799E-02
         0.88253E-02
         0.76667E-02
         0.76742E-02
         0.52220E-02
         0.43017E-02
         0.70634E-02
         0.35500E-02
         0.25409E-02
         0.14489E-02
         0.22620E-02
         0.58172E-02
         0.29010E-02
         0.36728E-01
         0.37780E-01
         0.39816E-01
         0.39514E-01
         0.42222E-01
         0.45449E-01
         0.43400E-01
         0.38311E-01
         0.37258E-01
         0.40076E-01
         0.39314E-01
         0.38895E-01
         0.31484E-01
         0.29772E-01
         0.33152E-01
         0.35872E-01
         0.37367E-01
         0.41055E-01
         0.39143E-01
         0.40300E-01
         0.35915E-01
         0.33953E-01
         0.36240E-01
         0.35147E-01
         0.36334E-01
         0.36017E-01
         0.39118E-02
         0.10594E-02
         0.85620E-03
         0.00000E+00
         0.40422E-02
         0.18166E-02
         0.00000E+00
         0.38083E-02
         0.12969E-02
         0.36238E-02
         0.42353E-04
         0.10469E-01
         0.72594E-02
         0.18040E-02
         0.11390E-01
         0.20148E-02
         0.00000E+00
         0.00000E+00
         0.32348E-03
         0.00000E+00
         0.75775E-02
         0.68802E-02
         0.66338E-02
         0.00000E+00
         0.13258E-02
         0.00000E+00
         0.17494E-02
         0.00000E+00
         0.00000E+00
         0.14981E-02
         0.12660E-02
         0.00000E+00
         0.00000E+00
         0.00000E+00
         0.63047E-02
         0.24414E-02
         0.40866E-02
         0.88091E-02
         0.61634E-02
         0.53921E-02
         0.88336E-02
         0.76720E-02
         0.76764E-02
         0.52244E-02
         0.43026E-02
         0.70651E-02
         0.35517E-02
         0.25419E-02
         0.14441E-02
         0.22550E-02
         0.58128E-02
         0.28918E-02
         0.36713E-01
         0.37771E-01
         0.39815E-01
         0.39514E-01
         0.42215E-01
         0.45432E-01
         0.43380E-01
         0.38299E-01
         0.37247E-01
         0.40061E-01
         0.39308E-01
         0.38900E-01
         0.31484E-01
         0.29772E-01
         0.33157E-01
         0.35885E-01
         0.37381E-01
         0.41065E-01
         0.39140E-01
         0.40297E-01
         0.35912E-01
         0.33951E-01
         0.36226E-01
         0.35122E-01
         0.36312E-01
         0.35996E-01
         0.39161E-02
         0.10594E-02
         0.85830E-03
         0.00000E+00
         0.40393E-02
         0.18139E-02
         0.00000E+00
         0.38129E-02
         0.13048E-02
         0.36398E-02
         0.43951E-04
         0.10469E-01
         0.72640E-02
         0.17922E-02
         0.11405E-01
         0.20198E-02
         0.00000E+00
         0.00000E+00
         0.32576E-03
         0.00000E+00
         0.75793E-02
         0.68800E-02
         0.66347E-02
         0.00000E+00
         0.13412E-02
         0.00000E+00
         0.17498E-02
         0.00000E+00
         0.00000E+00
         0.15032E-02
         0.12700E-02
         0.00000E+00
         0.00000E+00
         0.00000E+00
         0.63095E-02
         0.24407E-02
         0.40855E-02
         0.88282E-02
         0.61848E-02
         0.54039E-02
         0.88415E-02
         0.76770E-02
         0.76785E-02
         0.52267E-02
         0.43033E-02
         0.70668E-02
         0.35533E-02
         0.25429E-02
         0.14394E-02
         0.22481E-02
         0.58087E-02
         0.28828E-02
         0.36699E-01
         0.37761E-01
         0.39815E-01
         0.39514E-01
         0.42207E-01
         0.45415E-01
         0.43359E-01
         0.38288E-01
         0.37237E-01
         0.40045E-01
         0.39301E-01
         0.38906E-01
         0.31485E-01
         0.29771E-01
         0.33163E-01
         0.35898E-01
         0.37395E-01
         0.41075E-01
         0.39137E-01
         0.40294E-01
         0.35908E-01
         0.33949E-01
         0.36212E-01
         0.35097E-01
         0.36290E-01
         0.35975E-01
         0.42396E-02
         0.15799E-02
         0.13953E-02
         0.27366E-03
         0.44704E-02
         0.23296E-02
         0.15276E-03
         0.42226E-02
         0.17598E-02
         0.40692E-02
         0.94277E-03
         0.10850E-01
         0.76476E-02
         0.24512E-02
         0.11803E-01
         0.24017E-02
         0.32202E-03
         0.00000E+00
         0.96982E-03
         0.00000E+00
         0.79004E-02
         0.72210E-02
         0.69510E-02
         0.16700E-03
         0.19370E-02
         0.00000E+00
         0.24079E-02
         0.00000E+00
         0.63194E-04
         0.21115E-02
         0.17109E-02
         0.00000E+00
         0.21505E-03
         0.78380E-04
         0.67361E-02
         0.29652E-02
         0.45125E-02
         0.92434E-02
         0.66500E-02
         0.58792E-02
         0.92318E-02
         0.80536E-02
         0.80193E-02
         0.55635E-02
         0.46999E-02
         0.74687E-02
         0.40202E-02
         0.30113E-02
         0.19703E-02
         0.27463E-02
         0.62108E-02
         0.33437E-02
         0.37172E-01
         0.38222E-01
         0.40294E-01
         0.39974E-01
         0.42678E-01
         0.45908E-01
         0.43856E-01
         0.38793E-01
         0.37751E-01
         0.40568E-01
         0.39811E-01
         0.39386E-01
         0.31901E-01
         0.30158E-01
         0.33553E-01
         0.36300E-01
         0.37803E-01
         0.41525E-01
         0.39623E-01
         0.40781E-01
         0.36346E-01
         0.34370E-01
         0.36639E-01
         0.35511E-01
         0.36700E-01
         0.36385E-01
         0.21383E-01
         0.20840E-01
         0.20439E-01
         0.18143E-01
         0.24443E-01
         0.21953E-01
         0.22080E-01
         0.24099E-01
         0.19497E-01
         0.23987E-01
         0.24620E-01
         0.33105E-01
         0.28474E-01
         0.25917E-01
         0.34793E-01
         0.19445E-01
         0.19977E-01
         0.16933E-01
         0.20891E-01
         0.21668E-01
         0.26702E-01
         0.26756E-01
         0.25161E-01
         0.19779E-01
         0.23185E-01
         0.18783E-01
         0.25825E-01
         0.24450E-01
         0.24709E-01
         0.24089E-01
         0.19294E-01
         0.19627E-01
         0.18278E-01
         0.19133E-01
         0.27851E-01
         0.23782E-01
         0.24687E-01
         0.32213E-01
         0.29827E-01
         0.29042E-01
         0.31719E-01
         0.29629E-01
         0.28302E-01
         0.23728E-01
         0.24010E-01
         0.28275E-01
         0.24467E-01
         0.22586E-01
         0.21658E-01
         0.22813E-01
         0.26565E-01
         0.23160E-01
         0.63845E-01
         0.64082E-01
         0.66703E-01
         0.65672E-01
         0.69127E-01
         0.73870E-01
         0.72757E-01
         0.67980E-01
         0.67092E-01
         0.70295E-01
         0.68721E-01
         0.66479E-01
         0.56592E-01
         0.53594E-01
         0.56602E-01
         0.59231E-01
         0.60854E-01
         0.66291E-01
         0.66143E-01
         0.67444E-01
         0.61437E-01
         0.58859E-01
         0.61786E-01
         0.60616E-01
         0.61390E-01
         0.60862E-01
  
SCALARS                            dam  double 1
LOOKUP_TABLE default
         0.00000E+00
         0.00000E+00
         0.00000E+00
         0.00000E+00
         0.00000E+00
         0.00000E+00
         0.00000E+00
         0.00000E+00
         0.00000E+00
         0.00000E+00
         0.00000E+00
         0.00000E+00
         0.00000E+00
         0.00000E+00
         0.00000E+00
         0.00000E+00
         0.00000E+00
         0.00000E+00
         0.00000E+00
         0.00000E+00
         0.00000E+00
         0.00000E+00
         0.00000E+00
         0.00000E+00
         0.00000E+00
         0.00000E+00
         0.00000E+00
         0.00000E+00
         0.00000E+00
         0.00000E+00
         0.00000E+00
         0.00000E+00
         0.00000E+00
         0.00000E+00
         0.00000E+00
         0.00000E+00
         0.00000E+00
         0.00000E+00
         0.00000E+00
         0.00000E+00
         0.00000E+00
         0.00000E+00
         0.00000E+00
         0.00000E+00
         0.00000E+00
         0.00000E+00
         0.00000E+00
         0.00000E+00
         0.00000E+00
         0.00000E+00
         0.00000E+00
         0.00000E+00
         0.00000E+00
         0.00000E+00
         0.00000E+00
         0.00000E+00
         0.00000E+00
         0.00000E+00
         0.00000E+00
         0.00000E+00
         0.00000E+00
         0.00000E+00
         0.00000E+00
         0.00000E+00
         0.00000E+00
         0.00000E+00
         0.00000E+00
         0.00000E+00
         0.00000E+00
         0.00000E+00
         0.00000E+00
         0.00000E+00
         0.00000E+00
         0.00000E+00
         0.00000E+00
         0.00000E+00
         0.00000E+00
         0.00000E+00
         0.00000E+00
         0.00000E+00
         0.00000E+00
         0.00000E+00
         0.00000E+00
         0.00000E+00
         0.00000E+00
         0.00000E+00
         0.00000E+00
         0.00000E+00
         0.00000E+00
         0.00000E+00
         0.00000E+00
         0.00000E+00
         0.00000E+00
         0.00000E+00
         0.00000E+00
         0.00000E+00
         0.00000E+00
         0.00000E+00
         0.00000E+00
         0.00000E+00
         0.00000E+00
         0.00000E+00
         0.00000E+00
         0.00000E+00
         0.00000E+00
         0.00000E+00
         0.00000E+00
         0.00000E+00
         0.00000E+00
         0.00000E+00
         0.00000E+00
         0.00000E+00
         0.00000E+00
         0.00000E+00
         0.00000E+00
         0.00000E+00
         0.00000E+00
         0.00000E+00
         0.00000E+00
         0.00000E+00
         0.00000E+00
         0.00000E+00
         0.00000E+00
         0.00000E+00
         0.00000E+00
         0.00000E+00
         0.00000E+00
         0.00000E+00
         0.00000E+00
         0.00000E+00
         0.00000E+00
         0.00000E+00
         0.00000E+00
         0.00000E+00
         0.00000E+00
         0.00000E+00
         0.00000E+00
         0.00000E+00
         0.00000E+00
         0.00000E+00
         0.00000E+00
         0.00000E+00
         0.00000E+00
         0.00000E+00
         0.00000E+00
         0.00000E+00
         0.00000E+00
         0.00000E+00
         0.00000E+00
         0.00000E+00
         0.00000E+00
         0.00000E+00
         0.00000E+00
         0.00000E+00
         0.00000E+00
         0.00000E+00
         0.00000E+00
         0.00000E+00
         0.00000E+00
         0.00000E+00
         0.00000E+00
         0.00000E+00
         0.00000E+00
         0.00000E+00
         0.00000E+00
         0.00000E+00
         0.00000E+00
         0.00000E+00
         0.00000E+00
         0.00000E+00
         0.00000E+00
         0.00000E+00
         0.00000E+00
         0.00000E+00
         0.00000E+00
         0.00000E+00
         0.00000E+00
         0.00000E+00
         0.00000E+00
         0.00000E+00
         0.00000E+00
         0.00000E+00
         0.00000E+00
         0.00000E+00
         0.00000E+00
         0.00000E+00
         0.00000E+00
         0.00000E+00
         0.00000E+00
         0.00000E+00
         0.00000E+00
         0.00000E+00
         0.00000E+00
         0.00000E+00
         0.00000E+00
         0.00000E+00
         0.00000E+00
         0.00000E+00
         0.00000E+00
         0.00000E+00
         0.00000E+00
         0.00000E+00
         0.00000E+00
         0.00000E+00
         0.00000E+00
         0.00000E+00
         0.00000E+00
         0.00000E+00
         0.00000E+00
         0.00000E+00
         0.00000E+00
         0.00000E+00
         0.00000E+00
         0.00000E+00
         0.00000E+00
         0.00000E+00
         0.00000E+00
         0.00000E+00
         0.00000E+00
         0.00000E+00
         0.00000E+00
         0.00000E+00
         0.00000E+00
         0.00000E+00
         0.00000E+00
         0.00000E+00
         0.00000E+00
         0.00000E+00
         0.00000E+00
         0.00000E+00
         0.00000E+00
         0.00000E+00
         0.00000E+00
         0.00000E+00
         0.00000E+00
         0.00000E+00
         0.00000E+00
         0.00000E+00
         0.00000E+00
         0.00000E+00
         0.00000E+00
         0.00000E+00
         0.00000E+00
         0.00000E+00
         0.00000E+00
         0.00000E+00
         0.00000E+00
         0.00000E+00
         0.00000E+00
         0.00000E+00
         0.00000E+00
         0.00000E+00
         0.00000E+00
         0.00000E+00
         0.00000E+00
         0.00000E+00
         0.00000E+00
         0.00000E+00
         0.00000E+00
         0.00000E+00
         0.00000E+00
         0.00000E+00
         0.00000E+00
         0.00000E+00
         0.00000E+00
         0.00000E+00
         0.00000E+00
         0.00000E+00
         0.00000E+00
         0.00000E+00
         0.00000E+00
         0.00000E+00
         0.00000E+00
         0.00000E+00
         0.00000E+00
         0.00000E+00
         0.00000E+00
         0.00000E+00
         0.00000E+00
         0.00000E+00
         0.00000E+00
         0.00000E+00
         0.00000E+00
         0.00000E+00
         0.00000E+00
         0.00000E+00
         0.00000E+00
         0.00000E+00
         0.00000E+00
         0.00000E+00
         0.00000E+00
         0.00000E+00
         0.00000E+00
         0.00000E+00
         0.00000E+00
         0.00000E+00
         0.00000E+00
         0.00000E+00
         0.00000E+00
         0.00000E+00
         0.00000E+00
         0.00000E+00
         0.00000E+00
         0.00000E+00
         0.00000E+00
         0.00000E+00
         0.00000E+00
         0.00000E+00
         0.00000E+00
         0.00000E+00
         0.00000E+00
         0.00000E+00
         0.00000E+00
         0.00000E+00
         0.00000E+00
         0.00000E+00
         0.00000E+00
         0.00000E+00
         0.00000E+00
         0.00000E+00
         0.00000E+00
         0.00000E+00
         0.00000E+00
         0.00000E+00
         0.00000E+00
         0.00000E+00
         0.00000E+00
         0.00000E+00
         0.00000E+00
         0.00000E+00
         0.00000E+00
         0.00000E+00
         0.00000E+00
         0.00000E+00
         0.00000E+00
         0.00000E+00
         0.00000E+00
         0.00000E+00
         0.00000E+00
         0.00000E+00
         0.00000E+00
         0.00000E+00
         0.00000E+00
         0.00000E+00
         0.00000E+00
         0.00000E+00
         0.00000E+00
         0.00000E+00
         0.00000E+00
         0.00000E+00
         0.00000E+00
         0.00000E+00
         0.00000E+00
         0.00000E+00
         0.00000E+00
         0.00000E+00
         0.00000E+00
         0.00000E+00
         0.00000E+00
         0.00000E+00
         0.00000E+00
         0.00000E+00
         0.00000E+00
         0.00000E+00
         0.00000E+00
         0.00000E+00
         0.00000E+00
         0.00000E+00
         0.00000E+00
         0.00000E+00
         0.00000E+00
         0.00000E+00
         0.00000E+00
         0.00000E+00
         0.00000E+00
         0.00000E+00
         0.00000E+00
         0.00000E+00
         0.00000E+00
         0.00000E+00
         0.00000E+00
         0.00000E+00
         0.00000E+00
         0.00000E+00
         0.00000E+00
         0.00000E+00
         0.00000E+00
         0.00000E+00
         0.00000E+00
         0.00000E+00
         0.00000E+00
         0.00000E+00
         0.00000E+00
         0.00000E+00
         0.00000E+00
         0.00000E+00
         0.00000E+00
         0.00000E+00
         0.00000E+00
         0.00000E+00
         0.00000E+00
         0.00000E+00
         0.00000E+00
         0.00000E+00
         0.00000E+00
         0.00000E+00
         0.00000E+00
         0.00000E+00
         0.00000E+00
         0.00000E+00
         0.00000E+00
         0.00000E+00
         0.00000E+00
         0.00000E+00
         0.00000E+00
         0.00000E+00
         0.00000E+00
         0.00000E+00
         0.00000E+00
         0.00000E+00
         0.00000E+00
         0.00000E+00
         0.00000E+00
         0.00000E+00
         0.00000E+00
         0.00000E+00
         0.00000E+00
         0.00000E+00
         0.00000E+00
         0.00000E+00
         0.00000E+00
         0.00000E+00
         0.00000E+00
         0.00000E+00
         0.00000E+00
         0.00000E+00
         0.00000E+00
         0.00000E+00
         0.00000E+00
         0.00000E+00
         0.00000E+00
         0.00000E+00
         0.00000E+00
         0.00000E+00
         0.00000E+00
         0.00000E+00
         0.00000E+00
         0.00000E+00
         0.00000E+00
         0.00000E+00
         0.00000E+00
         0.00000E+00
         0.00000E+00
         0.00000E+00
         0.00000E+00
         0.00000E+00
         0.00000E+00
         0.00000E+00
         0.00000E+00
         0.00000E+00
         0.00000E+00
         0.00000E+00
         0.00000E+00
         0.00000E+00
         0.00000E+00
         0.00000E+00
         0.00000E+00
         0.00000E+00
         0.00000E+00
         0.00000E+00
         0.00000E+00
         0.00000E+00
         0.00000E+00
         0.00000E+00
         0.00000E+00
         0.00000E+00
         0.00000E+00
         0.00000E+00
         0.00000E+00
         0.00000E+00
         0.00000E+00
         0.00000E+00
         0.00000E+00
         0.00000E+00
         0.00000E+00
         0.00000E+00
         0.00000E+00
         0.00000E+00
         0.00000E+00
         0.00000E+00
         0.00000E+00
         0.00000E+00
         0.00000E+00
         0.00000E+00
         0.00000E+00
         0.00000E+00
         0.00000E+00
         0.00000E+00
         0.00000E+00
         0.00000E+00
         0.00000E+00
         0.00000E+00
         0.00000E+00
         0.00000E+00
         0.00000E+00
         0.00000E+00
         0.00000E+00
         0.00000E+00
         0.00000E+00
         0.00000E+00
         0.00000E+00
         0.00000E+00
         0.00000E+00
         0.00000E+00
         0.00000E+00
         0.00000E+00
         0.00000E+00
         0.00000E+00
         0.00000E+00
         0.00000E+00
         0.00000E+00
         0.00000E+00
         0.00000E+00
         0.00000E+00
         0.00000E+00
         0.00000E+00
         0.00000E+00
         0.00000E+00
         0.00000E+00
         0.00000E+00
         0.00000E+00
         0.00000E+00
         0.00000E+00
         0.00000E+00
         0.00000E+00
         0.00000E+00
         0.00000E+00
         0.00000E+00
         0.00000E+00
         0.00000E+00
         0.00000E+00
         0.00000E+00
         0.00000E+00
         0.00000E+00
         0.00000E+00
         0.00000E+00
         0.00000E+00
         0.00000E+00
         0.00000E+00
         0.00000E+00
         0.00000E+00
         0.00000E+00
         0.00000E+00
         0.00000E+00
         0.00000E+00
         0.00000E+00
         0.00000E+00
         0.00000E+00
         0.00000E+00
         0.00000E+00
         0.00000E+00
         0.00000E+00
         0.00000E+00
         0.00000E+00
         0.00000E+00
         0.00000E+00
         0.00000E+00
         0.00000E+00
         0.00000E+00
         0.00000E+00
         0.00000E+00
         0.00000E+00
         0.00000E+00
         0.00000E+00
         0.00000E+00
         0.00000E+00
         0.00000E+00
         0.00000E+00
         0.00000E+00
         0.00000E+00
         0.00000E+00
         0.00000E+00
         0.00000E+00
         0.00000E+00
         0.00000E+00
         0.00000E+00
         0.00000E+00
         0.00000E+00
         0.00000E+00
         0.00000E+00
         0.00000E+00
         0.00000E+00
         0.00000E+00
         0.00000E+00
         0.00000E+00
         0.00000E+00
         0.00000E+00
         0.00000E+00
         0.00000E+00
         0.00000E+00
         0.00000E+00
         0.00000E+00
         0.00000E+00
         0.00000E+00
         0.00000E+00
         0.00000E+00
         0.00000E+00
         0.00000E+00
         0.00000E+00
         0.00000E+00
         0.00000E+00
         0.00000E+00
         0.00000E+00
         0.00000E+00
         0.00000E+00
         0.00000E+00
         0.00000E+00
         0.00000E+00
         0.00000E+00
         0.00000E+00
         0.00000E+00
         0.00000E+00
         0.00000E+00
         0.00000E+00
         0.00000E+00
         0.00000E+00
         0.00000E+00
         0.00000E+00
         0.00000E+00
         0.00000E+00
         0.00000E+00
         0.00000E+00
         0.00000E+00
         0.00000E+00
         0.00000E+00
         0.00000E+00
         0.00000E+00
         0.00000E+00
         0.00000E+00
         0.00000E+00
         0.00000E+00
         0.00000E+00
         0.00000E+00
         0.00000E+00
         0.00000E+00
         0.00000E+00
         0.00000E+00
         0.00000E+00
         0.00000E+00
         0.00000E+00
         0.00000E+00
         0.00000E+00
         0.00000E+00
         0.00000E+00
         0.00000E+00
         0.00000E+00
         0.00000E+00
         0.00000E+00
         0.00000E+00
         0.00000E+00
         0.00000E+00
         0.00000E+00
         0.00000E+00
         0.00000E+00
         0.00000E+00
         0.00000E+00
         0.00000E+00
         0.00000E+00
         0.00000E+00
         0.00000E+00
         0.00000E+00
         0.00000E+00
         0.00000E+00
         0.00000E+00
         0.00000E+00
         0.00000E+00
         0.00000E+00
         0.00000E+00
         0.00000E+00
         0.00000E+00
         0.00000E+00
         0.00000E+00
         0.00000E+00
         0.00000E+00
         0.00000E+00
         0.00000E+00
         0.00000E+00
         0.00000E+00
         0.00000E+00
         0.00000E+00
         0.00000E+00
         0.00000E+00
         0.00000E+00
         0.00000E+00
         0.00000E+00
         0.00000E+00
         0.00000E+00
         0.00000E+00
         0.00000E+00
         0.00000E+00
         0.00000E+00
         0.00000E+00
         0.00000E+00
         0.00000E+00
         0.00000E+00
         0.00000E+00
         0.00000E+00
         0.00000E+00
         0.00000E+00
         0.00000E+00
         0.00000E+00
         0.00000E+00
         0.00000E+00
         0.00000E+00
         0.00000E+00
         0.00000E+00
         0.00000E+00
         0.00000E+00
         0.00000E+00
         0.00000E+00
         0.00000E+00
         0.00000E+00
         0.00000E+00
         0.00000E+00
         0.00000E+00
         0.00000E+00
         0.00000E+00
         0.00000E+00
         0.00000E+00
         0.00000E+00
         0.00000E+00
         0.00000E+00
         0.00000E+00
         0.00000E+00
         0.00000E+00
         0.00000E+00
         0.00000E+00
         0.00000E+00
         0.00000E+00
         0.00000E+00
         0.00000E+00
         0.00000E+00
         0.00000E+00
         0.00000E+00
         0.00000E+00
         0.00000E+00
         0.00000E+00
         0.00000E+00
         0.00000E+00
         0.00000E+00
         0.00000E+00
         0.00000E+00
         0.00000E+00
         0.00000E+00
         0.00000E+00
         0.00000E+00
         0.00000E+00
         0.00000E+00
         0.00000E+00
         0.00000E+00
         0.00000E+00
         0.00000E+00
         0.00000E+00
         0.00000E+00
         0.00000E+00
         0.00000E+00
         0.00000E+00
         0.00000E+00
         0.00000E+00
         0.00000E+00
         0.00000E+00
         0.00000E+00
         0.00000E+00
         0.00000E+00
         0.00000E+00
         0.00000E+00
         0.00000E+00
         0.00000E+00
         0.00000E+00
         0.00000E+00
         0.00000E+00
         0.00000E+00
         0.00000E+00
         0.00000E+00
         0.00000E+00
         0.00000E+00
         0.00000E+00
         0.00000E+00
         0.00000E+00
         0.00000E+00
         0.00000E+00
         0.00000E+00
         0.00000E+00
         0.00000E+00
         0.00000E+00
         0.00000E+00
         0.00000E+00
         0.00000E+00
         0.00000E+00
         0.00000E+00
         0.00000E+00
         0.00000E+00
         0.00000E+00
         0.00000E+00
         0.00000E+00
         0.00000E+00
         0.00000E+00
         0.00000E+00
         0.00000E+00
         0.00000E+00
         0.00000E+00
         0.00000E+00
         0.00000E+00
         0.00000E+00
         0.00000E+00
         0.00000E+00
         0.00000E+00
         0.00000E+00
         0.00000E+00
         0.00000E+00
         0.00000E+00
         0.00000E+00
         0.00000E+00
         0.00000E+00
         0.00000E+00
         0.00000E+00
         0.00000E+00
         0.00000E+00
         0.00000E+00
         0.00000E+00
         0.00000E+00
         0.00000E+00
         0.00000E+00
         0.00000E+00
         0.00000E+00
         0.00000E+00
         0.00000E+00
         0.00000E+00
         0.00000E+00
         0.00000E+00
         0.00000E+00
         0.00000E+00
         0.00000E+00
         0.00000E+00
         0.00000E+00
         0.00000E+00
         0.00000E+00
         0.00000E+00
         0.00000E+00
         0.00000E+00
         0.00000E+00
         0.00000E+00
         0.00000E+00
         0.00000E+00
         0.00000E+00
         0.00000E+00
         0.00000E+00
         0.00000E+00
         0.00000E+00
         0.00000E+00
         0.00000E+00
         0.00000E+00
         0.00000E+00
         0.00000E+00
         0.00000E+00
         0.00000E+00
         0.00000E+00
         0.00000E+00
         0.00000E+00
         0.00000E+00
         0.00000E+00
         0.00000E+00
         0.00000E+00
         0.00000E+00
         0.00000E+00
         0.00000E+00
         0.00000E+00
         0.00000E+00
         0.00000E+00
         0.00000E+00
         0.00000E+00
         0.00000E+00
         0.00000E+00
         0.00000E+00
         0.00000E+00
         0.00000E+00
         0.00000E+00
         0.00000E+00
         0.00000E+00
         0.00000E+00
         0.00000E+00
         0.00000E+00
         0.00000E+00
         0.00000E+00
         0.00000E+00
         0.00000E+00
         0.00000E+00
         0.00000E+00
         0.00000E+00
         0.00000E+00
         0.00000E+00
         0.00000E+00
         0.00000E+00
         0.00000E+00
         0.00000E+00
         0.00000E+00
         0.00000E+00
         0.00000E+00
         0.00000E+00
         0.00000E+00
         0.00000E+00
         0.00000E+00
         0.00000E+00
         0.00000E+00
         0.00000E+00
         0.00000E+00
         0.00000E+00
         0.00000E+00
         0.00000E+00
         0.00000E+00
         0.00000E+00
         0.00000E+00
         0.00000E+00
         0.00000E+00
         0.00000E+00
         0.00000E+00
         0.00000E+00
         0.00000E+00
         0.00000E+00
         0.00000E+00
         0.00000E+00
         0.00000E+00
         0.00000E+00
         0.00000E+00
         0.00000E+00
         0.00000E+00
         0.00000E+00
         0.00000E+00
         0.00000E+00
         0.00000E+00
         0.00000E+00
         0.00000E+00
         0.00000E+00
         0.00000E+00
         0.00000E+00
         0.00000E+00
         0.00000E+00
         0.00000E+00
         0.00000E+00
         0.00000E+00
         0.00000E+00
         0.00000E+00
         0.00000E+00
         0.00000E+00
         0.00000E+00
         0.00000E+00
         0.00000E+00
         0.00000E+00
         0.00000E+00
         0.00000E+00
         0.00000E+00
         0.00000E+00
         0.00000E+00
         0.00000E+00
         0.00000E+00
         0.00000E+00
         0.00000E+00
         0.00000E+00
         0.00000E+00
         0.00000E+00
         0.00000E+00
         0.00000E+00
         0.00000E+00
         0.00000E+00
         0.00000E+00
         0.00000E+00
         0.00000E+00
         0.00000E+00
         0.00000E+00
         0.00000E+00
         0.00000E+00
         0.00000E+00
         0.00000E+00
         0.00000E+00
         0.00000E+00
         0.00000E+00
         0.00000E+00
         0.00000E+00
         0.00000E+00
         0.00000E+00
         0.00000E+00
         0.00000E+00
         0.00000E+00
         0.00000E+00
         0.00000E+00
         0.00000E+00
         0.00000E+00
         0.00000E+00
         0.00000E+00
         0.00000E+00
         0.00000E+00
         0.00000E+00
         0.00000E+00
         0.00000E+00
         0.00000E+00
         0.00000E+00
         0.00000E+00
         0.00000E+00
         0.00000E+00
         0.00000E+00
         0.00000E+00
         0.00000E+00
         0.00000E+00
         0.00000E+00
         0.00000E+00
         0.00000E+00
         0.00000E+00
         0.00000E+00
         0.00000E+00
         0.00000E+00
         0.00000E+00
         0.00000E+00
         0.00000E+00
         0.00000E+00
         0.00000E+00
         0.00000E+00
         0.00000E+00
         0.00000E+00
         0.00000E+00
         0.00000E+00
         0.00000E+00
         0.00000E+00
         0.00000E+00
         0.00000E+00
         0.00000E+00
         0.00000E+00
         0.00000E+00
         0.00000E+00
         0.00000E+00
         0.00000E+00
         0.00000E+00
         0.00000E+00
         0.00000E+00
         0.00000E+00
         0.00000E+00
         0.00000E+00
         0.00000E+00
         0.00000E+00
         0.00000E+00
         0.00000E+00
         0.00000E+00
         0.00000E+00
         0.00000E+00
         0.00000E+00
         0.00000E+00
         0.00000E+00
         0.00000E+00
         0.00000E+00
         0.00000E+00
         0.00000E+00
         0.00000E+00
         0.00000E+00
         0.00000E+00
         0.00000E+00
         0.00000E+00
         0.00000E+00
         0.00000E+00
         0.00000E+00
         0.00000E+00
         0.00000E+00
         0.00000E+00
         0.00000E+00
         0.00000E+00
         0.00000E+00
         0.00000E+00
         0.00000E+00
         0.00000E+00
         0.00000E+00
         0.00000E+00
         0.00000E+00
         0.00000E+00
         0.00000E+00
         0.00000E+00
         0.00000E+00
         0.00000E+00
         0.00000E+00
         0.00000E+00
         0.00000E+00
         0.00000E+00
         0.00000E+00
         0.00000E+00
         0.00000E+00
         0.00000E+00
         0.00000E+00
         0.00000E+00
         0.00000E+00
         0.00000E+00
         0.00000E+00
         0.00000E+00
         0.00000E+00
         0.00000E+00
         0.00000E+00
         0.00000E+00
         0.00000E+00
         0.00000E+00
         0.00000E+00
         0.00000E+00
         0.00000E+00
         0.00000E+00
         0.00000E+00
         0.00000E+00
         0.00000E+00
         0.00000E+00
         0.00000E+00
         0.00000E+00
         0.00000E+00
         0.00000E+00
         0.00000E+00
         0.00000E+00
         0.00000E+00
         0.00000E+00
         0.00000E+00
         0.00000E+00
         0.00000E+00
         0.00000E+00
         0.00000E+00
         0.00000E+00
         0.00000E+00
         0.00000E+00
         0.00000E+00
         0.00000E+00
         0.00000E+00
         0.00000E+00
         0.00000E+00
         0.00000E+00
         0.00000E+00
         0.00000E+00
         0.00000E+00
         0.00000E+00
         0.00000E+00
         0.00000E+00
         0.00000E+00
         0.00000E+00
         0.00000E+00
         0.00000E+00
         0.00000E+00
         0.00000E+00
         0.00000E+00
         0.00000E+00
         0.00000E+00
         0.00000E+00
         0.00000E+00
         0.00000E+00
         0.00000E+00
         0.00000E+00
         0.00000E+00
         0.00000E+00
         0.00000E+00
         0.00000E+00
         0.00000E+00
         0.00000E+00
         0.00000E+00
         0.00000E+00
         0.00000E+00
         0.00000E+00
         0.00000E+00
         0.00000E+00
         0.00000E+00
         0.00000E+00
         0.00000E+00
         0.00000E+00
         0.00000E+00
         0.00000E+00
         0.00000E+00
         0.00000E+00
         0.00000E+00
         0.00000E+00
         0.00000E+00
         0.00000E+00
         0.00000E+00
         0.00000E+00
         0.00000E+00
         0.00000E+00
         0.00000E+00
         0.00000E+00
         0.00000E+00
         0.00000E+00
         0.00000E+00
         0.00000E+00
         0.00000E+00
         0.00000E+00
         0.00000E+00
         0.00000E+00
         0.00000E+00
         0.00000E+00
         0.00000E+00
         0.00000E+00
         0.00000E+00
         0.00000E+00
         0.00000E+00
         0.00000E+00
         0.00000E+00
         0.00000E+00
         0.00000E+00
         0.00000E+00
         0.00000E+00
         0.00000E+00
         0.00000E+00
         0.00000E+00
         0.00000E+00
         0.00000E+00
         0.00000E+00
         0.00000E+00
         0.00000E+00
         0.00000E+00
         0.00000E+00
         0.00000E+00
         0.00000E+00
         0.00000E+00
         0.00000E+00
         0.00000E+00
         0.00000E+00
         0.00000E+00
         0.00000E+00
         0.00000E+00
         0.00000E+00
         0.00000E+00
         0.00000E+00
         0.00000E+00
         0.00000E+00
         0.00000E+00
         0.00000E+00
         0.00000E+00
         0.00000E+00
         0.00000E+00
         0.00000E+00
         0.00000E+00
         0.00000E+00
         0.00000E+00
         0.00000E+00
         0.00000E+00
         0.00000E+00
         0.00000E+00
         0.00000E+00
         0.00000E+00
         0.00000E+00
         0.00000E+00
         0.00000E+00
         0.00000E+00
         0.00000E+00
         0.00000E+00
         0.00000E+00
         0.00000E+00
         0.00000E+00
         0.00000E+00
         0.00000E+00
         0.00000E+00
         0.00000E+00
         0.00000E+00
         0.00000E+00
         0.00000E+00
         0.00000E+00
         0.00000E+00
         0.00000E+00
         0.00000E+00
         0.00000E+00
         0.00000E+00
         0.00000E+00
         0.00000E+00
         0.00000E+00
         0.00000E+00
         0.00000E+00
         0.00000E+00
         0.00000E+00
         0.00000E+00
         0.00000E+00
         0.00000E+00
         0.00000E+00
         0.00000E+00
         0.00000E+00
         0.00000E+00
         0.00000E+00
         0.00000E+00
         0.00000E+00
         0.00000E+00
         0.00000E+00
         0.00000E+00
         0.00000E+00
         0.00000E+00
         0.00000E+00
         0.00000E+00
         0.00000E+00
         0.00000E+00
         0.00000E+00
         0.00000E+00
         0.00000E+00
         0.00000E+00
         0.00000E+00
         0.00000E+00
         0.00000E+00
         0.00000E+00
         0.00000E+00
         0.00000E+00
         0.00000E+00
         0.00000E+00
         0.00000E+00
         0.00000E+00
         0.00000E+00
         0.00000E+00
         0.00000E+00
         0.00000E+00
         0.00000E+00
         0.00000E+00
         0.00000E+00
         0.00000E+00
         0.00000E+00
         0.00000E+00
         0.00000E+00
         0.00000E+00
         0.00000E+00
         0.00000E+00
         0.00000E+00
         0.00000E+00
         0.00000E+00
         0.00000E+00
         0.00000E+00
         0.00000E+00
         0.00000E+00
         0.00000E+00
         0.00000E+00
         0.00000E+00
         0.00000E+00
         0.00000E+00
         0.00000E+00
         0.00000E+00
         0.00000E+00
         0.00000E+00
         0.00000E+00
         0.00000E+00
         0.00000E+00
         0.00000E+00
         0.00000E+00
         0.00000E+00
         0.00000E+00
         0.00000E+00
         0.00000E+00
         0.00000E+00
         0.00000E+00
         0.00000E+00
         0.00000E+00
         0.00000E+00
         0.00000E+00
         0.00000E+00
         0.00000E+00
         0.00000E+00
         0.00000E+00
         0.00000E+00
         0.00000E+00
         0.00000E+00
         0.00000E+00
         0.00000E+00
         0.00000E+00
         0.00000E+00
         0.00000E+00
         0.00000E+00
         0.00000E+00
         0.00000E+00
         0.00000E+00
         0.00000E+00
         0.00000E+00
         0.00000E+00
         0.00000E+00
         0.00000E+00
         0.00000E+00
         0.00000E+00
         0.00000E+00
         0.00000E+00
         0.00000E+00
         0.00000E+00
         0.00000E+00
         0.00000E+00
         0.00000E+00
         0.00000E+00
         0.00000E+00
         0.00000E+00
         0.00000E+00
         0.00000E+00
         0.00000E+00
         0.00000E+00
         0.00000E+00
         0.00000E+00
         0.00000E+00
         0.00000E+00
         0.00000E+00
         0.00000E+00
         0.00000E+00
         0.00000E+00
         0.00000E+00
         0.00000E+00
         0.00000E+00
         0.00000E+00
         0.00000E+00
         0.00000E+00
         0.00000E+00
         0.00000E+00
         0.00000E+00
         0.00000E+00
         0.00000E+00
         0.00000E+00
         0.00000E+00
         0.00000E+00
         0.00000E+00
         0.00000E+00
         0.00000E+00
         0.00000E+00
         0.00000E+00
         0.00000E+00
         0.00000E+00
         0.00000E+00
         0.00000E+00
         0.00000E+00
         0.00000E+00
         0.00000E+00
         0.00000E+00
         0.00000E+00
         0.00000E+00
         0.00000E+00
         0.00000E+00
         0.00000E+00
         0.00000E+00
         0.00000E+00
         0.00000E+00
         0.00000E+00
         0.00000E+00
         0.00000E+00
         0.00000E+00
         0.00000E+00
         0.00000E+00
         0.00000E+00
         0.00000E+00
         0.00000E+00
         0.00000E+00
         0.00000E+00
         0.00000E+00
         0.00000E+00
         0.00000E+00
         0.00000E+00
         0.00000E+00
         0.00000E+00
         0.00000E+00
         0.00000E+00
         0.00000E+00
         0.00000E+00
         0.00000E+00
         0.00000E+00
         0.00000E+00
         0.00000E+00
         0.00000E+00
         0.00000E+00
         0.00000E+00
         0.00000E+00
         0.00000E+00
         0.00000E+00
         0.00000E+00
         0.00000E+00
         0.00000E+00
         0.00000E+00
         0.00000E+00
         0.00000E+00
         0.00000E+00
         0.00000E+00
         0.00000E+00
         0.00000E+00
         0.00000E+00
         0.00000E+00
         0.00000E+00
         0.00000E+00
         0.00000E+00
         0.00000E+00
         0.00000E+00
         0.00000E+00
         0.00000E+00
         0.00000E+00
         0.00000E+00
         0.00000E+00
         0.00000E+00
         0.00000E+00
         0.00000E+00
         0.00000E+00
         0.00000E+00
         0.00000E+00
         0.00000E+00
         0.00000E+00
         0.00000E+00
         0.00000E+00
         0.00000E+00
         0.00000E+00
         0.00000E+00
         0.00000E+00
         0.00000E+00
         0.00000E+00
         0.00000E+00
         0.00000E+00
         0.00000E+00
         0.00000E+00
         0.00000E+00
         0.00000E+00
         0.00000E+00
         0.00000E+00
         0.00000E+00
         0.00000E+00
         0.00000E+00
         0.00000E+00
         0.00000E+00
         0.00000E+00
         0.00000E+00
         0.00000E+00
         0.00000E+00
         0.00000E+00
         0.00000E+00
         0.00000E+00
         0.00000E+00
         0.00000E+00
         0.00000E+00
         0.00000E+00
         0.00000E+00
         0.00000E+00
         0.00000E+00
         0.00000E+00
         0.00000E+00
         0.00000E+00
         0.00000E+00
         0.00000E+00
         0.00000E+00
         0.00000E+00
         0.00000E+00
         0.00000E+00
         0.00000E+00
         0.00000E+00
         0.00000E+00
         0.00000E+00
         0.00000E+00
         0.00000E+00
         0.00000E+00
         0.00000E+00
         0.00000E+00
         0.00000E+00
         0.00000E+00
         0.00000E+00
         0.00000E+00
         0.00000E+00
         0.00000E+00
         0.00000E+00
         0.00000E+00
         0.00000E+00
         0.00000E+00
         0.00000E+00
         0.00000E+00
         0.00000E+00
         0.00000E+00
         0.00000E+00
         0.00000E+00
         0.00000E+00
         0.00000E+00
         0.00000E+00
         0.00000E+00
         0.00000E+00
         0.00000E+00
         0.00000E+00
         0.00000E+00
         0.00000E+00
         0.00000E+00
         0.00000E+00
         0.00000E+00
         0.00000E+00
         0.00000E+00
         0.00000E+00
         0.00000E+00
         0.00000E+00
         0.00000E+00
         0.00000E+00
         0.00000E+00
         0.00000E+00
         0.00000E+00
         0.00000E+00
         0.00000E+00
         0.00000E+00
         0.00000E+00
         0.00000E+00
         0.00000E+00
         0.00000E+00
         0.00000E+00
         0.00000E+00
         0.00000E+00
         0.00000E+00
         0.00000E+00
         0.00000E+00
         0.00000E+00
         0.00000E+00
         0.00000E+00
         0.00000E+00
         0.00000E+00
         0.00000E+00
         0.00000E+00
         0.00000E+00
         0.00000E+00
         0.00000E+00
         0.00000E+00
         0.00000E+00
         0.00000E+00
         0.00000E+00
         0.00000E+00
         0.00000E+00
         0.00000E+00
         0.00000E+00
         0.00000E+00
         0.00000E+00
         0.00000E+00
         0.00000E+00
         0.00000E+00
         0.00000E+00
         0.00000E+00
         0.00000E+00
         0.00000E+00
         0.00000E+00
         0.00000E+00
         0.00000E+00
         0.00000E+00
         0.00000E+00
         0.00000E+00
         0.00000E+00
         0.00000E+00
         0.00000E+00
         0.00000E+00
         0.00000E+00
         0.00000E+00
         0.00000E+00
         0.00000E+00
         0.00000E+00
         0.00000E+00
         0.00000E+00
         0.00000E+00
         0.00000E+00
         0.00000E+00
         0.00000E+00
         0.00000E+00
         0.00000E+00
         0.00000E+00
         0.00000E+00
         0.00000E+00
         0.00000E+00
         0.00000E+00
         0.00000E+00
         0.00000E+00
         0.00000E+00
         0.00000E+00
         0.00000E+00
         0.00000E+00
         0.00000E+00
         0.00000E+00
         0.00000E+00
         0.00000E+00
         0.00000E+00
         0.00000E+00
         0.00000E+00
         0.00000E+00
         0.00000E+00
         0.00000E+00
         0.00000E+00
         0.00000E+00
         0.00000E+00
         0.00000E+00
         0.00000E+00
         0.00000E+00
         0.00000E+00
         0.00000E+00
         0.00000E+00
         0.00000E+00
         0.00000E+00
         0.00000E+00
         0.00000E+00
         0.00000E+00
         0.00000E+00
         0.00000E+00
         0.00000E+00
         0.00000E+00
         0.00000E+00
         0.00000E+00
         0.00000E+00
         0.00000E+00
         0.00000E+00
         0.00000E+00
         0.00000E+00
         0.00000E+00
         0.00000E+00
         0.00000E+00
         0.00000E+00
         0.00000E+00
         0.00000E+00
         0.00000E+00
         0.00000E+00
         0.00000E+00
         0.00000E+00
         0.00000E+00
         0.00000E+00
         0.00000E+00
         0.00000E+00
         0.00000E+00
         0.00000E+00
         0.00000E+00
         0.00000E+00
         0.00000E+00
         0.00000E+00
         0.00000E+00
         0.00000E+00
         0.00000E+00
         0.00000E+00
         0.00000E+00
         0.00000E+00
         0.00000E+00
         0.00000E+00
         0.00000E+00
         0.00000E+00
         0.00000E+00
         0.00000E+00
         0.00000E+00
         0.00000E+00
         0.00000E+00
         0.00000E+00
         0.00000E+00
         0.00000E+00
         0.00000E+00
         0.00000E+00
         0.00000E+00
         0.00000E+00
         0.00000E+00
         0.00000E+00
         0.00000E+00
         0.00000E+00
         0.00000E+00
         0.00000E+00
         0.00000E+00
         0.00000E+00
         0.00000E+00
         0.00000E+00
         0.00000E+00
         0.00000E+00
         0.00000E+00
         0.00000E+00
         0.00000E+00
         0.00000E+00
         0.00000E+00
         0.00000E+00
         0.00000E+00
         0.00000E+00
         0.00000E+00
         0.00000E+00
         0.00000E+00
         0.00000E+00
         0.00000E+00
         0.00000E+00
         0.00000E+00
         0.00000E+00
         0.00000E+00
         0.00000E+00
         0.00000E+00
         0.00000E+00
         0.00000E+00
         0.00000E+00
         0.00000E+00
         0.00000E+00
         0.00000E+00
         0.00000E+00
         0.00000E+00
         0.00000E+00
         0.00000E+00
         0.00000E+00
         0.00000E+00
         0.00000E+00
         0.00000E+00
         0.00000E+00
         0.00000E+00
         0.00000E+00
         0.00000E+00
         0.00000E+00
         0.00000E+00
         0.00000E+00
         0.00000E+00
         0.00000E+00
         0.00000E+00
         0.00000E+00
         0.00000E+00
         0.00000E+00
         0.00000E+00
         0.00000E+00
         0.00000E+00
         0.00000E+00
         0.00000E+00
         0.00000E+00
         0.00000E+00
         0.00000E+00
         0.00000E+00
         0.00000E+00
         0.00000E+00
         0.00000E+00
         0.00000E+00
         0.00000E+00
         0.00000E+00
         0.00000E+00
         0.00000E+00
         0.00000E+00
         0.00000E+00
         0.00000E+00
         0.00000E+00
         0.00000E+00
         0.00000E+00
         0.00000E+00
         0.00000E+00
         0.00000E+00
         0.00000E+00
         0.00000E+00
         0.00000E+00
         0.00000E+00
         0.00000E+00
         0.00000E+00
         0.00000E+00
         0.00000E+00
         0.00000E+00
         0.00000E+00
         0.00000E+00
         0.00000E+00
         0.00000E+00
         0.00000E+00
         0.00000E+00
         0.00000E+00
         0.00000E+00
         0.00000E+00
         0.00000E+00
         0.00000E+00
         0.00000E+00
         0.00000E+00
         0.00000E+00
         0.00000E+00
         0.00000E+00
         0.00000E+00
         0.00000E+00
         0.00000E+00
         0.00000E+00
         0.00000E+00
         0.00000E+00
         0.00000E+00
         0.00000E+00
         0.00000E+00
         0.00000E+00
         0.00000E+00
         0.00000E+00
         0.00000E+00
         0.00000E+00
         0.00000E+00
         0.00000E+00
         0.00000E+00
         0.00000E+00
         0.00000E+00
         0.00000E+00
         0.00000E+00
         0.00000E+00
         0.00000E+00
         0.00000E+00
         0.00000E+00
         0.00000E+00
         0.00000E+00
         0.00000E+00
         0.00000E+00
         0.00000E+00
         0.00000E+00
         0.00000E+00
         0.00000E+00
         0.00000E+00
         0.00000E+00
         0.00000E+00
         0.00000E+00
         0.00000E+00
         0.00000E+00
         0.00000E+00
         0.00000E+00
         0.00000E+00
         0.00000E+00
         0.00000E+00
         0.00000E+00
         0.00000E+00
         0.00000E+00
         0.00000E+00
         0.00000E+00
         0.00000E+00
         0.00000E+00
         0.00000E+00
         0.00000E+00
         0.00000E+00
         0.00000E+00
         0.00000E+00
         0.00000E+00
         0.00000E+00
         0.00000E+00
         0.00000E+00
         0.00000E+00
         0.00000E+00
         0.00000E+00
         0.00000E+00
         0.00000E+00
         0.00000E+00
         0.00000E+00
         0.00000E+00
         0.00000E+00
         0.00000E+00
         0.00000E+00
         0.00000E+00
         0.00000E+00
         0.00000E+00
         0.00000E+00
         0.00000E+00
         0.00000E+00
         0.00000E+00
         0.00000E+00
         0.00000E+00
         0.00000E+00
         0.00000E+00
         0.00000E+00
         0.00000E+00
         0.00000E+00
         0.00000E+00
         0.00000E+00
         0.00000E+00
         0.00000E+00
         0.00000E+00
         0.00000E+00
         0.00000E+00
         0.00000E+00
         0.00000E+00
         0.00000E+00
         0.00000E+00
         0.00000E+00
         0.00000E+00
         0.00000E+00
         0.00000E+00
         0.00000E+00
         0.00000E+00
         0.00000E+00
         0.00000E+00
         0.00000E+00
         0.00000E+00
  
SCALARS           initial_coordinate_x  double 1
LOOKUP_TABLE default
         0.10378E-02
         0.17452E-02
         0.23177E-02
         0.16698E-02
         0.10379E-02
         0.17453E-02
         0.23178E-02
         0.16700E-02
         0.30377E-02
         0.27791E-02
         0.30377E-02
         0.27788E-02
         0.12850E-02
         0.65139E-03
         0.12851E-02
         0.65164E-03
         0.12757E-03
        -0.12822E-03
         0.12783E-03
        -0.12804E-03
         0.94500E-03
         0.11327E-02
         0.17490E-02
         0.94533E-03
         0.11330E-02
         0.17494E-02
         0.40588E-03
         0.39779E-03
         0.40594E-03
         0.39781E-03
        -0.76303E-03
        -0.86604E-03
         0.46119E-03
        -0.76268E-03
        -0.86593E-03
         0.46164E-03
        -0.18300E-02
        -0.18440E-02
        -0.18297E-02
        -0.18441E-02
        -0.27238E-02
        -0.28028E-02
        -0.27238E-02
        -0.28031E-02
        -0.25365E-02
        -0.19287E-02
        -0.25363E-02
        -0.19283E-02
        -0.99363E-03
        -0.99377E-03
        -0.14380E-02
        -0.14377E-02
        -0.31574E-03
        -0.31594E-03
        -0.11068E-02
        -0.11071E-02
        -0.18845E-02
        -0.18713E-02
        -0.18846E-02
        -0.18714E-02
        -0.15871E-03
        -0.94089E-03
        -0.15844E-03
        -0.94029E-03
         0.78856E-03
         0.78922E-03
         0.17211E-02
         0.17211E-02
         0.32050E-02
         0.28046E-02
         0.32047E-02
         0.28047E-02
         0.23059E-02
         0.23060E-02
        -0.40614E-03
        -0.40627E-03
        -0.12092E-02
        -0.12092E-02
        -0.19448E-02
        -0.19448E-02
        -0.25029E-02
        -0.26371E-02
        -0.25029E-02
        -0.26372E-02
        -0.27671E-02
        -0.27674E-02
        -0.21123E-02
        -0.21122E-02
        -0.16087E-02
        -0.16087E-02
        -0.11939E-02
        -0.58641E-03
        -0.11937E-02
        -0.58606E-03
         0.20912E-03
         0.20952E-03
         0.10586E-02
         0.10589E-02
         0.18413E-02
         0.18413E-02
         0.24544E-02
         0.26022E-02
         0.24543E-02
         0.26021E-02
         0.37964E-02
         0.39100E-02
         0.37964E-02
         0.39100E-02
         0.34621E-02
         0.34621E-02
         0.29267E-02
         0.29267E-02
         0.22211E-02
         0.22211E-02
         0.13865E-02
         0.13865E-02
         0.47130E-03
         0.47130E-03
        -0.47130E-03
        -0.47130E-03
        -0.13865E-02
        -0.13865E-02
        -0.22211E-02
        -0.22211E-02
        -0.29267E-02
        -0.29267E-02
        -0.34621E-02
        -0.34621E-02
        -0.37964E-02
        -0.37964E-02
        -0.39100E-02
        -0.39100E-02
        -0.37964E-02
        -0.37964E-02
        -0.34621E-02
        -0.34621E-02
        -0.29267E-02
        -0.29267E-02
        -0.22211E-02
        -0.22211E-02
        -0.13865E-02
        -0.13865E-02
        -0.47130E-03
        -0.47130E-03
         0.47130E-03
         0.47130E-03
         0.13865E-02
         0.13865E-02
         0.22211E-02
         0.22211E-02
         0.29267E-02
         0.29267E-02
         0.34621E-02
         0.34621E-02
         0.37964E-02
         0.37964E-02
         0.10376E-02
         0.17450E-02
         0.23175E-02
         0.16696E-02
         0.30377E-02
         0.27795E-02
         0.12849E-02
         0.65115E-03
         0.12731E-03
        -0.12841E-03
         0.94467E-03
         0.11323E-02
         0.17487E-02
         0.40583E-03
         0.39777E-03
        -0.76338E-03
        -0.86615E-03
         0.46074E-03
        -0.18303E-02
        -0.18439E-02
        -0.27238E-02
        -0.28025E-02
        -0.25366E-02
        -0.19292E-02
        -0.99349E-03
        -0.14384E-02
        -0.31554E-03
        -0.11064E-02
        -0.18845E-02
        -0.18712E-02
        -0.15899E-03
        -0.94149E-03
         0.78790E-03
         0.17210E-02
         0.32053E-02
         0.28046E-02
         0.23058E-02
        -0.40600E-03
        -0.12092E-02
        -0.19447E-02
        -0.25028E-02
        -0.26370E-02
        -0.27668E-02
        -0.21125E-02
        -0.16088E-02
        -0.11940E-02
        -0.58676E-03
         0.20871E-03
         0.10583E-02
         0.18413E-02
         0.24545E-02
         0.26022E-02
         0.37964E-02
         0.39100E-02
         0.34621E-02
         0.29267E-02
         0.22211E-02
         0.13865E-02
         0.47130E-03
        -0.47130E-03
        -0.13865E-02
        -0.22211E-02
        -0.29267E-02
        -0.34621E-02
        -0.37964E-02
        -0.39100E-02
        -0.37964E-02
        -0.34621E-02
        -0.29267E-02
        -0.22211E-02
        -0.13865E-02
        -0.47130E-03
         0.47130E-03
         0.13865E-02
         0.22211E-02
         0.29267E-02
         0.34621E-02
         0.37964E-02
         0.10375E-02
         0.17448E-02
         0.23174E-02
         0.16694E-02
         0.30377E-02
         0.27798E-02
         0.12848E-02
         0.65090E-03
         0.12705E-03
        -0.12859E-03
         0.94434E-03
         0.11320E-02
         0.17483E-02
         0.40577E-03
         0.39776E-03
        -0.76374E-03
        -0.86626E-03
         0.46029E-03
        -0.18306E-02
        -0.18438E-02
        -0.27238E-02
        -0.28022E-02
        -0.25368E-02
        -0.19296E-02
        -0.99334E-03
        -0.14387E-02
        -0.31534E-03
        -0.11061E-02
        -0.18844E-02
        -0.18710E-02
        -0.15926E-03
        -0.94209E-03
         0.78724E-03
         0.17210E-02
         0.32056E-02
         0.28046E-02
         0.23057E-02
        -0.40586E-03
        -0.12092E-02
        -0.19447E-02
        -0.25028E-02
        -0.26369E-02
        -0.27665E-02
        -0.21126E-02
        -0.16088E-02
        -0.11941E-02
        -0.58711E-03
         0.20830E-03
         0.10580E-02
         0.18414E-02
         0.24546E-02
         0.26023E-02
         0.37964E-02
         0.39100E-02
         0.34621E-02
         0.29267E-02
         0.22211E-02
         0.13865E-02
         0.47130E-03
        -0.47130E-03
        -0.13865E-02
        -0.22211E-02
        -0.29267E-02
        -0.34621E-02
        -0.37964E-02
        -0.39100E-02
        -0.37964E-02
        -0.34621E-02
        -0.29267E-02
        -0.22211E-02
        -0.13865E-02
        -0.47130E-03
         0.47130E-03
         0.13865E-02
         0.22211E-02
         0.29267E-02
         0.34621E-02
         0.37964E-02
         0.10374E-02
         0.17446E-02
         0.23173E-02
         0.16692E-02
         0.30376E-02
         0.27801E-02
         0.12847E-02
         0.65065E-03
         0.12678E-03
        -0.12878E-03
         0.94401E-03
         0.11316E-02
         0.17479E-02
         0.40572E-03
         0.39774E-03
        -0.76409E-03
        -0.86637E-03
         0.45985E-03
        -0.18309E-02
        -0.18437E-02
        -0.27237E-02
        -0.28020E-02
        -0.25369E-02
        -0.19300E-02
        -0.99320E-03
        -0.14391E-02
        -0.31514E-03
        -0.11057E-02
        -0.18844E-02
        -0.18709E-02
        -0.15954E-03
        -0.94269E-03
         0.78658E-03
         0.17209E-02
         0.32060E-02
         0.28046E-02
         0.23056E-02
        -0.40572E-03
        -0.12092E-02
        -0.19446E-02
        -0.25028E-02
        -0.26368E-02
        -0.27662E-02
        -0.21128E-02
        -0.16088E-02
        -0.11942E-02
        -0.58746E-03
         0.20790E-03
         0.10577E-02
         0.18414E-02
         0.24548E-02
         0.26024E-02
         0.37964E-02
         0.39100E-02
         0.34621E-02
         0.29267E-02
         0.22211E-02
         0.13865E-02
         0.47130E-03
        -0.47130E-03
        -0.13865E-02
        -0.22211E-02
        -0.29267E-02
        -0.34621E-02
        -0.37964E-02
        -0.39100E-02
        -0.37964E-02
        -0.34621E-02
        -0.29267E-02
        -0.22211E-02
        -0.13865E-02
        -0.47130E-03
         0.47130E-03
         0.13865E-02
         0.22211E-02
         0.29267E-02
         0.34621E-02
         0.37964E-02
         0.10373E-02
         0.17445E-02
         0.23172E-02
         0.16689E-02
         0.30376E-02
         0.27805E-02
         0.12846E-02
         0.65041E-03
         0.12652E-03
        -0.12896E-03
         0.94367E-03
         0.11313E-02
         0.17475E-02
         0.40566E-03
         0.39772E-03
        -0.76444E-03
        -0.86648E-03
         0.45940E-03
        -0.18312E-02
        -0.18436E-02
        -0.27237E-02
        -0.28017E-02
        -0.25371E-02
        -0.19305E-02
        -0.99305E-03
        -0.14394E-02
        -0.31494E-03
        -0.11054E-02
        -0.18843E-02
        -0.18708E-02
        -0.15981E-03
        -0.94328E-03
         0.78592E-03
         0.17209E-02
         0.32063E-02
         0.28045E-02
         0.23055E-02
        -0.40558E-03
        -0.12092E-02
        -0.19446E-02
        -0.25027E-02
        -0.26367E-02
        -0.27658E-02
        -0.21129E-02
        -0.16089E-02
        -0.11943E-02
        -0.58781E-03
         0.20749E-03
         0.10574E-02
         0.18415E-02
         0.24549E-02
         0.26025E-02
         0.37964E-02
         0.39100E-02
         0.34621E-02
         0.29267E-02
         0.22211E-02
         0.13865E-02
         0.47130E-03
        -0.47130E-03
        -0.13865E-02
        -0.22211E-02
        -0.29267E-02
        -0.34621E-02
        -0.37964E-02
        -0.39100E-02
        -0.37964E-02
        -0.34621E-02
        -0.29267E-02
        -0.22211E-02
        -0.13865E-02
        -0.47130E-03
         0.47130E-03
         0.13865E-02
         0.22211E-02
         0.29267E-02
         0.34621E-02
         0.37964E-02
         0.10372E-02
         0.17443E-02
         0.23171E-02
         0.16687E-02
         0.30376E-02
         0.27808E-02
         0.12845E-02
         0.65016E-03
         0.12626E-03
        -0.12915E-03
         0.94334E-03
         0.11310E-02
         0.17471E-02
         0.40561E-03
         0.39770E-03
        -0.76480E-03
        -0.86659E-03
         0.45895E-03
        -0.18315E-02
        -0.18435E-02
        -0.27237E-02
        -0.28014E-02
        -0.25372E-02
        -0.19309E-02
        -0.99291E-03
        -0.14398E-02
        -0.31474E-03
        -0.11051E-02
        -0.18843E-02
        -0.18706E-02
        -0.16009E-03
        -0.94388E-03
         0.78526E-03
         0.17208E-02
         0.32066E-02
         0.28045E-02
         0.23053E-02
        -0.40545E-03
        -0.12092E-02
        -0.19446E-02
        -0.25027E-02
        -0.26366E-02
        -0.27655E-02
        -0.21130E-02
        -0.16089E-02
        -0.11944E-02
        -0.58816E-03
         0.20709E-03
         0.10571E-02
         0.18415E-02
         0.24550E-02
         0.26025E-02
         0.37964E-02
         0.39100E-02
         0.34621E-02
         0.29267E-02
         0.22211E-02
         0.13865E-02
         0.47130E-03
        -0.47130E-03
        -0.13865E-02
        -0.22211E-02
        -0.29267E-02
        -0.34621E-02
        -0.37964E-02
        -0.39100E-02
        -0.37964E-02
        -0.34621E-02
        -0.29267E-02
        -0.22211E-02
        -0.13865E-02
        -0.47130E-03
         0.47130E-03
         0.13865E-02
         0.22211E-02
         0.29267E-02
         0.34621E-02
         0.37964E-02
         0.10371E-02
         0.17441E-02
         0.23169E-02
         0.16685E-02
         0.30376E-02
         0.27812E-02
         0.12844E-02
         0.64992E-03
         0.12600E-03
        -0.12933E-03
         0.94301E-03
         0.11306E-02
         0.17467E-02
         0.40556E-03
         0.39769E-03
        -0.76515E-03
        -0.86670E-03
         0.45850E-03
        -0.18318E-02
        -0.18434E-02
        -0.27236E-02
        -0.28011E-02
        -0.25374E-02
        -0.19313E-02
        -0.99277E-03
        -0.14401E-02
        -0.31454E-03
        -0.11047E-02
        -0.18842E-02
        -0.18705E-02
        -0.16036E-03
        -0.94448E-03
         0.78460E-03
         0.17208E-02
         0.32070E-02
         0.28045E-02
         0.23052E-02
        -0.40531E-03
        -0.12092E-02
        -0.19445E-02
        -0.25027E-02
        -0.26366E-02
        -0.27652E-02
        -0.21132E-02
        -0.16090E-02
        -0.11946E-02
        -0.58851E-03
         0.20668E-03
         0.10567E-02
         0.18416E-02
         0.24551E-02
         0.26026E-02
         0.37964E-02
         0.39100E-02
         0.34621E-02
         0.29267E-02
         0.22211E-02
         0.13865E-02
         0.47130E-03
        -0.47130E-03
        -0.13865E-02
        -0.22211E-02
        -0.29267E-02
        -0.34621E-02
        -0.37964E-02
        -0.39100E-02
        -0.37964E-02
        -0.34621E-02
        -0.29267E-02
        -0.22211E-02
        -0.13865E-02
        -0.47130E-03
         0.47130E-03
         0.13865E-02
         0.22211E-02
         0.29267E-02
         0.34621E-02
         0.37964E-02
         0.10370E-02
         0.17439E-02
         0.23168E-02
         0.16683E-02
         0.30375E-02
         0.27815E-02
         0.12843E-02
         0.64967E-03
         0.12573E-03
        -0.12952E-03
         0.94268E-03
         0.11303E-02
         0.17463E-02
         0.40550E-03
         0.39767E-03
        -0.76551E-03
        -0.86680E-03
         0.45806E-03
        -0.18321E-02
        -0.18433E-02
        -0.27236E-02
        -0.28009E-02
        -0.25375E-02
        -0.19317E-02
        -0.99262E-03
        -0.14405E-02
        -0.31434E-03
        -0.11044E-02
        -0.18842E-02
        -0.18704E-02
        -0.16064E-03
        -0.94508E-03
         0.78394E-03
         0.17208E-02
         0.32073E-02
         0.28045E-02
         0.23051E-02
        -0.40517E-03
        -0.12092E-02
        -0.19445E-02
        -0.25026E-02
        -0.26365E-02
        -0.27649E-02
        -0.21133E-02
        -0.16090E-02
        -0.11947E-02
        -0.58886E-03
         0.20627E-03
         0.10564E-02
         0.18416E-02
         0.24553E-02
         0.26027E-02
         0.37964E-02
         0.39100E-02
         0.34621E-02
         0.29267E-02
         0.22211E-02
         0.13865E-02
         0.47130E-03
        -0.47130E-03
        -0.13865E-02
        -0.22211E-02
        -0.29267E-02
        -0.34621E-02
        -0.37964E-02
        -0.39100E-02
        -0.37964E-02
        -0.34621E-02
        -0.29267E-02
        -0.22211E-02
        -0.13865E-02
        -0.47130E-03
         0.47130E-03
         0.13865E-02
         0.22211E-02
         0.29267E-02
         0.34621E-02
         0.37964E-02
         0.10368E-02
         0.17438E-02
         0.23167E-02
         0.16681E-02
         0.30375E-02
         0.27819E-02
         0.12842E-02
         0.64943E-03
         0.12547E-03
        -0.12970E-03
         0.94235E-03
         0.11300E-02
         0.17459E-02
         0.40545E-03
         0.39766E-03
        -0.76586E-03
        -0.86691E-03
         0.45761E-03
        -0.18324E-02
        -0.18432E-02
        -0.27236E-02
        -0.28006E-02
        -0.25377E-02
        -0.19322E-02
        -0.99248E-03
        -0.14408E-02
        -0.31414E-03
        -0.11040E-02
        -0.18841E-02
        -0.18703E-02
        -0.16091E-03
        -0.94568E-03
         0.78328E-03
         0.17207E-02
         0.32076E-02
         0.28044E-02
         0.23050E-02
        -0.40503E-03
        -0.12092E-02
        -0.19445E-02
        -0.25026E-02
        -0.26364E-02
        -0.27646E-02
        -0.21134E-02
        -0.16091E-02
        -0.11948E-02
        -0.58921E-03
         0.20587E-03
         0.10561E-02
         0.18416E-02
         0.24554E-02
         0.26027E-02
         0.37964E-02
         0.39100E-02
         0.34621E-02
         0.29267E-02
         0.22211E-02
         0.13865E-02
         0.47130E-03
        -0.47130E-03
        -0.13865E-02
        -0.22211E-02
        -0.29267E-02
        -0.34621E-02
        -0.37964E-02
        -0.39100E-02
        -0.37964E-02
        -0.34621E-02
        -0.29267E-02
        -0.22211E-02
        -0.13865E-02
        -0.47130E-03
         0.47130E-03
         0.13865E-02
         0.22211E-02
         0.29267E-02
         0.34621E-02
         0.37964E-02
         0.10367E-02
         0.17436E-02
         0.23166E-02
         0.16679E-02
         0.30375E-02
         0.27822E-02
         0.12841E-02
         0.64918E-03
         0.12521E-03
        -0.12989E-03
         0.94202E-03
         0.11296E-02
         0.17455E-02
         0.40539E-03
         0.39764E-03
        -0.76621E-03
        -0.86702E-03
         0.45716E-03
        -0.18326E-02
        -0.18431E-02
        -0.27235E-02
        -0.28003E-02
        -0.25379E-02
        -0.19326E-02
        -0.99233E-03
        -0.14412E-02
        -0.31394E-03
        -0.11037E-02
        -0.18841E-02
        -0.18701E-02
        -0.16119E-03
        -0.94628E-03
         0.78262E-03
         0.17207E-02
         0.32079E-02
         0.28044E-02
         0.23049E-02
        -0.40490E-03
        -0.12093E-02
        -0.19444E-02
        -0.25026E-02
        -0.26363E-02
        -0.27643E-02
        -0.21136E-02
        -0.16091E-02
        -0.11949E-02
        -0.58956E-03
         0.20546E-03
         0.10558E-02
         0.18417E-02
         0.24555E-02
         0.26028E-02
         0.37964E-02
         0.39100E-02
         0.34621E-02
         0.29267E-02
         0.22211E-02
         0.13865E-02
         0.47130E-03
        -0.47130E-03
        -0.13865E-02
        -0.22211E-02
        -0.29267E-02
        -0.34621E-02
        -0.37964E-02
        -0.39100E-02
        -0.37964E-02
        -0.34621E-02
        -0.29267E-02
        -0.22211E-02
        -0.13865E-02
        -0.47130E-03
         0.47130E-03
         0.13865E-02
         0.22211E-02
         0.29267E-02
         0.34621E-02
         0.37964E-02
         0.10366E-02
         0.17434E-02
         0.23164E-02
         0.16677E-02
         0.30375E-02
         0.27825E-02
         0.12840E-02
         0.64894E-03
         0.12495E-03
        -0.13007E-03
         0.94169E-03
         0.11293E-02
         0.17451E-02
         0.40534E-03
         0.39762E-03
        -0.76657E-03
        -0.86713E-03
         0.45671E-03
        -0.18329E-02
        -0.18430E-02
        -0.27235E-02
        -0.28001E-02
        -0.25380E-02
        -0.19330E-02
        -0.99219E-03
        -0.14415E-02
        -0.31374E-03
        -0.11033E-02
        -0.18840E-02
        -0.18700E-02
        -0.16146E-03
        -0.94687E-03
         0.78195E-03
         0.17207E-02
         0.32083E-02
         0.28044E-02
         0.23048E-02
        -0.40476E-03
        -0.12093E-02
        -0.19444E-02
        -0.25026E-02
        -0.26362E-02
        -0.27640E-02
        -0.21137E-02
        -0.16091E-02
        -0.11950E-02
        -0.58991E-03
         0.20505E-03
         0.10555E-02
         0.18417E-02
         0.24556E-02
         0.26029E-02
         0.37964E-02
         0.39100E-02
         0.34621E-02
         0.29267E-02
         0.22211E-02
         0.13865E-02
         0.47130E-03
        -0.47130E-03
        -0.13865E-02
        -0.22211E-02
        -0.29267E-02
        -0.34621E-02
        -0.37964E-02
        -0.39100E-02
        -0.37964E-02
        -0.34621E-02
        -0.29267E-02
        -0.22211E-02
        -0.13865E-02
        -0.47130E-03
         0.47130E-03
         0.13865E-02
         0.22211E-02
         0.29267E-02
         0.34621E-02
         0.37964E-02
         0.10365E-02
         0.17432E-02
         0.23163E-02
         0.16675E-02
         0.30374E-02
         0.27829E-02
         0.12839E-02
         0.64869E-03
         0.12468E-03
        -0.13026E-03
         0.94135E-03
         0.11289E-02
         0.17447E-02
         0.40528E-03
         0.39760E-03
        -0.76692E-03
        -0.86724E-03
         0.45626E-03
        -0.18332E-02
        -0.18430E-02
        -0.27235E-02
        -0.27998E-02
        -0.25382E-02
        -0.19334E-02
        -0.99205E-03
        -0.14419E-02
        -0.31354E-03
        -0.11030E-02
        -0.18840E-02
        -0.18699E-02
        -0.16174E-03
        -0.94747E-03
         0.78129E-03
         0.17206E-02
         0.32086E-02
         0.28044E-02
         0.23047E-02
        -0.40462E-03
        -0.12093E-02
        -0.19444E-02
        -0.25025E-02
        -0.26361E-02
        -0.27637E-02
        -0.21139E-02
        -0.16092E-02
        -0.11951E-02
        -0.59025E-03
         0.20465E-03
         0.10552E-02
         0.18418E-02
         0.24558E-02
         0.26030E-02
         0.37964E-02
         0.39100E-02
         0.34621E-02
         0.29267E-02
         0.22211E-02
         0.13865E-02
         0.47130E-03
        -0.47130E-03
        -0.13865E-02
        -0.22211E-02
        -0.29267E-02
        -0.34621E-02
        -0.37964E-02
        -0.39100E-02
        -0.37964E-02
        -0.34621E-02
        -0.29267E-02
        -0.22211E-02
        -0.13865E-02
        -0.47130E-03
         0.47130E-03
         0.13865E-02
         0.22211E-02
         0.29267E-02
         0.34621E-02
         0.37964E-02
         0.10364E-02
         0.17430E-02
         0.23162E-02
         0.16672E-02
         0.30374E-02
         0.27832E-02
         0.12838E-02
         0.64845E-03
         0.12442E-03
        -0.13044E-03
         0.94102E-03
         0.11286E-02
         0.17443E-02
         0.40523E-03
         0.39759E-03
        -0.76727E-03
        -0.86735E-03
         0.45582E-03
        -0.18335E-02
        -0.18429E-02
        -0.27235E-02
        -0.27995E-02
        -0.25383E-02
        -0.19339E-02
        -0.99190E-03
        -0.14422E-02
        -0.31334E-03
        -0.11026E-02
        -0.18839E-02
        -0.18697E-02
        -0.16201E-03
        -0.94807E-03
         0.78063E-03
         0.17206E-02
         0.32089E-02
         0.28043E-02
         0.23046E-02
        -0.40448E-03
        -0.12093E-02
        -0.19443E-02
        -0.25025E-02
        -0.26360E-02
        -0.27633E-02
        -0.21140E-02
        -0.16092E-02
        -0.11953E-02
        -0.59060E-03
         0.20424E-03
         0.10549E-02
         0.18418E-02
         0.24559E-02
         0.26030E-02
         0.37964E-02
         0.39100E-02
         0.34621E-02
         0.29267E-02
         0.22211E-02
         0.13865E-02
         0.47130E-03
        -0.47130E-03
        -0.13865E-02
        -0.22211E-02
        -0.29267E-02
        -0.34621E-02
        -0.37964E-02
        -0.39100E-02
        -0.37964E-02
        -0.34621E-02
        -0.29267E-02
        -0.22211E-02
        -0.13865E-02
        -0.47130E-03
         0.47130E-03
         0.13865E-02
         0.22211E-02
         0.29267E-02
         0.34621E-02
         0.37964E-02
         0.10363E-02
         0.17429E-02
         0.23161E-02
         0.16670E-02
         0.30374E-02
         0.27836E-02
         0.12837E-02
         0.64820E-03
         0.12416E-03
        -0.13063E-03
         0.94069E-03
         0.11282E-02
         0.17439E-02
         0.40518E-03
         0.39757E-03
        -0.76763E-03
        -0.86746E-03
         0.45537E-03
        -0.18338E-02
        -0.18428E-02
        -0.27234E-02
        -0.27992E-02
        -0.25385E-02
        -0.19343E-02
        -0.99176E-03
        -0.14425E-02
        -0.31314E-03
        -0.11023E-02
        -0.18839E-02
        -0.18696E-02
        -0.16229E-03
        -0.94867E-03
         0.77997E-03
         0.17205E-02
         0.32092E-02
         0.28043E-02
         0.23044E-02
        -0.40434E-03
        -0.12093E-02
        -0.19443E-02
        -0.25025E-02
        -0.26359E-02
        -0.27630E-02
        -0.21141E-02
        -0.16093E-02
        -0.11954E-02
        -0.59095E-03
         0.20384E-03
         0.10546E-02
         0.18419E-02
         0.24560E-02
         0.26031E-02
         0.37964E-02
         0.39100E-02
         0.34621E-02
         0.29267E-02
         0.22211E-02
         0.13865E-02
         0.47130E-03
        -0.47130E-03
        -0.13865E-02
        -0.22211E-02
        -0.29267E-02
        -0.34621E-02
        -0.37964E-02
        -0.39100E-02
        -0.37964E-02
        -0.34621E-02
        -0.29267E-02
        -0.22211E-02
        -0.13865E-02
        -0.47130E-03
         0.47130E-03
         0.13865E-02
         0.22211E-02
         0.29267E-02
         0.34621E-02
         0.37964E-02
         0.10362E-02
         0.17427E-02
         0.23160E-02
         0.16668E-02
         0.30373E-02
         0.27839E-02
         0.12836E-02
         0.64796E-03
         0.12390E-03
        -0.13082E-03
         0.94036E-03
         0.11279E-02
         0.17435E-02
         0.40512E-03
         0.39755E-03
        -0.76798E-03
        -0.86756E-03
         0.45492E-03
        -0.18341E-02
        -0.18427E-02
        -0.27234E-02
        -0.27990E-02
        -0.25386E-02
        -0.19347E-02
        -0.99161E-03
        -0.14429E-02
        -0.31294E-03
        -0.11019E-02
        -0.18838E-02
        -0.18695E-02
        -0.16256E-03
        -0.94927E-03
         0.77931E-03
         0.17205E-02
         0.32096E-02
         0.28043E-02
         0.23043E-02
        -0.40420E-03
        -0.12093E-02
        -0.19443E-02
        -0.25024E-02
        -0.26358E-02
        -0.27627E-02
        -0.21143E-02
        -0.16093E-02
        -0.11955E-02
        -0.59130E-03
         0.20343E-03
         0.10543E-02
         0.18419E-02
         0.24561E-02
         0.26032E-02
         0.37964E-02
         0.39100E-02
         0.34621E-02
         0.29267E-02
         0.22211E-02
         0.13865E-02
         0.47130E-03
        -0.47130E-03
        -0.13865E-02
        -0.22211E-02
        -0.29267E-02
        -0.34621E-02
        -0.37964E-02
        -0.39100E-02
        -0.37964E-02
        -0.34621E-02
        -0.29267E-02
        -0.22211E-02
        -0.13865E-02
        -0.47130E-03
         0.47130E-03
         0.13865E-02
         0.22211E-02
         0.29267E-02
         0.34621E-02
         0.37964E-02
         0.10360E-02
         0.17425E-02
         0.23158E-02
         0.16666E-02
         0.30373E-02
         0.27842E-02
         0.12835E-02
         0.64771E-03
         0.12363E-03
        -0.13100E-03
         0.94003E-03
         0.11276E-02
         0.17432E-02
         0.40507E-03
         0.39754E-03
        -0.76834E-03
        -0.86767E-03
         0.45447E-03
        -0.18344E-02
        -0.18426E-02
        -0.27234E-02
        -0.27987E-02
        -0.25388E-02
        -0.19352E-02
        -0.99147E-03
        -0.14433E-02
        -0.31274E-03
        -0.11016E-02
        -0.18838E-02
        -0.18694E-02
        -0.16284E-03
        -0.94986E-03
         0.77865E-03
         0.17205E-02
         0.32099E-02
         0.28042E-02
         0.23042E-02
        -0.40407E-03
        -0.12093E-02
        -0.19442E-02
        -0.25024E-02
        -0.26358E-02
        -0.27624E-02
        -0.21144E-02
        -0.16094E-02
        -0.11956E-02
        -0.59165E-03
         0.20302E-03
         0.10540E-02
         0.18419E-02
         0.24563E-02
         0.26033E-02
         0.37964E-02
         0.39100E-02
         0.34621E-02
         0.29267E-02
         0.22211E-02
         0.13865E-02
         0.47130E-03
        -0.47130E-03
        -0.13865E-02
        -0.22211E-02
        -0.29267E-02
        -0.34621E-02
        -0.37964E-02
        -0.39100E-02
        -0.37964E-02
        -0.34621E-02
        -0.29267E-02
        -0.22211E-02
        -0.13865E-02
        -0.47130E-03
         0.47130E-03
         0.13865E-02
         0.22211E-02
         0.29267E-02
         0.34621E-02
         0.37964E-02
         0.10359E-02
         0.17423E-02
         0.23157E-02
         0.16664E-02
         0.30373E-02
         0.27846E-02
         0.12834E-02
         0.64747E-03
         0.12337E-03
        -0.13118E-03
         0.93970E-03
         0.11272E-02
         0.17428E-02
         0.40501E-03
         0.39752E-03
        -0.76869E-03
        -0.86778E-03
         0.45402E-03
        -0.18347E-02
        -0.18425E-02
        -0.27234E-02
        -0.27984E-02
        -0.25389E-02
        -0.19356E-02
        -0.99133E-03
        -0.14436E-02
        -0.31254E-03
        -0.11013E-02
        -0.18837E-02
        -0.18692E-02
        -0.16311E-03
        -0.95046E-03
         0.77799E-03
         0.17204E-02
         0.32102E-02
         0.28042E-02
         0.23041E-02
        -0.40393E-03
        -0.12093E-02
        -0.19442E-02
        -0.25024E-02
        -0.26357E-02
        -0.27621E-02
        -0.21146E-02
        -0.16094E-02
        -0.11957E-02
        -0.59200E-03
         0.20262E-03
         0.10536E-02
         0.18420E-02
         0.24564E-02
         0.26033E-02
         0.37964E-02
         0.39100E-02
         0.34621E-02
         0.29267E-02
         0.22211E-02
         0.13865E-02
         0.47130E-03
        -0.47130E-03
        -0.13865E-02
        -0.22211E-02
        -0.29267E-02
        -0.34621E-02
        -0.37964E-02
        -0.39100E-02
        -0.37964E-02
        -0.34621E-02
        -0.29267E-02
        -0.22211E-02
        -0.13865E-02
        -0.47130E-03
         0.47130E-03
         0.13865E-02
         0.22211E-02
         0.29267E-02
         0.34621E-02
         0.37964E-02
         0.10358E-02
         0.17422E-02
         0.23156E-02
         0.16662E-02
         0.30373E-02
         0.27849E-02
         0.12833E-02
         0.64722E-03
         0.12311E-03
        -0.13137E-03
         0.93937E-03
         0.11269E-02
         0.17424E-02
         0.40496E-03
         0.39750E-03
        -0.76904E-03
        -0.86789E-03
         0.45358E-03
        -0.18350E-02
        -0.18424E-02
        -0.27233E-02
        -0.27981E-02
        -0.25391E-02
        -0.19360E-02
        -0.99118E-03
        -0.14440E-02
        -0.31234E-03
        -0.11009E-02
        -0.18836E-02
        -0.18691E-02
        -0.16339E-03
        -0.95106E-03
         0.77733E-03
         0.17204E-02
         0.32105E-02
         0.28042E-02
         0.23040E-02
        -0.40379E-03
        -0.12093E-02
        -0.19441E-02
        -0.25023E-02
        -0.26356E-02
        -0.27618E-02
        -0.21147E-02
        -0.16094E-02
        -0.11958E-02
        -0.59235E-03
         0.20221E-03
         0.10533E-02
         0.18420E-02
         0.24565E-02
         0.26034E-02
         0.37964E-02
         0.39100E-02
         0.34621E-02
         0.29267E-02
         0.22211E-02
         0.13865E-02
         0.47130E-03
        -0.47130E-03
        -0.13865E-02
        -0.22211E-02
        -0.29267E-02
        -0.34621E-02
        -0.37964E-02
        -0.39100E-02
        -0.37964E-02
        -0.34621E-02
        -0.29267E-02
        -0.22211E-02
        -0.13865E-02
        -0.47130E-03
         0.47130E-03
         0.13865E-02
         0.22211E-02
         0.29267E-02
         0.34621E-02
         0.37964E-02
         0.10357E-02
         0.17420E-02
         0.23155E-02
         0.16660E-02
         0.30372E-02
         0.27853E-02
         0.12832E-02
         0.64698E-03
         0.12285E-03
        -0.13155E-03
         0.93903E-03
         0.11266E-02
         0.17420E-02
         0.40490E-03
         0.39749E-03
        -0.76940E-03
        -0.86800E-03
         0.45313E-03
        -0.18353E-02
        -0.18423E-02
        -0.27233E-02
        -0.27979E-02
        -0.25393E-02
        -0.19365E-02
        -0.99104E-03
        -0.14443E-02
        -0.31214E-03
        -0.11006E-02
        -0.18836E-02
        -0.18690E-02
        -0.16366E-03
        -0.95166E-03
         0.77667E-03
         0.17203E-02
         0.32109E-02
         0.28042E-02
         0.23039E-02
        -0.40365E-03
        -0.12093E-02
        -0.19441E-02
        -0.25023E-02
        -0.26355E-02
        -0.27615E-02
        -0.21148E-02
        -0.16095E-02
        -0.11960E-02
        -0.59270E-03
         0.20180E-03
         0.10530E-02
         0.18421E-02
         0.24566E-02
         0.26035E-02
         0.37964E-02
         0.39100E-02
         0.34621E-02
         0.29267E-02
         0.22211E-02
         0.13865E-02
         0.47130E-03
        -0.47130E-03
        -0.13865E-02
        -0.22211E-02
        -0.29267E-02
        -0.34621E-02
        -0.37964E-02
        -0.39100E-02
        -0.37964E-02
        -0.34621E-02
        -0.29267E-02
        -0.22211E-02
        -0.13865E-02
        -0.47130E-03
         0.47130E-03
         0.13865E-02
         0.22211E-02
         0.29267E-02
         0.34621E-02
         0.37964E-02
         0.10356E-02
         0.17418E-02
         0.23153E-02
         0.16657E-02
         0.30372E-02
         0.27856E-02
         0.12830E-02
         0.64673E-03
         0.12259E-03
        -0.13174E-03
         0.93870E-03
         0.11262E-02
         0.17416E-02
         0.40485E-03
         0.39747E-03
        -0.76975E-03
        -0.86811E-03
         0.45268E-03
        -0.18356E-02
        -0.18422E-02
        -0.27233E-02
        -0.27976E-02
        -0.25394E-02
        -0.19369E-02
        -0.99090E-03
        -0.14446E-02
        -0.31194E-03
        -0.11002E-02
        -0.18835E-02
        -0.18689E-02
        -0.16394E-03
        -0.95226E-03
         0.77601E-03
         0.17203E-02
         0.32112E-02
         0.28042E-02
         0.23038E-02
        -0.40352E-03
        -0.12093E-02
        -0.19441E-02
        -0.25023E-02
        -0.26354E-02
        -0.27612E-02
        -0.21150E-02
        -0.16095E-02
        -0.11961E-02
        -0.59305E-03
         0.20140E-03
         0.10527E-02
         0.18421E-02
         0.24568E-02
         0.26036E-02
         0.37964E-02
         0.39100E-02
         0.34621E-02
         0.29267E-02
         0.22211E-02
         0.13865E-02
         0.47130E-03
        -0.47130E-03
        -0.13865E-02
        -0.22211E-02
        -0.29267E-02
        -0.34621E-02
        -0.37964E-02
        -0.39100E-02
        -0.37964E-02
        -0.34621E-02
        -0.29267E-02
        -0.22211E-02
        -0.13865E-02
        -0.47130E-03
         0.47130E-03
         0.13865E-02
         0.22211E-02
         0.29267E-02
         0.34621E-02
         0.37964E-02
         0.10355E-02
         0.17416E-02
         0.23152E-02
         0.16655E-02
         0.30372E-02
         0.27860E-02
         0.12829E-02
         0.64649E-03
         0.12232E-03
        -0.13193E-03
         0.93837E-03
         0.11259E-02
         0.17412E-02
         0.40480E-03
         0.39745E-03
        -0.77011E-03
        -0.86822E-03
         0.45223E-03
        -0.18359E-02
        -0.18421E-02
        -0.27232E-02
        -0.27973E-02
        -0.25396E-02
        -0.19373E-02
        -0.99075E-03
        -0.14450E-02
        -0.31173E-03
        -0.10999E-02
        -0.18835E-02
        -0.18687E-02
        -0.16421E-03
        -0.95285E-03
         0.77535E-03
         0.17202E-02
         0.32115E-02
         0.28041E-02
         0.23037E-02
        -0.40338E-03
        -0.12093E-02
        -0.19440E-02
        -0.25023E-02
        -0.26353E-02
        -0.27609E-02
        -0.21151E-02
        -0.16096E-02
        -0.11962E-02
        -0.59340E-03
         0.20099E-03
         0.10524E-02
         0.18422E-02
         0.24569E-02
         0.26036E-02
         0.37964E-02
         0.39100E-02
         0.34621E-02
         0.29267E-02
         0.22211E-02
         0.13865E-02
         0.47130E-03
        -0.47130E-03
        -0.13865E-02
        -0.22211E-02
        -0.29267E-02
        -0.34621E-02
        -0.37964E-02
        -0.39100E-02
        -0.37964E-02
        -0.34621E-02
        -0.29267E-02
        -0.22211E-02
        -0.13865E-02
        -0.47130E-03
         0.47130E-03
         0.13865E-02
         0.22211E-02
         0.29267E-02
         0.34621E-02
         0.37964E-02
         0.10354E-02
         0.17414E-02
         0.23151E-02
         0.16653E-02
         0.30372E-02
         0.27863E-02
         0.12829E-02
         0.64624E-03
         0.12206E-03
        -0.13211E-03
         0.93804E-03
         0.11255E-02
         0.17408E-02
         0.40474E-03
         0.39744E-03
        -0.77046E-03
        -0.86832E-03
         0.45179E-03
        -0.18362E-02
        -0.18420E-02
        -0.27232E-02
        -0.27970E-02
        -0.25397E-02
        -0.19377E-02
        -0.99061E-03
        -0.14453E-02
        -0.31153E-03
        -0.10995E-02
        -0.18834E-02
        -0.18686E-02
        -0.16449E-03
        -0.95345E-03
         0.77469E-03
         0.17202E-02
         0.32119E-02
         0.28041E-02
         0.23036E-02
        -0.40324E-03
        -0.12093E-02
        -0.19440E-02
        -0.25022E-02
        -0.26352E-02
        -0.27606E-02
        -0.21152E-02
        -0.16096E-02
        -0.11963E-02
        -0.59375E-03
         0.20059E-03
         0.10521E-02
         0.18422E-02
         0.24570E-02
         0.26037E-02
         0.37964E-02
         0.39100E-02
         0.34621E-02
         0.29267E-02
         0.22211E-02
         0.13865E-02
         0.47130E-03
        -0.47130E-03
        -0.13865E-02
        -0.22211E-02
        -0.29267E-02
        -0.34621E-02
        -0.37964E-02
        -0.39100E-02
        -0.37964E-02
        -0.34621E-02
        -0.29267E-02
        -0.22211E-02
        -0.13865E-02
        -0.47130E-03
         0.47130E-03
         0.13865E-02
         0.22211E-02
         0.29267E-02
         0.34621E-02
         0.37964E-02
         0.10352E-02
         0.17413E-02
         0.23150E-02
         0.16651E-02
         0.30371E-02
         0.27866E-02
         0.12827E-02
         0.64600E-03
         0.12180E-03
        -0.13230E-03
         0.93771E-03
         0.11252E-02
         0.17404E-02
         0.40469E-03
         0.39742E-03
        -0.77081E-03
        -0.86843E-03
         0.45134E-03
        -0.18365E-02
        -0.18419E-02
        -0.27232E-02
        -0.27968E-02
        -0.25399E-02
        -0.19382E-02
        -0.99046E-03
        -0.14457E-02
        -0.31133E-03
        -0.10992E-02
        -0.18834E-02
        -0.18685E-02
        -0.16476E-03
        -0.95405E-03
         0.77402E-03
         0.17202E-02
         0.32122E-02
         0.28041E-02
         0.23034E-02
        -0.40310E-03
        -0.12093E-02
        -0.19440E-02
        -0.25022E-02
        -0.26351E-02
        -0.27602E-02
        -0.21154E-02
        -0.16097E-02
        -0.11964E-02
        -0.59409E-03
         0.20018E-03
         0.10518E-02
         0.18422E-02
         0.24571E-02
         0.26038E-02
         0.37964E-02
         0.39100E-02
         0.34621E-02
         0.29267E-02
         0.22211E-02
         0.13865E-02
         0.47130E-03
        -0.47130E-03
        -0.13865E-02
        -0.22211E-02
        -0.29267E-02
        -0.34621E-02
        -0.37964E-02
        -0.39100E-02
        -0.37964E-02
        -0.34621E-02
        -0.29267E-02
        -0.22211E-02
        -0.13865E-02
        -0.47130E-03
         0.47130E-03
         0.13865E-02
         0.22211E-02
         0.29267E-02
         0.34621E-02
         0.37964E-02
         0.10351E-02
         0.17411E-02
         0.23149E-02
         0.16649E-02
         0.30371E-02
         0.27870E-02
         0.12826E-02
         0.64575E-03
         0.12154E-03
        -0.13248E-03
         0.93738E-03
         0.11249E-02
         0.17400E-02
         0.40463E-03
         0.39740E-03
        -0.77117E-03
        -0.86854E-03
         0.45089E-03
        -0.18368E-02
        -0.18418E-02
        -0.27232E-02
        -0.27965E-02
        -0.25400E-02
        -0.19386E-02
        -0.99032E-03
        -0.14460E-02
        -0.31113E-03
        -0.10988E-02
        -0.18833E-02
        -0.18683E-02
        -0.16504E-03
        -0.95465E-03
         0.77336E-03
         0.17201E-02
         0.32125E-02
         0.28041E-02
         0.23033E-02
        -0.40296E-03
        -0.12093E-02
        -0.19439E-02
        -0.25022E-02
        -0.26350E-02
        -0.27599E-02
        -0.21155E-02
        -0.16097E-02
        -0.11965E-02
        -0.59444E-03
         0.19977E-03
         0.10515E-02
         0.18423E-02
         0.24573E-02
         0.26039E-02
         0.37964E-02
         0.39100E-02
         0.34621E-02
         0.29267E-02
         0.22211E-02
         0.13865E-02
         0.47130E-03
        -0.47130E-03
        -0.13865E-02
        -0.22211E-02
        -0.29267E-02
        -0.34621E-02
        -0.37964E-02
        -0.39100E-02
        -0.37964E-02
        -0.34621E-02
        -0.29267E-02
        -0.22211E-02
        -0.13865E-02
        -0.47130E-03
         0.47130E-03
         0.13865E-02
         0.22211E-02
         0.29267E-02
         0.34621E-02
         0.37964E-02
  
SCALARS           initial_coordinate_y  double 1
LOOKUP_TABLE default
         0.67292E-03
         0.12308E-02
         0.59151E-03
        -0.33775E-03
         0.67237E-03
         0.12301E-02
         0.59098E-03
        -0.33851E-03
         0.14882E-03
        -0.67643E-03
         0.14846E-03
        -0.67692E-03
         0.18412E-02
         0.14576E-02
         0.18410E-02
         0.14566E-02
         0.29933E-03
         0.11672E-02
         0.29819E-03
         0.11655E-02
         0.22748E-02
         0.28286E-02
         0.24238E-02
         0.22746E-02
         0.28291E-02
         0.24236E-02
         0.21685E-02
         0.29366E-02
         0.21684E-02
         0.29369E-02
        -0.10033E-02
         0.78969E-04
        -0.70318E-03
        -0.10032E-02
         0.78160E-04
        -0.70391E-03
        -0.71196E-03
         0.82749E-04
        -0.71210E-03
         0.82626E-04
        -0.77865E-03
         0.40713E-04
        -0.77882E-03
         0.40439E-04
        -0.15195E-02
        -0.13230E-02
        -0.15195E-02
        -0.13231E-02
         0.98847E-03
         0.98712E-03
        -0.17325E-02
        -0.17325E-02
         0.20220E-02
         0.20217E-02
         0.18615E-02
         0.18616E-02
         0.17175E-02
         0.90940E-03
         0.17175E-02
         0.90916E-03
        -0.19800E-02
        -0.23489E-02
        -0.19800E-02
        -0.23489E-02
        -0.17074E-02
        -0.17074E-02
        -0.14894E-02
        -0.14892E-02
         0.76036E-03
         0.12477E-02
         0.75936E-03
         0.12473E-02
         0.18665E-02
         0.18664E-02
         0.29038E-02
         0.29049E-02
         0.27207E-02
         0.27212E-02
         0.24642E-02
         0.24645E-02
         0.22359E-02
         0.16503E-02
         0.22359E-02
         0.16503E-02
         0.87493E-03
         0.87466E-03
        -0.21373E-02
        -0.21373E-02
        -0.26931E-02
        -0.26931E-02
        -0.31291E-02
        -0.30382E-02
        -0.31291E-02
        -0.30382E-02
        -0.28748E-02
        -0.28748E-02
        -0.26423E-02
        -0.26420E-02
        -0.23707E-02
        -0.23705E-02
        -0.21445E-02
        -0.15105E-02
        -0.21439E-02
        -0.15106E-02
         0.93572E-03
         0.00000E+00
         0.93572E-03
         0.00000E+00
         0.18171E-02
         0.18171E-02
         0.25928E-02
         0.25928E-02
         0.32179E-02
         0.32179E-02
         0.36559E-02
         0.36559E-02
         0.38815E-02
         0.38815E-02
         0.38815E-02
         0.38815E-02
         0.36559E-02
         0.36559E-02
         0.32179E-02
         0.32179E-02
         0.25928E-02
         0.25928E-02
         0.18171E-02
         0.18171E-02
         0.93572E-03
         0.93572E-03
         0.22152E-17
        -0.47884E-18
        -0.93572E-03
        -0.93572E-03
        -0.18171E-02
        -0.18171E-02
        -0.25928E-02
        -0.25928E-02
        -0.32179E-02
        -0.32179E-02
        -0.36559E-02
        -0.36559E-02
        -0.38815E-02
        -0.38815E-02
        -0.38815E-02
        -0.38815E-02
        -0.36559E-02
        -0.36559E-02
        -0.32179E-02
        -0.32179E-02
        -0.25928E-02
        -0.25928E-02
        -0.18171E-02
        -0.18171E-02
        -0.93572E-03
        -0.93572E-03
         0.67348E-03
         0.12314E-02
         0.59203E-03
        -0.33700E-03
         0.14918E-03
        -0.67594E-03
         0.18414E-02
         0.14586E-02
         0.30048E-03
         0.11690E-02
         0.22749E-02
         0.28282E-02
         0.24239E-02
         0.21685E-02
         0.29364E-02
        -0.10035E-02
         0.79778E-04
        -0.70245E-03
        -0.71182E-03
         0.82873E-04
        -0.77848E-03
         0.40986E-04
        -0.15194E-02
        -0.13228E-02
         0.98983E-03
        -0.17324E-02
         0.20223E-02
         0.18614E-02
         0.17175E-02
         0.90964E-03
        -0.19800E-02
        -0.23489E-02
        -0.17074E-02
        -0.14896E-02
         0.76137E-03
         0.12481E-02
         0.18665E-02
         0.29027E-02
         0.27202E-02
         0.24640E-02
         0.22359E-02
         0.16503E-02
         0.87519E-03
        -0.21373E-02
        -0.26932E-02
        -0.31291E-02
        -0.30382E-02
        -0.28748E-02
        -0.26426E-02
        -0.23709E-02
        -0.21450E-02
        -0.15104E-02
         0.93572E-03
         0.00000E+00
         0.18171E-02
         0.25928E-02
         0.32179E-02
         0.36559E-02
         0.38815E-02
         0.38815E-02
         0.36559E-02
         0.32179E-02
         0.25928E-02
         0.18171E-02
         0.93572E-03
        -0.47884E-18
        -0.93572E-03
        -0.18171E-02
        -0.25928E-02
        -0.32179E-02
        -0.36559E-02
        -0.38815E-02
        -0.38815E-02
        -0.36559E-02
        -0.32179E-02
        -0.25928E-02
        -0.18171E-02
        -0.93572E-03
         0.67403E-03
         0.12321E-02
         0.59255E-03
        -0.33624E-03
         0.14955E-03
        -0.67544E-03
         0.18415E-02
         0.14596E-02
         0.30163E-03
         0.11707E-02
         0.22750E-02
         0.28277E-02
         0.24241E-02
         0.21685E-02
         0.29361E-02
        -0.10036E-02
         0.80588E-04
        -0.70173E-03
        -0.71168E-03
         0.82996E-04
        -0.77831E-03
         0.41259E-04
        -0.15194E-02
        -0.13227E-02
         0.99119E-03
        -0.17324E-02
         0.20226E-02
         0.18613E-02
         0.17175E-02
         0.90988E-03
        -0.19801E-02
        -0.23490E-02
        -0.17074E-02
        -0.14899E-02
         0.76237E-03
         0.12485E-02
         0.18666E-02
         0.29017E-02
         0.27198E-02
         0.24638E-02
         0.22359E-02
         0.16503E-02
         0.87545E-03
        -0.21374E-02
        -0.26932E-02
        -0.31291E-02
        -0.30382E-02
        -0.28748E-02
        -0.26428E-02
        -0.23711E-02
        -0.21456E-02
        -0.15103E-02
         0.93572E-03
         0.00000E+00
         0.18171E-02
         0.25928E-02
         0.32179E-02
         0.36559E-02
         0.38815E-02
         0.38815E-02
         0.36559E-02
         0.32179E-02
         0.25928E-02
         0.18171E-02
         0.93572E-03
         0.39516E-17
        -0.93572E-03
        -0.18171E-02
        -0.25928E-02
        -0.32179E-02
        -0.36559E-02
        -0.38815E-02
        -0.38815E-02
        -0.36559E-02
        -0.32179E-02
        -0.25928E-02
        -0.18171E-02
        -0.93572E-03
         0.67459E-03
         0.12328E-02
         0.59308E-03
        -0.33549E-03
         0.14991E-03
        -0.67495E-03
         0.18417E-02
         0.14606E-02
         0.30278E-03
         0.11725E-02
         0.22752E-02
         0.28273E-02
         0.24242E-02
         0.21686E-02
         0.29359E-02
        -0.10038E-02
         0.81397E-04
        -0.70100E-03
        -0.71154E-03
         0.83120E-04
        -0.77814E-03
         0.41533E-04
        -0.15193E-02
        -0.13227E-02
         0.99254E-03
        -0.17324E-02
         0.20228E-02
         0.18611E-02
         0.17175E-02
         0.91012E-03
        -0.19801E-02
        -0.23490E-02
        -0.17074E-02
        -0.14901E-02
         0.76338E-03
         0.12490E-02
         0.18666E-02
         0.29006E-02
         0.27193E-02
         0.24636E-02
         0.22359E-02
         0.16503E-02
         0.87571E-03
        -0.21374E-02
        -0.26932E-02
        -0.31291E-02
        -0.30382E-02
        -0.28748E-02
        -0.26431E-02
        -0.23713E-02
        -0.21461E-02
        -0.15102E-02
         0.93572E-03
         0.00000E+00
         0.18171E-02
         0.25928E-02
         0.32179E-02
         0.36559E-02
         0.38815E-02
         0.38815E-02
         0.36559E-02
         0.32179E-02
         0.25928E-02
         0.18171E-02
         0.93572E-03
        -0.47884E-18
        -0.93572E-03
        -0.18171E-02
        -0.25928E-02
        -0.32179E-02
        -0.36559E-02
        -0.38815E-02
        -0.38815E-02
        -0.36559E-02
        -0.32179E-02
        -0.25928E-02
        -0.18171E-02
        -0.93572E-03
         0.67514E-03
         0.12334E-02
         0.59360E-03
        -0.33474E-03
         0.15027E-03
        -0.67446E-03
         0.18419E-02
         0.14616E-02
         0.30393E-03
         0.11742E-02
         0.22753E-02
         0.28269E-02
         0.24244E-02
         0.21686E-02
         0.29356E-02
        -0.10039E-02
         0.82206E-04
        -0.70028E-03
        -0.71140E-03
         0.83243E-04
        -0.77797E-03
         0.41806E-04
        -0.15193E-02
        -0.13226E-02
         0.99390E-03
        -0.17323E-02
         0.20231E-02
         0.18610E-02
         0.17175E-02
         0.91036E-03
        -0.19801E-02
        -0.23490E-02
        -0.17074E-02
        -0.14904E-02
         0.76439E-03
         0.12494E-02
         0.18666E-02
         0.28995E-02
         0.27188E-02
         0.24633E-02
         0.22359E-02
         0.16503E-02
         0.87597E-03
        -0.21374E-02
        -0.26932E-02
        -0.31291E-02
        -0.30382E-02
        -0.28748E-02
        -0.26434E-02
        -0.23715E-02
        -0.21467E-02
        -0.15101E-02
         0.93572E-03
         0.00000E+00
         0.18171E-02
         0.25928E-02
         0.32179E-02
         0.36559E-02
         0.38815E-02
         0.38815E-02
         0.36559E-02
         0.32179E-02
         0.25928E-02
         0.18171E-02
         0.93572E-03
        -0.47884E-18
        -0.93572E-03
        -0.18171E-02
        -0.25928E-02
        -0.32179E-02
        -0.36559E-02
        -0.38815E-02
        -0.38815E-02
        -0.36559E-02
        -0.32179E-02
        -0.25928E-02
        -0.18171E-02
        -0.93572E-03
         0.67570E-03
         0.12341E-02
         0.59412E-03
        -0.33398E-03
         0.15064E-03
        -0.67396E-03
         0.18421E-02
         0.14626E-02
         0.30507E-03
         0.11760E-02
         0.22754E-02
         0.28264E-02
         0.24245E-02
         0.21686E-02
         0.29353E-02
        -0.10040E-02
         0.83015E-04
        -0.69955E-03
        -0.71126E-03
         0.83367E-04
        -0.77780E-03
         0.42080E-04
        -0.15192E-02
        -0.13224E-02
         0.99526E-03
        -0.17323E-02
         0.20234E-02
         0.18609E-02
         0.17175E-02
         0.91060E-03
        -0.19801E-02
        -0.23490E-02
        -0.17074E-02
        -0.14906E-02
         0.76539E-03
         0.12498E-02
         0.18667E-02
         0.28984E-02
         0.27184E-02
         0.24631E-02
         0.22359E-02
         0.16503E-02
         0.87623E-03
        -0.21374E-02
        -0.26932E-02
        -0.31291E-02
        -0.30382E-02
        -0.28748E-02
        -0.26436E-02
        -0.23717E-02
        -0.21472E-02
        -0.15100E-02
         0.93572E-03
         0.00000E+00
         0.18171E-02
         0.25928E-02
         0.32179E-02
         0.36559E-02
         0.38815E-02
         0.38815E-02
         0.36559E-02
         0.32179E-02
         0.25928E-02
         0.18171E-02
         0.93572E-03
        -0.47884E-18
        -0.93572E-03
        -0.18171E-02
        -0.25928E-02
        -0.32179E-02
        -0.36559E-02
        -0.38815E-02
        -0.38815E-02
        -0.36559E-02
        -0.32179E-02
        -0.25928E-02
        -0.18171E-02
        -0.93572E-03
         0.67625E-03
         0.12348E-02
         0.59465E-03
        -0.33323E-03
         0.15100E-03
        -0.67347E-03
         0.18423E-02
         0.14636E-02
         0.30622E-03
         0.11777E-02
         0.22755E-02
         0.28260E-02
         0.24247E-02
         0.21687E-02
         0.29351E-02
        -0.10042E-02
         0.83825E-04
        -0.69882E-03
        -0.71112E-03
         0.83490E-04
        -0.77763E-03
         0.42353E-04
        -0.15192E-02
        -0.13223E-02
         0.99661E-03
        -0.17322E-02
         0.20237E-02
         0.18607E-02
         0.17175E-02
         0.91084E-03
        -0.19801E-02
        -0.23491E-02
        -0.17074E-02
        -0.14909E-02
         0.76640E-03
         0.12503E-02
         0.18667E-02
         0.28974E-02
         0.27179E-02
         0.24629E-02
         0.22359E-02
         0.16503E-02
         0.87650E-03
        -0.21374E-02
        -0.26933E-02
        -0.31291E-02
        -0.30382E-02
        -0.28749E-02
        -0.26439E-02
        -0.23719E-02
        -0.21478E-02
        -0.15099E-02
         0.93572E-03
         0.00000E+00
         0.18171E-02
         0.25928E-02
         0.32179E-02
         0.36559E-02
         0.38815E-02
         0.38815E-02
         0.36559E-02
         0.32179E-02
         0.25928E-02
         0.18171E-02
         0.93572E-03
        -0.47884E-18
        -0.93572E-03
        -0.18171E-02
        -0.25928E-02
        -0.32179E-02
        -0.36559E-02
        -0.38815E-02
        -0.38815E-02
        -0.36559E-02
        -0.32179E-02
        -0.25928E-02
        -0.18171E-02
        -0.93572E-03
         0.67680E-03
         0.12354E-02
         0.59517E-03
        -0.33247E-03
         0.15136E-03
        -0.67298E-03
         0.18425E-02
         0.14646E-02
         0.30737E-03
         0.11795E-02
         0.22757E-02
         0.28255E-02
         0.24248E-02
         0.21687E-02
         0.29348E-02
        -0.10043E-02
         0.84634E-04
        -0.69810E-03
        -0.71098E-03
         0.83614E-04
        -0.77746E-03
         0.42626E-04
        -0.15191E-02
        -0.13223E-02
         0.99797E-03
        -0.17322E-02
         0.20240E-02
         0.18606E-02
         0.17175E-02
         0.91108E-03
        -0.19802E-02
        -0.23491E-02
        -0.17074E-02
        -0.14911E-02
         0.76740E-03
         0.12507E-02
         0.18668E-02
         0.28963E-02
         0.27174E-02
         0.24627E-02
         0.22358E-02
         0.16503E-02
         0.87676E-03
        -0.21374E-02
        -0.26933E-02
        -0.31291E-02
        -0.30382E-02
        -0.28749E-02
        -0.26442E-02
        -0.23721E-02
        -0.21483E-02
        -0.15097E-02
         0.93572E-03
         0.00000E+00
         0.18171E-02
         0.25928E-02
         0.32179E-02
         0.36559E-02
         0.38815E-02
         0.38815E-02
         0.36559E-02
         0.32179E-02
         0.25928E-02
         0.18171E-02
         0.93572E-03
        -0.47884E-18
        -0.93572E-03
        -0.18171E-02
        -0.25928E-02
        -0.32179E-02
        -0.36559E-02
        -0.38815E-02
        -0.38815E-02
        -0.36559E-02
        -0.32179E-02
        -0.25928E-02
        -0.18171E-02
        -0.93572E-03
         0.67736E-03
         0.12361E-02
         0.59570E-03
        -0.33172E-03
         0.15173E-03
        -0.67248E-03
         0.18427E-02
         0.14656E-02
         0.30852E-03
         0.11812E-02
         0.22758E-02
         0.28251E-02
         0.24249E-02
         0.21688E-02
         0.29345E-02
        -0.10044E-02
         0.85443E-04
        -0.69737E-03
        -0.71084E-03
         0.83737E-04
        -0.77729E-03
         0.42899E-04
        -0.15191E-02
        -0.13222E-02
         0.99932E-03
        -0.17322E-02
         0.20243E-02
         0.18605E-02
         0.17175E-02
         0.91132E-03
        -0.19802E-02
        -0.23491E-02
        -0.17074E-02
        -0.14914E-02
         0.76841E-03
         0.12511E-02
         0.18668E-02
         0.28952E-02
         0.27170E-02
         0.24624E-02
         0.22358E-02
         0.16503E-02
         0.87702E-03
        -0.21374E-02
        -0.26933E-02
        -0.31291E-02
        -0.30382E-02
        -0.28749E-02
        -0.26444E-02
        -0.23723E-02
        -0.21489E-02
        -0.15096E-02
         0.93572E-03
         0.00000E+00
         0.18171E-02
         0.25928E-02
         0.32179E-02
         0.36559E-02
         0.38815E-02
         0.38815E-02
         0.36559E-02
         0.32179E-02
         0.25928E-02
         0.18171E-02
         0.93572E-03
        -0.47884E-18
        -0.93572E-03
        -0.18171E-02
        -0.25928E-02
        -0.32179E-02
        -0.36559E-02
        -0.38815E-02
        -0.38815E-02
        -0.36559E-02
        -0.32179E-02
        -0.25928E-02
        -0.18171E-02
        -0.93572E-03
         0.67791E-03
         0.12368E-02
         0.59622E-03
        -0.33096E-03
         0.15209E-03
        -0.67199E-03
         0.18429E-02
         0.14666E-02
         0.30967E-03
         0.11830E-02
         0.22759E-02
         0.28247E-02
         0.24251E-02
         0.21688E-02
         0.29343E-02
        -0.10046E-02
         0.86253E-04
        -0.69665E-03
        -0.71070E-03
         0.83861E-04
        -0.77712E-03
         0.43173E-04
        -0.15190E-02
        -0.13220E-02
         0.10007E-02
        -0.17321E-02
         0.20245E-02
         0.18603E-02
         0.17175E-02
         0.91156E-03
        -0.19802E-02
        -0.23491E-02
        -0.17074E-02
        -0.14916E-02
         0.76941E-03
         0.12515E-02
         0.18668E-02
         0.28942E-02
         0.27165E-02
         0.24622E-02
         0.22358E-02
         0.16503E-02
         0.87728E-03
        -0.21374E-02
        -0.26933E-02
        -0.31291E-02
        -0.30382E-02
        -0.28749E-02
        -0.26447E-02
        -0.23725E-02
        -0.21494E-02
        -0.15095E-02
         0.93572E-03
         0.00000E+00
         0.18171E-02
         0.25928E-02
         0.32179E-02
         0.36559E-02
         0.38815E-02
         0.38815E-02
         0.36559E-02
         0.32179E-02
         0.25928E-02
         0.18171E-02
         0.93572E-03
        -0.47884E-18
        -0.93572E-03
        -0.18171E-02
        -0.25928E-02
        -0.32179E-02
        -0.36559E-02
        -0.38815E-02
        -0.38815E-02
        -0.36559E-02
        -0.32179E-02
        -0.25928E-02
        -0.18171E-02
        -0.93572E-03
         0.67847E-03
         0.12374E-02
         0.59674E-03
        -0.33021E-03
         0.15245E-03
        -0.67150E-03
         0.18430E-02
         0.14676E-02
         0.31081E-03
         0.11847E-02
         0.22761E-02
         0.28242E-02
         0.24252E-02
         0.21688E-02
         0.29340E-02
        -0.10047E-02
         0.87062E-04
        -0.69592E-03
        -0.71056E-03
         0.83985E-04
        -0.77695E-03
         0.43446E-04
        -0.15190E-02
        -0.13219E-02
         0.10020E-02
        -0.17321E-02
         0.20248E-02
         0.18602E-02
         0.17175E-02
         0.91180E-03
        -0.19803E-02
        -0.23491E-02
        -0.17073E-02
        -0.14919E-02
         0.77042E-03
         0.12520E-02
         0.18669E-02
         0.28931E-02
         0.27160E-02
         0.24620E-02
         0.22358E-02
         0.16503E-02
         0.87754E-03
        -0.21374E-02
        -0.26933E-02
        -0.31291E-02
        -0.30382E-02
        -0.28749E-02
        -0.26450E-02
        -0.23727E-02
        -0.21500E-02
        -0.15094E-02
         0.93572E-03
         0.00000E+00
         0.18171E-02
         0.25928E-02
         0.32179E-02
         0.36559E-02
         0.38815E-02
         0.38815E-02
         0.36559E-02
         0.32179E-02
         0.25928E-02
         0.18171E-02
         0.93572E-03
         0.39516E-17
        -0.93572E-03
        -0.18171E-02
        -0.25928E-02
        -0.32179E-02
        -0.36559E-02
        -0.38815E-02
        -0.38815E-02
        -0.36559E-02
        -0.32179E-02
        -0.25928E-02
        -0.18171E-02
        -0.93572E-03
         0.67902E-03
         0.12381E-02
         0.59727E-03
        -0.32945E-03
         0.15282E-03
        -0.67100E-03
         0.18432E-02
         0.14686E-02
         0.31196E-03
         0.11865E-02
         0.22762E-02
         0.28238E-02
         0.24254E-02
         0.21688E-02
         0.29337E-02
        -0.10049E-02
         0.87871E-04
        -0.69519E-03
        -0.71042E-03
         0.84108E-04
        -0.77678E-03
         0.43720E-04
        -0.15189E-02
        -0.13219E-02
         0.10034E-02
        -0.17320E-02
         0.20251E-02
         0.18601E-02
         0.17175E-02
         0.91204E-03
        -0.19803E-02
        -0.23492E-02
        -0.17073E-02
        -0.14921E-02
         0.77142E-03
         0.12524E-02
         0.18669E-02
         0.28920E-02
         0.27155E-02
         0.24618E-02
         0.22358E-02
         0.16503E-02
         0.87781E-03
        -0.21374E-02
        -0.26934E-02
        -0.31291E-02
        -0.30382E-02
        -0.28749E-02
        -0.26452E-02
        -0.23729E-02
        -0.21505E-02
        -0.15093E-02
         0.93572E-03
         0.00000E+00
         0.18171E-02
         0.25928E-02
         0.32179E-02
         0.36559E-02
         0.38815E-02
         0.38815E-02
         0.36559E-02
         0.32179E-02
         0.25928E-02
         0.18171E-02
         0.93572E-03
        -0.47884E-18
        -0.93572E-03
        -0.18171E-02
        -0.25928E-02
        -0.32179E-02
        -0.36559E-02
        -0.38815E-02
        -0.38815E-02
        -0.36559E-02
        -0.32179E-02
        -0.25928E-02
        -0.18171E-02
        -0.93572E-03
         0.67958E-03
         0.12387E-02
         0.59779E-03
        -0.32870E-03
         0.15318E-03
        -0.67051E-03
         0.18434E-02
         0.14696E-02
         0.31311E-03
         0.11882E-02
         0.22763E-02
         0.28233E-02
         0.24255E-02
         0.21689E-02
         0.29335E-02
        -0.10050E-02
         0.88681E-04
        -0.69447E-03
        -0.71028E-03
         0.84232E-04
        -0.77661E-03
         0.43993E-04
        -0.15189E-02
        -0.13218E-02
         0.10048E-02
        -0.17320E-02
         0.20254E-02
         0.18599E-02
         0.17175E-02
         0.91228E-03
        -0.19803E-02
        -0.23492E-02
        -0.17073E-02
        -0.14923E-02
         0.77243E-03
         0.12528E-02
         0.18670E-02
         0.28910E-02
         0.27151E-02
         0.24615E-02
         0.22358E-02
         0.16503E-02
         0.87807E-03
        -0.21374E-02
        -0.26934E-02
        -0.31291E-02
        -0.30382E-02
        -0.28749E-02
        -0.26455E-02
        -0.23732E-02
        -0.21511E-02
        -0.15092E-02
         0.93572E-03
         0.00000E+00
         0.18171E-02
         0.25928E-02
         0.32179E-02
         0.36559E-02
         0.38815E-02
         0.38815E-02
         0.36559E-02
         0.32179E-02
         0.25928E-02
         0.18171E-02
         0.93572E-03
         0.22152E-17
        -0.93572E-03
        -0.18171E-02
        -0.25928E-02
        -0.32179E-02
        -0.36559E-02
        -0.38815E-02
        -0.38815E-02
        -0.36559E-02
        -0.32179E-02
        -0.25928E-02
        -0.18171E-02
        -0.93572E-03
         0.68013E-03
         0.12394E-02
         0.59831E-03
        -0.32794E-03
         0.15354E-03
        -0.67002E-03
         0.18436E-02
         0.14706E-02
         0.31426E-03
         0.11900E-02
         0.22765E-02
         0.28229E-02
         0.24257E-02
         0.21689E-02
         0.29332E-02
        -0.10051E-02
         0.89490E-04
        -0.69374E-03
        -0.71013E-03
         0.84355E-04
        -0.77644E-03
         0.44266E-04
        -0.15188E-02
        -0.13216E-02
         0.10061E-02
        -0.17320E-02
         0.20257E-02
         0.18598E-02
         0.17175E-02
         0.91252E-03
        -0.19803E-02
        -0.23492E-02
        -0.17073E-02
        -0.14926E-02
         0.77343E-03
         0.12533E-02
         0.18670E-02
         0.28899E-02
         0.27146E-02
         0.24613E-02
         0.22358E-02
         0.16503E-02
         0.87833E-03
        -0.21374E-02
        -0.26934E-02
        -0.31291E-02
        -0.30382E-02
        -0.28750E-02
        -0.26458E-02
        -0.23734E-02
        -0.21516E-02
        -0.15091E-02
         0.93572E-03
         0.00000E+00
         0.18171E-02
         0.25928E-02
         0.32179E-02
         0.36559E-02
         0.38815E-02
         0.38815E-02
         0.36559E-02
         0.32179E-02
         0.25928E-02
         0.18171E-02
         0.93572E-03
        -0.47884E-18
        -0.93572E-03
        -0.18171E-02
        -0.25928E-02
        -0.32179E-02
        -0.36559E-02
        -0.38815E-02
        -0.38815E-02
        -0.36559E-02
        -0.32179E-02
        -0.25928E-02
        -0.18171E-02
        -0.93572E-03
         0.68068E-03
         0.12401E-02
         0.59884E-03
        -0.32719E-03
         0.15391E-03
        -0.66953E-03
         0.18438E-02
         0.14716E-02
         0.31541E-03
         0.11917E-02
         0.22766E-02
         0.28225E-02
         0.24258E-02
         0.21690E-02
         0.29330E-02
        -0.10053E-02
         0.90299E-04
        -0.69302E-03
        -0.70999E-03
         0.84479E-04
        -0.77627E-03
         0.44540E-04
        -0.15188E-02
        -0.13215E-02
         0.10075E-02
        -0.17319E-02
         0.20260E-02
         0.18597E-02
         0.17175E-02
         0.91276E-03
        -0.19804E-02
        -0.23493E-02
        -0.17073E-02
        -0.14928E-02
         0.77444E-03
         0.12537E-02
         0.18670E-02
         0.28888E-02
         0.27141E-02
         0.24611E-02
         0.22358E-02
         0.16503E-02
         0.87859E-03
        -0.21374E-02
        -0.26934E-02
        -0.31291E-02
        -0.30382E-02
        -0.28750E-02
        -0.26460E-02
        -0.23736E-02
        -0.21521E-02
        -0.15090E-02
         0.93572E-03
         0.00000E+00
         0.18171E-02
         0.25928E-02
         0.32179E-02
         0.36559E-02
         0.38815E-02
         0.38815E-02
         0.36559E-02
         0.32179E-02
         0.25928E-02
         0.18171E-02
         0.93572E-03
         0.22152E-17
        -0.93572E-03
        -0.18171E-02
        -0.25928E-02
        -0.32179E-02
        -0.36559E-02
        -0.38815E-02
        -0.38815E-02
        -0.36559E-02
        -0.32179E-02
        -0.25928E-02
        -0.18171E-02
        -0.93572E-03
         0.68124E-03
         0.12407E-02
         0.59936E-03
        -0.32643E-03
         0.15427E-03
        -0.66903E-03
         0.18440E-02
         0.14727E-02
         0.31656E-03
         0.11935E-02
         0.22767E-02
         0.28220E-02
         0.24260E-02
         0.21690E-02
         0.29327E-02
        -0.10054E-02
         0.91108E-04
        -0.69229E-03
        -0.70985E-03
         0.84602E-04
        -0.77610E-03
         0.44813E-04
        -0.15187E-02
        -0.13215E-02
         0.10088E-02
        -0.17319E-02
         0.20262E-02
         0.18595E-02
         0.17175E-02
         0.91300E-03
        -0.19804E-02
        -0.23493E-02
        -0.17073E-02
        -0.14931E-02
         0.77544E-03
         0.12541E-02
         0.18671E-02
         0.28877E-02
         0.27137E-02
         0.24609E-02
         0.22358E-02
         0.16503E-02
         0.87885E-03
        -0.21374E-02
        -0.26934E-02
        -0.31291E-02
        -0.30382E-02
        -0.28750E-02
        -0.26463E-02
        -0.23738E-02
        -0.21527E-02
        -0.15088E-02
         0.93572E-03
         0.00000E+00
         0.18171E-02
         0.25928E-02
         0.32179E-02
         0.36559E-02
         0.38815E-02
         0.38815E-02
         0.36559E-02
         0.32179E-02
         0.25928E-02
         0.18171E-02
         0.93572E-03
        -0.47884E-18
        -0.93572E-03
        -0.18171E-02
        -0.25928E-02
        -0.32179E-02
        -0.36559E-02
        -0.38815E-02
        -0.38815E-02
        -0.36559E-02
        -0.32179E-02
        -0.25928E-02
        -0.18171E-02
        -0.93572E-03
         0.68179E-03
         0.12414E-02
         0.59988E-03
        -0.32568E-03
         0.15463E-03
        -0.66854E-03
         0.18442E-02
         0.14736E-02
         0.31770E-03
         0.11952E-02
         0.22768E-02
         0.28216E-02
         0.24261E-02
         0.21690E-02
         0.29324E-02
        -0.10056E-02
         0.91918E-04
        -0.69156E-03
        -0.70971E-03
         0.84726E-04
        -0.77593E-03
         0.45086E-04
        -0.15187E-02
        -0.13213E-02
         0.10102E-02
        -0.17318E-02
         0.20265E-02
         0.18594E-02
         0.17175E-02
         0.91324E-03
        -0.19804E-02
        -0.23493E-02
        -0.17073E-02
        -0.14933E-02
         0.77645E-03
         0.12545E-02
         0.18671E-02
         0.28867E-02
         0.27132E-02
         0.24606E-02
         0.22358E-02
         0.16503E-02
         0.87912E-03
        -0.21374E-02
        -0.26935E-02
        -0.31291E-02
        -0.30381E-02
        -0.28750E-02
        -0.26466E-02
        -0.23740E-02
        -0.21533E-02
        -0.15087E-02
         0.93572E-03
         0.00000E+00
         0.18171E-02
         0.25928E-02
         0.32179E-02
         0.36559E-02
         0.38815E-02
         0.38815E-02
         0.36559E-02
         0.32179E-02
         0.25928E-02
         0.18171E-02
         0.93572E-03
        -0.47884E-18
        -0.93572E-03
        -0.18171E-02
        -0.25928E-02
        -0.32179E-02
        -0.36559E-02
        -0.38815E-02
        -0.38815E-02
        -0.36559E-02
        -0.32179E-02
        -0.25928E-02
        -0.18171E-02
        -0.93572E-03
         0.68235E-03
         0.12421E-02
         0.60041E-03
        -0.32493E-03
         0.15500E-03
        -0.66805E-03
         0.18444E-02
         0.14747E-02
         0.31885E-03
         0.11970E-02
         0.22770E-02
         0.28211E-02
         0.24262E-02
         0.21691E-02
         0.29322E-02
        -0.10057E-02
         0.92727E-04
        -0.69084E-03
        -0.70957E-03
         0.84849E-04
        -0.77576E-03
         0.45359E-04
        -0.15186E-02
        -0.13212E-02
         0.10115E-02
        -0.17318E-02
         0.20268E-02
         0.18593E-02
         0.17175E-02
         0.91347E-03
        -0.19804E-02
        -0.23493E-02
        -0.17073E-02
        -0.14936E-02
         0.77745E-03
         0.12550E-02
         0.18671E-02
         0.28856E-02
         0.27127E-02
         0.24604E-02
         0.22358E-02
         0.16503E-02
         0.87938E-03
        -0.21374E-02
        -0.26935E-02
        -0.31291E-02
        -0.30381E-02
        -0.28750E-02
        -0.26468E-02
        -0.23742E-02
        -0.21538E-02
        -0.15086E-02
         0.93572E-03
         0.00000E+00
         0.18171E-02
         0.25928E-02
         0.32179E-02
         0.36559E-02
         0.38815E-02
         0.38815E-02
         0.36559E-02
         0.32179E-02
         0.25928E-02
         0.18171E-02
         0.93572E-03
        -0.47884E-18
        -0.93572E-03
        -0.18171E-02
        -0.25928E-02
        -0.32179E-02
        -0.36559E-02
        -0.38815E-02
        -0.38815E-02
        -0.36559E-02
        -0.32179E-02
        -0.25928E-02
        -0.18171E-02
        -0.93572E-03
         0.68290E-03
         0.12427E-02
         0.60093E-03
        -0.32417E-03
         0.15536E-03
        -0.66755E-03
         0.18445E-02
         0.14757E-02
         0.32000E-03
         0.11987E-02
         0.22771E-02
         0.28207E-02
         0.24264E-02
         0.21691E-02
         0.29319E-02
        -0.10058E-02
         0.93536E-04
        -0.69011E-03
        -0.70943E-03
         0.84973E-04
        -0.77559E-03
         0.45633E-04
        -0.15186E-02
        -0.13212E-02
         0.10129E-02
        -0.17318E-02
         0.20271E-02
         0.18592E-02
         0.17175E-02
         0.91371E-03
        -0.19805E-02
        -0.23493E-02
        -0.17073E-02
        -0.14938E-02
         0.77846E-03
         0.12554E-02
         0.18672E-02
         0.28845E-02
         0.27122E-02
         0.24602E-02
         0.22358E-02
         0.16502E-02
         0.87964E-03
        -0.21374E-02
        -0.26935E-02
        -0.31291E-02
        -0.30381E-02
        -0.28750E-02
        -0.26471E-02
        -0.23744E-02
        -0.21543E-02
        -0.15085E-02
         0.93572E-03
         0.00000E+00
         0.18171E-02
         0.25928E-02
         0.32179E-02
         0.36559E-02
         0.38815E-02
         0.38815E-02
         0.36559E-02
         0.32179E-02
         0.25928E-02
         0.18171E-02
         0.93572E-03
        -0.47884E-18
        -0.93572E-03
        -0.18171E-02
        -0.25928E-02
        -0.32179E-02
        -0.36559E-02
        -0.38815E-02
        -0.38815E-02
        -0.36559E-02
        -0.32179E-02
        -0.25928E-02
        -0.18171E-02
        -0.93572E-03
         0.68346E-03
         0.12434E-02
         0.60145E-03
        -0.32342E-03
         0.15572E-03
        -0.66706E-03
         0.18447E-02
         0.14767E-02
         0.32115E-03
         0.12005E-02
         0.22772E-02
         0.28203E-02
         0.24265E-02
         0.21691E-02
         0.29316E-02
        -0.10060E-02
         0.94345E-04
        -0.68939E-03
        -0.70929E-03
         0.85096E-04
        -0.77542E-03
         0.45906E-04
        -0.15185E-02
        -0.13211E-02
         0.10142E-02
        -0.17317E-02
         0.20274E-02
         0.18590E-02
         0.17175E-02
         0.91395E-03
        -0.19805E-02
        -0.23494E-02
        -0.17073E-02
        -0.14941E-02
         0.77946E-03
         0.12558E-02
         0.18672E-02
         0.28835E-02
         0.27118E-02
         0.24600E-02
         0.22358E-02
         0.16502E-02
         0.87990E-03
        -0.21374E-02
        -0.26935E-02
        -0.31291E-02
        -0.30381E-02
        -0.28750E-02
        -0.26474E-02
        -0.23746E-02
        -0.21549E-02
        -0.15084E-02
         0.93572E-03
         0.00000E+00
         0.18171E-02
         0.25928E-02
         0.32179E-02
         0.36559E-02
         0.38815E-02
         0.38815E-02
         0.36559E-02
         0.32179E-02
         0.25928E-02
         0.18171E-02
         0.93572E-03
         0.22152E-17
        -0.93572E-03
        -0.18171E-02
        -0.25928E-02
        -0.32179E-02
        -0.36559E-02
        -0.38815E-02
        -0.38815E-02
        -0.36559E-02
        -0.32179E-02
        -0.25928E-02
        -0.18171E-02
        -0.93572E-03
         0.68401E-03
         0.12440E-02
         0.60198E-03
        -0.32266E-03
         0.15609E-03
        -0.66657E-03
         0.18449E-02
         0.14777E-02
         0.32230E-03
         0.12022E-02
         0.22774E-02
         0.28198E-02
         0.24267E-02
         0.21692E-02
         0.29314E-02
        -0.10061E-02
         0.95155E-04
        -0.68866E-03
        -0.70915E-03
         0.85220E-04
        -0.77525E-03
         0.46180E-04
        -0.15185E-02
        -0.13210E-02
         0.10156E-02
        -0.17317E-02
         0.20277E-02
         0.18589E-02
         0.17175E-02
         0.91419E-03
        -0.19805E-02
        -0.23494E-02
        -0.17073E-02
        -0.14943E-02
         0.78047E-03
         0.12563E-02
         0.18672E-02
         0.28824E-02
         0.27113E-02
         0.24597E-02
         0.22358E-02
         0.16502E-02
         0.88016E-03
        -0.21374E-02
        -0.26935E-02
        -0.31291E-02
        -0.30381E-02
        -0.28751E-02
        -0.26476E-02
        -0.23748E-02
        -0.21554E-02
        -0.15083E-02
         0.93572E-03
         0.00000E+00
         0.18171E-02
         0.25928E-02
         0.32179E-02
         0.36559E-02
         0.38815E-02
         0.38815E-02
         0.36559E-02
         0.32179E-02
         0.25928E-02
         0.18171E-02
         0.93572E-03
        -0.47884E-18
        -0.93572E-03
        -0.18171E-02
        -0.25928E-02
        -0.32179E-02
        -0.36559E-02
        -0.38815E-02
        -0.38815E-02
        -0.36559E-02
        -0.32179E-02
        -0.25928E-02
        -0.18171E-02
        -0.93572E-03
         0.68457E-03
         0.12447E-02
         0.60250E-03
        -0.32191E-03
         0.15645E-03
        -0.66607E-03
         0.18451E-02
         0.14787E-02
         0.32345E-03
         0.12040E-02
         0.22775E-02
         0.28194E-02
         0.24268E-02
         0.21692E-02
         0.29311E-02
        -0.10062E-02
         0.95964E-04
        -0.68793E-03
        -0.70901E-03
         0.85343E-04
        -0.77507E-03
         0.46453E-04
        -0.15184E-02
        -0.13209E-02
         0.10169E-02
        -0.17316E-02
         0.20280E-02
         0.18588E-02
         0.17175E-02
         0.91443E-03
        -0.19806E-02
        -0.23494E-02
        -0.17073E-02
        -0.14945E-02
         0.78148E-03
         0.12567E-02
         0.18673E-02
         0.28813E-02
         0.27108E-02
         0.24595E-02
         0.22358E-02
         0.16502E-02
         0.88043E-03
        -0.21374E-02
        -0.26936E-02
        -0.31291E-02
        -0.30381E-02
        -0.28751E-02
        -0.26479E-02
        -0.23750E-02
        -0.21560E-02
        -0.15082E-02
         0.93572E-03
         0.00000E+00
         0.18171E-02
         0.25928E-02
         0.32179E-02
         0.36559E-02
         0.38815E-02
         0.38815E-02
         0.36559E-02
         0.32179E-02
         0.25928E-02
         0.18171E-02
         0.93572E-03
        -0.47884E-18
        -0.93572E-03
        -0.18171E-02
        -0.25928E-02
        -0.32179E-02
        -0.36559E-02
        -0.38815E-02
        -0.38815E-02
        -0.36559E-02
        -0.32179E-02
        -0.25928E-02
        -0.18171E-02
        -0.93572E-03
         0.68512E-03
         0.12454E-02
         0.60302E-03
        -0.32115E-03
         0.15681E-03
        -0.66558E-03
         0.18453E-02
         0.14797E-02
         0.32459E-03
         0.12058E-02
         0.22776E-02
         0.28189E-02
         0.24270E-02
         0.21693E-02
         0.29308E-02
        -0.10064E-02
         0.96773E-04
        -0.68721E-03
        -0.70887E-03
         0.85467E-04
        -0.77490E-03
         0.46726E-04
        -0.15184E-02
        -0.13208E-02
         0.10183E-02
        -0.17316E-02
         0.20283E-02
         0.18586E-02
         0.17175E-02
         0.91467E-03
        -0.19806E-02
        -0.23494E-02
        -0.17073E-02
        -0.14948E-02
         0.78248E-03
         0.12571E-02
         0.18673E-02
         0.28802E-02
         0.27103E-02
         0.24593E-02
         0.22358E-02
         0.16502E-02
         0.88069E-03
        -0.21374E-02
        -0.26936E-02
        -0.31291E-02
        -0.30381E-02
        -0.28751E-02
        -0.26482E-02
        -0.23752E-02
        -0.21565E-02
        -0.15081E-02
         0.93572E-03
         0.00000E+00
         0.18171E-02
         0.25928E-02
         0.32179E-02
         0.36559E-02
         0.38815E-02
         0.38815E-02
         0.36559E-02
         0.32179E-02
         0.25928E-02
         0.18171E-02
         0.93572E-03
        -0.47884E-18
        -0.93572E-03
        -0.18171E-02
        -0.25928E-02
        -0.32179E-02
        -0.36559E-02
        -0.38815E-02
        -0.38815E-02
        -0.36559E-02
        -0.32179E-02
        -0.25928E-02
        -0.18171E-02
        -0.93572E-03
         0.68567E-03
         0.12460E-02
         0.60355E-03
        -0.32040E-03
         0.15718E-03
        -0.66509E-03
         0.18455E-02
         0.14807E-02
         0.32574E-03
         0.12075E-02
         0.22777E-02
         0.28185E-02
         0.24271E-02
         0.21693E-02
         0.29306E-02
        -0.10065E-02
         0.97583E-04
        -0.68648E-03
        -0.70873E-03
         0.85591E-04
        -0.77474E-03
         0.47000E-04
        -0.15183E-02
        -0.13207E-02
         0.10197E-02
        -0.17316E-02
         0.20285E-02
         0.18585E-02
         0.17175E-02
         0.91491E-03
        -0.19806E-02
        -0.23495E-02
        -0.17073E-02
        -0.14950E-02
         0.78348E-03
         0.12576E-02
         0.18674E-02
         0.28792E-02
         0.27099E-02
         0.24591E-02
         0.22358E-02
         0.16502E-02
         0.88095E-03
        -0.21374E-02
        -0.26936E-02
        -0.31290E-02
        -0.30381E-02
        -0.28751E-02
        -0.26484E-02
        -0.23754E-02
        -0.21571E-02
        -0.15080E-02
         0.93572E-03
         0.00000E+00
         0.18171E-02
         0.25928E-02
         0.32179E-02
         0.36559E-02
         0.38815E-02
         0.38815E-02
         0.36559E-02
         0.32179E-02
         0.25928E-02
         0.18171E-02
         0.93572E-03
         0.47884E-18
        -0.93572E-03
        -0.18171E-02
        -0.25928E-02
        -0.32179E-02
        -0.36559E-02
        -0.38815E-02
        -0.38815E-02
        -0.36559E-02
        -0.32179E-02
        -0.25928E-02
        -0.18171E-02
        -0.93572E-03
  
SCALARS           initial_coordinate_z  double 1
LOOKUP_TABLE default
        -0.10771E-01
        -0.10771E-01
        -0.10771E-01
        -0.10771E-01
        -0.11750E-01
        -0.11750E-01
        -0.11750E-01
        -0.11750E-01
        -0.10771E-01
        -0.10771E-01
        -0.11750E-01
        -0.11750E-01
        -0.10771E-01
        -0.10771E-01
        -0.11750E-01
        -0.11750E-01
        -0.10771E-01
        -0.10771E-01
        -0.11750E-01
        -0.11750E-01
        -0.10771E-01
        -0.10771E-01
        -0.10771E-01
        -0.11750E-01
        -0.11750E-01
        -0.11750E-01
        -0.10771E-01
        -0.10771E-01
        -0.11750E-01
        -0.11750E-01
        -0.10771E-01
        -0.10771E-01
        -0.10771E-01
        -0.11750E-01
        -0.11750E-01
        -0.11750E-01
        -0.10771E-01
        -0.10771E-01
        -0.11750E-01
        -0.11750E-01
        -0.10771E-01
        -0.10771E-01
        -0.11750E-01
        -0.11750E-01
        -0.10771E-01
        -0.10771E-01
        -0.11750E-01
        -0.11750E-01
        -0.10771E-01
        -0.11750E-01
        -0.10771E-01
        -0.11750E-01
        -0.10771E-01
        -0.11750E-01
        -0.10771E-01
        -0.11750E-01
        -0.10771E-01
        -0.10771E-01
        -0.11750E-01
        -0.11750E-01
        -0.10771E-01
        -0.10771E-01
        -0.11750E-01
        -0.11750E-01
        -0.10771E-01
        -0.11750E-01
        -0.10771E-01
        -0.11750E-01
        -0.10771E-01
        -0.10771E-01
        -0.11750E-01
        -0.11750E-01
        -0.10771E-01
        -0.11750E-01
        -0.10771E-01
        -0.11750E-01
        -0.10771E-01
        -0.11750E-01
        -0.10771E-01
        -0.11750E-01
        -0.10771E-01
        -0.10771E-01
        -0.11750E-01
        -0.11750E-01
        -0.10771E-01
        -0.11750E-01
        -0.10771E-01
        -0.11750E-01
        -0.10771E-01
        -0.11750E-01
        -0.10771E-01
        -0.10771E-01
        -0.11750E-01
        -0.11750E-01
        -0.10771E-01
        -0.11750E-01
        -0.10771E-01
        -0.11750E-01
        -0.10771E-01
        -0.11750E-01
        -0.10771E-01
        -0.10771E-01
        -0.11750E-01
        -0.11750E-01
        -0.10771E-01
        -0.10771E-01
        -0.11750E-01
        -0.11750E-01
        -0.10771E-01
        -0.11750E-01
        -0.10771E-01
        -0.11750E-01
        -0.10771E-01
        -0.11750E-01
        -0.10771E-01
        -0.11750E-01
        -0.10771E-01
        -0.11750E-01
        -0.10771E-01
        -0.11750E-01
        -0.10771E-01
        -0.11750E-01
        -0.10771E-01
        -0.11750E-01
        -0.10771E-01
        -0.11750E-01
        -0.10771E-01
        -0.11750E-01
        -0.10771E-01
        -0.11750E-01
        -0.10771E-01
        -0.11750E-01
        -0.10771E-01
        -0.11750E-01
        -0.10771E-01
        -0.11750E-01
        -0.10771E-01
        -0.11750E-01
        -0.10771E-01
        -0.11750E-01
        -0.10771E-01
        -0.11750E-01
        -0.10771E-01
        -0.11750E-01
        -0.10771E-01
        -0.11750E-01
        -0.10771E-01
        -0.11750E-01
        -0.10771E-01
        -0.11750E-01
        -0.10771E-01
        -0.11750E-01
        -0.10771E-01
        -0.11750E-01
        -0.10771E-01
        -0.11750E-01
        -0.97917E-02
        -0.97917E-02
        -0.97917E-02
        -0.97917E-02
        -0.97917E-02
        -0.97917E-02
        -0.97917E-02
        -0.97917E-02
        -0.97917E-02
        -0.97917E-02
        -0.97917E-02
        -0.97917E-02
        -0.97917E-02
        -0.97917E-02
        -0.97917E-02
        -0.97917E-02
        -0.97917E-02
        -0.97917E-02
        -0.97917E-02
        -0.97917E-02
        -0.97917E-02
        -0.97917E-02
        -0.97917E-02
        -0.97917E-02
        -0.97917E-02
        -0.97917E-02
        -0.97917E-02
        -0.97917E-02
        -0.97917E-02
        -0.97917E-02
        -0.97917E-02
        -0.97917E-02
        -0.97917E-02
        -0.97917E-02
        -0.97917E-02
        -0.97917E-02
        -0.97917E-02
        -0.97917E-02
        -0.97917E-02
        -0.97917E-02
        -0.97917E-02
        -0.97917E-02
        -0.97917E-02
        -0.97917E-02
        -0.97917E-02
        -0.97917E-02
        -0.97917E-02
        -0.97917E-02
        -0.97917E-02
        -0.97917E-02
        -0.97917E-02
        -0.97917E-02
        -0.97917E-02
        -0.97917E-02
        -0.97917E-02
        -0.97917E-02
        -0.97917E-02
        -0.97917E-02
        -0.97917E-02
        -0.97917E-02
        -0.97917E-02
        -0.97917E-02
        -0.97917E-02
        -0.97917E-02
        -0.97917E-02
        -0.97917E-02
        -0.97917E-02
        -0.97917E-02
        -0.97917E-02
        -0.97917E-02
        -0.97917E-02
        -0.97917E-02
        -0.97917E-02
        -0.97917E-02
        -0.97917E-02
        -0.97917E-02
        -0.97917E-02
        -0.97917E-02
        -0.88125E-02
        -0.88125E-02
        -0.88125E-02
        -0.88125E-02
        -0.88125E-02
        -0.88125E-02
        -0.88125E-02
        -0.88125E-02
        -0.88125E-02
        -0.88125E-02
        -0.88125E-02
        -0.88125E-02
        -0.88125E-02
        -0.88125E-02
        -0.88125E-02
        -0.88125E-02
        -0.88125E-02
        -0.88125E-02
        -0.88125E-02
        -0.88125E-02
        -0.88125E-02
        -0.88125E-02
        -0.88125E-02
        -0.88125E-02
        -0.88125E-02
        -0.88125E-02
        -0.88125E-02
        -0.88125E-02
        -0.88125E-02
        -0.88125E-02
        -0.88125E-02
        -0.88125E-02
        -0.88125E-02
        -0.88125E-02
        -0.88125E-02
        -0.88125E-02
        -0.88125E-02
        -0.88125E-02
        -0.88125E-02
        -0.88125E-02
        -0.88125E-02
        -0.88125E-02
        -0.88125E-02
        -0.88125E-02
        -0.88125E-02
        -0.88125E-02
        -0.88125E-02
        -0.88125E-02
        -0.88125E-02
        -0.88125E-02
        -0.88125E-02
        -0.88125E-02
        -0.88125E-02
        -0.88125E-02
        -0.88125E-02
        -0.88125E-02
        -0.88125E-02
        -0.88125E-02
        -0.88125E-02
        -0.88125E-02
        -0.88125E-02
        -0.88125E-02
        -0.88125E-02
        -0.88125E-02
        -0.88125E-02
        -0.88125E-02
        -0.88125E-02
        -0.88125E-02
        -0.88125E-02
        -0.88125E-02
        -0.88125E-02
        -0.88125E-02
        -0.88125E-02
        -0.88125E-02
        -0.88125E-02
        -0.88125E-02
        -0.88125E-02
        -0.88125E-02
        -0.78333E-02
        -0.78333E-02
        -0.78333E-02
        -0.78333E-02
        -0.78333E-02
        -0.78333E-02
        -0.78333E-02
        -0.78333E-02
        -0.78333E-02
        -0.78333E-02
        -0.78333E-02
        -0.78333E-02
        -0.78333E-02
        -0.78333E-02
        -0.78333E-02
        -0.78333E-02
        -0.78333E-02
        -0.78333E-02
        -0.78333E-02
        -0.78333E-02
        -0.78333E-02
        -0.78333E-02
        -0.78333E-02
        -0.78333E-02
        -0.78333E-02
        -0.78333E-02
        -0.78333E-02
        -0.78333E-02
        -0.78333E-02
        -0.78333E-02
        -0.78333E-02
        -0.78333E-02
        -0.78333E-02
        -0.78333E-02
        -0.78333E-02
        -0.78333E-02
        -0.78333E-02
        -0.78333E-02
        -0.78333E-02
        -0.78333E-02
        -0.78333E-02
        -0.78333E-02
        -0.78333E-02
        -0.78333E-02
        -0.78333E-02
        -0.78333E-02
        -0.78333E-02
        -0.78333E-02
        -0.78333E-02
        -0.78333E-02
        -0.78333E-02
        -0.78333E-02
        -0.78333E-02
        -0.78333E-02
        -0.78333E-02
        -0.78333E-02
        -0.78333E-02
        -0.78333E-02
        -0.78333E-02
        -0.78333E-02
        -0.78333E-02
        -0.78333E-02
        -0.78333E-02
        -0.78333E-02
        -0.78333E-02
        -0.78333E-02
        -0.78333E-02
        -0.78333E-02
        -0.78333E-02
        -0.78333E-02
        -0.78333E-02
        -0.78333E-02
        -0.78333E-02
        -0.78333E-02
        -0.78333E-02
        -0.78333E-02
        -0.78333E-02
        -0.78333E-02
        -0.68542E-02
        -0.68542E-02
        -0.68542E-02
        -0.68542E-02
        -0.68542E-02
        -0.68542E-02
        -0.68542E-02
        -0.68542E-02
        -0.68542E-02
        -0.68542E-02
        -0.68542E-02
        -0.68542E-02
        -0.68542E-02
        -0.68542E-02
        -0.68542E-02
        -0.68542E-02
        -0.68542E-02
        -0.68542E-02
        -0.68542E-02
        -0.68542E-02
        -0.68542E-02
        -0.68542E-02
        -0.68542E-02
        -0.68542E-02
        -0.68542E-02
        -0.68542E-02
        -0.68542E-02
        -0.68542E-02
        -0.68542E-02
        -0.68542E-02
        -0.68542E-02
        -0.68542E-02
        -0.68542E-02
        -0.68542E-02
        -0.68542E-02
        -0.68542E-02
        -0.68542E-02
        -0.68542E-02
        -0.68542E-02
        -0.68542E-02
        -0.68542E-02
        -0.68542E-02
        -0.68542E-02
        -0.68542E-02
        -0.68542E-02
        -0.68542E-02
        -0.68542E-02
        -0.68542E-02
        -0.68542E-02
        -0.68542E-02
        -0.68542E-02
        -0.68542E-02
        -0.68542E-02
        -0.68542E-02
        -0.68542E-02
        -0.68542E-02
        -0.68542E-02
        -0.68542E-02
        -0.68542E-02
        -0.68542E-02
        -0.68542E-02
        -0.68542E-02
        -0.68542E-02
        -0.68542E-02
        -0.68542E-02
        -0.68542E-02
        -0.68542E-02
        -0.68542E-02
        -0.68542E-02
        -0.68542E-02
        -0.68542E-02
        -0.68542E-02
        -0.68542E-02
        -0.68542E-02
        -0.68542E-02
        -0.68542E-02
        -0.68542E-02
        -0.68542E-02
        -0.58750E-02
        -0.58750E-02
        -0.58750E-02
        -0.58750E-02
        -0.58750E-02
        -0.58750E-02
        -0.58750E-02
        -0.58750E-02
        -0.58750E-02
        -0.58750E-02
        -0.58750E-02
        -0.58750E-02
        -0.58750E-02
        -0.58750E-02
        -0.58750E-02
        -0.58750E-02
        -0.58750E-02
        -0.58750E-02
        -0.58750E-02
        -0.58750E-02
        -0.58750E-02
        -0.58750E-02
        -0.58750E-02
        -0.58750E-02
        -0.58750E-02
        -0.58750E-02
        -0.58750E-02
        -0.58750E-02
        -0.58750E-02
        -0.58750E-02
        -0.58750E-02
        -0.58750E-02
        -0.58750E-02
        -0.58750E-02
        -0.58750E-02
        -0.58750E-02
        -0.58750E-02
        -0.58750E-02
        -0.58750E-02
        -0.58750E-02
        -0.58750E-02
        -0.58750E-02
        -0.58750E-02
        -0.58750E-02
        -0.58750E-02
        -0.58750E-02
        -0.58750E-02
        -0.58750E-02
        -0.58750E-02
        -0.58750E-02
        -0.58750E-02
        -0.58750E-02
        -0.58750E-02
        -0.58750E-02
        -0.58750E-02
        -0.58750E-02
        -0.58750E-02
        -0.58750E-02
        -0.58750E-02
        -0.58750E-02
        -0.58750E-02
        -0.58750E-02
        -0.58750E-02
        -0.58750E-02
        -0.58750E-02
        -0.58750E-02
        -0.58750E-02
        -0.58750E-02
        -0.58750E-02
        -0.58750E-02
        -0.58750E-02
        -0.58750E-02
        -0.58750E-02
        -0.58750E-02
        -0.58750E-02
        -0.58750E-02
        -0.58750E-02
        -0.58750E-02
        -0.48958E-02
        -0.48958E-02
        -0.48958E-02
        -0.48958E-02
        -0.48958E-02
        -0.48958E-02
        -0.48958E-02
        -0.48958E-02
        -0.48958E-02
        -0.48958E-02
        -0.48958E-02
        -0.48958E-02
        -0.48958E-02
        -0.48958E-02
        -0.48958E-02
        -0.48958E-02
        -0.48958E-02
        -0.48958E-02
        -0.48958E-02
        -0.48958E-02
        -0.48958E-02
        -0.48958E-02
        -0.48958E-02
        -0.48958E-02
        -0.48958E-02
        -0.48958E-02
        -0.48958E-02
        -0.48958E-02
        -0.48958E-02
        -0.48958E-02
        -0.48958E-02
        -0.48958E-02
        -0.48958E-02
        -0.48958E-02
        -0.48958E-02
        -0.48958E-02
        -0.48958E-02
        -0.48958E-02
        -0.48958E-02
        -0.48958E-02
        -0.48958E-02
        -0.48958E-02
        -0.48958E-02
        -0.48958E-02
        -0.48958E-02
        -0.48958E-02
        -0.48958E-02
        -0.48958E-02
        -0.48958E-02
        -0.48958E-02
        -0.48958E-02
        -0.48958E-02
        -0.48958E-02
        -0.48958E-02
        -0.48958E-02
        -0.48958E-02
        -0.48958E-02
        -0.48958E-02
        -0.48958E-02
        -0.48958E-02
        -0.48958E-02
        -0.48958E-02
        -0.48958E-02
        -0.48958E-02
        -0.48958E-02
        -0.48958E-02
        -0.48958E-02
        -0.48958E-02
        -0.48958E-02
        -0.48958E-02
        -0.48958E-02
        -0.48958E-02
        -0.48958E-02
        -0.48958E-02
        -0.48958E-02
        -0.48958E-02
        -0.48958E-02
        -0.48958E-02
        -0.39167E-02
        -0.39167E-02
        -0.39167E-02
        -0.39167E-02
        -0.39167E-02
        -0.39167E-02
        -0.39167E-02
        -0.39167E-02
        -0.39167E-02
        -0.39167E-02
        -0.39167E-02
        -0.39167E-02
        -0.39167E-02
        -0.39167E-02
        -0.39167E-02
        -0.39167E-02
        -0.39167E-02
        -0.39167E-02
        -0.39167E-02
        -0.39167E-02
        -0.39167E-02
        -0.39167E-02
        -0.39167E-02
        -0.39167E-02
        -0.39167E-02
        -0.39167E-02
        -0.39167E-02
        -0.39167E-02
        -0.39167E-02
        -0.39167E-02
        -0.39167E-02
        -0.39167E-02
        -0.39167E-02
        -0.39167E-02
        -0.39167E-02
        -0.39167E-02
        -0.39167E-02
        -0.39167E-02
        -0.39167E-02
        -0.39167E-02
        -0.39167E-02
        -0.39167E-02
        -0.39167E-02
        -0.39167E-02
        -0.39167E-02
        -0.39167E-02
        -0.39167E-02
        -0.39167E-02
        -0.39167E-02
        -0.39167E-02
        -0.39167E-02
        -0.39167E-02
        -0.39167E-02
        -0.39167E-02
        -0.39167E-02
        -0.39167E-02
        -0.39167E-02
        -0.39167E-02
        -0.39167E-02
        -0.39167E-02
        -0.39167E-02
        -0.39167E-02
        -0.39167E-02
        -0.39167E-02
        -0.39167E-02
        -0.39167E-02
        -0.39167E-02
        -0.39167E-02
        -0.39167E-02
        -0.39167E-02
        -0.39167E-02
        -0.39167E-02
        -0.39167E-02
        -0.39167E-02
        -0.39167E-02
        -0.39167E-02
        -0.39167E-02
        -0.39167E-02
        -0.29375E-02
        -0.29375E-02
        -0.29375E-02
        -0.29375E-02
        -0.29375E-02
        -0.29375E-02
        -0.29375E-02
        -0.29375E-02
        -0.29375E-02
        -0.29375E-02
        -0.29375E-02
        -0.29375E-02
        -0.29375E-02
        -0.29375E-02
        -0.29375E-02
        -0.29375E-02
        -0.29375E-02
        -0.29375E-02
        -0.29375E-02
        -0.29375E-02
        -0.29375E-02
        -0.29375E-02
        -0.29375E-02
        -0.29375E-02
        -0.29375E-02
        -0.29375E-02
        -0.29375E-02
        -0.29375E-02
        -0.29375E-02
        -0.29375E-02
        -0.29375E-02
        -0.29375E-02
        -0.29375E-02
        -0.29375E-02
        -0.29375E-02
        -0.29375E-02
        -0.29375E-02
        -0.29375E-02
        -0.29375E-02
        -0.29375E-02
        -0.29375E-02
        -0.29375E-02
        -0.29375E-02
        -0.29375E-02
        -0.29375E-02
        -0.29375E-02
        -0.29375E-02
        -0.29375E-02
        -0.29375E-02
        -0.29375E-02
        -0.29375E-02
        -0.29375E-02
        -0.29375E-02
        -0.29375E-02
        -0.29375E-02
        -0.29375E-02
        -0.29375E-02
        -0.29375E-02
        -0.29375E-02
        -0.29375E-02
        -0.29375E-02
        -0.29375E-02
        -0.29375E-02
        -0.29375E-02
        -0.29375E-02
        -0.29375E-02
        -0.29375E-02
        -0.29375E-02
        -0.29375E-02
        -0.29375E-02
        -0.29375E-02
        -0.29375E-02
        -0.29375E-02
        -0.29375E-02
        -0.29375E-02
        -0.29375E-02
        -0.29375E-02
        -0.29375E-02
        -0.19583E-02
        -0.19583E-02
        -0.19583E-02
        -0.19583E-02
        -0.19583E-02
        -0.19583E-02
        -0.19583E-02
        -0.19583E-02
        -0.19583E-02
        -0.19583E-02
        -0.19583E-02
        -0.19583E-02
        -0.19583E-02
        -0.19583E-02
        -0.19583E-02
        -0.19583E-02
        -0.19583E-02
        -0.19583E-02
        -0.19583E-02
        -0.19583E-02
        -0.19583E-02
        -0.19583E-02
        -0.19583E-02
        -0.19583E-02
        -0.19583E-02
        -0.19583E-02
        -0.19583E-02
        -0.19583E-02
        -0.19583E-02
        -0.19583E-02
        -0.19583E-02
        -0.19583E-02
        -0.19583E-02
        -0.19583E-02
        -0.19583E-02
        -0.19583E-02
        -0.19583E-02
        -0.19583E-02
        -0.19583E-02
        -0.19583E-02
        -0.19583E-02
        -0.19583E-02
        -0.19583E-02
        -0.19583E-02
        -0.19583E-02
        -0.19583E-02
        -0.19583E-02
        -0.19583E-02
        -0.19583E-02
        -0.19583E-02
        -0.19583E-02
        -0.19583E-02
        -0.19583E-02
        -0.19583E-02
        -0.19583E-02
        -0.19583E-02
        -0.19583E-02
        -0.19583E-02
        -0.19583E-02
        -0.19583E-02
        -0.19583E-02
        -0.19583E-02
        -0.19583E-02
        -0.19583E-02
        -0.19583E-02
        -0.19583E-02
        -0.19583E-02
        -0.19583E-02
        -0.19583E-02
        -0.19583E-02
        -0.19583E-02
        -0.19583E-02
        -0.19583E-02
        -0.19583E-02
        -0.19583E-02
        -0.19583E-02
        -0.19583E-02
        -0.19583E-02
        -0.97917E-03
        -0.97917E-03
        -0.97917E-03
        -0.97917E-03
        -0.97917E-03
        -0.97917E-03
        -0.97917E-03
        -0.97917E-03
        -0.97917E-03
        -0.97917E-03
        -0.97917E-03
        -0.97917E-03
        -0.97917E-03
        -0.97917E-03
        -0.97917E-03
        -0.97917E-03
        -0.97917E-03
        -0.97917E-03
        -0.97917E-03
        -0.97917E-03
        -0.97917E-03
        -0.97917E-03
        -0.97917E-03
        -0.97917E-03
        -0.97917E-03
        -0.97917E-03
        -0.97917E-03
        -0.97917E-03
        -0.97917E-03
        -0.97917E-03
        -0.97917E-03
        -0.97917E-03
        -0.97917E-03
        -0.97917E-03
        -0.97917E-03
        -0.97917E-03
        -0.97917E-03
        -0.97917E-03
        -0.97917E-03
        -0.97917E-03
        -0.97917E-03
        -0.97917E-03
        -0.97917E-03
        -0.97917E-03
        -0.97917E-03
        -0.97917E-03
        -0.97917E-03
        -0.97917E-03
        -0.97917E-03
        -0.97917E-03
        -0.97917E-03
        -0.97917E-03
        -0.97917E-03
        -0.97917E-03
        -0.97917E-03
        -0.97917E-03
        -0.97917E-03
        -0.97917E-03
        -0.97917E-03
        -0.97917E-03
        -0.97917E-03
        -0.97917E-03
        -0.97917E-03
        -0.97917E-03
        -0.97917E-03
        -0.97917E-03
        -0.97917E-03
        -0.97917E-03
        -0.97917E-03
        -0.97917E-03
        -0.97917E-03
        -0.97917E-03
        -0.97917E-03
        -0.97917E-03
        -0.97917E-03
        -0.97917E-03
        -0.97917E-03
        -0.97917E-03
         0.38917E-18
         0.44621E-18
         0.34485E-18
         0.23671E-18
         0.26613E-18
         0.16162E-18
         0.53980E-18
         0.50579E-18
         0.36337E-18
         0.48798E-18
         0.60712E-18
         0.67611E-18
         0.60634E-18
         0.60658E-18
         0.70997E-18
         0.20892E-18
         0.35894E-18
         0.21887E-18
         0.27638E-18
         0.38382E-18
         0.29058E-18
         0.40326E-18
         0.18564E-18
         0.19650E-18
         0.48570E-18
         0.12837E-18
         0.60589E-18
         0.60416E-18
         0.60524E-18
         0.49621E-18
         0.61582E-19
         0.32255E-19
         0.73874E-19
         0.78478E-19
         0.34514E-18
         0.42054E-18
         0.51644E-18
         0.72521E-18
         0.72233E-18
         0.70722E-18
         0.69126E-18
         0.61573E-18
         0.51484E-18
         0.91170E-19
         0.30347E-20
        -0.66516E-19
        -0.69988E-19
        -0.68643E-19
        -0.59779E-19
        -0.43507E-19
        -0.29471E-19
         0.53205E-19
         0.86819E-18
         0.00000E+00
         0.86819E-18
         0.86819E-18
         0.00000E+00
         0.00000E+00
         0.00000E+00
         0.17364E-17
         0.17364E-17
         0.17364E-17
         0.43410E-18
         0.43410E-18
         0.43410E-18
         0.00000E+00
         0.00000E+00
         0.00000E+00
         0.00000E+00
         0.00000E+00
         0.21705E-18
        -0.21705E-18
         0.00000E+00
         0.00000E+00
         0.00000E+00
        -0.32557E-18
         0.54262E-19
        -0.40697E-18
         0.97917E-03
         0.97917E-03
         0.97917E-03
         0.97917E-03
         0.97917E-03
         0.97917E-03
         0.97917E-03
         0.97917E-03
         0.97917E-03
         0.97917E-03
         0.97917E-03
         0.97917E-03
         0.97917E-03
         0.97917E-03
         0.97917E-03
         0.97917E-03
         0.97917E-03
         0.97917E-03
         0.97917E-03
         0.97917E-03
         0.97917E-03
         0.97917E-03
         0.97917E-03
         0.97917E-03
         0.97917E-03
         0.97917E-03
         0.97917E-03
         0.97917E-03
         0.97917E-03
         0.97917E-03
         0.97917E-03
         0.97917E-03
         0.97917E-03
         0.97917E-03
         0.97917E-03
         0.97917E-03
         0.97917E-03
         0.97917E-03
         0.97917E-03
         0.97917E-03
         0.97917E-03
         0.97917E-03
         0.97917E-03
         0.97917E-03
         0.97917E-03
         0.97917E-03
         0.97917E-03
         0.97917E-03
         0.97917E-03
         0.97917E-03
         0.97917E-03
         0.97917E-03
         0.97917E-03
         0.97917E-03
         0.97917E-03
         0.97917E-03
         0.97917E-03
         0.97917E-03
         0.97917E-03
         0.97917E-03
         0.97917E-03
         0.97917E-03
         0.97917E-03
         0.97917E-03
         0.97917E-03
         0.97917E-03
         0.97917E-03
         0.97917E-03
         0.97917E-03
         0.97917E-03
         0.97917E-03
         0.97917E-03
         0.97917E-03
         0.97917E-03
         0.97917E-03
         0.97917E-03
         0.97917E-03
         0.97917E-03
         0.19583E-02
         0.19583E-02
         0.19583E-02
         0.19583E-02
         0.19583E-02
         0.19583E-02
         0.19583E-02
         0.19583E-02
         0.19583E-02
         0.19583E-02
         0.19583E-02
         0.19583E-02
         0.19583E-02
         0.19583E-02
         0.19583E-02
         0.19583E-02
         0.19583E-02
         0.19583E-02
         0.19583E-02
         0.19583E-02
         0.19583E-02
         0.19583E-02
         0.19583E-02
         0.19583E-02
         0.19583E-02
         0.19583E-02
         0.19583E-02
         0.19583E-02
         0.19583E-02
         0.19583E-02
         0.19583E-02
         0.19583E-02
         0.19583E-02
         0.19583E-02
         0.19583E-02
         0.19583E-02
         0.19583E-02
         0.19583E-02
         0.19583E-02
         0.19583E-02
         0.19583E-02
         0.19583E-02
         0.19583E-02
         0.19583E-02
         0.19583E-02
         0.19583E-02
         0.19583E-02
         0.19583E-02
         0.19583E-02
         0.19583E-02
         0.19583E-02
         0.19583E-02
         0.19583E-02
         0.19583E-02
         0.19583E-02
         0.19583E-02
         0.19583E-02
         0.19583E-02
         0.19583E-02
         0.19583E-02
         0.19583E-02
         0.19583E-02
         0.19583E-02
         0.19583E-02
         0.19583E-02
         0.19583E-02
         0.19583E-02
         0.19583E-02
         0.19583E-02
         0.19583E-02
         0.19583E-02
         0.19583E-02
         0.19583E-02
         0.19583E-02
         0.19583E-02
         0.19583E-02
         0.19583E-02
         0.19583E-02
         0.29375E-02
         0.29375E-02
         0.29375E-02
         0.29375E-02
         0.29375E-02
         0.29375E-02
         0.29375E-02
         0.29375E-02
         0.29375E-02
         0.29375E-02
         0.29375E-02
         0.29375E-02
         0.29375E-02
         0.29375E-02
         0.29375E-02
         0.29375E-02
         0.29375E-02
         0.29375E-02
         0.29375E-02
         0.29375E-02
         0.29375E-02
         0.29375E-02
         0.29375E-02
         0.29375E-02
         0.29375E-02
         0.29375E-02
         0.29375E-02
         0.29375E-02
         0.29375E-02
         0.29375E-02
         0.29375E-02
         0.29375E-02
         0.29375E-02
         0.29375E-02
         0.29375E-02
         0.29375E-02
         0.29375E-02
         0.29375E-02
         0.29375E-02
         0.29375E-02
         0.29375E-02
         0.29375E-02
         0.29375E-02
         0.29375E-02
         0.29375E-02
         0.29375E-02
         0.29375E-02
         0.29375E-02
         0.29375E-02
         0.29375E-02
         0.29375E-02
         0.29375E-02
         0.29375E-02
         0.29375E-02
         0.29375E-02
         0.29375E-02
         0.29375E-02
         0.29375E-02
         0.29375E-02
         0.29375E-02
         0.29375E-02
         0.29375E-02
         0.29375E-02
         0.29375E-02
         0.29375E-02
         0.29375E-02
         0.29375E-02
         0.29375E-02
         0.29375E-02
         0.29375E-02
         0.29375E-02
         0.29375E-02
         0.29375E-02
         0.29375E-02
         0.29375E-02
         0.29375E-02
         0.29375E-02
         0.29375E-02
         0.39167E-02
         0.39167E-02
         0.39167E-02
         0.39167E-02
         0.39167E-02
         0.39167E-02
         0.39167E-02
         0.39167E-02
         0.39167E-02
         0.39167E-02
         0.39167E-02
         0.39167E-02
         0.39167E-02
         0.39167E-02
         0.39167E-02
         0.39167E-02
         0.39167E-02
         0.39167E-02
         0.39167E-02
         0.39167E-02
         0.39167E-02
         0.39167E-02
         0.39167E-02
         0.39167E-02
         0.39167E-02
         0.39167E-02
         0.39167E-02
         0.39167E-02
         0.39167E-02
         0.39167E-02
         0.39167E-02
         0.39167E-02
         0.39167E-02
         0.39167E-02
         0.39167E-02
         0.39167E-02
         0.39167E-02
         0.39167E-02
         0.39167E-02
         0.39167E-02
         0.39167E-02
         0.39167E-02
         0.39167E-02
         0.39167E-02
         0.39167E-02
         0.39167E-02
         0.39167E-02
         0.39167E-02
         0.39167E-02
         0.39167E-02
         0.39167E-02
         0.39167E-02
         0.39167E-02
         0.39167E-02
         0.39167E-02
         0.39167E-02
         0.39167E-02
         0.39167E-02
         0.39167E-02
         0.39167E-02
         0.39167E-02
         0.39167E-02
         0.39167E-02
         0.39167E-02
         0.39167E-02
         0.39167E-02
         0.39167E-02
         0.39167E-02
         0.39167E-02
         0.39167E-02
         0.39167E-02
         0.39167E-02
         0.39167E-02
         0.39167E-02
         0.39167E-02
         0.39167E-02
         0.39167E-02
         0.39167E-02
         0.48958E-02
         0.48958E-02
         0.48958E-02
         0.48958E-02
         0.48958E-02
         0.48958E-02
         0.48958E-02
         0.48958E-02
         0.48958E-02
         0.48958E-02
         0.48958E-02
         0.48958E-02
         0.48958E-02
         0.48958E-02
         0.48958E-02
         0.48958E-02
         0.48958E-02
         0.48958E-02
         0.48958E-02
         0.48958E-02
         0.48958E-02
         0.48958E-02
         0.48958E-02
         0.48958E-02
         0.48958E-02
         0.48958E-02
         0.48958E-02
         0.48958E-02
         0.48958E-02
         0.48958E-02
         0.48958E-02
         0.48958E-02
         0.48958E-02
         0.48958E-02
         0.48958E-02
         0.48958E-02
         0.48958E-02
         0.48958E-02
         0.48958E-02
         0.48958E-02
         0.48958E-02
         0.48958E-02
         0.48958E-02
         0.48958E-02
         0.48958E-02
         0.48958E-02
         0.48958E-02
         0.48958E-02
         0.48958E-02
         0.48958E-02
         0.48958E-02
         0.48958E-02
         0.48958E-02
         0.48958E-02
         0.48958E-02
         0.48958E-02
         0.48958E-02
         0.48958E-02
         0.48958E-02
         0.48958E-02
         0.48958E-02
         0.48958E-02
         0.48958E-02
         0.48958E-02
         0.48958E-02
         0.48958E-02
         0.48958E-02
         0.48958E-02
         0.48958E-02
         0.48958E-02
         0.48958E-02
         0.48958E-02
         0.48958E-02
         0.48958E-02
         0.48958E-02
         0.48958E-02
         0.48958E-02
         0.48958E-02
         0.58750E-02
         0.58750E-02
         0.58750E-02
         0.58750E-02
         0.58750E-02
         0.58750E-02
         0.58750E-02
         0.58750E-02
         0.58750E-02
         0.58750E-02
         0.58750E-02
         0.58750E-02
         0.58750E-02
         0.58750E-02
         0.58750E-02
         0.58750E-02
         0.58750E-02
         0.58750E-02
         0.58750E-02
         0.58750E-02
         0.58750E-02
         0.58750E-02
         0.58750E-02
         0.58750E-02
         0.58750E-02
         0.58750E-02
         0.58750E-02
         0.58750E-02
         0.58750E-02
         0.58750E-02
         0.58750E-02
         0.58750E-02
         0.58750E-02
         0.58750E-02
         0.58750E-02
         0.58750E-02
         0.58750E-02
         0.58750E-02
         0.58750E-02
         0.58750E-02
         0.58750E-02
         0.58750E-02
         0.58750E-02
         0.58750E-02
         0.58750E-02
         0.58750E-02
         0.58750E-02
         0.58750E-02
         0.58750E-02
         0.58750E-02
         0.58750E-02
         0.58750E-02
         0.58750E-02
         0.58750E-02
         0.58750E-02
         0.58750E-02
         0.58750E-02
         0.58750E-02
         0.58750E-02
         0.58750E-02
         0.58750E-02
         0.58750E-02
         0.58750E-02
         0.58750E-02
         0.58750E-02
         0.58750E-02
         0.58750E-02
         0.58750E-02
         0.58750E-02
         0.58750E-02
         0.58750E-02
         0.58750E-02
         0.58750E-02
         0.58750E-02
         0.58750E-02
         0.58750E-02
         0.58750E-02
         0.58750E-02
         0.68542E-02
         0.68542E-02
         0.68542E-02
         0.68542E-02
         0.68542E-02
         0.68542E-02
         0.68542E-02
         0.68542E-02
         0.68542E-02
         0.68542E-02
         0.68542E-02
         0.68542E-02
         0.68542E-02
         0.68542E-02
         0.68542E-02
         0.68542E-02
         0.68542E-02
         0.68542E-02
         0.68542E-02
         0.68542E-02
         0.68542E-02
         0.68542E-02
         0.68542E-02
         0.68542E-02
         0.68542E-02
         0.68542E-02
         0.68542E-02
         0.68542E-02
         0.68542E-02
         0.68542E-02
         0.68542E-02
         0.68542E-02
         0.68542E-02
         0.68542E-02
         0.68542E-02
         0.68542E-02
         0.68542E-02
         0.68542E-02
         0.68542E-02
         0.68542E-02
         0.68542E-02
         0.68542E-02
         0.68542E-02
         0.68542E-02
         0.68542E-02
         0.68542E-02
         0.68542E-02
         0.68542E-02
         0.68542E-02
         0.68542E-02
         0.68542E-02
         0.68542E-02
         0.68542E-02
         0.68542E-02
         0.68542E-02
         0.68542E-02
         0.68542E-02
         0.68542E-02
         0.68542E-02
         0.68542E-02
         0.68542E-02
         0.68542E-02
         0.68542E-02
         0.68542E-02
         0.68542E-02
         0.68542E-02
         0.68542E-02
         0.68542E-02
         0.68542E-02
         0.68542E-02
         0.68542E-02
         0.68542E-02
         0.68542E-02
         0.68542E-02
         0.68542E-02
         0.68542E-02
         0.68542E-02
         0.68542E-02
         0.78333E-02
         0.78333E-02
         0.78333E-02
         0.78333E-02
         0.78333E-02
         0.78333E-02
         0.78333E-02
         0.78333E-02
         0.78333E-02
         0.78333E-02
         0.78333E-02
         0.78333E-02
         0.78333E-02
         0.78333E-02
         0.78333E-02
         0.78333E-02
         0.78333E-02
         0.78333E-02
         0.78333E-02
         0.78333E-02
         0.78333E-02
         0.78333E-02
         0.78333E-02
         0.78333E-02
         0.78333E-02
         0.78333E-02
         0.78333E-02
         0.78333E-02
         0.78333E-02
         0.78333E-02
         0.78333E-02
         0.78333E-02
         0.78333E-02
         0.78333E-02
         0.78333E-02
         0.78333E-02
         0.78333E-02
         0.78333E-02
         0.78333E-02
         0.78333E-02
         0.78333E-02
         0.78333E-02
         0.78333E-02
         0.78333E-02
         0.78333E-02
         0.78333E-02
         0.78333E-02
         0.78333E-02
         0.78333E-02
         0.78333E-02
         0.78333E-02
         0.78333E-02
         0.78333E-02
         0.78333E-02
         0.78333E-02
         0.78333E-02
         0.78333E-02
         0.78333E-02
         0.78333E-02
         0.78333E-02
         0.78333E-02
         0.78333E-02
         0.78333E-02
         0.78333E-02
         0.78333E-02
         0.78333E-02
         0.78333E-02
         0.78333E-02
         0.78333E-02
         0.78333E-02
         0.78333E-02
         0.78333E-02
         0.78333E-02
         0.78333E-02
         0.78333E-02
         0.78333E-02
         0.78333E-02
         0.78333E-02
         0.88125E-02
         0.88125E-02
         0.88125E-02
         0.88125E-02
         0.88125E-02
         0.88125E-02
         0.88125E-02
         0.88125E-02
         0.88125E-02
         0.88125E-02
         0.88125E-02
         0.88125E-02
         0.88125E-02
         0.88125E-02
         0.88125E-02
         0.88125E-02
         0.88125E-02
         0.88125E-02
         0.88125E-02
         0.88125E-02
         0.88125E-02
         0.88125E-02
         0.88125E-02
         0.88125E-02
         0.88125E-02
         0.88125E-02
         0.88125E-02
         0.88125E-02
         0.88125E-02
         0.88125E-02
         0.88125E-02
         0.88125E-02
         0.88125E-02
         0.88125E-02
         0.88125E-02
         0.88125E-02
         0.88125E-02
         0.88125E-02
         0.88125E-02
         0.88125E-02
         0.88125E-02
         0.88125E-02
         0.88125E-02
         0.88125E-02
         0.88125E-02
         0.88125E-02
         0.88125E-02
         0.88125E-02
         0.88125E-02
         0.88125E-02
         0.88125E-02
         0.88125E-02
         0.88125E-02
         0.88125E-02
         0.88125E-02
         0.88125E-02
         0.88125E-02
         0.88125E-02
         0.88125E-02
         0.88125E-02
         0.88125E-02
         0.88125E-02
         0.88125E-02
         0.88125E-02
         0.88125E-02
         0.88125E-02
         0.88125E-02
         0.88125E-02
         0.88125E-02
         0.88125E-02
         0.88125E-02
         0.88125E-02
         0.88125E-02
         0.88125E-02
         0.88125E-02
         0.88125E-02
         0.88125E-02
         0.88125E-02
         0.97917E-02
         0.97917E-02
         0.97917E-02
         0.97917E-02
         0.97917E-02
         0.97917E-02
         0.97917E-02
         0.97917E-02
         0.97917E-02
         0.97917E-02
         0.97917E-02
         0.97917E-02
         0.97917E-02
         0.97917E-02
         0.97917E-02
         0.97917E-02
         0.97917E-02
         0.97917E-02
         0.97917E-02
         0.97917E-02
         0.97917E-02
         0.97917E-02
         0.97917E-02
         0.97917E-02
         0.97917E-02
         0.97917E-02
         0.97917E-02
         0.97917E-02
         0.97917E-02
         0.97917E-02
         0.97917E-02
         0.97917E-02
         0.97917E-02
         0.97917E-02
         0.97917E-02
         0.97917E-02
         0.97917E-02
         0.97917E-02
         0.97917E-02
         0.97917E-02
         0.97917E-02
         0.97917E-02
         0.97917E-02
         0.97917E-02
         0.97917E-02
         0.97917E-02
         0.97917E-02
         0.97917E-02
         0.97917E-02
         0.97917E-02
         0.97917E-02
         0.97917E-02
         0.97917E-02
         0.97917E-02
         0.97917E-02
         0.97917E-02
         0.97917E-02
         0.97917E-02
         0.97917E-02
         0.97917E-02
         0.97917E-02
         0.97917E-02
         0.97917E-02
         0.97917E-02
         0.97917E-02
         0.97917E-02
         0.97917E-02
         0.97917E-02
         0.97917E-02
         0.97917E-02
         0.97917E-02
         0.97917E-02
         0.97917E-02
         0.97917E-02
         0.97917E-02
         0.97917E-02
         0.97917E-02
         0.97917E-02
         0.10771E-01
         0.10771E-01
         0.10771E-01
         0.10771E-01
         0.10771E-01
         0.10771E-01
         0.10771E-01
         0.10771E-01
         0.10771E-01
         0.10771E-01
         0.10771E-01
         0.10771E-01
         0.10771E-01
         0.10771E-01
         0.10771E-01
         0.10771E-01
         0.10771E-01
         0.10771E-01
         0.10771E-01
         0.10771E-01
         0.10771E-01
         0.10771E-01
         0.10771E-01
         0.10771E-01
         0.10771E-01
         0.10771E-01
         0.10771E-01
         0.10771E-01
         0.10771E-01
         0.10771E-01
         0.10771E-01
         0.10771E-01
         0.10771E-01
         0.10771E-01
         0.10771E-01
         0.10771E-01
         0.10771E-01
         0.10771E-01
         0.10771E-01
         0.10771E-01
         0.10771E-01
         0.10771E-01
         0.10771E-01
         0.10771E-01
         0.10771E-01
         0.10771E-01
         0.10771E-01
         0.10771E-01
         0.10771E-01
         0.10771E-01
         0.10771E-01
         0.10771E-01
         0.10771E-01
         0.10771E-01
         0.10771E-01
         0.10771E-01
         0.10771E-01
         0.10771E-01
         0.10771E-01
         0.10771E-01
         0.10771E-01
         0.10771E-01
         0.10771E-01
         0.10771E-01
         0.10771E-01
         0.10771E-01
         0.10771E-01
         0.10771E-01
         0.10771E-01
         0.10771E-01
         0.10771E-01
         0.10771E-01
         0.10771E-01
         0.10771E-01
         0.10771E-01
         0.10771E-01
         0.10771E-01
         0.10771E-01
         0.11750E-01
         0.11750E-01
         0.11750E-01
         0.11750E-01
         0.11750E-01
         0.11750E-01
         0.11750E-01
         0.11750E-01
         0.11750E-01
         0.11750E-01
         0.11750E-01
         0.11750E-01
         0.11750E-01
         0.11750E-01
         0.11750E-01
         0.11750E-01
         0.11750E-01
         0.11750E-01
         0.11750E-01
         0.11750E-01
         0.11750E-01
         0.11750E-01
         0.11750E-01
         0.11750E-01
         0.11750E-01
         0.11750E-01
         0.11750E-01
         0.11750E-01
         0.11750E-01
         0.11750E-01
         0.11750E-01
         0.11750E-01
         0.11750E-01
         0.11750E-01
         0.11750E-01
         0.11750E-01
         0.11750E-01
         0.11750E-01
         0.11750E-01
         0.11750E-01
         0.11750E-01
         0.11750E-01
         0.11750E-01
         0.11750E-01
         0.11750E-01
         0.11750E-01
         0.11750E-01
         0.11750E-01
         0.11750E-01
         0.11750E-01
         0.11750E-01
         0.11750E-01
         0.11750E-01
         0.11750E-01
         0.11750E-01
         0.11750E-01
         0.11750E-01
         0.11750E-01
         0.11750E-01
         0.11750E-01
         0.11750E-01
         0.11750E-01
         0.11750E-01
         0.11750E-01
         0.11750E-01
         0.11750E-01
         0.11750E-01
         0.11750E-01
         0.11750E-01
         0.11750E-01
         0.11750E-01
         0.11750E-01
         0.11750E-01
         0.11750E-01
         0.11750E-01
         0.11750E-01
         0.11750E-01
         0.11750E-01
  
SCALARS                init_velocity_x  double 1
LOOKUP_TABLE default
         0.00000E+00
         0.00000E+00
         0.00000E+00
         0.00000E+00
         0.00000E+00
         0.00000E+00
         0.00000E+00
         0.00000E+00
         0.00000E+00
         0.00000E+00
         0.00000E+00
         0.00000E+00
         0.00000E+00
         0.00000E+00
         0.00000E+00
         0.00000E+00
         0.00000E+00
         0.00000E+00
         0.00000E+00
         0.00000E+00
         0.00000E+00
         0.00000E+00
         0.00000E+00
         0.00000E+00
         0.00000E+00
         0.00000E+00
         0.00000E+00
         0.00000E+00
         0.00000E+00
         0.00000E+00
         0.00000E+00
         0.00000E+00
         0.00000E+00
         0.00000E+00
         0.00000E+00
         0.00000E+00
         0.00000E+00
         0.00000E+00
         0.00000E+00
         0.00000E+00
         0.00000E+00
         0.00000E+00
         0.00000E+00
         0.00000E+00
         0.00000E+00
         0.00000E+00
         0.00000E+00
         0.00000E+00
         0.00000E+00
         0.00000E+00
         0.00000E+00
         0.00000E+00
         0.00000E+00
         0.00000E+00
         0.00000E+00
         0.00000E+00
         0.00000E+00
         0.00000E+00
         0.00000E+00
         0.00000E+00
         0.00000E+00
         0.00000E+00
         0.00000E+00
         0.00000E+00
         0.00000E+00
         0.00000E+00
         0.00000E+00
         0.00000E+00
         0.00000E+00
         0.00000E+00
         0.00000E+00
         0.00000E+00
         0.00000E+00
         0.00000E+00
         0.00000E+00
         0.00000E+00
         0.00000E+00
         0.00000E+00
         0.00000E+00
         0.00000E+00
         0.00000E+00
         0.00000E+00
         0.00000E+00
         0.00000E+00
         0.00000E+00
         0.00000E+00
         0.00000E+00
         0.00000E+00
         0.00000E+00
         0.00000E+00
         0.00000E+00
         0.00000E+00
         0.00000E+00
         0.00000E+00
         0.00000E+00
         0.00000E+00
         0.00000E+00
         0.00000E+00
         0.00000E+00
         0.00000E+00
         0.00000E+00
         0.00000E+00
         0.00000E+00
         0.00000E+00
         0.00000E+00
         0.00000E+00
         0.00000E+00
         0.00000E+00
         0.00000E+00
         0.00000E+00
         0.00000E+00
         0.00000E+00
         0.00000E+00
         0.00000E+00
         0.00000E+00
         0.00000E+00
         0.00000E+00
         0.00000E+00
         0.00000E+00
         0.00000E+00
         0.00000E+00
         0.00000E+00
         0.00000E+00
         0.00000E+00
         0.00000E+00
         0.00000E+00
         0.00000E+00
         0.00000E+00
         0.00000E+00
         0.00000E+00
         0.00000E+00
         0.00000E+00
         0.00000E+00
         0.00000E+00
         0.00000E+00
         0.00000E+00
         0.00000E+00
         0.00000E+00
         0.00000E+00
         0.00000E+00
         0.00000E+00
         0.00000E+00
         0.00000E+00
         0.00000E+00
         0.00000E+00
         0.00000E+00
         0.00000E+00
         0.00000E+00
         0.00000E+00
         0.00000E+00
         0.00000E+00
         0.00000E+00
         0.00000E+00
         0.00000E+00
         0.00000E+00
         0.00000E+00
         0.00000E+00
         0.00000E+00
         0.00000E+00
         0.00000E+00
         0.00000E+00
         0.00000E+00
         0.00000E+00
         0.00000E+00
         0.00000E+00
         0.00000E+00
         0.00000E+00
         0.00000E+00
         0.00000E+00
         0.00000E+00
         0.00000E+00
         0.00000E+00
         0.00000E+00
         0.00000E+00
         0.00000E+00
         0.00000E+00
         0.00000E+00
         0.00000E+00
         0.00000E+00
         0.00000E+00
         0.00000E+00
         0.00000E+00
         0.00000E+00
         0.00000E+00
         0.00000E+00
         0.00000E+00
         0.00000E+00
         0.00000E+00
         0.00000E+00
         0.00000E+00
         0.00000E+00
         0.00000E+00
         0.00000E+00
         0.00000E+00
         0.00000E+00
         0.00000E+00
         0.00000E+00
         0.00000E+00
         0.00000E+00
         0.00000E+00
         0.00000E+00
         0.00000E+00
         0.00000E+00
         0.00000E+00
         0.00000E+00
         0.00000E+00
         0.00000E+00
         0.00000E+00
         0.00000E+00
         0.00000E+00
         0.00000E+00
         0.00000E+00
         0.00000E+00
         0.00000E+00
         0.00000E+00
         0.00000E+00
         0.00000E+00
         0.00000E+00
         0.00000E+00
         0.00000E+00
         0.00000E+00
         0.00000E+00
         0.00000E+00
         0.00000E+00
         0.00000E+00
         0.00000E+00
         0.00000E+00
         0.00000E+00
         0.00000E+00
         0.00000E+00
         0.00000E+00
         0.00000E+00
         0.00000E+00
         0.00000E+00
         0.00000E+00
         0.00000E+00
         0.00000E+00
         0.00000E+00
         0.00000E+00
         0.00000E+00
         0.00000E+00
         0.00000E+00
         0.00000E+00
         0.00000E+00
         0.00000E+00
         0.00000E+00
         0.00000E+00
         0.00000E+00
         0.00000E+00
         0.00000E+00
         0.00000E+00
         0.00000E+00
         0.00000E+00
         0.00000E+00
         0.00000E+00
         0.00000E+00
         0.00000E+00
         0.00000E+00
         0.00000E+00
         0.00000E+00
         0.00000E+00
         0.00000E+00
         0.00000E+00
         0.00000E+00
         0.00000E+00
         0.00000E+00
         0.00000E+00
         0.00000E+00
         0.00000E+00
         0.00000E+00
         0.00000E+00
         0.00000E+00
         0.00000E+00
         0.00000E+00
         0.00000E+00
         0.00000E+00
         0.00000E+00
         0.00000E+00
         0.00000E+00
         0.00000E+00
         0.00000E+00
         0.00000E+00
         0.00000E+00
         0.00000E+00
         0.00000E+00
         0.00000E+00
         0.00000E+00
         0.00000E+00
         0.00000E+00
         0.00000E+00
         0.00000E+00
         0.00000E+00
         0.00000E+00
         0.00000E+00
         0.00000E+00
         0.00000E+00
         0.00000E+00
         0.00000E+00
         0.00000E+00
         0.00000E+00
         0.00000E+00
         0.00000E+00
         0.00000E+00
         0.00000E+00
         0.00000E+00
         0.00000E+00
         0.00000E+00
         0.00000E+00
         0.00000E+00
         0.00000E+00
         0.00000E+00
         0.00000E+00
         0.00000E+00
         0.00000E+00
         0.00000E+00
         0.00000E+00
         0.00000E+00
         0.00000E+00
         0.00000E+00
         0.00000E+00
         0.00000E+00
         0.00000E+00
         0.00000E+00
         0.00000E+00
         0.00000E+00
         0.00000E+00
         0.00000E+00
         0.00000E+00
         0.00000E+00
         0.00000E+00
         0.00000E+00
         0.00000E+00
         0.00000E+00
         0.00000E+00
         0.00000E+00
         0.00000E+00
         0.00000E+00
         0.00000E+00
         0.00000E+00
         0.00000E+00
         0.00000E+00
         0.00000E+00
         0.00000E+00
         0.00000E+00
         0.00000E+00
         0.00000E+00
         0.00000E+00
         0.00000E+00
         0.00000E+00
         0.00000E+00
         0.00000E+00
         0.00000E+00
         0.00000E+00
         0.00000E+00
         0.00000E+00
         0.00000E+00
         0.00000E+00
         0.00000E+00
         0.00000E+00
         0.00000E+00
         0.00000E+00
         0.00000E+00
         0.00000E+00
         0.00000E+00
         0.00000E+00
         0.00000E+00
         0.00000E+00
         0.00000E+00
         0.00000E+00
         0.00000E+00
         0.00000E+00
         0.00000E+00
         0.00000E+00
         0.00000E+00
         0.00000E+00
         0.00000E+00
         0.00000E+00
         0.00000E+00
         0.00000E+00
         0.00000E+00
         0.00000E+00
         0.00000E+00
         0.00000E+00
         0.00000E+00
         0.00000E+00
         0.00000E+00
         0.00000E+00
         0.00000E+00
         0.00000E+00
         0.00000E+00
         0.00000E+00
         0.00000E+00
         0.00000E+00
         0.00000E+00
         0.00000E+00
         0.00000E+00
         0.00000E+00
         0.00000E+00
         0.00000E+00
         0.00000E+00
         0.00000E+00
         0.00000E+00
         0.00000E+00
         0.00000E+00
         0.00000E+00
         0.00000E+00
         0.00000E+00
         0.00000E+00
         0.00000E+00
         0.00000E+00
         0.00000E+00
         0.00000E+00
         0.00000E+00
         0.00000E+00
         0.00000E+00
         0.00000E+00
         0.00000E+00
         0.00000E+00
         0.00000E+00
         0.00000E+00
         0.00000E+00
         0.00000E+00
         0.00000E+00
         0.00000E+00
         0.00000E+00
         0.00000E+00
         0.00000E+00
         0.00000E+00
         0.00000E+00
         0.00000E+00
         0.00000E+00
         0.00000E+00
         0.00000E+00
         0.00000E+00
         0.00000E+00
         0.00000E+00
         0.00000E+00
         0.00000E+00
         0.00000E+00
         0.00000E+00
         0.00000E+00
         0.00000E+00
         0.00000E+00
         0.00000E+00
         0.00000E+00
         0.00000E+00
         0.00000E+00
         0.00000E+00
         0.00000E+00
         0.00000E+00
         0.00000E+00
         0.00000E+00
         0.00000E+00
         0.00000E+00
         0.00000E+00
         0.00000E+00
         0.00000E+00
         0.00000E+00
         0.00000E+00
         0.00000E+00
         0.00000E+00
         0.00000E+00
         0.00000E+00
         0.00000E+00
         0.00000E+00
         0.00000E+00
         0.00000E+00
         0.00000E+00
         0.00000E+00
         0.00000E+00
         0.00000E+00
         0.00000E+00
         0.00000E+00
         0.00000E+00
         0.00000E+00
         0.00000E+00
         0.00000E+00
         0.00000E+00
         0.00000E+00
         0.00000E+00
         0.00000E+00
         0.00000E+00
         0.00000E+00
         0.00000E+00
         0.00000E+00
         0.00000E+00
         0.00000E+00
         0.00000E+00
         0.00000E+00
         0.00000E+00
         0.00000E+00
         0.00000E+00
         0.00000E+00
         0.00000E+00
         0.00000E+00
         0.00000E+00
         0.00000E+00
         0.00000E+00
         0.00000E+00
         0.00000E+00
         0.00000E+00
         0.00000E+00
         0.00000E+00
         0.00000E+00
         0.00000E+00
         0.00000E+00
         0.00000E+00
         0.00000E+00
         0.00000E+00
         0.00000E+00
         0.00000E+00
         0.00000E+00
         0.00000E+00
         0.00000E+00
         0.00000E+00
         0.00000E+00
         0.00000E+00
         0.00000E+00
         0.00000E+00
         0.00000E+00
         0.00000E+00
         0.00000E+00
         0.00000E+00
         0.00000E+00
         0.00000E+00
         0.00000E+00
         0.00000E+00
         0.00000E+00
         0.00000E+00
         0.00000E+00
         0.00000E+00
         0.00000E+00
         0.00000E+00
         0.00000E+00
         0.00000E+00
         0.00000E+00
         0.00000E+00
         0.00000E+00
         0.00000E+00
         0.00000E+00
         0.00000E+00
         0.00000E+00
         0.00000E+00
         0.00000E+00
         0.00000E+00
         0.00000E+00
         0.00000E+00
         0.00000E+00
         0.00000E+00
         0.00000E+00
         0.00000E+00
         0.00000E+00
         0.00000E+00
         0.00000E+00
         0.00000E+00
         0.00000E+00
         0.00000E+00
         0.00000E+00
         0.00000E+00
         0.00000E+00
         0.00000E+00
         0.00000E+00
         0.00000E+00
         0.00000E+00
         0.00000E+00
         0.00000E+00
         0.00000E+00
         0.00000E+00
         0.00000E+00
         0.00000E+00
         0.00000E+00
         0.00000E+00
         0.00000E+00
         0.00000E+00
         0.00000E+00
         0.00000E+00
         0.00000E+00
         0.00000E+00
         0.00000E+00
         0.00000E+00
         0.00000E+00
         0.00000E+00
         0.00000E+00
         0.00000E+00
         0.00000E+00
         0.00000E+00
         0.00000E+00
         0.00000E+00
         0.00000E+00
         0.00000E+00
         0.00000E+00
         0.00000E+00
         0.00000E+00
         0.00000E+00
         0.00000E+00
         0.00000E+00
         0.00000E+00
         0.00000E+00
         0.00000E+00
         0.00000E+00
         0.00000E+00
         0.00000E+00
         0.00000E+00
         0.00000E+00
         0.00000E+00
         0.00000E+00
         0.00000E+00
         0.00000E+00
         0.00000E+00
         0.00000E+00
         0.00000E+00
         0.00000E+00
         0.00000E+00
         0.00000E+00
         0.00000E+00
         0.00000E+00
         0.00000E+00
         0.00000E+00
         0.00000E+00
         0.00000E+00
         0.00000E+00
         0.00000E+00
         0.00000E+00
         0.00000E+00
         0.00000E+00
         0.00000E+00
         0.00000E+00
         0.00000E+00
         0.00000E+00
         0.00000E+00
         0.00000E+00
         0.00000E+00
         0.00000E+00
         0.00000E+00
         0.00000E+00
         0.00000E+00
         0.00000E+00
         0.00000E+00
         0.00000E+00
         0.00000E+00
         0.00000E+00
         0.00000E+00
         0.00000E+00
         0.00000E+00
         0.00000E+00
         0.00000E+00
         0.00000E+00
         0.00000E+00
         0.00000E+00
         0.00000E+00
         0.00000E+00
         0.00000E+00
         0.00000E+00
         0.00000E+00
         0.00000E+00
         0.00000E+00
         0.00000E+00
         0.00000E+00
         0.00000E+00
         0.00000E+00
         0.00000E+00
         0.00000E+00
         0.00000E+00
         0.00000E+00
         0.00000E+00
         0.00000E+00
         0.00000E+00
         0.00000E+00
         0.00000E+00
         0.00000E+00
         0.00000E+00
         0.00000E+00
         0.00000E+00
         0.00000E+00
         0.00000E+00
         0.00000E+00
         0.00000E+00
         0.00000E+00
         0.00000E+00
         0.00000E+00
         0.00000E+00
         0.00000E+00
         0.00000E+00
         0.00000E+00
         0.00000E+00
         0.00000E+00
         0.00000E+00
         0.00000E+00
         0.00000E+00
         0.00000E+00
         0.00000E+00
         0.00000E+00
         0.00000E+00
         0.00000E+00
         0.00000E+00
         0.00000E+00
         0.00000E+00
         0.00000E+00
         0.00000E+00
         0.00000E+00
         0.00000E+00
         0.00000E+00
         0.00000E+00
         0.00000E+00
         0.00000E+00
         0.00000E+00
         0.00000E+00
         0.00000E+00
         0.00000E+00
         0.00000E+00
         0.00000E+00
         0.00000E+00
         0.00000E+00
         0.00000E+00
         0.00000E+00
         0.00000E+00
         0.00000E+00
         0.00000E+00
         0.00000E+00
         0.00000E+00
         0.00000E+00
         0.00000E+00
         0.00000E+00
         0.00000E+00
         0.00000E+00
         0.00000E+00
         0.00000E+00
         0.00000E+00
         0.00000E+00
         0.00000E+00
         0.00000E+00
         0.00000E+00
         0.00000E+00
         0.00000E+00
         0.00000E+00
         0.00000E+00
         0.00000E+00
         0.00000E+00
         0.00000E+00
         0.00000E+00
         0.00000E+00
         0.00000E+00
         0.00000E+00
         0.00000E+00
         0.00000E+00
         0.00000E+00
         0.00000E+00
         0.00000E+00
         0.00000E+00
         0.00000E+00
         0.00000E+00
         0.00000E+00
         0.00000E+00
         0.00000E+00
         0.00000E+00
         0.00000E+00
         0.00000E+00
         0.00000E+00
         0.00000E+00
         0.00000E+00
         0.00000E+00
         0.00000E+00
         0.00000E+00
         0.00000E+00
         0.00000E+00
         0.00000E+00
         0.00000E+00
         0.00000E+00
         0.00000E+00
         0.00000E+00
         0.00000E+00
         0.00000E+00
         0.00000E+00
         0.00000E+00
         0.00000E+00
         0.00000E+00
         0.00000E+00
         0.00000E+00
         0.00000E+00
         0.00000E+00
         0.00000E+00
         0.00000E+00
         0.00000E+00
         0.00000E+00
         0.00000E+00
         0.00000E+00
         0.00000E+00
         0.00000E+00
         0.00000E+00
         0.00000E+00
         0.00000E+00
         0.00000E+00
         0.00000E+00
         0.00000E+00
         0.00000E+00
         0.00000E+00
         0.00000E+00
         0.00000E+00
         0.00000E+00
         0.00000E+00
         0.00000E+00
         0.00000E+00
         0.00000E+00
         0.00000E+00
         0.00000E+00
         0.00000E+00
         0.00000E+00
         0.00000E+00
         0.00000E+00
         0.00000E+00
         0.00000E+00
         0.00000E+00
         0.00000E+00
         0.00000E+00
         0.00000E+00
         0.00000E+00
         0.00000E+00
         0.00000E+00
         0.00000E+00
         0.00000E+00
         0.00000E+00
         0.00000E+00
         0.00000E+00
         0.00000E+00
         0.00000E+00
         0.00000E+00
         0.00000E+00
         0.00000E+00
         0.00000E+00
         0.00000E+00
         0.00000E+00
         0.00000E+00
         0.00000E+00
         0.00000E+00
         0.00000E+00
         0.00000E+00
         0.00000E+00
         0.00000E+00
         0.00000E+00
         0.00000E+00
         0.00000E+00
         0.00000E+00
         0.00000E+00
         0.00000E+00
         0.00000E+00
         0.00000E+00
         0.00000E+00
         0.00000E+00
         0.00000E+00
         0.00000E+00
         0.00000E+00
         0.00000E+00
         0.00000E+00
         0.00000E+00
         0.00000E+00
         0.00000E+00
         0.00000E+00
         0.00000E+00
         0.00000E+00
         0.00000E+00
         0.00000E+00
         0.00000E+00
         0.00000E+00
         0.00000E+00
         0.00000E+00
         0.00000E+00
         0.00000E+00
         0.00000E+00
         0.00000E+00
         0.00000E+00
         0.00000E+00
         0.00000E+00
         0.00000E+00
         0.00000E+00
         0.00000E+00
         0.00000E+00
         0.00000E+00
         0.00000E+00
         0.00000E+00
         0.00000E+00
         0.00000E+00
         0.00000E+00
         0.00000E+00
         0.00000E+00
         0.00000E+00
         0.00000E+00
         0.00000E+00
         0.00000E+00
         0.00000E+00
         0.00000E+00
         0.00000E+00
         0.00000E+00
         0.00000E+00
         0.00000E+00
         0.00000E+00
         0.00000E+00
         0.00000E+00
         0.00000E+00
         0.00000E+00
         0.00000E+00
         0.00000E+00
         0.00000E+00
         0.00000E+00
         0.00000E+00
         0.00000E+00
         0.00000E+00
         0.00000E+00
         0.00000E+00
         0.00000E+00
         0.00000E+00
         0.00000E+00
         0.00000E+00
         0.00000E+00
         0.00000E+00
         0.00000E+00
         0.00000E+00
         0.00000E+00
         0.00000E+00
         0.00000E+00
         0.00000E+00
         0.00000E+00
         0.00000E+00
         0.00000E+00
         0.00000E+00
         0.00000E+00
         0.00000E+00
         0.00000E+00
         0.00000E+00
         0.00000E+00
         0.00000E+00
         0.00000E+00
         0.00000E+00
         0.00000E+00
         0.00000E+00
         0.00000E+00
         0.00000E+00
         0.00000E+00
         0.00000E+00
         0.00000E+00
         0.00000E+00
         0.00000E+00
         0.00000E+00
         0.00000E+00
         0.00000E+00
         0.00000E+00
         0.00000E+00
         0.00000E+00
         0.00000E+00
         0.00000E+00
         0.00000E+00
         0.00000E+00
         0.00000E+00
         0.00000E+00
         0.00000E+00
         0.00000E+00
         0.00000E+00
         0.00000E+00
         0.00000E+00
         0.00000E+00
         0.00000E+00
         0.00000E+00
         0.00000E+00
         0.00000E+00
         0.00000E+00
         0.00000E+00
         0.00000E+00
         0.00000E+00
         0.00000E+00
         0.00000E+00
         0.00000E+00
         0.00000E+00
         0.00000E+00
         0.00000E+00
         0.00000E+00
         0.00000E+00
         0.00000E+00
         0.00000E+00
         0.00000E+00
         0.00000E+00
         0.00000E+00
         0.00000E+00
         0.00000E+00
         0.00000E+00
         0.00000E+00
         0.00000E+00
         0.00000E+00
         0.00000E+00
         0.00000E+00
         0.00000E+00
         0.00000E+00
         0.00000E+00
         0.00000E+00
         0.00000E+00
         0.00000E+00
         0.00000E+00
         0.00000E+00
         0.00000E+00
         0.00000E+00
         0.00000E+00
         0.00000E+00
         0.00000E+00
         0.00000E+00
         0.00000E+00
         0.00000E+00
         0.00000E+00
         0.00000E+00
         0.00000E+00
         0.00000E+00
         0.00000E+00
         0.00000E+00
         0.00000E+00
         0.00000E+00
         0.00000E+00
         0.00000E+00
         0.00000E+00
         0.00000E+00
         0.00000E+00
         0.00000E+00
         0.00000E+00
         0.00000E+00
         0.00000E+00
         0.00000E+00
         0.00000E+00
         0.00000E+00
         0.00000E+00
         0.00000E+00
         0.00000E+00
         0.00000E+00
         0.00000E+00
         0.00000E+00
         0.00000E+00
         0.00000E+00
         0.00000E+00
         0.00000E+00
         0.00000E+00
         0.00000E+00
         0.00000E+00
         0.00000E+00
         0.00000E+00
         0.00000E+00
         0.00000E+00
         0.00000E+00
         0.00000E+00
         0.00000E+00
         0.00000E+00
         0.00000E+00
         0.00000E+00
         0.00000E+00
         0.00000E+00
         0.00000E+00
         0.00000E+00
         0.00000E+00
         0.00000E+00
         0.00000E+00
         0.00000E+00
         0.00000E+00
         0.00000E+00
         0.00000E+00
         0.00000E+00
         0.00000E+00
         0.00000E+00
         0.00000E+00
         0.00000E+00
         0.00000E+00
         0.00000E+00
         0.00000E+00
         0.00000E+00
         0.00000E+00
         0.00000E+00
         0.00000E+00
         0.00000E+00
         0.00000E+00
         0.00000E+00
         0.00000E+00
         0.00000E+00
         0.00000E+00
         0.00000E+00
         0.00000E+00
         0.00000E+00
         0.00000E+00
         0.00000E+00
         0.00000E+00
         0.00000E+00
         0.00000E+00
         0.00000E+00
         0.00000E+00
         0.00000E+00
         0.00000E+00
         0.00000E+00
         0.00000E+00
         0.00000E+00
         0.00000E+00
         0.00000E+00
         0.00000E+00
         0.00000E+00
         0.00000E+00
         0.00000E+00
         0.00000E+00
         0.00000E+00
         0.00000E+00
         0.00000E+00
         0.00000E+00
         0.00000E+00
         0.00000E+00
         0.00000E+00
         0.00000E+00
         0.00000E+00
         0.00000E+00
         0.00000E+00
         0.00000E+00
         0.00000E+00
         0.00000E+00
         0.00000E+00
         0.00000E+00
         0.00000E+00
         0.00000E+00
         0.00000E+00
         0.00000E+00
         0.00000E+00
         0.00000E+00
         0.00000E+00
         0.00000E+00
         0.00000E+00
         0.00000E+00
         0.00000E+00
         0.00000E+00
         0.00000E+00
         0.00000E+00
         0.00000E+00
         0.00000E+00
         0.00000E+00
         0.00000E+00
         0.00000E+00
         0.00000E+00
         0.00000E+00
         0.00000E+00
         0.00000E+00
         0.00000E+00
         0.00000E+00
         0.00000E+00
         0.00000E+00
         0.00000E+00
         0.00000E+00
         0.00000E+00
         0.00000E+00
         0.00000E+00
         0.00000E+00
         0.00000E+00
         0.00000E+00
         0.00000E+00
         0.00000E+00
         0.00000E+00
         0.00000E+00
         0.00000E+00
         0.00000E+00
         0.00000E+00
         0.00000E+00
         0.00000E+00
         0.00000E+00
         0.00000E+00
         0.00000E+00
         0.00000E+00
         0.00000E+00
         0.00000E+00
         0.00000E+00
         0.00000E+00
         0.00000E+00
         0.00000E+00
         0.00000E+00
         0.00000E+00
         0.00000E+00
         0.00000E+00
         0.00000E+00
         0.00000E+00
         0.00000E+00
         0.00000E+00
         0.00000E+00
         0.00000E+00
         0.00000E+00
         0.00000E+00
         0.00000E+00
         0.00000E+00
         0.00000E+00
         0.00000E+00
         0.00000E+00
         0.00000E+00
         0.00000E+00
         0.00000E+00
         0.00000E+00
         0.00000E+00
         0.00000E+00
         0.00000E+00
         0.00000E+00
         0.00000E+00
         0.00000E+00
         0.00000E+00
         0.00000E+00
         0.00000E+00
         0.00000E+00
         0.00000E+00
         0.00000E+00
         0.00000E+00
         0.00000E+00
         0.00000E+00
         0.00000E+00
         0.00000E+00
         0.00000E+00
         0.00000E+00
         0.00000E+00
         0.00000E+00
         0.00000E+00
         0.00000E+00
         0.00000E+00
         0.00000E+00
         0.00000E+00
         0.00000E+00
         0.00000E+00
         0.00000E+00
         0.00000E+00
         0.00000E+00
         0.00000E+00
         0.00000E+00
         0.00000E+00
         0.00000E+00
         0.00000E+00
         0.00000E+00
         0.00000E+00
         0.00000E+00
         0.00000E+00
         0.00000E+00
         0.00000E+00
         0.00000E+00
         0.00000E+00
         0.00000E+00
         0.00000E+00
         0.00000E+00
         0.00000E+00
         0.00000E+00
         0.00000E+00
         0.00000E+00
         0.00000E+00
         0.00000E+00
         0.00000E+00
         0.00000E+00
         0.00000E+00
         0.00000E+00
         0.00000E+00
         0.00000E+00
         0.00000E+00
         0.00000E+00
         0.00000E+00
         0.00000E+00
         0.00000E+00
         0.00000E+00
         0.00000E+00
         0.00000E+00
         0.00000E+00
         0.00000E+00
         0.00000E+00
         0.00000E+00
         0.00000E+00
         0.00000E+00
         0.00000E+00
         0.00000E+00
         0.00000E+00
         0.00000E+00
         0.00000E+00
         0.00000E+00
         0.00000E+00
         0.00000E+00
         0.00000E+00
         0.00000E+00
         0.00000E+00
         0.00000E+00
         0.00000E+00
         0.00000E+00
         0.00000E+00
         0.00000E+00
         0.00000E+00
         0.00000E+00
         0.00000E+00
         0.00000E+00
         0.00000E+00
         0.00000E+00
         0.00000E+00
         0.00000E+00
         0.00000E+00
         0.00000E+00
         0.00000E+00
         0.00000E+00
         0.00000E+00
         0.00000E+00
         0.00000E+00
         0.00000E+00
         0.00000E+00
         0.00000E+00
         0.00000E+00
         0.00000E+00
         0.00000E+00
         0.00000E+00
         0.00000E+00
         0.00000E+00
         0.00000E+00
         0.00000E+00
         0.00000E+00
         0.00000E+00
         0.00000E+00
         0.00000E+00
         0.00000E+00
         0.00000E+00
         0.00000E+00
         0.00000E+00
         0.00000E+00
         0.00000E+00
         0.00000E+00
         0.00000E+00
         0.00000E+00
         0.00000E+00
         0.00000E+00
         0.00000E+00
         0.00000E+00
         0.00000E+00
         0.00000E+00
         0.00000E+00
         0.00000E+00
         0.00000E+00
         0.00000E+00
         0.00000E+00
         0.00000E+00
         0.00000E+00
         0.00000E+00
         0.00000E+00
         0.00000E+00
         0.00000E+00
         0.00000E+00
         0.00000E+00
         0.00000E+00
         0.00000E+00
         0.00000E+00
         0.00000E+00
         0.00000E+00
         0.00000E+00
         0.00000E+00
         0.00000E+00
         0.00000E+00
         0.00000E+00
         0.00000E+00
         0.00000E+00
         0.00000E+00
         0.00000E+00
         0.00000E+00
         0.00000E+00
         0.00000E+00
         0.00000E+00
         0.00000E+00
         0.00000E+00
         0.00000E+00
         0.00000E+00
         0.00000E+00
         0.00000E+00
         0.00000E+00
         0.00000E+00
         0.00000E+00
         0.00000E+00
         0.00000E+00
         0.00000E+00
         0.00000E+00
         0.00000E+00
         0.00000E+00
         0.00000E+00
         0.00000E+00
         0.00000E+00
         0.00000E+00
         0.00000E+00
         0.00000E+00
         0.00000E+00
         0.00000E+00
         0.00000E+00
         0.00000E+00
         0.00000E+00
         0.00000E+00
         0.00000E+00
         0.00000E+00
         0.00000E+00
         0.00000E+00
         0.00000E+00
         0.00000E+00
         0.00000E+00
         0.00000E+00
         0.00000E+00
         0.00000E+00
         0.00000E+00
         0.00000E+00
         0.00000E+00
         0.00000E+00
         0.00000E+00
         0.00000E+00
         0.00000E+00
         0.00000E+00
         0.00000E+00
         0.00000E+00
         0.00000E+00
         0.00000E+00
         0.00000E+00
         0.00000E+00
         0.00000E+00
         0.00000E+00
         0.00000E+00
         0.00000E+00
         0.00000E+00
         0.00000E+00
         0.00000E+00
         0.00000E+00
         0.00000E+00
         0.00000E+00
         0.00000E+00
         0.00000E+00
         0.00000E+00
         0.00000E+00
         0.00000E+00
         0.00000E+00
         0.00000E+00
         0.00000E+00
         0.00000E+00
         0.00000E+00
         0.00000E+00
         0.00000E+00
         0.00000E+00
         0.00000E+00
         0.00000E+00
         0.00000E+00
         0.00000E+00
         0.00000E+00
         0.00000E+00
         0.00000E+00
         0.00000E+00
         0.00000E+00
         0.00000E+00
         0.00000E+00
         0.00000E+00
         0.00000E+00
         0.00000E+00
         0.00000E+00
         0.00000E+00
         0.00000E+00
         0.00000E+00
         0.00000E+00
         0.00000E+00
         0.00000E+00
         0.00000E+00
         0.00000E+00
         0.00000E+00
         0.00000E+00
         0.00000E+00
         0.00000E+00
         0.00000E+00
         0.00000E+00
         0.00000E+00
         0.00000E+00
         0.00000E+00
         0.00000E+00
         0.00000E+00
         0.00000E+00
         0.00000E+00
         0.00000E+00
         0.00000E+00
         0.00000E+00
         0.00000E+00
         0.00000E+00
         0.00000E+00
         0.00000E+00
         0.00000E+00
         0.00000E+00
         0.00000E+00
         0.00000E+00
         0.00000E+00
         0.00000E+00
         0.00000E+00
         0.00000E+00
         0.00000E+00
         0.00000E+00
         0.00000E+00
         0.00000E+00
         0.00000E+00
         0.00000E+00
         0.00000E+00
         0.00000E+00
         0.00000E+00
         0.00000E+00
         0.00000E+00
         0.00000E+00
         0.00000E+00
         0.00000E+00
         0.00000E+00
         0.00000E+00
         0.00000E+00
         0.00000E+00
         0.00000E+00
         0.00000E+00
         0.00000E+00
         0.00000E+00
         0.00000E+00
         0.00000E+00
         0.00000E+00
         0.00000E+00
         0.00000E+00
         0.00000E+00
         0.00000E+00
         0.00000E+00
         0.00000E+00
         0.00000E+00
         0.00000E+00
         0.00000E+00
         0.00000E+00
         0.00000E+00
         0.00000E+00
         0.00000E+00
         0.00000E+00
         0.00000E+00
         0.00000E+00
         0.00000E+00
         0.00000E+00
         0.00000E+00
         0.00000E+00
         0.00000E+00
         0.00000E+00
         0.00000E+00
         0.00000E+00
         0.00000E+00
         0.00000E+00
         0.00000E+00
         0.00000E+00
         0.00000E+00
         0.00000E+00
         0.00000E+00
         0.00000E+00
         0.00000E+00
         0.00000E+00
         0.00000E+00
         0.00000E+00
         0.00000E+00
         0.00000E+00
         0.00000E+00
         0.00000E+00
         0.00000E+00
         0.00000E+00
         0.00000E+00
         0.00000E+00
         0.00000E+00
         0.00000E+00
         0.00000E+00
         0.00000E+00
         0.00000E+00
         0.00000E+00
         0.00000E+00
         0.00000E+00
         0.00000E+00
         0.00000E+00
         0.00000E+00
         0.00000E+00
         0.00000E+00
         0.00000E+00
         0.00000E+00
         0.00000E+00
         0.00000E+00
         0.00000E+00
         0.00000E+00
         0.00000E+00
         0.00000E+00
         0.00000E+00
         0.00000E+00
         0.00000E+00
         0.00000E+00
         0.00000E+00
         0.00000E+00
         0.00000E+00
         0.00000E+00
         0.00000E+00
         0.00000E+00
         0.00000E+00
         0.00000E+00
         0.00000E+00
         0.00000E+00
         0.00000E+00
         0.00000E+00
         0.00000E+00
         0.00000E+00
         0.00000E+00
         0.00000E+00
         0.00000E+00
         0.00000E+00
         0.00000E+00
         0.00000E+00
         0.00000E+00
         0.00000E+00
         0.00000E+00
         0.00000E+00
         0.00000E+00
         0.00000E+00
         0.00000E+00
         0.00000E+00
         0.00000E+00
         0.00000E+00
         0.00000E+00
         0.00000E+00
         0.00000E+00
         0.00000E+00
         0.00000E+00
         0.00000E+00
         0.00000E+00
         0.00000E+00
         0.00000E+00
         0.00000E+00
         0.00000E+00
         0.00000E+00
         0.00000E+00
         0.00000E+00
         0.00000E+00
         0.00000E+00
         0.00000E+00
         0.00000E+00
         0.00000E+00
         0.00000E+00
         0.00000E+00
         0.00000E+00
         0.00000E+00
         0.00000E+00
         0.00000E+00
         0.00000E+00
         0.00000E+00
         0.00000E+00
         0.00000E+00
         0.00000E+00
         0.00000E+00
         0.00000E+00
         0.00000E+00
         0.00000E+00
         0.00000E+00
         0.00000E+00
         0.00000E+00
         0.00000E+00
         0.00000E+00
         0.00000E+00
         0.00000E+00
         0.00000E+00
         0.00000E+00
         0.00000E+00
         0.00000E+00
         0.00000E+00
         0.00000E+00
         0.00000E+00
         0.00000E+00
         0.00000E+00
         0.00000E+00
         0.00000E+00
         0.00000E+00
         0.00000E+00
         0.00000E+00
         0.00000E+00
         0.00000E+00
         0.00000E+00
         0.00000E+00
         0.00000E+00
         0.00000E+00
         0.00000E+00
         0.00000E+00
         0.00000E+00
         0.00000E+00
         0.00000E+00
         0.00000E+00
         0.00000E+00
         0.00000E+00
         0.00000E+00
         0.00000E+00
         0.00000E+00
         0.00000E+00
         0.00000E+00
         0.00000E+00
         0.00000E+00
         0.00000E+00
         0.00000E+00
         0.00000E+00
         0.00000E+00
         0.00000E+00
         0.00000E+00
         0.00000E+00
         0.00000E+00
         0.00000E+00
         0.00000E+00
         0.00000E+00
         0.00000E+00
         0.00000E+00
         0.00000E+00
         0.00000E+00
         0.00000E+00
         0.00000E+00
         0.00000E+00
         0.00000E+00
         0.00000E+00
         0.00000E+00
         0.00000E+00
         0.00000E+00
         0.00000E+00
         0.00000E+00
         0.00000E+00
         0.00000E+00
         0.00000E+00
         0.00000E+00
         0.00000E+00
         0.00000E+00
         0.00000E+00
         0.00000E+00
         0.00000E+00
         0.00000E+00
         0.00000E+00
         0.00000E+00
         0.00000E+00
         0.00000E+00
         0.00000E+00
         0.00000E+00
         0.00000E+00
         0.00000E+00
         0.00000E+00
         0.00000E+00
         0.00000E+00
         0.00000E+00
         0.00000E+00
         0.00000E+00
         0.00000E+00
         0.00000E+00
         0.00000E+00
         0.00000E+00
         0.00000E+00
         0.00000E+00
         0.00000E+00
         0.00000E+00
         0.00000E+00
         0.00000E+00
         0.00000E+00
         0.00000E+00
         0.00000E+00
         0.00000E+00
         0.00000E+00
         0.00000E+00
         0.00000E+00
         0.00000E+00
         0.00000E+00
         0.00000E+00
         0.00000E+00
         0.00000E+00
         0.00000E+00
         0.00000E+00
         0.00000E+00
         0.00000E+00
         0.00000E+00
         0.00000E+00
         0.00000E+00
         0.00000E+00
         0.00000E+00
         0.00000E+00
         0.00000E+00
         0.00000E+00
         0.00000E+00
         0.00000E+00
         0.00000E+00
         0.00000E+00
         0.00000E+00
         0.00000E+00
         0.00000E+00
         0.00000E+00
         0.00000E+00
         0.00000E+00
         0.00000E+00
         0.00000E+00
         0.00000E+00
         0.00000E+00
         0.00000E+00
         0.00000E+00
         0.00000E+00
         0.00000E+00
         0.00000E+00
         0.00000E+00
         0.00000E+00
         0.00000E+00
         0.00000E+00
         0.00000E+00
         0.00000E+00
         0.00000E+00
         0.00000E+00
         0.00000E+00
         0.00000E+00
         0.00000E+00
         0.00000E+00
         0.00000E+00
         0.00000E+00
         0.00000E+00
         0.00000E+00
         0.00000E+00
         0.00000E+00
         0.00000E+00
         0.00000E+00
         0.00000E+00
         0.00000E+00
         0.00000E+00
         0.00000E+00
         0.00000E+00
         0.00000E+00
         0.00000E+00
         0.00000E+00
         0.00000E+00
         0.00000E+00
         0.00000E+00
         0.00000E+00
         0.00000E+00
         0.00000E+00
         0.00000E+00
         0.00000E+00
         0.00000E+00
         0.00000E+00
         0.00000E+00
         0.00000E+00
         0.00000E+00
         0.00000E+00
         0.00000E+00
         0.00000E+00
         0.00000E+00
         0.00000E+00
         0.00000E+00
         0.00000E+00
         0.00000E+00
         0.00000E+00
         0.00000E+00
         0.00000E+00
         0.00000E+00
         0.00000E+00
         0.00000E+00
         0.00000E+00
         0.00000E+00
         0.00000E+00
         0.00000E+00
         0.00000E+00
         0.00000E+00
         0.00000E+00
         0.00000E+00
         0.00000E+00
         0.00000E+00
         0.00000E+00
         0.00000E+00
         0.00000E+00
         0.00000E+00
         0.00000E+00
         0.00000E+00
         0.00000E+00
         0.00000E+00
         0.00000E+00
         0.00000E+00
         0.00000E+00
         0.00000E+00
         0.00000E+00
         0.00000E+00
         0.00000E+00
         0.00000E+00
         0.00000E+00
         0.00000E+00
         0.00000E+00
         0.00000E+00
         0.00000E+00
         0.00000E+00
         0.00000E+00
         0.00000E+00
         0.00000E+00
         0.00000E+00
         0.00000E+00
         0.00000E+00
         0.00000E+00
         0.00000E+00
         0.00000E+00
         0.00000E+00
         0.00000E+00
         0.00000E+00
         0.00000E+00
         0.00000E+00
         0.00000E+00
         0.00000E+00
         0.00000E+00
         0.00000E+00
         0.00000E+00
         0.00000E+00
         0.00000E+00
         0.00000E+00
         0.00000E+00
         0.00000E+00
         0.00000E+00
         0.00000E+00
         0.00000E+00
         0.00000E+00
         0.00000E+00
         0.00000E+00
         0.00000E+00
         0.00000E+00
         0.00000E+00
         0.00000E+00
         0.00000E+00
         0.00000E+00
         0.00000E+00
         0.00000E+00
         0.00000E+00
         0.00000E+00
         0.00000E+00
         0.00000E+00
         0.00000E+00
         0.00000E+00
         0.00000E+00
         0.00000E+00
         0.00000E+00
         0.00000E+00
         0.00000E+00
         0.00000E+00
         0.00000E+00
         0.00000E+00
         0.00000E+00
         0.00000E+00
         0.00000E+00
         0.00000E+00
         0.00000E+00
         0.00000E+00
         0.00000E+00
         0.00000E+00
         0.00000E+00
         0.00000E+00
         0.00000E+00
         0.00000E+00
         0.00000E+00
         0.00000E+00
         0.00000E+00
         0.00000E+00
         0.00000E+00
         0.00000E+00
         0.00000E+00
         0.00000E+00
         0.00000E+00
         0.00000E+00
         0.00000E+00
         0.00000E+00
         0.00000E+00
         0.00000E+00
         0.00000E+00
         0.00000E+00
         0.00000E+00
         0.00000E+00
  
SCALARS                init_velocity_y  double 1
LOOKUP_TABLE default
         0.00000E+00
         0.00000E+00
         0.00000E+00
         0.00000E+00
         0.00000E+00
         0.00000E+00
         0.00000E+00
         0.00000E+00
         0.00000E+00
         0.00000E+00
         0.00000E+00
         0.00000E+00
         0.00000E+00
         0.00000E+00
         0.00000E+00
         0.00000E+00
         0.00000E+00
         0.00000E+00
         0.00000E+00
         0.00000E+00
         0.00000E+00
         0.00000E+00
         0.00000E+00
         0.00000E+00
         0.00000E+00
         0.00000E+00
         0.00000E+00
         0.00000E+00
         0.00000E+00
         0.00000E+00
         0.00000E+00
         0.00000E+00
         0.00000E+00
         0.00000E+00
         0.00000E+00
         0.00000E+00
         0.00000E+00
         0.00000E+00
         0.00000E+00
         0.00000E+00
         0.00000E+00
         0.00000E+00
         0.00000E+00
         0.00000E+00
         0.00000E+00
         0.00000E+00
         0.00000E+00
         0.00000E+00
         0.00000E+00
         0.00000E+00
         0.00000E+00
         0.00000E+00
         0.00000E+00
         0.00000E+00
         0.00000E+00
         0.00000E+00
         0.00000E+00
         0.00000E+00
         0.00000E+00
         0.00000E+00
         0.00000E+00
         0.00000E+00
         0.00000E+00
         0.00000E+00
         0.00000E+00
         0.00000E+00
         0.00000E+00
         0.00000E+00
         0.00000E+00
         0.00000E+00
         0.00000E+00
         0.00000E+00
         0.00000E+00
         0.00000E+00
         0.00000E+00
         0.00000E+00
         0.00000E+00
         0.00000E+00
         0.00000E+00
         0.00000E+00
         0.00000E+00
         0.00000E+00
         0.00000E+00
         0.00000E+00
         0.00000E+00
         0.00000E+00
         0.00000E+00
         0.00000E+00
         0.00000E+00
         0.00000E+00
         0.00000E+00
         0.00000E+00
         0.00000E+00
         0.00000E+00
         0.00000E+00
         0.00000E+00
         0.00000E+00
         0.00000E+00
         0.00000E+00
         0.00000E+00
         0.00000E+00
         0.00000E+00
         0.00000E+00
         0.00000E+00
         0.00000E+00
         0.00000E+00
         0.00000E+00
         0.00000E+00
         0.00000E+00
         0.00000E+00
         0.00000E+00
         0.00000E+00
         0.00000E+00
         0.00000E+00
         0.00000E+00
         0.00000E+00
         0.00000E+00
         0.00000E+00
         0.00000E+00
         0.00000E+00
         0.00000E+00
         0.00000E+00
         0.00000E+00
         0.00000E+00
         0.00000E+00
         0.00000E+00
         0.00000E+00
         0.00000E+00
         0.00000E+00
         0.00000E+00
         0.00000E+00
         0.00000E+00
         0.00000E+00
         0.00000E+00
         0.00000E+00
         0.00000E+00
         0.00000E+00
         0.00000E+00
         0.00000E+00
         0.00000E+00
         0.00000E+00
         0.00000E+00
         0.00000E+00
         0.00000E+00
         0.00000E+00
         0.00000E+00
         0.00000E+00
         0.00000E+00
         0.00000E+00
         0.00000E+00
         0.00000E+00
         0.00000E+00
         0.00000E+00
         0.00000E+00
         0.00000E+00
         0.00000E+00
         0.00000E+00
         0.00000E+00
         0.00000E+00
         0.00000E+00
         0.00000E+00
         0.00000E+00
         0.00000E+00
         0.00000E+00
         0.00000E+00
         0.00000E+00
         0.00000E+00
         0.00000E+00
         0.00000E+00
         0.00000E+00
         0.00000E+00
         0.00000E+00
         0.00000E+00
         0.00000E+00
         0.00000E+00
         0.00000E+00
         0.00000E+00
         0.00000E+00
         0.00000E+00
         0.00000E+00
         0.00000E+00
         0.00000E+00
         0.00000E+00
         0.00000E+00
         0.00000E+00
         0.00000E+00
         0.00000E+00
         0.00000E+00
         0.00000E+00
         0.00000E+00
         0.00000E+00
         0.00000E+00
         0.00000E+00
         0.00000E+00
         0.00000E+00
         0.00000E+00
         0.00000E+00
         0.00000E+00
         0.00000E+00
         0.00000E+00
         0.00000E+00
         0.00000E+00
         0.00000E+00
         0.00000E+00
         0.00000E+00
         0.00000E+00
         0.00000E+00
         0.00000E+00
         0.00000E+00
         0.00000E+00
         0.00000E+00
         0.00000E+00
         0.00000E+00
         0.00000E+00
         0.00000E+00
         0.00000E+00
         0.00000E+00
         0.00000E+00
         0.00000E+00
         0.00000E+00
         0.00000E+00
         0.00000E+00
         0.00000E+00
         0.00000E+00
         0.00000E+00
         0.00000E+00
         0.00000E+00
         0.00000E+00
         0.00000E+00
         0.00000E+00
         0.00000E+00
         0.00000E+00
         0.00000E+00
         0.00000E+00
         0.00000E+00
         0.00000E+00
         0.00000E+00
         0.00000E+00
         0.00000E+00
         0.00000E+00
         0.00000E+00
         0.00000E+00
         0.00000E+00
         0.00000E+00
         0.00000E+00
         0.00000E+00
         0.00000E+00
         0.00000E+00
         0.00000E+00
         0.00000E+00
         0.00000E+00
         0.00000E+00
         0.00000E+00
         0.00000E+00
         0.00000E+00
         0.00000E+00
         0.00000E+00
         0.00000E+00
         0.00000E+00
         0.00000E+00
         0.00000E+00
         0.00000E+00
         0.00000E+00
         0.00000E+00
         0.00000E+00
         0.00000E+00
         0.00000E+00
         0.00000E+00
         0.00000E+00
         0.00000E+00
         0.00000E+00
         0.00000E+00
         0.00000E+00
         0.00000E+00
         0.00000E+00
         0.00000E+00
         0.00000E+00
         0.00000E+00
         0.00000E+00
         0.00000E+00
         0.00000E+00
         0.00000E+00
         0.00000E+00
         0.00000E+00
         0.00000E+00
         0.00000E+00
         0.00000E+00
         0.00000E+00
         0.00000E+00
         0.00000E+00
         0.00000E+00
         0.00000E+00
         0.00000E+00
         0.00000E+00
         0.00000E+00
         0.00000E+00
         0.00000E+00
         0.00000E+00
         0.00000E+00
         0.00000E+00
         0.00000E+00
         0.00000E+00
         0.00000E+00
         0.00000E+00
         0.00000E+00
         0.00000E+00
         0.00000E+00
         0.00000E+00
         0.00000E+00
         0.00000E+00
         0.00000E+00
         0.00000E+00
         0.00000E+00
         0.00000E+00
         0.00000E+00
         0.00000E+00
         0.00000E+00
         0.00000E+00
         0.00000E+00
         0.00000E+00
         0.00000E+00
         0.00000E+00
         0.00000E+00
         0.00000E+00
         0.00000E+00
         0.00000E+00
         0.00000E+00
         0.00000E+00
         0.00000E+00
         0.00000E+00
         0.00000E+00
         0.00000E+00
         0.00000E+00
         0.00000E+00
         0.00000E+00
         0.00000E+00
         0.00000E+00
         0.00000E+00
         0.00000E+00
         0.00000E+00
         0.00000E+00
         0.00000E+00
         0.00000E+00
         0.00000E+00
         0.00000E+00
         0.00000E+00
         0.00000E+00
         0.00000E+00
         0.00000E+00
         0.00000E+00
         0.00000E+00
         0.00000E+00
         0.00000E+00
         0.00000E+00
         0.00000E+00
         0.00000E+00
         0.00000E+00
         0.00000E+00
         0.00000E+00
         0.00000E+00
         0.00000E+00
         0.00000E+00
         0.00000E+00
         0.00000E+00
         0.00000E+00
         0.00000E+00
         0.00000E+00
         0.00000E+00
         0.00000E+00
         0.00000E+00
         0.00000E+00
         0.00000E+00
         0.00000E+00
         0.00000E+00
         0.00000E+00
         0.00000E+00
         0.00000E+00
         0.00000E+00
         0.00000E+00
         0.00000E+00
         0.00000E+00
         0.00000E+00
         0.00000E+00
         0.00000E+00
         0.00000E+00
         0.00000E+00
         0.00000E+00
         0.00000E+00
         0.00000E+00
         0.00000E+00
         0.00000E+00
         0.00000E+00
         0.00000E+00
         0.00000E+00
         0.00000E+00
         0.00000E+00
         0.00000E+00
         0.00000E+00
         0.00000E+00
         0.00000E+00
         0.00000E+00
         0.00000E+00
         0.00000E+00
         0.00000E+00
         0.00000E+00
         0.00000E+00
         0.00000E+00
         0.00000E+00
         0.00000E+00
         0.00000E+00
         0.00000E+00
         0.00000E+00
         0.00000E+00
         0.00000E+00
         0.00000E+00
         0.00000E+00
         0.00000E+00
         0.00000E+00
         0.00000E+00
         0.00000E+00
         0.00000E+00
         0.00000E+00
         0.00000E+00
         0.00000E+00
         0.00000E+00
         0.00000E+00
         0.00000E+00
         0.00000E+00
         0.00000E+00
         0.00000E+00
         0.00000E+00
         0.00000E+00
         0.00000E+00
         0.00000E+00
         0.00000E+00
         0.00000E+00
         0.00000E+00
         0.00000E+00
         0.00000E+00
         0.00000E+00
         0.00000E+00
         0.00000E+00
         0.00000E+00
         0.00000E+00
         0.00000E+00
         0.00000E+00
         0.00000E+00
         0.00000E+00
         0.00000E+00
         0.00000E+00
         0.00000E+00
         0.00000E+00
         0.00000E+00
         0.00000E+00
         0.00000E+00
         0.00000E+00
         0.00000E+00
         0.00000E+00
         0.00000E+00
         0.00000E+00
         0.00000E+00
         0.00000E+00
         0.00000E+00
         0.00000E+00
         0.00000E+00
         0.00000E+00
         0.00000E+00
         0.00000E+00
         0.00000E+00
         0.00000E+00
         0.00000E+00
         0.00000E+00
         0.00000E+00
         0.00000E+00
         0.00000E+00
         0.00000E+00
         0.00000E+00
         0.00000E+00
         0.00000E+00
         0.00000E+00
         0.00000E+00
         0.00000E+00
         0.00000E+00
         0.00000E+00
         0.00000E+00
         0.00000E+00
         0.00000E+00
         0.00000E+00
         0.00000E+00
         0.00000E+00
         0.00000E+00
         0.00000E+00
         0.00000E+00
         0.00000E+00
         0.00000E+00
         0.00000E+00
         0.00000E+00
         0.00000E+00
         0.00000E+00
         0.00000E+00
         0.00000E+00
         0.00000E+00
         0.00000E+00
         0.00000E+00
         0.00000E+00
         0.00000E+00
         0.00000E+00
         0.00000E+00
         0.00000E+00
         0.00000E+00
         0.00000E+00
         0.00000E+00
         0.00000E+00
         0.00000E+00
         0.00000E+00
         0.00000E+00
         0.00000E+00
         0.00000E+00
         0.00000E+00
         0.00000E+00
         0.00000E+00
         0.00000E+00
         0.00000E+00
         0.00000E+00
         0.00000E+00
         0.00000E+00
         0.00000E+00
         0.00000E+00
         0.00000E+00
         0.00000E+00
         0.00000E+00
         0.00000E+00
         0.00000E+00
         0.00000E+00
         0.00000E+00
         0.00000E+00
         0.00000E+00
         0.00000E+00
         0.00000E+00
         0.00000E+00
         0.00000E+00
         0.00000E+00
         0.00000E+00
         0.00000E+00
         0.00000E+00
         0.00000E+00
         0.00000E+00
         0.00000E+00
         0.00000E+00
         0.00000E+00
         0.00000E+00
         0.00000E+00
         0.00000E+00
         0.00000E+00
         0.00000E+00
         0.00000E+00
         0.00000E+00
         0.00000E+00
         0.00000E+00
         0.00000E+00
         0.00000E+00
         0.00000E+00
         0.00000E+00
         0.00000E+00
         0.00000E+00
         0.00000E+00
         0.00000E+00
         0.00000E+00
         0.00000E+00
         0.00000E+00
         0.00000E+00
         0.00000E+00
         0.00000E+00
         0.00000E+00
         0.00000E+00
         0.00000E+00
         0.00000E+00
         0.00000E+00
         0.00000E+00
         0.00000E+00
         0.00000E+00
         0.00000E+00
         0.00000E+00
         0.00000E+00
         0.00000E+00
         0.00000E+00
         0.00000E+00
         0.00000E+00
         0.00000E+00
         0.00000E+00
         0.00000E+00
         0.00000E+00
         0.00000E+00
         0.00000E+00
         0.00000E+00
         0.00000E+00
         0.00000E+00
         0.00000E+00
         0.00000E+00
         0.00000E+00
         0.00000E+00
         0.00000E+00
         0.00000E+00
         0.00000E+00
         0.00000E+00
         0.00000E+00
         0.00000E+00
         0.00000E+00
         0.00000E+00
         0.00000E+00
         0.00000E+00
         0.00000E+00
         0.00000E+00
         0.00000E+00
         0.00000E+00
         0.00000E+00
         0.00000E+00
         0.00000E+00
         0.00000E+00
         0.00000E+00
         0.00000E+00
         0.00000E+00
         0.00000E+00
         0.00000E+00
         0.00000E+00
         0.00000E+00
         0.00000E+00
         0.00000E+00
         0.00000E+00
         0.00000E+00
         0.00000E+00
         0.00000E+00
         0.00000E+00
         0.00000E+00
         0.00000E+00
         0.00000E+00
         0.00000E+00
         0.00000E+00
         0.00000E+00
         0.00000E+00
         0.00000E+00
         0.00000E+00
         0.00000E+00
         0.00000E+00
         0.00000E+00
         0.00000E+00
         0.00000E+00
         0.00000E+00
         0.00000E+00
         0.00000E+00
         0.00000E+00
         0.00000E+00
         0.00000E+00
         0.00000E+00
         0.00000E+00
         0.00000E+00
         0.00000E+00
         0.00000E+00
         0.00000E+00
         0.00000E+00
         0.00000E+00
         0.00000E+00
         0.00000E+00
         0.00000E+00
         0.00000E+00
         0.00000E+00
         0.00000E+00
         0.00000E+00
         0.00000E+00
         0.00000E+00
         0.00000E+00
         0.00000E+00
         0.00000E+00
         0.00000E+00
         0.00000E+00
         0.00000E+00
         0.00000E+00
         0.00000E+00
         0.00000E+00
         0.00000E+00
         0.00000E+00
         0.00000E+00
         0.00000E+00
         0.00000E+00
         0.00000E+00
         0.00000E+00
         0.00000E+00
         0.00000E+00
         0.00000E+00
         0.00000E+00
         0.00000E+00
         0.00000E+00
         0.00000E+00
         0.00000E+00
         0.00000E+00
         0.00000E+00
         0.00000E+00
         0.00000E+00
         0.00000E+00
         0.00000E+00
         0.00000E+00
         0.00000E+00
         0.00000E+00
         0.00000E+00
         0.00000E+00
         0.00000E+00
         0.00000E+00
         0.00000E+00
         0.00000E+00
         0.00000E+00
         0.00000E+00
         0.00000E+00
         0.00000E+00
         0.00000E+00
         0.00000E+00
         0.00000E+00
         0.00000E+00
         0.00000E+00
         0.00000E+00
         0.00000E+00
         0.00000E+00
         0.00000E+00
         0.00000E+00
         0.00000E+00
         0.00000E+00
         0.00000E+00
         0.00000E+00
         0.00000E+00
         0.00000E+00
         0.00000E+00
         0.00000E+00
         0.00000E+00
         0.00000E+00
         0.00000E+00
         0.00000E+00
         0.00000E+00
         0.00000E+00
         0.00000E+00
         0.00000E+00
         0.00000E+00
         0.00000E+00
         0.00000E+00
         0.00000E+00
         0.00000E+00
         0.00000E+00
         0.00000E+00
         0.00000E+00
         0.00000E+00
         0.00000E+00
         0.00000E+00
         0.00000E+00
         0.00000E+00
         0.00000E+00
         0.00000E+00
         0.00000E+00
         0.00000E+00
         0.00000E+00
         0.00000E+00
         0.00000E+00
         0.00000E+00
         0.00000E+00
         0.00000E+00
         0.00000E+00
         0.00000E+00
         0.00000E+00
         0.00000E+00
         0.00000E+00
         0.00000E+00
         0.00000E+00
         0.00000E+00
         0.00000E+00
         0.00000E+00
         0.00000E+00
         0.00000E+00
         0.00000E+00
         0.00000E+00
         0.00000E+00
         0.00000E+00
         0.00000E+00
         0.00000E+00
         0.00000E+00
         0.00000E+00
         0.00000E+00
         0.00000E+00
         0.00000E+00
         0.00000E+00
         0.00000E+00
         0.00000E+00
         0.00000E+00
         0.00000E+00
         0.00000E+00
         0.00000E+00
         0.00000E+00
         0.00000E+00
         0.00000E+00
         0.00000E+00
         0.00000E+00
         0.00000E+00
         0.00000E+00
         0.00000E+00
         0.00000E+00
         0.00000E+00
         0.00000E+00
         0.00000E+00
         0.00000E+00
         0.00000E+00
         0.00000E+00
         0.00000E+00
         0.00000E+00
         0.00000E+00
         0.00000E+00
         0.00000E+00
         0.00000E+00
         0.00000E+00
         0.00000E+00
         0.00000E+00
         0.00000E+00
         0.00000E+00
         0.00000E+00
         0.00000E+00
         0.00000E+00
         0.00000E+00
         0.00000E+00
         0.00000E+00
         0.00000E+00
         0.00000E+00
         0.00000E+00
         0.00000E+00
         0.00000E+00
         0.00000E+00
         0.00000E+00
         0.00000E+00
         0.00000E+00
         0.00000E+00
         0.00000E+00
         0.00000E+00
         0.00000E+00
         0.00000E+00
         0.00000E+00
         0.00000E+00
         0.00000E+00
         0.00000E+00
         0.00000E+00
         0.00000E+00
         0.00000E+00
         0.00000E+00
         0.00000E+00
         0.00000E+00
         0.00000E+00
         0.00000E+00
         0.00000E+00
         0.00000E+00
         0.00000E+00
         0.00000E+00
         0.00000E+00
         0.00000E+00
         0.00000E+00
         0.00000E+00
         0.00000E+00
         0.00000E+00
         0.00000E+00
         0.00000E+00
         0.00000E+00
         0.00000E+00
         0.00000E+00
         0.00000E+00
         0.00000E+00
         0.00000E+00
         0.00000E+00
         0.00000E+00
         0.00000E+00
         0.00000E+00
         0.00000E+00
         0.00000E+00
         0.00000E+00
         0.00000E+00
         0.00000E+00
         0.00000E+00
         0.00000E+00
         0.00000E+00
         0.00000E+00
         0.00000E+00
         0.00000E+00
         0.00000E+00
         0.00000E+00
         0.00000E+00
         0.00000E+00
         0.00000E+00
         0.00000E+00
         0.00000E+00
         0.00000E+00
         0.00000E+00
         0.00000E+00
         0.00000E+00
         0.00000E+00
         0.00000E+00
         0.00000E+00
         0.00000E+00
         0.00000E+00
         0.00000E+00
         0.00000E+00
         0.00000E+00
         0.00000E+00
         0.00000E+00
         0.00000E+00
         0.00000E+00
         0.00000E+00
         0.00000E+00
         0.00000E+00
         0.00000E+00
         0.00000E+00
         0.00000E+00
         0.00000E+00
         0.00000E+00
         0.00000E+00
         0.00000E+00
         0.00000E+00
         0.00000E+00
         0.00000E+00
         0.00000E+00
         0.00000E+00
         0.00000E+00
         0.00000E+00
         0.00000E+00
         0.00000E+00
         0.00000E+00
         0.00000E+00
         0.00000E+00
         0.00000E+00
         0.00000E+00
         0.00000E+00
         0.00000E+00
         0.00000E+00
         0.00000E+00
         0.00000E+00
         0.00000E+00
         0.00000E+00
         0.00000E+00
         0.00000E+00
         0.00000E+00
         0.00000E+00
         0.00000E+00
         0.00000E+00
         0.00000E+00
         0.00000E+00
         0.00000E+00
         0.00000E+00
         0.00000E+00
         0.00000E+00
         0.00000E+00
         0.00000E+00
         0.00000E+00
         0.00000E+00
         0.00000E+00
         0.00000E+00
         0.00000E+00
         0.00000E+00
         0.00000E+00
         0.00000E+00
         0.00000E+00
         0.00000E+00
         0.00000E+00
         0.00000E+00
         0.00000E+00
         0.00000E+00
         0.00000E+00
         0.00000E+00
         0.00000E+00
         0.00000E+00
         0.00000E+00
         0.00000E+00
         0.00000E+00
         0.00000E+00
         0.00000E+00
         0.00000E+00
         0.00000E+00
         0.00000E+00
         0.00000E+00
         0.00000E+00
         0.00000E+00
         0.00000E+00
         0.00000E+00
         0.00000E+00
         0.00000E+00
         0.00000E+00
         0.00000E+00
         0.00000E+00
         0.00000E+00
         0.00000E+00
         0.00000E+00
         0.00000E+00
         0.00000E+00
         0.00000E+00
         0.00000E+00
         0.00000E+00
         0.00000E+00
         0.00000E+00
         0.00000E+00
         0.00000E+00
         0.00000E+00
         0.00000E+00
         0.00000E+00
         0.00000E+00
         0.00000E+00
         0.00000E+00
         0.00000E+00
         0.00000E+00
         0.00000E+00
         0.00000E+00
         0.00000E+00
         0.00000E+00
         0.00000E+00
         0.00000E+00
         0.00000E+00
         0.00000E+00
         0.00000E+00
         0.00000E+00
         0.00000E+00
         0.00000E+00
         0.00000E+00
         0.00000E+00
         0.00000E+00
         0.00000E+00
         0.00000E+00
         0.00000E+00
         0.00000E+00
         0.00000E+00
         0.00000E+00
         0.00000E+00
         0.00000E+00
         0.00000E+00
         0.00000E+00
         0.00000E+00
         0.00000E+00
         0.00000E+00
         0.00000E+00
         0.00000E+00
         0.00000E+00
         0.00000E+00
         0.00000E+00
         0.00000E+00
         0.00000E+00
         0.00000E+00
         0.00000E+00
         0.00000E+00
         0.00000E+00
         0.00000E+00
         0.00000E+00
         0.00000E+00
         0.00000E+00
         0.00000E+00
         0.00000E+00
         0.00000E+00
         0.00000E+00
         0.00000E+00
         0.00000E+00
         0.00000E+00
         0.00000E+00
         0.00000E+00
         0.00000E+00
         0.00000E+00
         0.00000E+00
         0.00000E+00
         0.00000E+00
         0.00000E+00
         0.00000E+00
         0.00000E+00
         0.00000E+00
         0.00000E+00
         0.00000E+00
         0.00000E+00
         0.00000E+00
         0.00000E+00
         0.00000E+00
         0.00000E+00
         0.00000E+00
         0.00000E+00
         0.00000E+00
         0.00000E+00
         0.00000E+00
         0.00000E+00
         0.00000E+00
         0.00000E+00
         0.00000E+00
         0.00000E+00
         0.00000E+00
         0.00000E+00
         0.00000E+00
         0.00000E+00
         0.00000E+00
         0.00000E+00
         0.00000E+00
         0.00000E+00
         0.00000E+00
         0.00000E+00
         0.00000E+00
         0.00000E+00
         0.00000E+00
         0.00000E+00
         0.00000E+00
         0.00000E+00
         0.00000E+00
         0.00000E+00
         0.00000E+00
         0.00000E+00
         0.00000E+00
         0.00000E+00
         0.00000E+00
         0.00000E+00
         0.00000E+00
         0.00000E+00
         0.00000E+00
         0.00000E+00
         0.00000E+00
         0.00000E+00
         0.00000E+00
         0.00000E+00
         0.00000E+00
         0.00000E+00
         0.00000E+00
         0.00000E+00
         0.00000E+00
         0.00000E+00
         0.00000E+00
         0.00000E+00
         0.00000E+00
         0.00000E+00
         0.00000E+00
         0.00000E+00
         0.00000E+00
         0.00000E+00
         0.00000E+00
         0.00000E+00
         0.00000E+00
         0.00000E+00
         0.00000E+00
         0.00000E+00
         0.00000E+00
         0.00000E+00
         0.00000E+00
         0.00000E+00
         0.00000E+00
         0.00000E+00
         0.00000E+00
         0.00000E+00
         0.00000E+00
         0.00000E+00
         0.00000E+00
         0.00000E+00
         0.00000E+00
         0.00000E+00
         0.00000E+00
         0.00000E+00
         0.00000E+00
         0.00000E+00
         0.00000E+00
         0.00000E+00
         0.00000E+00
         0.00000E+00
         0.00000E+00
         0.00000E+00
         0.00000E+00
         0.00000E+00
         0.00000E+00
         0.00000E+00
         0.00000E+00
         0.00000E+00
         0.00000E+00
         0.00000E+00
         0.00000E+00
         0.00000E+00
         0.00000E+00
         0.00000E+00
         0.00000E+00
         0.00000E+00
         0.00000E+00
         0.00000E+00
         0.00000E+00
         0.00000E+00
         0.00000E+00
         0.00000E+00
         0.00000E+00
         0.00000E+00
         0.00000E+00
         0.00000E+00
         0.00000E+00
         0.00000E+00
         0.00000E+00
         0.00000E+00
         0.00000E+00
         0.00000E+00
         0.00000E+00
         0.00000E+00
         0.00000E+00
         0.00000E+00
         0.00000E+00
         0.00000E+00
         0.00000E+00
         0.00000E+00
         0.00000E+00
         0.00000E+00
         0.00000E+00
         0.00000E+00
         0.00000E+00
         0.00000E+00
         0.00000E+00
         0.00000E+00
         0.00000E+00
         0.00000E+00
         0.00000E+00
         0.00000E+00
         0.00000E+00
         0.00000E+00
         0.00000E+00
         0.00000E+00
         0.00000E+00
         0.00000E+00
         0.00000E+00
         0.00000E+00
         0.00000E+00
         0.00000E+00
         0.00000E+00
         0.00000E+00
         0.00000E+00
         0.00000E+00
         0.00000E+00
         0.00000E+00
         0.00000E+00
         0.00000E+00
         0.00000E+00
         0.00000E+00
         0.00000E+00
         0.00000E+00
         0.00000E+00
         0.00000E+00
         0.00000E+00
         0.00000E+00
         0.00000E+00
         0.00000E+00
         0.00000E+00
         0.00000E+00
         0.00000E+00
         0.00000E+00
         0.00000E+00
         0.00000E+00
         0.00000E+00
         0.00000E+00
         0.00000E+00
         0.00000E+00
         0.00000E+00
         0.00000E+00
         0.00000E+00
         0.00000E+00
         0.00000E+00
         0.00000E+00
         0.00000E+00
         0.00000E+00
         0.00000E+00
         0.00000E+00
         0.00000E+00
         0.00000E+00
         0.00000E+00
         0.00000E+00
         0.00000E+00
         0.00000E+00
         0.00000E+00
         0.00000E+00
         0.00000E+00
         0.00000E+00
         0.00000E+00
         0.00000E+00
         0.00000E+00
         0.00000E+00
         0.00000E+00
         0.00000E+00
         0.00000E+00
         0.00000E+00
         0.00000E+00
         0.00000E+00
         0.00000E+00
         0.00000E+00
         0.00000E+00
         0.00000E+00
         0.00000E+00
         0.00000E+00
         0.00000E+00
         0.00000E+00
         0.00000E+00
         0.00000E+00
         0.00000E+00
         0.00000E+00
         0.00000E+00
         0.00000E+00
         0.00000E+00
         0.00000E+00
         0.00000E+00
         0.00000E+00
         0.00000E+00
         0.00000E+00
         0.00000E+00
         0.00000E+00
         0.00000E+00
         0.00000E+00
         0.00000E+00
         0.00000E+00
         0.00000E+00
         0.00000E+00
         0.00000E+00
         0.00000E+00
         0.00000E+00
         0.00000E+00
         0.00000E+00
         0.00000E+00
         0.00000E+00
         0.00000E+00
         0.00000E+00
         0.00000E+00
         0.00000E+00
         0.00000E+00
         0.00000E+00
         0.00000E+00
         0.00000E+00
         0.00000E+00
         0.00000E+00
         0.00000E+00
         0.00000E+00
         0.00000E+00
         0.00000E+00
         0.00000E+00
         0.00000E+00
         0.00000E+00
         0.00000E+00
         0.00000E+00
         0.00000E+00
         0.00000E+00
         0.00000E+00
         0.00000E+00
         0.00000E+00
         0.00000E+00
         0.00000E+00
         0.00000E+00
         0.00000E+00
         0.00000E+00
         0.00000E+00
         0.00000E+00
         0.00000E+00
         0.00000E+00
         0.00000E+00
         0.00000E+00
         0.00000E+00
         0.00000E+00
         0.00000E+00
         0.00000E+00
         0.00000E+00
         0.00000E+00
         0.00000E+00
         0.00000E+00
         0.00000E+00
         0.00000E+00
         0.00000E+00
         0.00000E+00
         0.00000E+00
         0.00000E+00
         0.00000E+00
         0.00000E+00
         0.00000E+00
         0.00000E+00
         0.00000E+00
         0.00000E+00
         0.00000E+00
         0.00000E+00
         0.00000E+00
         0.00000E+00
         0.00000E+00
         0.00000E+00
         0.00000E+00
         0.00000E+00
         0.00000E+00
         0.00000E+00
         0.00000E+00
         0.00000E+00
         0.00000E+00
         0.00000E+00
         0.00000E+00
         0.00000E+00
         0.00000E+00
         0.00000E+00
         0.00000E+00
         0.00000E+00
         0.00000E+00
         0.00000E+00
         0.00000E+00
         0.00000E+00
         0.00000E+00
         0.00000E+00
         0.00000E+00
         0.00000E+00
         0.00000E+00
         0.00000E+00
         0.00000E+00
         0.00000E+00
         0.00000E+00
         0.00000E+00
         0.00000E+00
         0.00000E+00
         0.00000E+00
         0.00000E+00
         0.00000E+00
         0.00000E+00
         0.00000E+00
         0.00000E+00
         0.00000E+00
         0.00000E+00
         0.00000E+00
         0.00000E+00
         0.00000E+00
         0.00000E+00
         0.00000E+00
         0.00000E+00
         0.00000E+00
         0.00000E+00
         0.00000E+00
         0.00000E+00
         0.00000E+00
         0.00000E+00
         0.00000E+00
         0.00000E+00
         0.00000E+00
         0.00000E+00
         0.00000E+00
         0.00000E+00
         0.00000E+00
         0.00000E+00
         0.00000E+00
         0.00000E+00
         0.00000E+00
         0.00000E+00
         0.00000E+00
         0.00000E+00
         0.00000E+00
         0.00000E+00
         0.00000E+00
         0.00000E+00
         0.00000E+00
         0.00000E+00
         0.00000E+00
         0.00000E+00
         0.00000E+00
         0.00000E+00
         0.00000E+00
         0.00000E+00
         0.00000E+00
         0.00000E+00
         0.00000E+00
         0.00000E+00
         0.00000E+00
         0.00000E+00
         0.00000E+00
         0.00000E+00
         0.00000E+00
         0.00000E+00
         0.00000E+00
         0.00000E+00
         0.00000E+00
         0.00000E+00
         0.00000E+00
         0.00000E+00
         0.00000E+00
         0.00000E+00
         0.00000E+00
         0.00000E+00
         0.00000E+00
         0.00000E+00
         0.00000E+00
         0.00000E+00
         0.00000E+00
         0.00000E+00
         0.00000E+00
         0.00000E+00
         0.00000E+00
         0.00000E+00
         0.00000E+00
         0.00000E+00
         0.00000E+00
         0.00000E+00
         0.00000E+00
         0.00000E+00
         0.00000E+00
         0.00000E+00
         0.00000E+00
         0.00000E+00
         0.00000E+00
         0.00000E+00
         0.00000E+00
         0.00000E+00
         0.00000E+00
         0.00000E+00
         0.00000E+00
         0.00000E+00
         0.00000E+00
         0.00000E+00
         0.00000E+00
         0.00000E+00
         0.00000E+00
         0.00000E+00
         0.00000E+00
         0.00000E+00
         0.00000E+00
         0.00000E+00
         0.00000E+00
         0.00000E+00
         0.00000E+00
         0.00000E+00
         0.00000E+00
         0.00000E+00
         0.00000E+00
         0.00000E+00
         0.00000E+00
         0.00000E+00
         0.00000E+00
         0.00000E+00
         0.00000E+00
         0.00000E+00
         0.00000E+00
         0.00000E+00
         0.00000E+00
         0.00000E+00
         0.00000E+00
         0.00000E+00
         0.00000E+00
         0.00000E+00
         0.00000E+00
         0.00000E+00
         0.00000E+00
         0.00000E+00
         0.00000E+00
         0.00000E+00
         0.00000E+00
         0.00000E+00
         0.00000E+00
         0.00000E+00
         0.00000E+00
         0.00000E+00
         0.00000E+00
         0.00000E+00
         0.00000E+00
         0.00000E+00
         0.00000E+00
         0.00000E+00
         0.00000E+00
         0.00000E+00
         0.00000E+00
         0.00000E+00
         0.00000E+00
         0.00000E+00
         0.00000E+00
         0.00000E+00
         0.00000E+00
         0.00000E+00
         0.00000E+00
         0.00000E+00
         0.00000E+00
         0.00000E+00
         0.00000E+00
         0.00000E+00
         0.00000E+00
         0.00000E+00
         0.00000E+00
         0.00000E+00
         0.00000E+00
         0.00000E+00
         0.00000E+00
         0.00000E+00
         0.00000E+00
         0.00000E+00
         0.00000E+00
         0.00000E+00
         0.00000E+00
         0.00000E+00
         0.00000E+00
         0.00000E+00
         0.00000E+00
         0.00000E+00
         0.00000E+00
         0.00000E+00
         0.00000E+00
         0.00000E+00
         0.00000E+00
         0.00000E+00
         0.00000E+00
         0.00000E+00
         0.00000E+00
         0.00000E+00
         0.00000E+00
         0.00000E+00
         0.00000E+00
         0.00000E+00
         0.00000E+00
         0.00000E+00
         0.00000E+00
         0.00000E+00
         0.00000E+00
         0.00000E+00
         0.00000E+00
         0.00000E+00
         0.00000E+00
         0.00000E+00
         0.00000E+00
         0.00000E+00
         0.00000E+00
         0.00000E+00
         0.00000E+00
         0.00000E+00
         0.00000E+00
         0.00000E+00
         0.00000E+00
         0.00000E+00
         0.00000E+00
         0.00000E+00
         0.00000E+00
         0.00000E+00
         0.00000E+00
         0.00000E+00
         0.00000E+00
         0.00000E+00
         0.00000E+00
         0.00000E+00
         0.00000E+00
         0.00000E+00
         0.00000E+00
         0.00000E+00
         0.00000E+00
         0.00000E+00
         0.00000E+00
         0.00000E+00
         0.00000E+00
         0.00000E+00
         0.00000E+00
         0.00000E+00
         0.00000E+00
         0.00000E+00
         0.00000E+00
         0.00000E+00
         0.00000E+00
         0.00000E+00
         0.00000E+00
         0.00000E+00
         0.00000E+00
         0.00000E+00
         0.00000E+00
         0.00000E+00
         0.00000E+00
         0.00000E+00
         0.00000E+00
         0.00000E+00
         0.00000E+00
         0.00000E+00
         0.00000E+00
         0.00000E+00
         0.00000E+00
         0.00000E+00
         0.00000E+00
         0.00000E+00
         0.00000E+00
         0.00000E+00
         0.00000E+00
         0.00000E+00
         0.00000E+00
         0.00000E+00
         0.00000E+00
         0.00000E+00
         0.00000E+00
         0.00000E+00
         0.00000E+00
         0.00000E+00
         0.00000E+00
         0.00000E+00
         0.00000E+00
         0.00000E+00
         0.00000E+00
         0.00000E+00
         0.00000E+00
         0.00000E+00
         0.00000E+00
         0.00000E+00
         0.00000E+00
         0.00000E+00
         0.00000E+00
         0.00000E+00
         0.00000E+00
         0.00000E+00
         0.00000E+00
         0.00000E+00
         0.00000E+00
         0.00000E+00
         0.00000E+00
         0.00000E+00
         0.00000E+00
         0.00000E+00
         0.00000E+00
         0.00000E+00
         0.00000E+00
         0.00000E+00
         0.00000E+00
         0.00000E+00
         0.00000E+00
         0.00000E+00
         0.00000E+00
         0.00000E+00
         0.00000E+00
         0.00000E+00
         0.00000E+00
         0.00000E+00
         0.00000E+00
         0.00000E+00
         0.00000E+00
         0.00000E+00
         0.00000E+00
         0.00000E+00
         0.00000E+00
         0.00000E+00
         0.00000E+00
         0.00000E+00
         0.00000E+00
         0.00000E+00
         0.00000E+00
         0.00000E+00
         0.00000E+00
         0.00000E+00
         0.00000E+00
         0.00000E+00
         0.00000E+00
         0.00000E+00
         0.00000E+00
         0.00000E+00
         0.00000E+00
         0.00000E+00
         0.00000E+00
         0.00000E+00
         0.00000E+00
         0.00000E+00
         0.00000E+00
         0.00000E+00
         0.00000E+00
         0.00000E+00
         0.00000E+00
         0.00000E+00
         0.00000E+00
         0.00000E+00
         0.00000E+00
         0.00000E+00
         0.00000E+00
         0.00000E+00
         0.00000E+00
         0.00000E+00
         0.00000E+00
         0.00000E+00
         0.00000E+00
         0.00000E+00
         0.00000E+00
         0.00000E+00
         0.00000E+00
         0.00000E+00
         0.00000E+00
         0.00000E+00
         0.00000E+00
         0.00000E+00
         0.00000E+00
         0.00000E+00
         0.00000E+00
         0.00000E+00
         0.00000E+00
         0.00000E+00
         0.00000E+00
         0.00000E+00
         0.00000E+00
         0.00000E+00
         0.00000E+00
         0.00000E+00
         0.00000E+00
         0.00000E+00
         0.00000E+00
         0.00000E+00
         0.00000E+00
         0.00000E+00
         0.00000E+00
         0.00000E+00
         0.00000E+00
         0.00000E+00
         0.00000E+00
         0.00000E+00
         0.00000E+00
         0.00000E+00
         0.00000E+00
         0.00000E+00
         0.00000E+00
         0.00000E+00
         0.00000E+00
         0.00000E+00
         0.00000E+00
         0.00000E+00
         0.00000E+00
         0.00000E+00
         0.00000E+00
         0.00000E+00
         0.00000E+00
         0.00000E+00
         0.00000E+00
         0.00000E+00
         0.00000E+00
         0.00000E+00
         0.00000E+00
         0.00000E+00
         0.00000E+00
         0.00000E+00
         0.00000E+00
         0.00000E+00
         0.00000E+00
         0.00000E+00
         0.00000E+00
         0.00000E+00
         0.00000E+00
         0.00000E+00
         0.00000E+00
         0.00000E+00
         0.00000E+00
         0.00000E+00
         0.00000E+00
         0.00000E+00
         0.00000E+00
         0.00000E+00
         0.00000E+00
         0.00000E+00
         0.00000E+00
         0.00000E+00
         0.00000E+00
         0.00000E+00
         0.00000E+00
         0.00000E+00
         0.00000E+00
         0.00000E+00
         0.00000E+00
         0.00000E+00
         0.00000E+00
         0.00000E+00
         0.00000E+00
         0.00000E+00
         0.00000E+00
         0.00000E+00
         0.00000E+00
         0.00000E+00
         0.00000E+00
         0.00000E+00
         0.00000E+00
         0.00000E+00
         0.00000E+00
         0.00000E+00
         0.00000E+00
         0.00000E+00
         0.00000E+00
         0.00000E+00
         0.00000E+00
         0.00000E+00
         0.00000E+00
         0.00000E+00
         0.00000E+00
         0.00000E+00
         0.00000E+00
         0.00000E+00
         0.00000E+00
         0.00000E+00
         0.00000E+00
         0.00000E+00
         0.00000E+00
         0.00000E+00
         0.00000E+00
         0.00000E+00
         0.00000E+00
         0.00000E+00
         0.00000E+00
         0.00000E+00
         0.00000E+00
         0.00000E+00
         0.00000E+00
         0.00000E+00
         0.00000E+00
         0.00000E+00
         0.00000E+00
         0.00000E+00
         0.00000E+00
         0.00000E+00
         0.00000E+00
         0.00000E+00
         0.00000E+00
         0.00000E+00
         0.00000E+00
         0.00000E+00
         0.00000E+00
         0.00000E+00
         0.00000E+00
         0.00000E+00
         0.00000E+00
         0.00000E+00
         0.00000E+00
         0.00000E+00
         0.00000E+00
         0.00000E+00
         0.00000E+00
         0.00000E+00
         0.00000E+00
         0.00000E+00
         0.00000E+00
         0.00000E+00
         0.00000E+00
         0.00000E+00
         0.00000E+00
         0.00000E+00
         0.00000E+00
         0.00000E+00
         0.00000E+00
         0.00000E+00
         0.00000E+00
         0.00000E+00
         0.00000E+00
         0.00000E+00
         0.00000E+00
         0.00000E+00
         0.00000E+00
         0.00000E+00
         0.00000E+00
         0.00000E+00
         0.00000E+00
         0.00000E+00
         0.00000E+00
         0.00000E+00
         0.00000E+00
         0.00000E+00
         0.00000E+00
         0.00000E+00
         0.00000E+00
         0.00000E+00
         0.00000E+00
         0.00000E+00
         0.00000E+00
         0.00000E+00
         0.00000E+00
         0.00000E+00
         0.00000E+00
         0.00000E+00
         0.00000E+00
  
SCALARS                init_velocity_z  double 1
LOOKUP_TABLE default
        -0.37300E+03
        -0.37300E+03
        -0.37300E+03
        -0.37300E+03
        -0.37300E+03
        -0.37300E+03
        -0.37300E+03
        -0.37300E+03
        -0.37300E+03
        -0.37300E+03
        -0.37300E+03
        -0.37300E+03
        -0.37300E+03
        -0.37300E+03
        -0.37300E+03
        -0.37300E+03
        -0.37300E+03
        -0.37300E+03
        -0.37300E+03
        -0.37300E+03
        -0.37300E+03
        -0.37300E+03
        -0.37300E+03
        -0.37300E+03
        -0.37300E+03
        -0.37300E+03
        -0.37300E+03
        -0.37300E+03
        -0.37300E+03
        -0.37300E+03
        -0.37300E+03
        -0.37300E+03
        -0.37300E+03
        -0.37300E+03
        -0.37300E+03
        -0.37300E+03
        -0.37300E+03
        -0.37300E+03
        -0.37300E+03
        -0.37300E+03
        -0.37300E+03
        -0.37300E+03
        -0.37300E+03
        -0.37300E+03
        -0.37300E+03
        -0.37300E+03
        -0.37300E+03
        -0.37300E+03
        -0.37300E+03
        -0.37300E+03
        -0.37300E+03
        -0.37300E+03
        -0.37300E+03
        -0.37300E+03
        -0.37300E+03
        -0.37300E+03
        -0.37300E+03
        -0.37300E+03
        -0.37300E+03
        -0.37300E+03
        -0.37300E+03
        -0.37300E+03
        -0.37300E+03
        -0.37300E+03
        -0.37300E+03
        -0.37300E+03
        -0.37300E+03
        -0.37300E+03
        -0.37300E+03
        -0.37300E+03
        -0.37300E+03
        -0.37300E+03
        -0.37300E+03
        -0.37300E+03
        -0.37300E+03
        -0.37300E+03
        -0.37300E+03
        -0.37300E+03
        -0.37300E+03
        -0.37300E+03
        -0.37300E+03
        -0.37300E+03
        -0.37300E+03
        -0.37300E+03
        -0.37300E+03
        -0.37300E+03
        -0.37300E+03
        -0.37300E+03
        -0.37300E+03
        -0.37300E+03
        -0.37300E+03
        -0.37300E+03
        -0.37300E+03
        -0.37300E+03
        -0.37300E+03
        -0.37300E+03
        -0.37300E+03
        -0.37300E+03
        -0.37300E+03
        -0.37300E+03
        -0.37300E+03
        -0.37300E+03
        -0.37300E+03
        -0.37300E+03
        -0.37300E+03
        -0.37300E+03
        -0.37300E+03
        -0.37300E+03
        -0.37300E+03
        -0.37300E+03
        -0.37300E+03
        -0.37300E+03
        -0.37300E+03
        -0.37300E+03
        -0.37300E+03
        -0.37300E+03
        -0.37300E+03
        -0.37300E+03
        -0.37300E+03
        -0.37300E+03
        -0.37300E+03
        -0.37300E+03
        -0.37300E+03
        -0.37300E+03
        -0.37300E+03
        -0.37300E+03
        -0.37300E+03
        -0.37300E+03
        -0.37300E+03
        -0.37300E+03
        -0.37300E+03
        -0.37300E+03
        -0.37300E+03
        -0.37300E+03
        -0.37300E+03
        -0.37300E+03
        -0.37300E+03
        -0.37300E+03
        -0.37300E+03
        -0.37300E+03
        -0.37300E+03
        -0.37300E+03
        -0.37300E+03
        -0.37300E+03
        -0.37300E+03
        -0.37300E+03
        -0.37300E+03
        -0.37300E+03
        -0.37300E+03
        -0.37300E+03
        -0.37300E+03
        -0.37300E+03
        -0.37300E+03
        -0.37300E+03
        -0.37300E+03
        -0.37300E+03
        -0.37300E+03
        -0.37300E+03
        -0.37300E+03
        -0.37300E+03
        -0.37300E+03
        -0.37300E+03
        -0.37300E+03
        -0.37300E+03
        -0.37300E+03
        -0.37300E+03
        -0.37300E+03
        -0.37300E+03
        -0.37300E+03
        -0.37300E+03
        -0.37300E+03
        -0.37300E+03
        -0.37300E+03
        -0.37300E+03
        -0.37300E+03
        -0.37300E+03
        -0.37300E+03
        -0.37300E+03
        -0.37300E+03
        -0.37300E+03
        -0.37300E+03
        -0.37300E+03
        -0.37300E+03
        -0.37300E+03
        -0.37300E+03
        -0.37300E+03
        -0.37300E+03
        -0.37300E+03
        -0.37300E+03
        -0.37300E+03
        -0.37300E+03
        -0.37300E+03
        -0.37300E+03
        -0.37300E+03
        -0.37300E+03
        -0.37300E+03
        -0.37300E+03
        -0.37300E+03
        -0.37300E+03
        -0.37300E+03
        -0.37300E+03
        -0.37300E+03
        -0.37300E+03
        -0.37300E+03
        -0.37300E+03
        -0.37300E+03
        -0.37300E+03
        -0.37300E+03
        -0.37300E+03
        -0.37300E+03
        -0.37300E+03
        -0.37300E+03
        -0.37300E+03
        -0.37300E+03
        -0.37300E+03
        -0.37300E+03
        -0.37300E+03
        -0.37300E+03
        -0.37300E+03
        -0.37300E+03
        -0.37300E+03
        -0.37300E+03
        -0.37300E+03
        -0.37300E+03
        -0.37300E+03
        -0.37300E+03
        -0.37300E+03
        -0.37300E+03
        -0.37300E+03
        -0.37300E+03
        -0.37300E+03
        -0.37300E+03
        -0.37300E+03
        -0.37300E+03
        -0.37300E+03
        -0.37300E+03
        -0.37300E+03
        -0.37300E+03
        -0.37300E+03
        -0.37300E+03
        -0.37300E+03
        -0.37300E+03
        -0.37300E+03
        -0.37300E+03
        -0.37300E+03
        -0.37300E+03
        -0.37300E+03
        -0.37300E+03
        -0.37300E+03
        -0.37300E+03
        -0.37300E+03
        -0.37300E+03
        -0.37300E+03
        -0.37300E+03
        -0.37300E+03
        -0.37300E+03
        -0.37300E+03
        -0.37300E+03
        -0.37300E+03
        -0.37300E+03
        -0.37300E+03
        -0.37300E+03
        -0.37300E+03
        -0.37300E+03
        -0.37300E+03
        -0.37300E+03
        -0.37300E+03
        -0.37300E+03
        -0.37300E+03
        -0.37300E+03
        -0.37300E+03
        -0.37300E+03
        -0.37300E+03
        -0.37300E+03
        -0.37300E+03
        -0.37300E+03
        -0.37300E+03
        -0.37300E+03
        -0.37300E+03
        -0.37300E+03
        -0.37300E+03
        -0.37300E+03
        -0.37300E+03
        -0.37300E+03
        -0.37300E+03
        -0.37300E+03
        -0.37300E+03
        -0.37300E+03
        -0.37300E+03
        -0.37300E+03
        -0.37300E+03
        -0.37300E+03
        -0.37300E+03
        -0.37300E+03
        -0.37300E+03
        -0.37300E+03
        -0.37300E+03
        -0.37300E+03
        -0.37300E+03
        -0.37300E+03
        -0.37300E+03
        -0.37300E+03
        -0.37300E+03
        -0.37300E+03
        -0.37300E+03
        -0.37300E+03
        -0.37300E+03
        -0.37300E+03
        -0.37300E+03
        -0.37300E+03
        -0.37300E+03
        -0.37300E+03
        -0.37300E+03
        -0.37300E+03
        -0.37300E+03
        -0.37300E+03
        -0.37300E+03
        -0.37300E+03
        -0.37300E+03
        -0.37300E+03
        -0.37300E+03
        -0.37300E+03
        -0.37300E+03
        -0.37300E+03
        -0.37300E+03
        -0.37300E+03
        -0.37300E+03
        -0.37300E+03
        -0.37300E+03
        -0.37300E+03
        -0.37300E+03
        -0.37300E+03
        -0.37300E+03
        -0.37300E+03
        -0.37300E+03
        -0.37300E+03
        -0.37300E+03
        -0.37300E+03
        -0.37300E+03
        -0.37300E+03
        -0.37300E+03
        -0.37300E+03
        -0.37300E+03
        -0.37300E+03
        -0.37300E+03
        -0.37300E+03
        -0.37300E+03
        -0.37300E+03
        -0.37300E+03
        -0.37300E+03
        -0.37300E+03
        -0.37300E+03
        -0.37300E+03
        -0.37300E+03
        -0.37300E+03
        -0.37300E+03
        -0.37300E+03
        -0.37300E+03
        -0.37300E+03
        -0.37300E+03
        -0.37300E+03
        -0.37300E+03
        -0.37300E+03
        -0.37300E+03
        -0.37300E+03
        -0.37300E+03
        -0.37300E+03
        -0.37300E+03
        -0.37300E+03
        -0.37300E+03
        -0.37300E+03
        -0.37300E+03
        -0.37300E+03
        -0.37300E+03
        -0.37300E+03
        -0.37300E+03
        -0.37300E+03
        -0.37300E+03
        -0.37300E+03
        -0.37300E+03
        -0.37300E+03
        -0.37300E+03
        -0.37300E+03
        -0.37300E+03
        -0.37300E+03
        -0.37300E+03
        -0.37300E+03
        -0.37300E+03
        -0.37300E+03
        -0.37300E+03
        -0.37300E+03
        -0.37300E+03
        -0.37300E+03
        -0.37300E+03
        -0.37300E+03
        -0.37300E+03
        -0.37300E+03
        -0.37300E+03
        -0.37300E+03
        -0.37300E+03
        -0.37300E+03
        -0.37300E+03
        -0.37300E+03
        -0.37300E+03
        -0.37300E+03
        -0.37300E+03
        -0.37300E+03
        -0.37300E+03
        -0.37300E+03
        -0.37300E+03
        -0.37300E+03
        -0.37300E+03
        -0.37300E+03
        -0.37300E+03
        -0.37300E+03
        -0.37300E+03
        -0.37300E+03
        -0.37300E+03
        -0.37300E+03
        -0.37300E+03
        -0.37300E+03
        -0.37300E+03
        -0.37300E+03
        -0.37300E+03
        -0.37300E+03
        -0.37300E+03
        -0.37300E+03
        -0.37300E+03
        -0.37300E+03
        -0.37300E+03
        -0.37300E+03
        -0.37300E+03
        -0.37300E+03
        -0.37300E+03
        -0.37300E+03
        -0.37300E+03
        -0.37300E+03
        -0.37300E+03
        -0.37300E+03
        -0.37300E+03
        -0.37300E+03
        -0.37300E+03
        -0.37300E+03
        -0.37300E+03
        -0.37300E+03
        -0.37300E+03
        -0.37300E+03
        -0.37300E+03
        -0.37300E+03
        -0.37300E+03
        -0.37300E+03
        -0.37300E+03
        -0.37300E+03
        -0.37300E+03
        -0.37300E+03
        -0.37300E+03
        -0.37300E+03
        -0.37300E+03
        -0.37300E+03
        -0.37300E+03
        -0.37300E+03
        -0.37300E+03
        -0.37300E+03
        -0.37300E+03
        -0.37300E+03
        -0.37300E+03
        -0.37300E+03
        -0.37300E+03
        -0.37300E+03
        -0.37300E+03
        -0.37300E+03
        -0.37300E+03
        -0.37300E+03
        -0.37300E+03
        -0.37300E+03
        -0.37300E+03
        -0.37300E+03
        -0.37300E+03
        -0.37300E+03
        -0.37300E+03
        -0.37300E+03
        -0.37300E+03
        -0.37300E+03
        -0.37300E+03
        -0.37300E+03
        -0.37300E+03
        -0.37300E+03
        -0.37300E+03
        -0.37300E+03
        -0.37300E+03
        -0.37300E+03
        -0.37300E+03
        -0.37300E+03
        -0.37300E+03
        -0.37300E+03
        -0.37300E+03
        -0.37300E+03
        -0.37300E+03
        -0.37300E+03
        -0.37300E+03
        -0.37300E+03
        -0.37300E+03
        -0.37300E+03
        -0.37300E+03
        -0.37300E+03
        -0.37300E+03
        -0.37300E+03
        -0.37300E+03
        -0.37300E+03
        -0.37300E+03
        -0.37300E+03
        -0.37300E+03
        -0.37300E+03
        -0.37300E+03
        -0.37300E+03
        -0.37300E+03
        -0.37300E+03
        -0.37300E+03
        -0.37300E+03
        -0.37300E+03
        -0.37300E+03
        -0.37300E+03
        -0.37300E+03
        -0.37300E+03
        -0.37300E+03
        -0.37300E+03
        -0.37300E+03
        -0.37300E+03
        -0.37300E+03
        -0.37300E+03
        -0.37300E+03
        -0.37300E+03
        -0.37300E+03
        -0.37300E+03
        -0.37300E+03
        -0.37300E+03
        -0.37300E+03
        -0.37300E+03
        -0.37300E+03
        -0.37300E+03
        -0.37300E+03
        -0.37300E+03
        -0.37300E+03
        -0.37300E+03
        -0.37300E+03
        -0.37300E+03
        -0.37300E+03
        -0.37300E+03
        -0.37300E+03
        -0.37300E+03
        -0.37300E+03
        -0.37300E+03
        -0.37300E+03
        -0.37300E+03
        -0.37300E+03
        -0.37300E+03
        -0.37300E+03
        -0.37300E+03
        -0.37300E+03
        -0.37300E+03
        -0.37300E+03
        -0.37300E+03
        -0.37300E+03
        -0.37300E+03
        -0.37300E+03
        -0.37300E+03
        -0.37300E+03
        -0.37300E+03
        -0.37300E+03
        -0.37300E+03
        -0.37300E+03
        -0.37300E+03
        -0.37300E+03
        -0.37300E+03
        -0.37300E+03
        -0.37300E+03
        -0.37300E+03
        -0.37300E+03
        -0.37300E+03
        -0.37300E+03
        -0.37300E+03
        -0.37300E+03
        -0.37300E+03
        -0.37300E+03
        -0.37300E+03
        -0.37300E+03
        -0.37300E+03
        -0.37300E+03
        -0.37300E+03
        -0.37300E+03
        -0.37300E+03
        -0.37300E+03
        -0.37300E+03
        -0.37300E+03
        -0.37300E+03
        -0.37300E+03
        -0.37300E+03
        -0.37300E+03
        -0.37300E+03
        -0.37300E+03
        -0.37300E+03
        -0.37300E+03
        -0.37300E+03
        -0.37300E+03
        -0.37300E+03
        -0.37300E+03
        -0.37300E+03
        -0.37300E+03
        -0.37300E+03
        -0.37300E+03
        -0.37300E+03
        -0.37300E+03
        -0.37300E+03
        -0.37300E+03
        -0.37300E+03
        -0.37300E+03
        -0.37300E+03
        -0.37300E+03
        -0.37300E+03
        -0.37300E+03
        -0.37300E+03
        -0.37300E+03
        -0.37300E+03
        -0.37300E+03
        -0.37300E+03
        -0.37300E+03
        -0.37300E+03
        -0.37300E+03
        -0.37300E+03
        -0.37300E+03
        -0.37300E+03
        -0.37300E+03
        -0.37300E+03
        -0.37300E+03
        -0.37300E+03
        -0.37300E+03
        -0.37300E+03
        -0.37300E+03
        -0.37300E+03
        -0.37300E+03
        -0.37300E+03
        -0.37300E+03
        -0.37300E+03
        -0.37300E+03
        -0.37300E+03
        -0.37300E+03
        -0.37300E+03
        -0.37300E+03
        -0.37300E+03
        -0.37300E+03
        -0.37300E+03
        -0.37300E+03
        -0.37300E+03
        -0.37300E+03
        -0.37300E+03
        -0.37300E+03
        -0.37300E+03
        -0.37300E+03
        -0.37300E+03
        -0.37300E+03
        -0.37300E+03
        -0.37300E+03
        -0.37300E+03
        -0.37300E+03
        -0.37300E+03
        -0.37300E+03
        -0.37300E+03
        -0.37300E+03
        -0.37300E+03
        -0.37300E+03
        -0.37300E+03
        -0.37300E+03
        -0.37300E+03
        -0.37300E+03
        -0.37300E+03
        -0.37300E+03
        -0.37300E+03
        -0.37300E+03
        -0.37300E+03
        -0.37300E+03
        -0.37300E+03
        -0.37300E+03
        -0.37300E+03
        -0.37300E+03
        -0.37300E+03
        -0.37300E+03
        -0.37300E+03
        -0.37300E+03
        -0.37300E+03
        -0.37300E+03
        -0.37300E+03
        -0.37300E+03
        -0.37300E+03
        -0.37300E+03
        -0.37300E+03
        -0.37300E+03
        -0.37300E+03
        -0.37300E+03
        -0.37300E+03
        -0.37300E+03
        -0.37300E+03
        -0.37300E+03
        -0.37300E+03
        -0.37300E+03
        -0.37300E+03
        -0.37300E+03
        -0.37300E+03
        -0.37300E+03
        -0.37300E+03
        -0.37300E+03
        -0.37300E+03
        -0.37300E+03
        -0.37300E+03
        -0.37300E+03
        -0.37300E+03
        -0.37300E+03
        -0.37300E+03
        -0.37300E+03
        -0.37300E+03
        -0.37300E+03
        -0.37300E+03
        -0.37300E+03
        -0.37300E+03
        -0.37300E+03
        -0.37300E+03
        -0.37300E+03
        -0.37300E+03
        -0.37300E+03
        -0.37300E+03
        -0.37300E+03
        -0.37300E+03
        -0.37300E+03
        -0.37300E+03
        -0.37300E+03
        -0.37300E+03
        -0.37300E+03
        -0.37300E+03
        -0.37300E+03
        -0.37300E+03
        -0.37300E+03
        -0.37300E+03
        -0.37300E+03
        -0.37300E+03
        -0.37300E+03
        -0.37300E+03
        -0.37300E+03
        -0.37300E+03
        -0.37300E+03
        -0.37300E+03
        -0.37300E+03
        -0.37300E+03
        -0.37300E+03
        -0.37300E+03
        -0.37300E+03
        -0.37300E+03
        -0.37300E+03
        -0.37300E+03
        -0.37300E+03
        -0.37300E+03
        -0.37300E+03
        -0.37300E+03
        -0.37300E+03
        -0.37300E+03
        -0.37300E+03
        -0.37300E+03
        -0.37300E+03
        -0.37300E+03
        -0.37300E+03
        -0.37300E+03
        -0.37300E+03
        -0.37300E+03
        -0.37300E+03
        -0.37300E+03
        -0.37300E+03
        -0.37300E+03
        -0.37300E+03
        -0.37300E+03
        -0.37300E+03
        -0.37300E+03
        -0.37300E+03
        -0.37300E+03
        -0.37300E+03
        -0.37300E+03
        -0.37300E+03
        -0.37300E+03
        -0.37300E+03
        -0.37300E+03
        -0.37300E+03
        -0.37300E+03
        -0.37300E+03
        -0.37300E+03
        -0.37300E+03
        -0.37300E+03
        -0.37300E+03
        -0.37300E+03
        -0.37300E+03
        -0.37300E+03
        -0.37300E+03
        -0.37300E+03
        -0.37300E+03
        -0.37300E+03
        -0.37300E+03
        -0.37300E+03
        -0.37300E+03
        -0.37300E+03
        -0.37300E+03
        -0.37300E+03
        -0.37300E+03
        -0.37300E+03
        -0.37300E+03
        -0.37300E+03
        -0.37300E+03
        -0.37300E+03
        -0.37300E+03
        -0.37300E+03
        -0.37300E+03
        -0.37300E+03
        -0.37300E+03
        -0.37300E+03
        -0.37300E+03
        -0.37300E+03
        -0.37300E+03
        -0.37300E+03
        -0.37300E+03
        -0.37300E+03
        -0.37300E+03
        -0.37300E+03
        -0.37300E+03
        -0.37300E+03
        -0.37300E+03
        -0.37300E+03
        -0.37300E+03
        -0.37300E+03
        -0.37300E+03
        -0.37300E+03
        -0.37300E+03
        -0.37300E+03
        -0.37300E+03
        -0.37300E+03
        -0.37300E+03
        -0.37300E+03
        -0.37300E+03
        -0.37300E+03
        -0.37300E+03
        -0.37300E+03
        -0.37300E+03
        -0.37300E+03
        -0.37300E+03
        -0.37300E+03
        -0.37300E+03
        -0.37300E+03
        -0.37300E+03
        -0.37300E+03
        -0.37300E+03
        -0.37300E+03
        -0.37300E+03
        -0.37300E+03
        -0.37300E+03
        -0.37300E+03
        -0.37300E+03
        -0.37300E+03
        -0.37300E+03
        -0.37300E+03
        -0.37300E+03
        -0.37300E+03
        -0.37300E+03
        -0.37300E+03
        -0.37300E+03
        -0.37300E+03
        -0.37300E+03
        -0.37300E+03
        -0.37300E+03
        -0.37300E+03
        -0.37300E+03
        -0.37300E+03
        -0.37300E+03
        -0.37300E+03
        -0.37300E+03
        -0.37300E+03
        -0.37300E+03
        -0.37300E+03
        -0.37300E+03
        -0.37300E+03
        -0.37300E+03
        -0.37300E+03
        -0.37300E+03
        -0.37300E+03
        -0.37300E+03
        -0.37300E+03
        -0.37300E+03
        -0.37300E+03
        -0.37300E+03
        -0.37300E+03
        -0.37300E+03
        -0.37300E+03
        -0.37300E+03
        -0.37300E+03
        -0.37300E+03
        -0.37300E+03
        -0.37300E+03
        -0.37300E+03
        -0.37300E+03
        -0.37300E+03
        -0.37300E+03
        -0.37300E+03
        -0.37300E+03
        -0.37300E+03
        -0.37300E+03
        -0.37300E+03
        -0.37300E+03
        -0.37300E+03
        -0.37300E+03
        -0.37300E+03
        -0.37300E+03
        -0.37300E+03
        -0.37300E+03
        -0.37300E+03
        -0.37300E+03
        -0.37300E+03
        -0.37300E+03
        -0.37300E+03
        -0.37300E+03
        -0.37300E+03
        -0.37300E+03
        -0.37300E+03
        -0.37300E+03
        -0.37300E+03
        -0.37300E+03
        -0.37300E+03
        -0.37300E+03
        -0.37300E+03
        -0.37300E+03
        -0.37300E+03
        -0.37300E+03
        -0.37300E+03
        -0.37300E+03
        -0.37300E+03
        -0.37300E+03
        -0.37300E+03
        -0.37300E+03
        -0.37300E+03
        -0.37300E+03
        -0.37300E+03
        -0.37300E+03
        -0.37300E+03
        -0.37300E+03
        -0.37300E+03
        -0.37300E+03
        -0.37300E+03
        -0.37300E+03
        -0.37300E+03
        -0.37300E+03
        -0.37300E+03
        -0.37300E+03
        -0.37300E+03
        -0.37300E+03
        -0.37300E+03
        -0.37300E+03
        -0.37300E+03
        -0.37300E+03
        -0.37300E+03
        -0.37300E+03
        -0.37300E+03
        -0.37300E+03
        -0.37300E+03
        -0.37300E+03
        -0.37300E+03
        -0.37300E+03
        -0.37300E+03
        -0.37300E+03
        -0.37300E+03
        -0.37300E+03
        -0.37300E+03
        -0.37300E+03
        -0.37300E+03
        -0.37300E+03
        -0.37300E+03
        -0.37300E+03
        -0.37300E+03
        -0.37300E+03
        -0.37300E+03
        -0.37300E+03
        -0.37300E+03
        -0.37300E+03
        -0.37300E+03
        -0.37300E+03
        -0.37300E+03
        -0.37300E+03
        -0.37300E+03
        -0.37300E+03
        -0.37300E+03
        -0.37300E+03
        -0.37300E+03
        -0.37300E+03
        -0.37300E+03
        -0.37300E+03
        -0.37300E+03
        -0.37300E+03
        -0.37300E+03
        -0.37300E+03
        -0.37300E+03
        -0.37300E+03
        -0.37300E+03
        -0.37300E+03
        -0.37300E+03
        -0.37300E+03
        -0.37300E+03
        -0.37300E+03
        -0.37300E+03
        -0.37300E+03
        -0.37300E+03
        -0.37300E+03
        -0.37300E+03
        -0.37300E+03
        -0.37300E+03
        -0.37300E+03
        -0.37300E+03
        -0.37300E+03
        -0.37300E+03
        -0.37300E+03
        -0.37300E+03
        -0.37300E+03
        -0.37300E+03
        -0.37300E+03
        -0.37300E+03
        -0.37300E+03
        -0.37300E+03
        -0.37300E+03
        -0.37300E+03
        -0.37300E+03
        -0.37300E+03
        -0.37300E+03
        -0.37300E+03
        -0.37300E+03
        -0.37300E+03
        -0.37300E+03
        -0.37300E+03
        -0.37300E+03
        -0.37300E+03
        -0.37300E+03
        -0.37300E+03
        -0.37300E+03
        -0.37300E+03
        -0.37300E+03
        -0.37300E+03
        -0.37300E+03
        -0.37300E+03
        -0.37300E+03
        -0.37300E+03
        -0.37300E+03
        -0.37300E+03
        -0.37300E+03
        -0.37300E+03
        -0.37300E+03
        -0.37300E+03
        -0.37300E+03
        -0.37300E+03
        -0.37300E+03
        -0.37300E+03
        -0.37300E+03
        -0.37300E+03
        -0.37300E+03
        -0.37300E+03
        -0.37300E+03
        -0.37300E+03
        -0.37300E+03
        -0.37300E+03
        -0.37300E+03
        -0.37300E+03
        -0.37300E+03
        -0.37300E+03
        -0.37300E+03
        -0.37300E+03
        -0.37300E+03
        -0.37300E+03
        -0.37300E+03
        -0.37300E+03
        -0.37300E+03
        -0.37300E+03
        -0.37300E+03
        -0.37300E+03
        -0.37300E+03
        -0.37300E+03
        -0.37300E+03
        -0.37300E+03
        -0.37300E+03
        -0.37300E+03
        -0.37300E+03
        -0.37300E+03
        -0.37300E+03
        -0.37300E+03
        -0.37300E+03
        -0.37300E+03
        -0.37300E+03
        -0.37300E+03
        -0.37300E+03
        -0.37300E+03
        -0.37300E+03
        -0.37300E+03
        -0.37300E+03
        -0.37300E+03
        -0.37300E+03
        -0.37300E+03
        -0.37300E+03
        -0.37300E+03
        -0.37300E+03
        -0.37300E+03
        -0.37300E+03
        -0.37300E+03
        -0.37300E+03
        -0.37300E+03
        -0.37300E+03
        -0.37300E+03
        -0.37300E+03
        -0.37300E+03
        -0.37300E+03
        -0.37300E+03
        -0.37300E+03
        -0.37300E+03
        -0.37300E+03
        -0.37300E+03
        -0.37300E+03
        -0.37300E+03
        -0.37300E+03
        -0.37300E+03
        -0.37300E+03
        -0.37300E+03
        -0.37300E+03
        -0.37300E+03
        -0.37300E+03
        -0.37300E+03
        -0.37300E+03
        -0.37300E+03
        -0.37300E+03
        -0.37300E+03
        -0.37300E+03
        -0.37300E+03
        -0.37300E+03
        -0.37300E+03
        -0.37300E+03
        -0.37300E+03
        -0.37300E+03
        -0.37300E+03
        -0.37300E+03
        -0.37300E+03
        -0.37300E+03
        -0.37300E+03
        -0.37300E+03
        -0.37300E+03
        -0.37300E+03
        -0.37300E+03
        -0.37300E+03
        -0.37300E+03
        -0.37300E+03
        -0.37300E+03
        -0.37300E+03
        -0.37300E+03
        -0.37300E+03
        -0.37300E+03
        -0.37300E+03
        -0.37300E+03
        -0.37300E+03
        -0.37300E+03
        -0.37300E+03
        -0.37300E+03
        -0.37300E+03
        -0.37300E+03
        -0.37300E+03
        -0.37300E+03
        -0.37300E+03
        -0.37300E+03
        -0.37300E+03
        -0.37300E+03
        -0.37300E+03
        -0.37300E+03
        -0.37300E+03
        -0.37300E+03
        -0.37300E+03
        -0.37300E+03
        -0.37300E+03
        -0.37300E+03
        -0.37300E+03
        -0.37300E+03
        -0.37300E+03
        -0.37300E+03
        -0.37300E+03
        -0.37300E+03
        -0.37300E+03
        -0.37300E+03
        -0.37300E+03
        -0.37300E+03
        -0.37300E+03
        -0.37300E+03
        -0.37300E+03
        -0.37300E+03
        -0.37300E+03
        -0.37300E+03
        -0.37300E+03
        -0.37300E+03
        -0.37300E+03
        -0.37300E+03
        -0.37300E+03
        -0.37300E+03
        -0.37300E+03
        -0.37300E+03
        -0.37300E+03
        -0.37300E+03
        -0.37300E+03
        -0.37300E+03
        -0.37300E+03
        -0.37300E+03
        -0.37300E+03
        -0.37300E+03
        -0.37300E+03
        -0.37300E+03
        -0.37300E+03
        -0.37300E+03
        -0.37300E+03
        -0.37300E+03
        -0.37300E+03
        -0.37300E+03
        -0.37300E+03
        -0.37300E+03
        -0.37300E+03
        -0.37300E+03
        -0.37300E+03
        -0.37300E+03
        -0.37300E+03
        -0.37300E+03
        -0.37300E+03
        -0.37300E+03
        -0.37300E+03
        -0.37300E+03
        -0.37300E+03
        -0.37300E+03
        -0.37300E+03
        -0.37300E+03
        -0.37300E+03
        -0.37300E+03
        -0.37300E+03
        -0.37300E+03
        -0.37300E+03
        -0.37300E+03
        -0.37300E+03
        -0.37300E+03
        -0.37300E+03
        -0.37300E+03
        -0.37300E+03
        -0.37300E+03
        -0.37300E+03
        -0.37300E+03
        -0.37300E+03
        -0.37300E+03
        -0.37300E+03
        -0.37300E+03
        -0.37300E+03
        -0.37300E+03
        -0.37300E+03
        -0.37300E+03
        -0.37300E+03
        -0.37300E+03
        -0.37300E+03
        -0.37300E+03
        -0.37300E+03
        -0.37300E+03
        -0.37300E+03
        -0.37300E+03
        -0.37300E+03
        -0.37300E+03
        -0.37300E+03
        -0.37300E+03
        -0.37300E+03
        -0.37300E+03
        -0.37300E+03
        -0.37300E+03
        -0.37300E+03
        -0.37300E+03
        -0.37300E+03
        -0.37300E+03
        -0.37300E+03
        -0.37300E+03
        -0.37300E+03
        -0.37300E+03
        -0.37300E+03
        -0.37300E+03
        -0.37300E+03
        -0.37300E+03
        -0.37300E+03
        -0.37300E+03
        -0.37300E+03
        -0.37300E+03
        -0.37300E+03
        -0.37300E+03
        -0.37300E+03
        -0.37300E+03
        -0.37300E+03
        -0.37300E+03
        -0.37300E+03
        -0.37300E+03
        -0.37300E+03
        -0.37300E+03
        -0.37300E+03
        -0.37300E+03
        -0.37300E+03
        -0.37300E+03
        -0.37300E+03
        -0.37300E+03
        -0.37300E+03
        -0.37300E+03
        -0.37300E+03
        -0.37300E+03
        -0.37300E+03
        -0.37300E+03
        -0.37300E+03
        -0.37300E+03
        -0.37300E+03
        -0.37300E+03
        -0.37300E+03
        -0.37300E+03
        -0.37300E+03
        -0.37300E+03
        -0.37300E+03
        -0.37300E+03
        -0.37300E+03
        -0.37300E+03
        -0.37300E+03
        -0.37300E+03
        -0.37300E+03
        -0.37300E+03
        -0.37300E+03
        -0.37300E+03
        -0.37300E+03
        -0.37300E+03
        -0.37300E+03
        -0.37300E+03
        -0.37300E+03
        -0.37300E+03
        -0.37300E+03
        -0.37300E+03
        -0.37300E+03
        -0.37300E+03
        -0.37300E+03
        -0.37300E+03
        -0.37300E+03
        -0.37300E+03
        -0.37300E+03
        -0.37300E+03
        -0.37300E+03
        -0.37300E+03
        -0.37300E+03
        -0.37300E+03
        -0.37300E+03
        -0.37300E+03
        -0.37300E+03
        -0.37300E+03
        -0.37300E+03
        -0.37300E+03
        -0.37300E+03
        -0.37300E+03
        -0.37300E+03
        -0.37300E+03
        -0.37300E+03
        -0.37300E+03
        -0.37300E+03
        -0.37300E+03
        -0.37300E+03
        -0.37300E+03
        -0.37300E+03
        -0.37300E+03
        -0.37300E+03
        -0.37300E+03
        -0.37300E+03
        -0.37300E+03
        -0.37300E+03
        -0.37300E+03
        -0.37300E+03
        -0.37300E+03
        -0.37300E+03
        -0.37300E+03
        -0.37300E+03
        -0.37300E+03
        -0.37300E+03
        -0.37300E+03
        -0.37300E+03
        -0.37300E+03
        -0.37300E+03
        -0.37300E+03
        -0.37300E+03
        -0.37300E+03
        -0.37300E+03
        -0.37300E+03
        -0.37300E+03
        -0.37300E+03
        -0.37300E+03
        -0.37300E+03
        -0.37300E+03
        -0.37300E+03
        -0.37300E+03
        -0.37300E+03
        -0.37300E+03
        -0.37300E+03
        -0.37300E+03
        -0.37300E+03
        -0.37300E+03
        -0.37300E+03
        -0.37300E+03
        -0.37300E+03
        -0.37300E+03
        -0.37300E+03
        -0.37300E+03
        -0.37300E+03
        -0.37300E+03
        -0.37300E+03
        -0.37300E+03
        -0.37300E+03
        -0.37300E+03
        -0.37300E+03
        -0.37300E+03
        -0.37300E+03
        -0.37300E+03
        -0.37300E+03
        -0.37300E+03
        -0.37300E+03
        -0.37300E+03
        -0.37300E+03
        -0.37300E+03
        -0.37300E+03
        -0.37300E+03
        -0.37300E+03
        -0.37300E+03
        -0.37300E+03
        -0.37300E+03
        -0.37300E+03
        -0.37300E+03
        -0.37300E+03
        -0.37300E+03
        -0.37300E+03
        -0.37300E+03
        -0.37300E+03
        -0.37300E+03
        -0.37300E+03
        -0.37300E+03
        -0.37300E+03
        -0.37300E+03
        -0.37300E+03
        -0.37300E+03
        -0.37300E+03
        -0.37300E+03
        -0.37300E+03
        -0.37300E+03
        -0.37300E+03
        -0.37300E+03
        -0.37300E+03
        -0.37300E+03
        -0.37300E+03
        -0.37300E+03
        -0.37300E+03
        -0.37300E+03
        -0.37300E+03
        -0.37300E+03
        -0.37300E+03
        -0.37300E+03
        -0.37300E+03
        -0.37300E+03
        -0.37300E+03
        -0.37300E+03
        -0.37300E+03
        -0.37300E+03
        -0.37300E+03
        -0.37300E+03
        -0.37300E+03
        -0.37300E+03
        -0.37300E+03
        -0.37300E+03
        -0.37300E+03
        -0.37300E+03
        -0.37300E+03
        -0.37300E+03
        -0.37300E+03
        -0.37300E+03
        -0.37300E+03
        -0.37300E+03
        -0.37300E+03
        -0.37300E+03
        -0.37300E+03
        -0.37300E+03
        -0.37300E+03
        -0.37300E+03
        -0.37300E+03
        -0.37300E+03
        -0.37300E+03
        -0.37300E+03
        -0.37300E+03
        -0.37300E+03
        -0.37300E+03
        -0.37300E+03
        -0.37300E+03
        -0.37300E+03
        -0.37300E+03
        -0.37300E+03
        -0.37300E+03
        -0.37300E+03
        -0.37300E+03
        -0.37300E+03
        -0.37300E+03
        -0.37300E+03
        -0.37300E+03
        -0.37300E+03
        -0.37300E+03
        -0.37300E+03
        -0.37300E+03
        -0.37300E+03
        -0.37300E+03
        -0.37300E+03
        -0.37300E+03
        -0.37300E+03
        -0.37300E+03
        -0.37300E+03
        -0.37300E+03
        -0.37300E+03
        -0.37300E+03
        -0.37300E+03
        -0.37300E+03
        -0.37300E+03
        -0.37300E+03
        -0.37300E+03
        -0.37300E+03
        -0.37300E+03
        -0.37300E+03
        -0.37300E+03
        -0.37300E+03
        -0.37300E+03
        -0.37300E+03
        -0.37300E+03
        -0.37300E+03
        -0.37300E+03
        -0.37300E+03
        -0.37300E+03
        -0.37300E+03
        -0.37300E+03
        -0.37300E+03
        -0.37300E+03
        -0.37300E+03
        -0.37300E+03
        -0.37300E+03
        -0.37300E+03
        -0.37300E+03
        -0.37300E+03
        -0.37300E+03
        -0.37300E+03
        -0.37300E+03
        -0.37300E+03
        -0.37300E+03
        -0.37300E+03
        -0.37300E+03
        -0.37300E+03
        -0.37300E+03
        -0.37300E+03
        -0.37300E+03
        -0.37300E+03
        -0.37300E+03
        -0.37300E+03
        -0.37300E+03
        -0.37300E+03
        -0.37300E+03
        -0.37300E+03
        -0.37300E+03
        -0.37300E+03
        -0.37300E+03
        -0.37300E+03
        -0.37300E+03
        -0.37300E+03
        -0.37300E+03
        -0.37300E+03
        -0.37300E+03
        -0.37300E+03
        -0.37300E+03
        -0.37300E+03
        -0.37300E+03
        -0.37300E+03
        -0.37300E+03
        -0.37300E+03
        -0.37300E+03
        -0.37300E+03
        -0.37300E+03
        -0.37300E+03
        -0.37300E+03
        -0.37300E+03
        -0.37300E+03
        -0.37300E+03
        -0.37300E+03
        -0.37300E+03
        -0.37300E+03
        -0.37300E+03
        -0.37300E+03
        -0.37300E+03
        -0.37300E+03
        -0.37300E+03
        -0.37300E+03
        -0.37300E+03
        -0.37300E+03
        -0.37300E+03
        -0.37300E+03
        -0.37300E+03
        -0.37300E+03
        -0.37300E+03
        -0.37300E+03
        -0.37300E+03
        -0.37300E+03
        -0.37300E+03
        -0.37300E+03
        -0.37300E+03
        -0.37300E+03
        -0.37300E+03
        -0.37300E+03
        -0.37300E+03
        -0.37300E+03
        -0.37300E+03
        -0.37300E+03
        -0.37300E+03
        -0.37300E+03
        -0.37300E+03
        -0.37300E+03
        -0.37300E+03
        -0.37300E+03
        -0.37300E+03
        -0.37300E+03
        -0.37300E+03
        -0.37300E+03
        -0.37300E+03
        -0.37300E+03
        -0.37300E+03
        -0.37300E+03
        -0.37300E+03
        -0.37300E+03
        -0.37300E+03
        -0.37300E+03
        -0.37300E+03
        -0.37300E+03
        -0.37300E+03
        -0.37300E+03
        -0.37300E+03
        -0.37300E+03
        -0.37300E+03
        -0.37300E+03
        -0.37300E+03
        -0.37300E+03
        -0.37300E+03
        -0.37300E+03
        -0.37300E+03
        -0.37300E+03
        -0.37300E+03
        -0.37300E+03
        -0.37300E+03
        -0.37300E+03
        -0.37300E+03
        -0.37300E+03
        -0.37300E+03
        -0.37300E+03
        -0.37300E+03
        -0.37300E+03
        -0.37300E+03
        -0.37300E+03
        -0.37300E+03
        -0.37300E+03
        -0.37300E+03
        -0.37300E+03
        -0.37300E+03
        -0.37300E+03
        -0.37300E+03
        -0.37300E+03
        -0.37300E+03
        -0.37300E+03
        -0.37300E+03
        -0.37300E+03
        -0.37300E+03
        -0.37300E+03
        -0.37300E+03
        -0.37300E+03
        -0.37300E+03
        -0.37300E+03
        -0.37300E+03
        -0.37300E+03
        -0.37300E+03
        -0.37300E+03
        -0.37300E+03
        -0.37300E+03
        -0.37300E+03
        -0.37300E+03
        -0.37300E+03
        -0.37300E+03
        -0.37300E+03
        -0.37300E+03
        -0.37300E+03
        -0.37300E+03
        -0.37300E+03
        -0.37300E+03
        -0.37300E+03
        -0.37300E+03
        -0.37300E+03
        -0.37300E+03
        -0.37300E+03
        -0.37300E+03
        -0.37300E+03
        -0.37300E+03
        -0.37300E+03
        -0.37300E+03
        -0.37300E+03
        -0.37300E+03
        -0.37300E+03
        -0.37300E+03
        -0.37300E+03
        -0.37300E+03
        -0.37300E+03
        -0.37300E+03
        -0.37300E+03
        -0.37300E+03
        -0.37300E+03
        -0.37300E+03
        -0.37300E+03
        -0.37300E+03
        -0.37300E+03
        -0.37300E+03
        -0.37300E+03
        -0.37300E+03
        -0.37300E+03
        -0.37300E+03
        -0.37300E+03
        -0.37300E+03
        -0.37300E+03
        -0.37300E+03
        -0.37300E+03
        -0.37300E+03
        -0.37300E+03
        -0.37300E+03
        -0.37300E+03
        -0.37300E+03
        -0.37300E+03
        -0.37300E+03
        -0.37300E+03
        -0.37300E+03
        -0.37300E+03
        -0.37300E+03
        -0.37300E+03
        -0.37300E+03
        -0.37300E+03
        -0.37300E+03
        -0.37300E+03
        -0.37300E+03
        -0.37300E+03
        -0.37300E+03
        -0.37300E+03
        -0.37300E+03
        -0.37300E+03
        -0.37300E+03
        -0.37300E+03
        -0.37300E+03
        -0.37300E+03
        -0.37300E+03
        -0.37300E+03
        -0.37300E+03
        -0.37300E+03
        -0.37300E+03
        -0.37300E+03
        -0.37300E+03
        -0.37300E+03
        -0.37300E+03
        -0.37300E+03
        -0.37300E+03
        -0.37300E+03
        -0.37300E+03
        -0.37300E+03
        -0.37300E+03
        -0.37300E+03
        -0.37300E+03
        -0.37300E+03
        -0.37300E+03
        -0.37300E+03
        -0.37300E+03
        -0.37300E+03
        -0.37300E+03
        -0.37300E+03
        -0.37300E+03
        -0.37300E+03
        -0.37300E+03
        -0.37300E+03
        -0.37300E+03
        -0.37300E+03
        -0.37300E+03
        -0.37300E+03
        -0.37300E+03
        -0.37300E+03
        -0.37300E+03
        -0.37300E+03
        -0.37300E+03
        -0.37300E+03
        -0.37300E+03
        -0.37300E+03
        -0.37300E+03
        -0.37300E+03
        -0.37300E+03
        -0.37300E+03
        -0.37300E+03
        -0.37300E+03
        -0.37300E+03
        -0.37300E+03
        -0.37300E+03
        -0.37300E+03
        -0.37300E+03
        -0.37300E+03
        -0.37300E+03
        -0.37300E+03
        -0.37300E+03
        -0.37300E+03
        -0.37300E+03
        -0.37300E+03
        -0.37300E+03
        -0.37300E+03
        -0.37300E+03
        -0.37300E+03
        -0.37300E+03
        -0.37300E+03
        -0.37300E+03
        -0.37300E+03
        -0.37300E+03
        -0.37300E+03
        -0.37300E+03
        -0.37300E+03
        -0.37300E+03
        -0.37300E+03
        -0.37300E+03
        -0.37300E+03
        -0.37300E+03
        -0.37300E+03
        -0.37300E+03
        -0.37300E+03
        -0.37300E+03
        -0.37300E+03
        -0.37300E+03
        -0.37300E+03
        -0.37300E+03
        -0.37300E+03
        -0.37300E+03
        -0.37300E+03
        -0.37300E+03
        -0.37300E+03
        -0.37300E+03
        -0.37300E+03
        -0.37300E+03
        -0.37300E+03
        -0.37300E+03
        -0.37300E+03
        -0.37300E+03
        -0.37300E+03
        -0.37300E+03
        -0.37300E+03
        -0.37300E+03
        -0.37300E+03
        -0.37300E+03
        -0.37300E+03
        -0.37300E+03
        -0.37300E+03
        -0.37300E+03
        -0.37300E+03
        -0.37300E+03
        -0.37300E+03
        -0.37300E+03
        -0.37300E+03
        -0.37300E+03
        -0.37300E+03
        -0.37300E+03
        -0.37300E+03
        -0.37300E+03
        -0.37300E+03
        -0.37300E+03
        -0.37300E+03
        -0.37300E+03
        -0.37300E+03
        -0.37300E+03
        -0.37300E+03
        -0.37300E+03
        -0.37300E+03
        -0.37300E+03
        -0.37300E+03
        -0.37300E+03
        -0.37300E+03
        -0.37300E+03
        -0.37300E+03
        -0.37300E+03
        -0.37300E+03
        -0.37300E+03
        -0.37300E+03
        -0.37300E+03
        -0.37300E+03
        -0.37300E+03
        -0.37300E+03
        -0.37300E+03
        -0.37300E+03
        -0.37300E+03
        -0.37300E+03
        -0.37300E+03
        -0.37300E+03
        -0.37300E+03
        -0.37300E+03
        -0.37300E+03
        -0.37300E+03
        -0.37300E+03
        -0.37300E+03
        -0.37300E+03
        -0.37300E+03
        -0.37300E+03
        -0.37300E+03
        -0.37300E+03
        -0.37300E+03
        -0.37300E+03
        -0.37300E+03
        -0.37300E+03
        -0.37300E+03
        -0.37300E+03
        -0.37300E+03
        -0.37300E+03
        -0.37300E+03
        -0.37300E+03
        -0.37300E+03
        -0.37300E+03
        -0.37300E+03
        -0.37300E+03
        -0.37300E+03
        -0.37300E+03
        -0.37300E+03
        -0.37300E+03
        -0.37300E+03
        -0.37300E+03
        -0.37300E+03
        -0.37300E+03
        -0.37300E+03
        -0.37300E+03
        -0.37300E+03
        -0.37300E+03
        -0.37300E+03
        -0.37300E+03
        -0.37300E+03
        -0.37300E+03
        -0.37300E+03
        -0.37300E+03
        -0.37300E+03
        -0.37300E+03
        -0.37300E+03
        -0.37300E+03
        -0.37300E+03
  
SCALARS              normalized_window  double 1
LOOKUP_TABLE default
         0.27500E+01
         0.27500E+01
         0.27500E+01
         0.27500E+01
         0.27500E+01
         0.27500E+01
         0.27500E+01
         0.27500E+01
         0.27500E+01
         0.27500E+01
         0.27500E+01
         0.27500E+01
         0.27500E+01
         0.27500E+01
         0.27500E+01
         0.27500E+01
         0.27500E+01
         0.27500E+01
         0.27500E+01
         0.27500E+01
         0.27500E+01
         0.27500E+01
         0.27500E+01
         0.27500E+01
         0.27500E+01
         0.27500E+01
         0.27500E+01
         0.27500E+01
         0.27500E+01
         0.27500E+01
         0.27500E+01
         0.27500E+01
         0.27500E+01
         0.27500E+01
         0.27500E+01
         0.27500E+01
         0.27500E+01
         0.27500E+01
         0.27500E+01
         0.27500E+01
         0.27500E+01
         0.27500E+01
         0.27500E+01
         0.27500E+01
         0.27500E+01
         0.27500E+01
         0.27500E+01
         0.27500E+01
         0.27500E+01
         0.27500E+01
         0.27500E+01
         0.27500E+01
         0.27500E+01
         0.27500E+01
         0.27500E+01
         0.27500E+01
         0.27500E+01
         0.27500E+01
         0.27500E+01
         0.27500E+01
         0.27500E+01
         0.27500E+01
         0.27500E+01
         0.27500E+01
         0.27500E+01
         0.27500E+01
         0.27500E+01
         0.27500E+01
         0.27500E+01
         0.27500E+01
         0.27500E+01
         0.27500E+01
         0.27500E+01
         0.27500E+01
         0.27500E+01
         0.27500E+01
         0.27500E+01
         0.27500E+01
         0.27500E+01
         0.27500E+01
         0.27500E+01
         0.27500E+01
         0.27500E+01
         0.27500E+01
         0.27500E+01
         0.27500E+01
         0.27500E+01
         0.27500E+01
         0.27500E+01
         0.27500E+01
         0.27500E+01
         0.27500E+01
         0.27500E+01
         0.27500E+01
         0.27500E+01
         0.27500E+01
         0.27500E+01
         0.27500E+01
         0.27500E+01
         0.27500E+01
         0.27500E+01
         0.27500E+01
         0.27500E+01
         0.27500E+01
         0.27500E+01
         0.27500E+01
         0.27500E+01
         0.27500E+01
         0.27500E+01
         0.27500E+01
         0.27500E+01
         0.27500E+01
         0.27500E+01
         0.27500E+01
         0.27500E+01
         0.27500E+01
         0.27500E+01
         0.27500E+01
         0.27500E+01
         0.27500E+01
         0.27500E+01
         0.27500E+01
         0.27500E+01
         0.27500E+01
         0.27500E+01
         0.27500E+01
         0.27500E+01
         0.27500E+01
         0.27500E+01
         0.27500E+01
         0.27500E+01
         0.27500E+01
         0.27500E+01
         0.27500E+01
         0.27500E+01
         0.27500E+01
         0.27500E+01
         0.27500E+01
         0.27500E+01
         0.27500E+01
         0.27500E+01
         0.27500E+01
         0.27500E+01
         0.27500E+01
         0.27500E+01
         0.27500E+01
         0.27500E+01
         0.27500E+01
         0.27500E+01
         0.27500E+01
         0.27500E+01
         0.27500E+01
         0.27500E+01
         0.27500E+01
         0.27500E+01
         0.27500E+01
         0.27500E+01
         0.27500E+01
         0.27500E+01
         0.27500E+01
         0.27500E+01
         0.27500E+01
         0.27500E+01
         0.27500E+01
         0.27500E+01
         0.27500E+01
         0.27500E+01
         0.27500E+01
         0.27500E+01
         0.27500E+01
         0.27500E+01
         0.27500E+01
         0.27500E+01
         0.27500E+01
         0.27500E+01
         0.27500E+01
         0.27500E+01
         0.27500E+01
         0.27500E+01
         0.27500E+01
         0.27500E+01
         0.27500E+01
         0.27500E+01
         0.27500E+01
         0.27500E+01
         0.27500E+01
         0.27500E+01
         0.27500E+01
         0.27500E+01
         0.27500E+01
         0.27500E+01
         0.27500E+01
         0.27500E+01
         0.27500E+01
         0.27500E+01
         0.27500E+01
         0.27500E+01
         0.27500E+01
         0.27500E+01
         0.27500E+01
         0.27500E+01
         0.27500E+01
         0.27500E+01
         0.27500E+01
         0.27500E+01
         0.27500E+01
         0.27500E+01
         0.27500E+01
         0.27500E+01
         0.27500E+01
         0.27500E+01
         0.27500E+01
         0.27500E+01
         0.27500E+01
         0.27500E+01
         0.27500E+01
         0.27500E+01
         0.27500E+01
         0.27500E+01
         0.27500E+01
         0.27500E+01
         0.27500E+01
         0.27500E+01
         0.27500E+01
         0.27500E+01
         0.27500E+01
         0.27500E+01
         0.27500E+01
         0.27500E+01
         0.27500E+01
         0.27500E+01
         0.27500E+01
         0.27500E+01
         0.27500E+01
         0.27500E+01
         0.27500E+01
         0.27500E+01
         0.27500E+01
         0.27500E+01
         0.27500E+01
         0.27500E+01
         0.27500E+01
         0.27500E+01
         0.27500E+01
         0.27500E+01
         0.27500E+01
         0.27500E+01
         0.27500E+01
         0.27500E+01
         0.27500E+01
         0.27500E+01
         0.27500E+01
         0.27500E+01
         0.27500E+01
         0.27500E+01
         0.27500E+01
         0.27500E+01
         0.27500E+01
         0.27500E+01
         0.27500E+01
         0.27500E+01
         0.27500E+01
         0.27500E+01
         0.27500E+01
         0.27500E+01
         0.27500E+01
         0.27500E+01
         0.27500E+01
         0.27500E+01
         0.27500E+01
         0.27500E+01
         0.27500E+01
         0.27500E+01
         0.27500E+01
         0.27500E+01
         0.27500E+01
         0.27500E+01
         0.27500E+01
         0.27500E+01
         0.27500E+01
         0.27500E+01
         0.27500E+01
         0.27500E+01
         0.27500E+01
         0.27500E+01
         0.27500E+01
         0.27500E+01
         0.27500E+01
         0.27500E+01
         0.27500E+01
         0.27500E+01
         0.27500E+01
         0.27500E+01
         0.27500E+01
         0.27500E+01
         0.27500E+01
         0.27500E+01
         0.27500E+01
         0.27500E+01
         0.27500E+01
         0.27500E+01
         0.27500E+01
         0.27500E+01
         0.27500E+01
         0.27500E+01
         0.27500E+01
         0.27500E+01
         0.27500E+01
         0.27500E+01
         0.27500E+01
         0.27500E+01
         0.27500E+01
         0.27500E+01
         0.27500E+01
         0.27500E+01
         0.27500E+01
         0.27500E+01
         0.27500E+01
         0.27500E+01
         0.27500E+01
         0.27500E+01
         0.27500E+01
         0.27500E+01
         0.27500E+01
         0.27500E+01
         0.27500E+01
         0.27500E+01
         0.27500E+01
         0.27500E+01
         0.27500E+01
         0.27500E+01
         0.27500E+01
         0.27500E+01
         0.27500E+01
         0.27500E+01
         0.27500E+01
         0.27500E+01
         0.27500E+01
         0.27500E+01
         0.27500E+01
         0.27500E+01
         0.27500E+01
         0.27500E+01
         0.27500E+01
         0.27500E+01
         0.27500E+01
         0.27500E+01
         0.27500E+01
         0.27500E+01
         0.27500E+01
         0.27500E+01
         0.27500E+01
         0.27500E+01
         0.27500E+01
         0.27500E+01
         0.27500E+01
         0.27500E+01
         0.27500E+01
         0.27500E+01
         0.27500E+01
         0.27500E+01
         0.27500E+01
         0.27500E+01
         0.27500E+01
         0.27500E+01
         0.27500E+01
         0.27500E+01
         0.27500E+01
         0.27500E+01
         0.27500E+01
         0.27500E+01
         0.27500E+01
         0.27500E+01
         0.27500E+01
         0.27500E+01
         0.27500E+01
         0.27500E+01
         0.27500E+01
         0.27500E+01
         0.27500E+01
         0.27500E+01
         0.27500E+01
         0.27500E+01
         0.27500E+01
         0.27500E+01
         0.27500E+01
         0.27500E+01
         0.27500E+01
         0.27500E+01
         0.27500E+01
         0.27500E+01
         0.27500E+01
         0.27500E+01
         0.27500E+01
         0.27500E+01
         0.27500E+01
         0.27500E+01
         0.27500E+01
         0.27500E+01
         0.27500E+01
         0.27500E+01
         0.27500E+01
         0.27500E+01
         0.27500E+01
         0.27500E+01
         0.27500E+01
         0.27500E+01
         0.27500E+01
         0.27500E+01
         0.27500E+01
         0.27500E+01
         0.27500E+01
         0.27500E+01
         0.27500E+01
         0.27500E+01
         0.27500E+01
         0.27500E+01
         0.27500E+01
         0.27500E+01
         0.27500E+01
         0.27500E+01
         0.27500E+01
         0.27500E+01
         0.27500E+01
         0.27500E+01
         0.27500E+01
         0.27500E+01
         0.27500E+01
         0.27500E+01
         0.27500E+01
         0.27500E+01
         0.27500E+01
         0.27500E+01
         0.27500E+01
         0.27500E+01
         0.27500E+01
         0.27500E+01
         0.27500E+01
         0.27500E+01
         0.27500E+01
         0.27500E+01
         0.27500E+01
         0.27500E+01
         0.27500E+01
         0.27500E+01
         0.27500E+01
         0.27500E+01
         0.27500E+01
         0.27500E+01
         0.27500E+01
         0.27500E+01
         0.27500E+01
         0.27500E+01
         0.27500E+01
         0.27500E+01
         0.27500E+01
         0.27500E+01
         0.27500E+01
         0.27500E+01
         0.27500E+01
         0.27500E+01
         0.27500E+01
         0.27500E+01
         0.27500E+01
         0.27500E+01
         0.27500E+01
         0.27500E+01
         0.27500E+01
         0.27500E+01
         0.27500E+01
         0.27500E+01
         0.27500E+01
         0.27500E+01
         0.27500E+01
         0.27500E+01
         0.27500E+01
         0.27500E+01
         0.27500E+01
         0.27500E+01
         0.27500E+01
         0.27500E+01
         0.27500E+01
         0.27500E+01
         0.27500E+01
         0.27500E+01
         0.27500E+01
         0.27500E+01
         0.27500E+01
         0.27500E+01
         0.27500E+01
         0.27500E+01
         0.27500E+01
         0.27500E+01
         0.27500E+01
         0.27500E+01
         0.27500E+01
         0.27500E+01
         0.27500E+01
         0.27500E+01
         0.27500E+01
         0.27500E+01
         0.27500E+01
         0.27500E+01
         0.27500E+01
         0.27500E+01
         0.27500E+01
         0.27500E+01
         0.27500E+01
         0.27500E+01
         0.27500E+01
         0.27500E+01
         0.27500E+01
         0.27500E+01
         0.27500E+01
         0.27500E+01
         0.27500E+01
         0.27500E+01
         0.27500E+01
         0.27500E+01
         0.27500E+01
         0.27500E+01
         0.27500E+01
         0.27500E+01
         0.27500E+01
         0.27500E+01
         0.27500E+01
         0.27500E+01
         0.27500E+01
         0.27500E+01
         0.27500E+01
         0.27500E+01
         0.27500E+01
         0.27500E+01
         0.27500E+01
         0.27500E+01
         0.27500E+01
         0.27500E+01
         0.27500E+01
         0.27500E+01
         0.27500E+01
         0.27500E+01
         0.27500E+01
         0.27500E+01
         0.27500E+01
         0.27500E+01
         0.27500E+01
         0.27500E+01
         0.27500E+01
         0.27500E+01
         0.27500E+01
         0.27500E+01
         0.27500E+01
         0.27500E+01
         0.27500E+01
         0.27500E+01
         0.27500E+01
         0.27500E+01
         0.27500E+01
         0.27500E+01
         0.27500E+01
         0.27500E+01
         0.27500E+01
         0.27500E+01
         0.27500E+01
         0.27500E+01
         0.27500E+01
         0.27500E+01
         0.27500E+01
         0.27500E+01
         0.27500E+01
         0.27500E+01
         0.27500E+01
         0.27500E+01
         0.27500E+01
         0.27500E+01
         0.27500E+01
         0.27500E+01
         0.27500E+01
         0.27500E+01
         0.27500E+01
         0.27500E+01
         0.27500E+01
         0.27500E+01
         0.27500E+01
         0.27500E+01
         0.27500E+01
         0.27500E+01
         0.27500E+01
         0.27500E+01
         0.27500E+01
         0.27500E+01
         0.27500E+01
         0.27500E+01
         0.27500E+01
         0.27500E+01
         0.27500E+01
         0.27500E+01
         0.27500E+01
         0.27500E+01
         0.27500E+01
         0.27500E+01
         0.27500E+01
         0.27500E+01
         0.27500E+01
         0.27500E+01
         0.27500E+01
         0.27500E+01
         0.27500E+01
         0.27500E+01
         0.27500E+01
         0.27500E+01
         0.27500E+01
         0.27500E+01
         0.27500E+01
         0.27500E+01
         0.27500E+01
         0.27500E+01
         0.27500E+01
         0.27500E+01
         0.27500E+01
         0.27500E+01
         0.27500E+01
         0.27500E+01
         0.27500E+01
         0.27500E+01
         0.27500E+01
         0.27500E+01
         0.27500E+01
         0.27500E+01
         0.27500E+01
         0.27500E+01
         0.27500E+01
         0.27500E+01
         0.27500E+01
         0.27500E+01
         0.27500E+01
         0.27500E+01
         0.27500E+01
         0.27500E+01
         0.27500E+01
         0.27500E+01
         0.27500E+01
         0.27500E+01
         0.27500E+01
         0.27500E+01
         0.27500E+01
         0.27500E+01
         0.27500E+01
         0.27500E+01
         0.27500E+01
         0.27500E+01
         0.27500E+01
         0.27500E+01
         0.27500E+01
         0.27500E+01
         0.27500E+01
         0.27500E+01
         0.27500E+01
         0.27500E+01
         0.27500E+01
         0.27500E+01
         0.27500E+01
         0.27500E+01
         0.27500E+01
         0.27500E+01
         0.27500E+01
         0.27500E+01
         0.27500E+01
         0.27500E+01
         0.27500E+01
         0.27500E+01
         0.27500E+01
         0.27500E+01
         0.27500E+01
         0.27500E+01
         0.27500E+01
         0.27500E+01
         0.27500E+01
         0.27500E+01
         0.27500E+01
         0.27500E+01
         0.27500E+01
         0.27500E+01
         0.27500E+01
         0.27500E+01
         0.27500E+01
         0.27500E+01
         0.27500E+01
         0.27500E+01
         0.27500E+01
         0.27500E+01
         0.27500E+01
         0.27500E+01
         0.27500E+01
         0.27500E+01
         0.27500E+01
         0.27500E+01
         0.27500E+01
         0.27500E+01
         0.27500E+01
         0.27500E+01
         0.27500E+01
         0.27500E+01
         0.27500E+01
         0.27500E+01
         0.27500E+01
         0.27500E+01
         0.27500E+01
         0.27500E+01
         0.27500E+01
         0.27500E+01
         0.27500E+01
         0.27500E+01
         0.27500E+01
         0.27500E+01
         0.27500E+01
         0.27500E+01
         0.27500E+01
         0.27500E+01
         0.27500E+01
         0.27500E+01
         0.27500E+01
         0.27500E+01
         0.27500E+01
         0.27500E+01
         0.27500E+01
         0.27500E+01
         0.27500E+01
         0.27500E+01
         0.27500E+01
         0.27500E+01
         0.27500E+01
         0.27500E+01
         0.27500E+01
         0.27500E+01
         0.27500E+01
         0.27500E+01
         0.27500E+01
         0.27500E+01
         0.27500E+01
         0.27500E+01
         0.27500E+01
         0.27500E+01
         0.27500E+01
         0.27500E+01
         0.27500E+01
         0.27500E+01
         0.27500E+01
         0.27500E+01
         0.27500E+01
         0.27500E+01
         0.27500E+01
         0.27500E+01
         0.27500E+01
         0.27500E+01
         0.27500E+01
         0.27500E+01
         0.27500E+01
         0.27500E+01
         0.27500E+01
         0.27500E+01
         0.27500E+01
         0.27500E+01
         0.27500E+01
         0.27500E+01
         0.27500E+01
         0.27500E+01
         0.27500E+01
         0.27500E+01
         0.27500E+01
         0.27500E+01
         0.27500E+01
         0.27500E+01
         0.27500E+01
         0.27500E+01
         0.27500E+01
         0.27500E+01
         0.27500E+01
         0.27500E+01
         0.27500E+01
         0.27500E+01
         0.27500E+01
         0.27500E+01
         0.27500E+01
         0.27500E+01
         0.27500E+01
         0.27500E+01
         0.27500E+01
         0.27500E+01
         0.27500E+01
         0.27500E+01
         0.27500E+01
         0.27500E+01
         0.27500E+01
         0.27500E+01
         0.27500E+01
         0.27500E+01
         0.27500E+01
         0.27500E+01
         0.27500E+01
         0.27500E+01
         0.27500E+01
         0.27500E+01
         0.27500E+01
         0.27500E+01
         0.27500E+01
         0.27500E+01
         0.27500E+01
         0.27500E+01
         0.27500E+01
         0.27500E+01
         0.27500E+01
         0.27500E+01
         0.27500E+01
         0.27500E+01
         0.27500E+01
         0.27500E+01
         0.27500E+01
         0.27500E+01
         0.27500E+01
         0.27500E+01
         0.27500E+01
         0.27500E+01
         0.27500E+01
         0.27500E+01
         0.27500E+01
         0.27500E+01
         0.27500E+01
         0.27500E+01
         0.27500E+01
         0.27500E+01
         0.27500E+01
         0.27500E+01
         0.27500E+01
         0.27500E+01
         0.27500E+01
         0.27500E+01
         0.27500E+01
         0.27500E+01
         0.27500E+01
         0.27500E+01
         0.27500E+01
         0.27500E+01
         0.27500E+01
         0.27500E+01
         0.27500E+01
         0.27500E+01
         0.27500E+01
         0.27500E+01
         0.27500E+01
         0.27500E+01
         0.27500E+01
         0.27500E+01
         0.27500E+01
         0.27500E+01
         0.27500E+01
         0.27500E+01
         0.27500E+01
         0.27500E+01
         0.27500E+01
         0.27500E+01
         0.27500E+01
         0.27500E+01
         0.27500E+01
         0.27500E+01
         0.27500E+01
         0.27500E+01
         0.27500E+01
         0.27500E+01
         0.27500E+01
         0.27500E+01
         0.27500E+01
         0.27500E+01
         0.27500E+01
         0.27500E+01
         0.27500E+01
         0.27500E+01
         0.27500E+01
         0.27500E+01
         0.27500E+01
         0.27500E+01
         0.27500E+01
         0.27500E+01
         0.27500E+01
         0.27500E+01
         0.27500E+01
         0.27500E+01
         0.27500E+01
         0.27500E+01
         0.27500E+01
         0.27500E+01
         0.27500E+01
         0.27500E+01
         0.27500E+01
         0.27500E+01
         0.27500E+01
         0.27500E+01
         0.27500E+01
         0.27500E+01
         0.27500E+01
         0.27500E+01
         0.27500E+01
         0.27500E+01
         0.27500E+01
         0.27500E+01
         0.27500E+01
         0.27500E+01
         0.27500E+01
         0.27500E+01
         0.27500E+01
         0.27500E+01
         0.27500E+01
         0.27500E+01
         0.27500E+01
         0.27500E+01
         0.27500E+01
         0.27500E+01
         0.27500E+01
         0.27500E+01
         0.27500E+01
         0.27500E+01
         0.27500E+01
         0.27500E+01
         0.27500E+01
         0.27500E+01
         0.27500E+01
         0.27500E+01
         0.27500E+01
         0.27500E+01
         0.27500E+01
         0.27500E+01
         0.27500E+01
         0.27500E+01
         0.27500E+01
         0.27500E+01
         0.27500E+01
         0.27500E+01
         0.27500E+01
         0.27500E+01
         0.27500E+01
         0.27500E+01
         0.27500E+01
         0.27500E+01
         0.27500E+01
         0.27500E+01
         0.27500E+01
         0.27500E+01
         0.27500E+01
         0.27500E+01
         0.27500E+01
         0.27500E+01
         0.27500E+01
         0.27500E+01
         0.27500E+01
         0.27500E+01
         0.27500E+01
         0.27500E+01
         0.27500E+01
         0.27500E+01
         0.27500E+01
         0.27500E+01
         0.27500E+01
         0.27500E+01
         0.27500E+01
         0.27500E+01
         0.27500E+01
         0.27500E+01
         0.27500E+01
         0.27500E+01
         0.27500E+01
         0.27500E+01
         0.27500E+01
         0.27500E+01
         0.27500E+01
         0.27500E+01
         0.27500E+01
         0.27500E+01
         0.27500E+01
         0.27500E+01
         0.27500E+01
         0.27500E+01
         0.27500E+01
         0.27500E+01
         0.27500E+01
         0.27500E+01
         0.27500E+01
         0.27500E+01
         0.27500E+01
         0.27500E+01
         0.27500E+01
         0.27500E+01
         0.27500E+01
         0.27500E+01
         0.27500E+01
         0.27500E+01
         0.27500E+01
         0.27500E+01
         0.27500E+01
         0.27500E+01
         0.27500E+01
         0.27500E+01
         0.27500E+01
         0.27500E+01
         0.27500E+01
         0.27500E+01
         0.27500E+01
         0.27500E+01
         0.27500E+01
         0.27500E+01
         0.27500E+01
         0.27500E+01
         0.27500E+01
         0.27500E+01
         0.27500E+01
         0.27500E+01
         0.27500E+01
         0.27500E+01
         0.27500E+01
         0.27500E+01
         0.27500E+01
         0.27500E+01
         0.27500E+01
         0.27500E+01
         0.27500E+01
         0.27500E+01
         0.27500E+01
         0.27500E+01
         0.27500E+01
         0.27500E+01
         0.27500E+01
         0.27500E+01
         0.27500E+01
         0.27500E+01
         0.27500E+01
         0.27500E+01
         0.27500E+01
         0.27500E+01
         0.27500E+01
         0.27500E+01
         0.27500E+01
         0.27500E+01
         0.27500E+01
         0.27500E+01
         0.27500E+01
         0.27500E+01
         0.27500E+01
         0.27500E+01
         0.27500E+01
         0.27500E+01
         0.27500E+01
         0.27500E+01
         0.27500E+01
         0.27500E+01
         0.27500E+01
         0.27500E+01
         0.27500E+01
         0.27500E+01
         0.27500E+01
         0.27500E+01
         0.27500E+01
         0.27500E+01
         0.27500E+01
         0.27500E+01
         0.27500E+01
         0.27500E+01
         0.27500E+01
         0.27500E+01
         0.27500E+01
         0.27500E+01
         0.27500E+01
         0.27500E+01
         0.27500E+01
         0.27500E+01
         0.27500E+01
         0.27500E+01
         0.27500E+01
         0.27500E+01
         0.27500E+01
         0.27500E+01
         0.27500E+01
         0.27500E+01
         0.27500E+01
         0.27500E+01
         0.27500E+01
         0.27500E+01
         0.27500E+01
         0.27500E+01
         0.27500E+01
         0.27500E+01
         0.27500E+01
         0.27500E+01
         0.27500E+01
         0.27500E+01
         0.27500E+01
         0.27500E+01
         0.27500E+01
         0.27500E+01
         0.27500E+01
         0.27500E+01
         0.27500E+01
         0.27500E+01
         0.27500E+01
         0.27500E+01
         0.27500E+01
         0.27500E+01
         0.27500E+01
         0.27500E+01
         0.27500E+01
         0.27500E+01
         0.27500E+01
         0.27500E+01
         0.27500E+01
         0.27500E+01
         0.27500E+01
         0.27500E+01
         0.27500E+01
         0.27500E+01
         0.27500E+01
         0.27500E+01
         0.27500E+01
         0.27500E+01
         0.27500E+01
         0.27500E+01
         0.27500E+01
         0.27500E+01
         0.27500E+01
         0.27500E+01
         0.27500E+01
         0.27500E+01
         0.27500E+01
         0.27500E+01
         0.27500E+01
         0.27500E+01
         0.27500E+01
         0.27500E+01
         0.27500E+01
         0.27500E+01
         0.27500E+01
         0.27500E+01
         0.27500E+01
         0.27500E+01
         0.27500E+01
         0.27500E+01
         0.27500E+01
         0.27500E+01
         0.27500E+01
         0.27500E+01
         0.27500E+01
         0.27500E+01
         0.27500E+01
         0.27500E+01
         0.27500E+01
         0.27500E+01
         0.27500E+01
         0.27500E+01
         0.27500E+01
         0.27500E+01
         0.27500E+01
         0.27500E+01
         0.27500E+01
         0.27500E+01
         0.27500E+01
         0.27500E+01
         0.27500E+01
         0.27500E+01
         0.27500E+01
         0.27500E+01
         0.27500E+01
         0.27500E+01
         0.27500E+01
         0.27500E+01
         0.27500E+01
         0.27500E+01
         0.27500E+01
         0.27500E+01
         0.27500E+01
         0.27500E+01
         0.27500E+01
         0.27500E+01
         0.27500E+01
         0.27500E+01
         0.27500E+01
         0.27500E+01
         0.27500E+01
         0.27500E+01
         0.27500E+01
         0.27500E+01
         0.27500E+01
         0.27500E+01
         0.27500E+01
         0.27500E+01
         0.27500E+01
         0.27500E+01
         0.27500E+01
         0.27500E+01
         0.27500E+01
         0.27500E+01
         0.27500E+01
         0.27500E+01
         0.27500E+01
         0.27500E+01
         0.27500E+01
         0.27500E+01
         0.27500E+01
         0.27500E+01
         0.27500E+01
         0.27500E+01
         0.27500E+01
         0.27500E+01
         0.27500E+01
         0.27500E+01
         0.27500E+01
         0.27500E+01
         0.27500E+01
         0.27500E+01
         0.27500E+01
         0.27500E+01
         0.27500E+01
         0.27500E+01
         0.27500E+01
         0.27500E+01
         0.27500E+01
         0.27500E+01
         0.27500E+01
         0.27500E+01
         0.27500E+01
         0.27500E+01
         0.27500E+01
         0.27500E+01
         0.27500E+01
         0.27500E+01
         0.27500E+01
         0.27500E+01
         0.27500E+01
         0.27500E+01
         0.27500E+01
         0.27500E+01
         0.27500E+01
         0.27500E+01
         0.27500E+01
         0.27500E+01
         0.27500E+01
         0.27500E+01
         0.27500E+01
         0.27500E+01
         0.27500E+01
         0.27500E+01
         0.27500E+01
         0.27500E+01
         0.27500E+01
         0.27500E+01
         0.27500E+01
         0.27500E+01
         0.27500E+01
         0.27500E+01
         0.27500E+01
         0.27500E+01
         0.27500E+01
         0.27500E+01
         0.27500E+01
         0.27500E+01
         0.27500E+01
         0.27500E+01
         0.27500E+01
         0.27500E+01
         0.27500E+01
         0.27500E+01
         0.27500E+01
         0.27500E+01
         0.27500E+01
         0.27500E+01
         0.27500E+01
         0.27500E+01
         0.27500E+01
         0.27500E+01
         0.27500E+01
         0.27500E+01
         0.27500E+01
         0.27500E+01
         0.27500E+01
         0.27500E+01
         0.27500E+01
         0.27500E+01
         0.27500E+01
         0.27500E+01
         0.27500E+01
         0.27500E+01
         0.27500E+01
         0.27500E+01
         0.27500E+01
         0.27500E+01
         0.27500E+01
         0.27500E+01
         0.27500E+01
         0.27500E+01
         0.27500E+01
         0.27500E+01
         0.27500E+01
         0.27500E+01
         0.27500E+01
         0.27500E+01
         0.27500E+01
         0.27500E+01
         0.27500E+01
         0.27500E+01
         0.27500E+01
         0.27500E+01
         0.27500E+01
         0.27500E+01
         0.27500E+01
         0.27500E+01
         0.27500E+01
         0.27500E+01
         0.27500E+01
         0.27500E+01
         0.27500E+01
         0.27500E+01
         0.27500E+01
         0.27500E+01
         0.27500E+01
         0.27500E+01
         0.27500E+01
         0.27500E+01
         0.27500E+01
         0.27500E+01
         0.27500E+01
         0.27500E+01
         0.27500E+01
         0.27500E+01
         0.27500E+01
         0.27500E+01
         0.27500E+01
         0.27500E+01
         0.27500E+01
         0.27500E+01
         0.27500E+01
         0.27500E+01
         0.27500E+01
         0.27500E+01
         0.27500E+01
         0.27500E+01
         0.27500E+01
         0.27500E+01
         0.27500E+01
         0.27500E+01
         0.27500E+01
         0.27500E+01
         0.27500E+01
         0.27500E+01
         0.27500E+01
         0.27500E+01
         0.27500E+01
         0.27500E+01
         0.27500E+01
         0.27500E+01
         0.27500E+01
         0.27500E+01
         0.27500E+01
         0.27500E+01
         0.27500E+01
         0.27500E+01
         0.27500E+01
         0.27500E+01
         0.27500E+01
         0.27500E+01
         0.27500E+01
         0.27500E+01
         0.27500E+01
         0.27500E+01
         0.27500E+01
         0.27500E+01
         0.27500E+01
         0.27500E+01
         0.27500E+01
         0.27500E+01
         0.27500E+01
         0.27500E+01
         0.27500E+01
         0.27500E+01
         0.27500E+01
         0.27500E+01
         0.27500E+01
         0.27500E+01
         0.27500E+01
         0.27500E+01
         0.27500E+01
         0.27500E+01
         0.27500E+01
         0.27500E+01
         0.27500E+01
         0.27500E+01
         0.27500E+01
         0.27500E+01
         0.27500E+01
         0.27500E+01
         0.27500E+01
         0.27500E+01
         0.27500E+01
         0.27500E+01
         0.27500E+01
         0.27500E+01
         0.27500E+01
         0.27500E+01
         0.27500E+01
         0.27500E+01
         0.27500E+01
         0.27500E+01
         0.27500E+01
         0.27500E+01
         0.27500E+01
         0.27500E+01
         0.27500E+01
         0.27500E+01
         0.27500E+01
         0.27500E+01
         0.27500E+01
         0.27500E+01
         0.27500E+01
         0.27500E+01
         0.27500E+01
         0.27500E+01
         0.27500E+01
         0.27500E+01
         0.27500E+01
         0.27500E+01
         0.27500E+01
         0.27500E+01
         0.27500E+01
         0.27500E+01
         0.27500E+01
         0.27500E+01
         0.27500E+01
         0.27500E+01
         0.27500E+01
         0.27500E+01
         0.27500E+01
         0.27500E+01
         0.27500E+01
         0.27500E+01
         0.27500E+01
         0.27500E+01
         0.27500E+01
         0.27500E+01
         0.27500E+01
         0.27500E+01
         0.27500E+01
         0.27500E+01
         0.27500E+01
         0.27500E+01
         0.27500E+01
         0.27500E+01
         0.27500E+01
         0.27500E+01
         0.27500E+01
         0.27500E+01
         0.27500E+01
         0.27500E+01
         0.27500E+01
         0.27500E+01
         0.27500E+01
         0.27500E+01
         0.27500E+01
         0.27500E+01
         0.27500E+01
         0.27500E+01
         0.27500E+01
         0.27500E+01
         0.27500E+01
         0.27500E+01
         0.27500E+01
         0.27500E+01
         0.27500E+01
         0.27500E+01
         0.27500E+01
         0.27500E+01
         0.27500E+01
         0.27500E+01
         0.27500E+01
         0.27500E+01
         0.27500E+01
         0.27500E+01
         0.27500E+01
         0.27500E+01
         0.27500E+01
         0.27500E+01
         0.27500E+01
         0.27500E+01
         0.27500E+01
         0.27500E+01
         0.27500E+01
         0.27500E+01
         0.27500E+01
         0.27500E+01
         0.27500E+01
         0.27500E+01
         0.27500E+01
         0.27500E+01
         0.27500E+01
         0.27500E+01
         0.27500E+01
         0.27500E+01
         0.27500E+01
         0.27500E+01
         0.27500E+01
         0.27500E+01
         0.27500E+01
         0.27500E+01
         0.27500E+01
         0.27500E+01
         0.27500E+01
         0.27500E+01
         0.27500E+01
         0.27500E+01
         0.27500E+01
         0.27500E+01
         0.27500E+01
         0.27500E+01
         0.27500E+01
         0.27500E+01
         0.27500E+01
         0.27500E+01
         0.27500E+01
         0.27500E+01
         0.27500E+01
         0.27500E+01
         0.27500E+01
         0.27500E+01
         0.27500E+01
         0.27500E+01
         0.27500E+01
         0.27500E+01
         0.27500E+01
         0.27500E+01
         0.27500E+01
         0.27500E+01
         0.27500E+01
         0.27500E+01
         0.27500E+01
         0.27500E+01
         0.27500E+01
         0.27500E+01
         0.27500E+01
         0.27500E+01
         0.27500E+01
         0.27500E+01
         0.27500E+01
         0.27500E+01
         0.27500E+01
         0.27500E+01
         0.27500E+01
         0.27500E+01
         0.27500E+01
         0.27500E+01
         0.27500E+01
         0.27500E+01
         0.27500E+01
         0.27500E+01
         0.27500E+01
         0.27500E+01
         0.27500E+01
         0.27500E+01
         0.27500E+01
         0.27500E+01
         0.27500E+01
         0.27500E+01
         0.27500E+01
         0.27500E+01
         0.27500E+01
         0.27500E+01
         0.27500E+01
         0.27500E+01
         0.27500E+01
         0.27500E+01
         0.27500E+01
         0.27500E+01
         0.27500E+01
         0.27500E+01
         0.27500E+01
         0.27500E+01
         0.27500E+01
         0.27500E+01
         0.27500E+01
         0.27500E+01
         0.27500E+01
         0.27500E+01
         0.27500E+01
         0.27500E+01
         0.27500E+01
         0.27500E+01
         0.27500E+01
         0.27500E+01
         0.27500E+01
         0.27500E+01
         0.27500E+01
         0.27500E+01
         0.27500E+01
         0.27500E+01
         0.27500E+01
         0.27500E+01
         0.27500E+01
         0.27500E+01
         0.27500E+01
         0.27500E+01
         0.27500E+01
         0.27500E+01
         0.27500E+01
         0.27500E+01
         0.27500E+01
         0.27500E+01
         0.27500E+01
         0.27500E+01
         0.27500E+01
         0.27500E+01
         0.27500E+01
         0.27500E+01
         0.27500E+01
         0.27500E+01
         0.27500E+01
         0.27500E+01
         0.27500E+01
         0.27500E+01
         0.27500E+01
         0.27500E+01
         0.27500E+01
         0.27500E+01
         0.27500E+01
         0.27500E+01
         0.27500E+01
         0.27500E+01
         0.27500E+01
         0.27500E+01
         0.27500E+01
         0.27500E+01
         0.27500E+01
         0.27500E+01
         0.27500E+01
         0.27500E+01
         0.27500E+01
         0.27500E+01
         0.27500E+01
         0.27500E+01
         0.27500E+01
         0.27500E+01
         0.27500E+01
         0.27500E+01
         0.27500E+01
         0.27500E+01
         0.27500E+01
         0.27500E+01
         0.27500E+01
         0.27500E+01
         0.27500E+01
         0.27500E+01
         0.27500E+01
         0.27500E+01
         0.27500E+01
         0.27500E+01
         0.27500E+01
         0.27500E+01
         0.27500E+01
         0.27500E+01
         0.27500E+01
         0.27500E+01
         0.27500E+01
         0.27500E+01
         0.27500E+01
         0.27500E+01
         0.27500E+01
         0.27500E+01
         0.27500E+01
         0.27500E+01
         0.27500E+01
         0.27500E+01
         0.27500E+01
         0.27500E+01
         0.27500E+01
         0.27500E+01
         0.27500E+01
         0.27500E+01
         0.27500E+01
         0.27500E+01
         0.27500E+01
         0.27500E+01
         0.27500E+01
         0.27500E+01
         0.27500E+01
         0.27500E+01
         0.27500E+01
         0.27500E+01
         0.27500E+01
         0.27500E+01
         0.27500E+01
         0.27500E+01
         0.27500E+01
         0.27500E+01
         0.27500E+01
         0.27500E+01
         0.27500E+01
         0.27500E+01
         0.27500E+01
         0.27500E+01
         0.27500E+01
         0.27500E+01
         0.27500E+01
         0.27500E+01
         0.27500E+01
         0.27500E+01
         0.27500E+01
         0.27500E+01
         0.27500E+01
         0.27500E+01
         0.27500E+01
         0.27500E+01
         0.27500E+01
         0.27500E+01
         0.27500E+01
         0.27500E+01
         0.27500E+01
         0.27500E+01
         0.27500E+01
         0.27500E+01
         0.27500E+01
         0.27500E+01
         0.27500E+01
         0.27500E+01
         0.27500E+01
         0.27500E+01
         0.27500E+01
         0.27500E+01
         0.27500E+01
         0.27500E+01
         0.27500E+01
         0.27500E+01
         0.27500E+01
         0.27500E+01
         0.27500E+01
         0.27500E+01
         0.27500E+01
         0.27500E+01
         0.27500E+01
         0.27500E+01
         0.27500E+01
         0.27500E+01
         0.27500E+01
         0.27500E+01
         0.27500E+01
         0.27500E+01
         0.27500E+01
         0.27500E+01
         0.27500E+01
         0.27500E+01
         0.27500E+01
         0.27500E+01
         0.27500E+01
         0.27500E+01
         0.27500E+01
         0.27500E+01
         0.27500E+01
         0.27500E+01
         0.27500E+01
         0.27500E+01
         0.27500E+01
         0.27500E+01
         0.27500E+01
         0.27500E+01
         0.27500E+01
         0.27500E+01
         0.27500E+01
         0.27500E+01
         0.27500E+01
         0.27500E+01
         0.27500E+01
         0.27500E+01
         0.27500E+01
         0.27500E+01
         0.27500E+01
         0.27500E+01
         0.27500E+01
         0.27500E+01
         0.27500E+01
         0.27500E+01
         0.27500E+01
         0.27500E+01
         0.27500E+01
         0.27500E+01
         0.27500E+01
         0.27500E+01
         0.27500E+01
         0.27500E+01
         0.27500E+01
         0.27500E+01
         0.27500E+01
         0.27500E+01
         0.27500E+01
         0.27500E+01
         0.27500E+01
         0.27500E+01
         0.27500E+01
         0.27500E+01
         0.27500E+01
         0.27500E+01
         0.27500E+01
         0.27500E+01
         0.27500E+01
         0.27500E+01
         0.27500E+01
         0.27500E+01
         0.27500E+01
         0.27500E+01
         0.27500E+01
         0.27500E+01
         0.27500E+01
         0.27500E+01
         0.27500E+01
         0.27500E+01
         0.27500E+01
         0.27500E+01
         0.27500E+01
         0.27500E+01
         0.27500E+01
         0.27500E+01
         0.27500E+01
         0.27500E+01
         0.27500E+01
         0.27500E+01
         0.27500E+01
         0.27500E+01
         0.27500E+01
         0.27500E+01
         0.27500E+01
         0.27500E+01
         0.27500E+01
         0.27500E+01
         0.27500E+01
         0.27500E+01
         0.27500E+01
         0.27500E+01
         0.27500E+01
         0.27500E+01
         0.27500E+01
         0.27500E+01
         0.27500E+01
         0.27500E+01
         0.27500E+01
         0.27500E+01
         0.27500E+01
         0.27500E+01
         0.27500E+01
         0.27500E+01
         0.27500E+01
         0.27500E+01
         0.27500E+01
         0.27500E+01
         0.27500E+01
         0.27500E+01
         0.27500E+01
         0.27500E+01
         0.27500E+01
         0.27500E+01
         0.27500E+01
         0.27500E+01
         0.27500E+01
         0.27500E+01
         0.27500E+01
         0.27500E+01
         0.27500E+01
         0.27500E+01
         0.27500E+01
         0.27500E+01
         0.27500E+01
         0.27500E+01
         0.27500E+01
         0.27500E+01
         0.27500E+01
         0.27500E+01
         0.27500E+01
         0.27500E+01
         0.27500E+01
         0.27500E+01
         0.27500E+01
         0.27500E+01
         0.27500E+01
         0.27500E+01
         0.27500E+01
         0.27500E+01
         0.27500E+01
         0.27500E+01
         0.27500E+01
         0.27500E+01
         0.27500E+01
         0.27500E+01
         0.27500E+01
         0.27500E+01
         0.27500E+01
         0.27500E+01
         0.27500E+01
         0.27500E+01
         0.27500E+01
         0.27500E+01
         0.27500E+01
         0.27500E+01
         0.27500E+01
         0.27500E+01
         0.27500E+01
         0.27500E+01
         0.27500E+01
         0.27500E+01
         0.27500E+01
         0.27500E+01
         0.27500E+01
         0.27500E+01
         0.27500E+01
         0.27500E+01
         0.27500E+01
         0.27500E+01
         0.27500E+01
         0.27500E+01
         0.27500E+01
         0.27500E+01
         0.27500E+01
         0.27500E+01
         0.27500E+01
         0.27500E+01
         0.27500E+01
         0.27500E+01
         0.27500E+01
         0.27500E+01
         0.27500E+01
         0.27500E+01
         0.27500E+01
         0.27500E+01
         0.27500E+01
         0.27500E+01
         0.27500E+01
         0.27500E+01
         0.27500E+01
         0.27500E+01
         0.27500E+01
         0.27500E+01
         0.27500E+01
         0.27500E+01
         0.27500E+01
         0.27500E+01
         0.27500E+01
         0.27500E+01
         0.27500E+01
         0.27500E+01
         0.27500E+01
         0.27500E+01
         0.27500E+01
  
SCALARS              physical_window_x  double 1
LOOKUP_TABLE default
         0.42419E-02
         0.35201E-02
         0.37624E-02
         0.42419E-02
         0.42417E-02
         0.35201E-02
         0.37618E-02
         0.42417E-02
         0.37624E-02
         0.37624E-02
         0.37618E-02
         0.37618E-02
         0.30086E-02
         0.32069E-02
         0.30084E-02
         0.32067E-02
         0.42419E-02
         0.32069E-02
         0.42417E-02
         0.32067E-02
         0.24180E-02
         0.29942E-02
         0.32396E-02
         0.24180E-02
         0.29933E-02
         0.32385E-02
         0.26608E-02
         0.27190E-02
         0.26608E-02
         0.27190E-02
         0.42687E-02
         0.36511E-02
         0.42687E-02
         0.42687E-02
         0.36511E-02
         0.42687E-02
         0.32069E-02
         0.29739E-02
         0.32066E-02
         0.29739E-02
         0.34652E-02
         0.32621E-02
         0.34652E-02
         0.32621E-02
         0.37123E-02
         0.32069E-02
         0.37123E-02
         0.32066E-02
         0.30844E-02
         0.30844E-02
         0.35191E-02
         0.35189E-02
         0.26925E-02
         0.26925E-02
         0.26925E-02
         0.26925E-02
         0.24643E-02
         0.27651E-02
         0.24643E-02
         0.27651E-02
         0.42687E-02
         0.35191E-02
         0.42687E-02
         0.35189E-02
         0.42687E-02
         0.42687E-02
         0.34658E-02
         0.34648E-02
         0.27274E-02
         0.31799E-02
         0.27273E-02
         0.31796E-02
         0.32396E-02
         0.32385E-02
         0.26964E-02
         0.26960E-02
         0.27828E-02
         0.27828E-02
         0.27828E-02
         0.27828E-02
         0.27004E-02
         0.31883E-02
         0.27003E-02
         0.31880E-02
         0.31883E-02
         0.31880E-02
         0.37123E-02
         0.37123E-02
         0.36245E-02
         0.36245E-02
         0.28253E-02
         0.31642E-02
         0.28253E-02
         0.31636E-02
         0.33485E-02
         0.33485E-02
         0.33485E-02
         0.33485E-02
         0.31978E-02
         0.31969E-02
         0.29849E-02
         0.32843E-02
         0.29849E-02
         0.32843E-02
         0.27274E-02
         0.31109E-02
         0.27273E-02
         0.31109E-02
         0.31799E-02
         0.31796E-02
         0.32396E-02
         0.32385E-02
         0.32396E-02
         0.32385E-02
         0.29942E-02
         0.29933E-02
         0.27190E-02
         0.27190E-02
         0.26964E-02
         0.26960E-02
         0.27828E-02
         0.27828E-02
         0.27828E-02
         0.27828E-02
         0.27004E-02
         0.27003E-02
         0.31883E-02
         0.31880E-02
         0.31883E-02
         0.31880E-02
         0.32621E-02
         0.32621E-02
         0.34652E-02
         0.34652E-02
         0.37123E-02
         0.37123E-02
         0.37123E-02
         0.37123E-02
         0.36245E-02
         0.36245E-02
         0.28253E-02
         0.28253E-02
         0.29097E-02
         0.29087E-02
         0.32389E-02
         0.32378E-02
         0.32389E-02
         0.32378E-02
         0.31978E-02
         0.31969E-02
         0.29849E-02
         0.29849E-02
         0.32843E-02
         0.32843E-02
         0.32843E-02
         0.32843E-02
         0.42420E-02
         0.35201E-02
         0.37629E-02
         0.42420E-02
         0.37629E-02
         0.37629E-02
         0.30087E-02
         0.32071E-02
         0.42420E-02
         0.32071E-02
         0.24178E-02
         0.29952E-02
         0.32407E-02
         0.26596E-02
         0.27191E-02
         0.42679E-02
         0.36502E-02
         0.42679E-02
         0.32071E-02
         0.29727E-02
         0.34648E-02
         0.32622E-02
         0.37119E-02
         0.32071E-02
         0.30833E-02
         0.35193E-02
         0.26910E-02
         0.26910E-02
         0.24638E-02
         0.27644E-02
         0.42679E-02
         0.35193E-02
         0.42679E-02
         0.34670E-02
         0.27274E-02
         0.31802E-02
         0.32407E-02
         0.26968E-02
         0.27828E-02
         0.27828E-02
         0.27005E-02
         0.31885E-02
         0.31885E-02
         0.37119E-02
         0.36244E-02
         0.28250E-02
         0.31647E-02
         0.33484E-02
         0.33484E-02
         0.31986E-02
         0.29848E-02
         0.32841E-02
         0.27274E-02
         0.31099E-02
         0.31802E-02
         0.32407E-02
         0.32407E-02
         0.29952E-02
         0.27191E-02
         0.26968E-02
         0.27828E-02
         0.27828E-02
         0.27005E-02
         0.31885E-02
         0.31885E-02
         0.32622E-02
         0.34648E-02
         0.37119E-02
         0.37119E-02
         0.36244E-02
         0.28250E-02
         0.29106E-02
         0.32401E-02
         0.32401E-02
         0.31986E-02
         0.29848E-02
         0.32841E-02
         0.32841E-02
         0.42421E-02
         0.35201E-02
         0.37634E-02
         0.42421E-02
         0.37634E-02
         0.37634E-02
         0.30089E-02
         0.32073E-02
         0.42421E-02
         0.32073E-02
         0.24177E-02
         0.29961E-02
         0.32418E-02
         0.26584E-02
         0.27191E-02
         0.42670E-02
         0.36493E-02
         0.42670E-02
         0.32073E-02
         0.29714E-02
         0.34644E-02
         0.32623E-02
         0.37115E-02
         0.32073E-02
         0.30822E-02
         0.35195E-02
         0.26896E-02
         0.26896E-02
         0.24633E-02
         0.27638E-02
         0.42670E-02
         0.35195E-02
         0.42670E-02
         0.34681E-02
         0.27275E-02
         0.31805E-02
         0.32418E-02
         0.26972E-02
         0.27828E-02
         0.27828E-02
         0.27006E-02
         0.31888E-02
         0.31888E-02
         0.37115E-02
         0.36243E-02
         0.28247E-02
         0.31652E-02
         0.33483E-02
         0.33483E-02
         0.31995E-02
         0.29847E-02
         0.32839E-02
         0.27275E-02
         0.31090E-02
         0.31805E-02
         0.32418E-02
         0.32418E-02
         0.29961E-02
         0.27191E-02
         0.26972E-02
         0.27828E-02
         0.27828E-02
         0.27006E-02
         0.31888E-02
         0.31888E-02
         0.32623E-02
         0.34644E-02
         0.37115E-02
         0.37115E-02
         0.36243E-02
         0.28247E-02
         0.29116E-02
         0.32412E-02
         0.32412E-02
         0.31995E-02
         0.29847E-02
         0.32839E-02
         0.32839E-02
         0.42423E-02
         0.35200E-02
         0.37639E-02
         0.42423E-02
         0.37639E-02
         0.37639E-02
         0.30091E-02
         0.32075E-02
         0.42423E-02
         0.32075E-02
         0.24176E-02
         0.29970E-02
         0.32428E-02
         0.26572E-02
         0.27192E-02
         0.42662E-02
         0.36483E-02
         0.42662E-02
         0.32075E-02
         0.29702E-02
         0.34639E-02
         0.32624E-02
         0.37111E-02
         0.32075E-02
         0.30811E-02
         0.35197E-02
         0.26881E-02
         0.26881E-02
         0.24628E-02
         0.27631E-02
         0.42662E-02
         0.35197E-02
         0.42662E-02
         0.34692E-02
         0.27276E-02
         0.31808E-02
         0.32428E-02
         0.26975E-02
         0.27828E-02
         0.27828E-02
         0.27007E-02
         0.31890E-02
         0.31890E-02
         0.37111E-02
         0.36242E-02
         0.28243E-02
         0.31658E-02
         0.33482E-02
         0.33482E-02
         0.32003E-02
         0.29846E-02
         0.32837E-02
         0.27276E-02
         0.31081E-02
         0.31808E-02
         0.32428E-02
         0.32428E-02
         0.29970E-02
         0.27192E-02
         0.26975E-02
         0.27828E-02
         0.27828E-02
         0.27007E-02
         0.31890E-02
         0.31890E-02
         0.32624E-02
         0.34639E-02
         0.37111E-02
         0.37111E-02
         0.36242E-02
         0.28243E-02
         0.29125E-02
         0.32423E-02
         0.32423E-02
         0.32003E-02
         0.29846E-02
         0.32837E-02
         0.32837E-02
         0.42424E-02
         0.35200E-02
         0.37644E-02
         0.42424E-02
         0.37644E-02
         0.37644E-02
         0.30093E-02
         0.32077E-02
         0.42424E-02
         0.32077E-02
         0.24174E-02
         0.29979E-02
         0.32439E-02
         0.26559E-02
         0.27192E-02
         0.42653E-02
         0.36474E-02
         0.42653E-02
         0.32077E-02
         0.29690E-02
         0.34635E-02
         0.32624E-02
         0.37108E-02
         0.32077E-02
         0.30799E-02
         0.35199E-02
         0.26867E-02
         0.26867E-02
         0.24623E-02
         0.27625E-02
         0.42653E-02
         0.35199E-02
         0.42653E-02
         0.34703E-02
         0.27276E-02
         0.31812E-02
         0.32439E-02
         0.26979E-02
         0.27828E-02
         0.27828E-02
         0.27008E-02
         0.31893E-02
         0.31893E-02
         0.37108E-02
         0.36241E-02
         0.28240E-02
         0.31663E-02
         0.33481E-02
         0.33481E-02
         0.32012E-02
         0.29844E-02
         0.32835E-02
         0.27276E-02
         0.31071E-02
         0.31812E-02
         0.32439E-02
         0.32439E-02
         0.29979E-02
         0.27192E-02
         0.26979E-02
         0.27828E-02
         0.27828E-02
         0.27008E-02
         0.31893E-02
         0.31893E-02
         0.32624E-02
         0.34635E-02
         0.37108E-02
         0.37108E-02
         0.36241E-02
         0.28240E-02
         0.29135E-02
         0.32434E-02
         0.32434E-02
         0.32012E-02
         0.29844E-02
         0.32835E-02
         0.32835E-02
         0.42425E-02
         0.35200E-02
         0.37649E-02
         0.42425E-02
         0.37649E-02
         0.37649E-02
         0.30095E-02
         0.32079E-02
         0.42425E-02
         0.32079E-02
         0.24173E-02
         0.29989E-02
         0.32450E-02
         0.26547E-02
         0.27193E-02
         0.42645E-02
         0.36465E-02
         0.42645E-02
         0.32079E-02
         0.29677E-02
         0.34631E-02
         0.32625E-02
         0.37104E-02
         0.32079E-02
         0.30788E-02
         0.35201E-02
         0.26852E-02
         0.26852E-02
         0.24618E-02
         0.27618E-02
         0.42645E-02
         0.35201E-02
         0.42645E-02
         0.34715E-02
         0.27277E-02
         0.31815E-02
         0.32450E-02
         0.26983E-02
         0.27828E-02
         0.27828E-02
         0.27009E-02
         0.31895E-02
         0.31895E-02
         0.37104E-02
         0.36239E-02
         0.28237E-02
         0.31668E-02
         0.33480E-02
         0.33480E-02
         0.32020E-02
         0.29843E-02
         0.32833E-02
         0.27277E-02
         0.31062E-02
         0.31815E-02
         0.32450E-02
         0.32450E-02
         0.29989E-02
         0.27193E-02
         0.26983E-02
         0.27828E-02
         0.27828E-02
         0.27009E-02
         0.31895E-02
         0.31895E-02
         0.32625E-02
         0.34631E-02
         0.37104E-02
         0.37104E-02
         0.36239E-02
         0.28237E-02
         0.29145E-02
         0.32445E-02
         0.32445E-02
         0.32020E-02
         0.29843E-02
         0.32833E-02
         0.32833E-02
         0.42427E-02
         0.35200E-02
         0.37654E-02
         0.42427E-02
         0.37654E-02
         0.37654E-02
         0.30097E-02
         0.32081E-02
         0.42427E-02
         0.32081E-02
         0.24171E-02
         0.29998E-02
         0.32461E-02
         0.26535E-02
         0.27193E-02
         0.42636E-02
         0.36455E-02
         0.42636E-02
         0.32081E-02
         0.29665E-02
         0.34626E-02
         0.32626E-02
         0.37100E-02
         0.32081E-02
         0.30777E-02
         0.35203E-02
         0.26838E-02
         0.26838E-02
         0.24613E-02
         0.27611E-02
         0.42636E-02
         0.35203E-02
         0.42636E-02
         0.34726E-02
         0.27278E-02
         0.31818E-02
         0.32461E-02
         0.26987E-02
         0.27827E-02
         0.27827E-02
         0.27010E-02
         0.31898E-02
         0.31898E-02
         0.37100E-02
         0.36238E-02
         0.28234E-02
         0.31673E-02
         0.33479E-02
         0.33479E-02
         0.32029E-02
         0.29842E-02
         0.32831E-02
         0.27278E-02
         0.31052E-02
         0.31818E-02
         0.32461E-02
         0.32461E-02
         0.29998E-02
         0.27193E-02
         0.26987E-02
         0.27827E-02
         0.27827E-02
         0.27010E-02
         0.31898E-02
         0.31898E-02
         0.32626E-02
         0.34626E-02
         0.37100E-02
         0.37100E-02
         0.36238E-02
         0.28234E-02
         0.29154E-02
         0.32457E-02
         0.32457E-02
         0.32029E-02
         0.29842E-02
         0.32831E-02
         0.32831E-02
         0.42428E-02
         0.35199E-02
         0.37660E-02
         0.42428E-02
         0.37660E-02
         0.37660E-02
         0.30099E-02
         0.32083E-02
         0.42428E-02
         0.32083E-02
         0.24170E-02
         0.30007E-02
         0.32471E-02
         0.26523E-02
         0.27194E-02
         0.42628E-02
         0.36446E-02
         0.42628E-02
         0.32083E-02
         0.29652E-02
         0.34622E-02
         0.32627E-02
         0.37096E-02
         0.32083E-02
         0.30766E-02
         0.35205E-02
         0.26823E-02
         0.26823E-02
         0.24608E-02
         0.27605E-02
         0.42628E-02
         0.35205E-02
         0.42628E-02
         0.34737E-02
         0.27279E-02
         0.31821E-02
         0.32471E-02
         0.26991E-02
         0.27827E-02
         0.27827E-02
         0.27011E-02
         0.31900E-02
         0.31900E-02
         0.37096E-02
         0.36237E-02
         0.28231E-02
         0.31679E-02
         0.33478E-02
         0.33478E-02
         0.32038E-02
         0.29841E-02
         0.32829E-02
         0.27279E-02
         0.31043E-02
         0.31821E-02
         0.32471E-02
         0.32471E-02
         0.30007E-02
         0.27194E-02
         0.26991E-02
         0.27827E-02
         0.27827E-02
         0.27011E-02
         0.31900E-02
         0.31900E-02
         0.32627E-02
         0.34622E-02
         0.37096E-02
         0.37096E-02
         0.36237E-02
         0.28231E-02
         0.29164E-02
         0.32468E-02
         0.32468E-02
         0.32038E-02
         0.29841E-02
         0.32829E-02
         0.32829E-02
         0.42429E-02
         0.35199E-02
         0.37665E-02
         0.42429E-02
         0.37665E-02
         0.37665E-02
         0.30101E-02
         0.32085E-02
         0.42429E-02
         0.32085E-02
         0.24168E-02
         0.30017E-02
         0.32482E-02
         0.26510E-02
         0.27194E-02
         0.42619E-02
         0.36437E-02
         0.42619E-02
         0.32085E-02
         0.29640E-02
         0.34618E-02
         0.32627E-02
         0.37092E-02
         0.32085E-02
         0.30755E-02
         0.35207E-02
         0.26808E-02
         0.26808E-02
         0.24603E-02
         0.27599E-02
         0.42619E-02
         0.35207E-02
         0.42619E-02
         0.34748E-02
         0.27279E-02
         0.31824E-02
         0.32482E-02
         0.26994E-02
         0.27827E-02
         0.27827E-02
         0.27012E-02
         0.31902E-02
         0.31902E-02
         0.37092E-02
         0.36236E-02
         0.28227E-02
         0.31684E-02
         0.33477E-02
         0.33477E-02
         0.32046E-02
         0.29840E-02
         0.32827E-02
         0.27279E-02
         0.31034E-02
         0.31824E-02
         0.32482E-02
         0.32482E-02
         0.30017E-02
         0.27194E-02
         0.26994E-02
         0.27827E-02
         0.27827E-02
         0.27012E-02
         0.31902E-02
         0.31902E-02
         0.32627E-02
         0.34618E-02
         0.37092E-02
         0.37092E-02
         0.36236E-02
         0.28227E-02
         0.29173E-02
         0.32479E-02
         0.32479E-02
         0.32046E-02
         0.29840E-02
         0.32827E-02
         0.32827E-02
         0.42431E-02
         0.35199E-02
         0.37670E-02
         0.42431E-02
         0.37670E-02
         0.37670E-02
         0.30102E-02
         0.32087E-02
         0.42431E-02
         0.32087E-02
         0.24167E-02
         0.30026E-02
         0.32493E-02
         0.26498E-02
         0.27194E-02
         0.42611E-02
         0.36427E-02
         0.42611E-02
         0.32087E-02
         0.29628E-02
         0.34613E-02
         0.32628E-02
         0.37089E-02
         0.32087E-02
         0.30744E-02
         0.35209E-02
         0.26794E-02
         0.26794E-02
         0.24598E-02
         0.27592E-02
         0.42611E-02
         0.35209E-02
         0.42611E-02
         0.34759E-02
         0.27280E-02
         0.31827E-02
         0.32493E-02
         0.26998E-02
         0.27827E-02
         0.27827E-02
         0.27013E-02
         0.31905E-02
         0.31905E-02
         0.37089E-02
         0.36235E-02
         0.28224E-02
         0.31689E-02
         0.33476E-02
         0.33476E-02
         0.32055E-02
         0.29839E-02
         0.32825E-02
         0.27280E-02
         0.31024E-02
         0.31827E-02
         0.32493E-02
         0.32493E-02
         0.30026E-02
         0.27194E-02
         0.26998E-02
         0.27827E-02
         0.27827E-02
         0.27013E-02
         0.31905E-02
         0.31905E-02
         0.32628E-02
         0.34613E-02
         0.37089E-02
         0.37089E-02
         0.36235E-02
         0.28224E-02
         0.29183E-02
         0.32490E-02
         0.32490E-02
         0.32055E-02
         0.29839E-02
         0.32825E-02
         0.32825E-02
         0.42432E-02
         0.35199E-02
         0.37675E-02
         0.42432E-02
         0.37675E-02
         0.37675E-02
         0.30104E-02
         0.32089E-02
         0.42432E-02
         0.32089E-02
         0.24166E-02
         0.30035E-02
         0.32504E-02
         0.26486E-02
         0.27195E-02
         0.42603E-02
         0.36418E-02
         0.42603E-02
         0.32089E-02
         0.29615E-02
         0.34609E-02
         0.32629E-02
         0.37085E-02
         0.32089E-02
         0.30732E-02
         0.35211E-02
         0.26779E-02
         0.26779E-02
         0.24593E-02
         0.27585E-02
         0.42603E-02
         0.35211E-02
         0.42603E-02
         0.34771E-02
         0.27281E-02
         0.31830E-02
         0.32504E-02
         0.27002E-02
         0.27827E-02
         0.27827E-02
         0.27014E-02
         0.31907E-02
         0.31907E-02
         0.37085E-02
         0.36233E-02
         0.28221E-02
         0.31694E-02
         0.33475E-02
         0.33475E-02
         0.32063E-02
         0.29838E-02
         0.32823E-02
         0.27281E-02
         0.31015E-02
         0.31830E-02
         0.32504E-02
         0.32504E-02
         0.30035E-02
         0.27195E-02
         0.27002E-02
         0.27827E-02
         0.27827E-02
         0.27014E-02
         0.31907E-02
         0.31907E-02
         0.32629E-02
         0.34609E-02
         0.37085E-02
         0.37085E-02
         0.36233E-02
         0.28221E-02
         0.29193E-02
         0.32501E-02
         0.32501E-02
         0.32063E-02
         0.29838E-02
         0.32823E-02
         0.32823E-02
         0.42433E-02
         0.35199E-02
         0.37680E-02
         0.42433E-02
         0.37680E-02
         0.37680E-02
         0.30106E-02
         0.32091E-02
         0.42433E-02
         0.32091E-02
         0.24164E-02
         0.30045E-02
         0.32514E-02
         0.26474E-02
         0.27195E-02
         0.42594E-02
         0.36409E-02
         0.42594E-02
         0.32091E-02
         0.29603E-02
         0.34605E-02
         0.32630E-02
         0.37081E-02
         0.32091E-02
         0.30721E-02
         0.35213E-02
         0.26765E-02
         0.26765E-02
         0.24588E-02
         0.27579E-02
         0.42594E-02
         0.35213E-02
         0.42594E-02
         0.34782E-02
         0.27281E-02
         0.31833E-02
         0.32514E-02
         0.27006E-02
         0.27826E-02
         0.27826E-02
         0.27015E-02
         0.31910E-02
         0.31910E-02
         0.37081E-02
         0.36232E-02
         0.28218E-02
         0.31700E-02
         0.33474E-02
         0.33474E-02
         0.32072E-02
         0.29836E-02
         0.32821E-02
         0.27281E-02
         0.31005E-02
         0.31833E-02
         0.32514E-02
         0.32514E-02
         0.30045E-02
         0.27195E-02
         0.27006E-02
         0.27826E-02
         0.27826E-02
         0.27015E-02
         0.31910E-02
         0.31910E-02
         0.32630E-02
         0.34605E-02
         0.37081E-02
         0.37081E-02
         0.36232E-02
         0.28218E-02
         0.29202E-02
         0.32512E-02
         0.32512E-02
         0.32072E-02
         0.29836E-02
         0.32821E-02
         0.32821E-02
         0.42435E-02
         0.35199E-02
         0.37685E-02
         0.42435E-02
         0.37685E-02
         0.37685E-02
         0.30108E-02
         0.32093E-02
         0.42435E-02
         0.32093E-02
         0.24163E-02
         0.30054E-02
         0.32525E-02
         0.26461E-02
         0.27196E-02
         0.42586E-02
         0.36399E-02
         0.42586E-02
         0.32093E-02
         0.29591E-02
         0.34601E-02
         0.32630E-02
         0.37077E-02
         0.32093E-02
         0.30710E-02
         0.35215E-02
         0.26750E-02
         0.26750E-02
         0.24583E-02
         0.27572E-02
         0.42586E-02
         0.35215E-02
         0.42586E-02
         0.34793E-02
         0.27282E-02
         0.31836E-02
         0.32525E-02
         0.27010E-02
         0.27826E-02
         0.27826E-02
         0.27016E-02
         0.31912E-02
         0.31912E-02
         0.37077E-02
         0.36231E-02
         0.28215E-02
         0.31705E-02
         0.33473E-02
         0.33473E-02
         0.32080E-02
         0.29835E-02
         0.32819E-02
         0.27282E-02
         0.30996E-02
         0.31836E-02
         0.32525E-02
         0.32525E-02
         0.30054E-02
         0.27196E-02
         0.27010E-02
         0.27826E-02
         0.27826E-02
         0.27016E-02
         0.31912E-02
         0.31912E-02
         0.32630E-02
         0.34601E-02
         0.37077E-02
         0.37077E-02
         0.36231E-02
         0.28215E-02
         0.29212E-02
         0.32524E-02
         0.32524E-02
         0.32080E-02
         0.29835E-02
         0.32819E-02
         0.32819E-02
         0.42436E-02
         0.35198E-02
         0.37690E-02
         0.42436E-02
         0.37690E-02
         0.37690E-02
         0.30110E-02
         0.32095E-02
         0.42436E-02
         0.32095E-02
         0.24162E-02
         0.30064E-02
         0.32536E-02
         0.26449E-02
         0.27196E-02
         0.42577E-02
         0.36390E-02
         0.42577E-02
         0.32096E-02
         0.29578E-02
         0.34596E-02
         0.32631E-02
         0.37074E-02
         0.32096E-02
         0.30699E-02
         0.35217E-02
         0.26735E-02
         0.26735E-02
         0.24578E-02
         0.27566E-02
         0.42577E-02
         0.35217E-02
         0.42577E-02
         0.34804E-02
         0.27283E-02
         0.31839E-02
         0.32536E-02
         0.27013E-02
         0.27826E-02
         0.27826E-02
         0.27017E-02
         0.31915E-02
         0.31915E-02
         0.37074E-02
         0.36230E-02
         0.28211E-02
         0.31710E-02
         0.33472E-02
         0.33472E-02
         0.32089E-02
         0.29834E-02
         0.32817E-02
         0.27283E-02
         0.30986E-02
         0.31839E-02
         0.32536E-02
         0.32536E-02
         0.30064E-02
         0.27196E-02
         0.27013E-02
         0.27826E-02
         0.27826E-02
         0.27017E-02
         0.31915E-02
         0.31915E-02
         0.32631E-02
         0.34596E-02
         0.37074E-02
         0.37074E-02
         0.36230E-02
         0.28211E-02
         0.29221E-02
         0.32535E-02
         0.32535E-02
         0.32089E-02
         0.29834E-02
         0.32817E-02
         0.32817E-02
         0.42437E-02
         0.35198E-02
         0.37695E-02
         0.42437E-02
         0.37695E-02
         0.37695E-02
         0.30112E-02
         0.32097E-02
         0.42437E-02
         0.32097E-02
         0.24160E-02
         0.30073E-02
         0.32547E-02
         0.26437E-02
         0.27197E-02
         0.42569E-02
         0.36381E-02
         0.42569E-02
         0.32098E-02
         0.29566E-02
         0.34592E-02
         0.32632E-02
         0.37070E-02
         0.32098E-02
         0.30688E-02
         0.35219E-02
         0.26721E-02
         0.26721E-02
         0.24573E-02
         0.27560E-02
         0.42569E-02
         0.35219E-02
         0.42569E-02
         0.34815E-02
         0.27284E-02
         0.31843E-02
         0.32547E-02
         0.27017E-02
         0.27826E-02
         0.27826E-02
         0.27018E-02
         0.31917E-02
         0.31917E-02
         0.37070E-02
         0.36229E-02
         0.28208E-02
         0.31716E-02
         0.33471E-02
         0.33471E-02
         0.32097E-02
         0.29833E-02
         0.32815E-02
         0.27284E-02
         0.30977E-02
         0.31843E-02
         0.32547E-02
         0.32547E-02
         0.30073E-02
         0.27197E-02
         0.27017E-02
         0.27826E-02
         0.27826E-02
         0.27018E-02
         0.31917E-02
         0.31917E-02
         0.32632E-02
         0.34592E-02
         0.37070E-02
         0.37070E-02
         0.36229E-02
         0.28208E-02
         0.29231E-02
         0.32546E-02
         0.32546E-02
         0.32097E-02
         0.29833E-02
         0.32815E-02
         0.32815E-02
         0.42439E-02
         0.35198E-02
         0.37701E-02
         0.42439E-02
         0.37701E-02
         0.37701E-02
         0.30113E-02
         0.32099E-02
         0.42439E-02
         0.32099E-02
         0.24159E-02
         0.30082E-02
         0.32558E-02
         0.26425E-02
         0.27197E-02
         0.42560E-02
         0.36371E-02
         0.42560E-02
         0.32100E-02
         0.29554E-02
         0.34588E-02
         0.32633E-02
         0.37066E-02
         0.32100E-02
         0.30677E-02
         0.35221E-02
         0.26706E-02
         0.26706E-02
         0.24568E-02
         0.27553E-02
         0.42560E-02
         0.35221E-02
         0.42560E-02
         0.34827E-02
         0.27284E-02
         0.31846E-02
         0.32558E-02
         0.27021E-02
         0.27826E-02
         0.27826E-02
         0.27019E-02
         0.31920E-02
         0.31920E-02
         0.37066E-02
         0.36227E-02
         0.28205E-02
         0.31721E-02
         0.33470E-02
         0.33470E-02
         0.32106E-02
         0.29831E-02
         0.32813E-02
         0.27284E-02
         0.30968E-02
         0.31846E-02
         0.32558E-02
         0.32558E-02
         0.30082E-02
         0.27197E-02
         0.27021E-02
         0.27826E-02
         0.27826E-02
         0.27019E-02
         0.31920E-02
         0.31920E-02
         0.32633E-02
         0.34588E-02
         0.37066E-02
         0.37066E-02
         0.36227E-02
         0.28205E-02
         0.29241E-02
         0.32557E-02
         0.32557E-02
         0.32106E-02
         0.29831E-02
         0.32813E-02
         0.32813E-02
         0.42440E-02
         0.35198E-02
         0.37706E-02
         0.42440E-02
         0.37706E-02
         0.37706E-02
         0.30115E-02
         0.32101E-02
         0.42440E-02
         0.32101E-02
         0.24158E-02
         0.30091E-02
         0.32568E-02
         0.26412E-02
         0.27198E-02
         0.42552E-02
         0.36362E-02
         0.42552E-02
         0.32102E-02
         0.29541E-02
         0.34583E-02
         0.32633E-02
         0.37062E-02
         0.32102E-02
         0.30665E-02
         0.35223E-02
         0.26692E-02
         0.26692E-02
         0.24563E-02
         0.27546E-02
         0.42552E-02
         0.35223E-02
         0.42552E-02
         0.34838E-02
         0.27285E-02
         0.31849E-02
         0.32568E-02
         0.27025E-02
         0.27826E-02
         0.27826E-02
         0.27020E-02
         0.31922E-02
         0.31922E-02
         0.37062E-02
         0.36226E-02
         0.28202E-02
         0.31726E-02
         0.33469E-02
         0.33469E-02
         0.32114E-02
         0.29830E-02
         0.32811E-02
         0.27285E-02
         0.30958E-02
         0.31849E-02
         0.32568E-02
         0.32568E-02
         0.30091E-02
         0.27198E-02
         0.27025E-02
         0.27826E-02
         0.27826E-02
         0.27020E-02
         0.31922E-02
         0.31922E-02
         0.32633E-02
         0.34583E-02
         0.37062E-02
         0.37062E-02
         0.36226E-02
         0.28202E-02
         0.29250E-02
         0.32568E-02
         0.32568E-02
         0.32114E-02
         0.29830E-02
         0.32811E-02
         0.32811E-02
         0.42441E-02
         0.35198E-02
         0.37711E-02
         0.42441E-02
         0.37711E-02
         0.37711E-02
         0.30117E-02
         0.32103E-02
         0.42441E-02
         0.32103E-02
         0.24156E-02
         0.30101E-02
         0.32579E-02
         0.26400E-02
         0.27198E-02
         0.42543E-02
         0.36353E-02
         0.42543E-02
         0.32104E-02
         0.29529E-02
         0.34579E-02
         0.32634E-02
         0.37058E-02
         0.32104E-02
         0.30654E-02
         0.35225E-02
         0.26677E-02
         0.26677E-02
         0.24558E-02
         0.27540E-02
         0.42543E-02
         0.35225E-02
         0.42543E-02
         0.34849E-02
         0.27286E-02
         0.31852E-02
         0.32579E-02
         0.27029E-02
         0.27826E-02
         0.27826E-02
         0.27021E-02
         0.31924E-02
         0.31924E-02
         0.37058E-02
         0.36225E-02
         0.28198E-02
         0.31731E-02
         0.33468E-02
         0.33468E-02
         0.32123E-02
         0.29829E-02
         0.32809E-02
         0.27286E-02
         0.30949E-02
         0.31852E-02
         0.32579E-02
         0.32579E-02
         0.30101E-02
         0.27198E-02
         0.27029E-02
         0.27826E-02
         0.27826E-02
         0.27021E-02
         0.31924E-02
         0.31924E-02
         0.32634E-02
         0.34579E-02
         0.37058E-02
         0.37058E-02
         0.36225E-02
         0.28198E-02
         0.29260E-02
         0.32579E-02
         0.32579E-02
         0.32123E-02
         0.29829E-02
         0.32809E-02
         0.32809E-02
         0.42443E-02
         0.35197E-02
         0.37716E-02
         0.42443E-02
         0.37716E-02
         0.37716E-02
         0.30119E-02
         0.32105E-02
         0.42443E-02
         0.32105E-02
         0.24155E-02
         0.30110E-02
         0.32590E-02
         0.26388E-02
         0.27199E-02
         0.42535E-02
         0.36343E-02
         0.42535E-02
         0.32106E-02
         0.29517E-02
         0.34575E-02
         0.32635E-02
         0.37055E-02
         0.32106E-02
         0.30643E-02
         0.35227E-02
         0.26663E-02
         0.26663E-02
         0.24553E-02
         0.27533E-02
         0.42535E-02
         0.35227E-02
         0.42535E-02
         0.34860E-02
         0.27286E-02
         0.31855E-02
         0.32590E-02
         0.27032E-02
         0.27826E-02
         0.27826E-02
         0.27022E-02
         0.31927E-02
         0.31927E-02
         0.37055E-02
         0.36224E-02
         0.28195E-02
         0.31737E-02
         0.33467E-02
         0.33467E-02
         0.32132E-02
         0.29828E-02
         0.32807E-02
         0.27286E-02
         0.30939E-02
         0.31855E-02
         0.32590E-02
         0.32590E-02
         0.30110E-02
         0.27199E-02
         0.27032E-02
         0.27826E-02
         0.27826E-02
         0.27022E-02
         0.31927E-02
         0.31927E-02
         0.32635E-02
         0.34575E-02
         0.37055E-02
         0.37055E-02
         0.36224E-02
         0.28195E-02
         0.29269E-02
         0.32591E-02
         0.32591E-02
         0.32132E-02
         0.29828E-02
         0.32807E-02
         0.32807E-02
         0.42444E-02
         0.35197E-02
         0.37721E-02
         0.42444E-02
         0.37721E-02
         0.37721E-02
         0.30121E-02
         0.32107E-02
         0.42444E-02
         0.32107E-02
         0.24154E-02
         0.30119E-02
         0.32601E-02
         0.26376E-02
         0.27199E-02
         0.42527E-02
         0.36334E-02
         0.42527E-02
         0.32108E-02
         0.29504E-02
         0.34571E-02
         0.32636E-02
         0.37051E-02
         0.32108E-02
         0.30632E-02
         0.35229E-02
         0.26648E-02
         0.26648E-02
         0.24552E-02
         0.27527E-02
         0.42527E-02
         0.35229E-02
         0.42527E-02
         0.34871E-02
         0.27287E-02
         0.31858E-02
         0.32601E-02
         0.27036E-02
         0.27825E-02
         0.27825E-02
         0.27023E-02
         0.31929E-02
         0.31929E-02
         0.37051E-02
         0.36223E-02
         0.28192E-02
         0.31742E-02
         0.33466E-02
         0.33466E-02
         0.32140E-02
         0.29827E-02
         0.32805E-02
         0.27287E-02
         0.30930E-02
         0.31858E-02
         0.32601E-02
         0.32601E-02
         0.30119E-02
         0.27199E-02
         0.27036E-02
         0.27825E-02
         0.27825E-02
         0.27023E-02
         0.31929E-02
         0.31929E-02
         0.32636E-02
         0.34571E-02
         0.37051E-02
         0.37051E-02
         0.36223E-02
         0.28192E-02
         0.29279E-02
         0.32602E-02
         0.32602E-02
         0.32140E-02
         0.29827E-02
         0.32805E-02
         0.32805E-02
         0.42445E-02
         0.35197E-02
         0.37726E-02
         0.42445E-02
         0.37726E-02
         0.37726E-02
         0.30123E-02
         0.32108E-02
         0.42445E-02
         0.32108E-02
         0.24152E-02
         0.30129E-02
         0.32611E-02
         0.26363E-02
         0.27200E-02
         0.42518E-02
         0.36325E-02
         0.42518E-02
         0.32110E-02
         0.29492E-02
         0.34566E-02
         0.32636E-02
         0.37047E-02
         0.32110E-02
         0.30621E-02
         0.35231E-02
         0.26633E-02
         0.26633E-02
         0.24554E-02
         0.27520E-02
         0.42518E-02
         0.35231E-02
         0.42518E-02
         0.34882E-02
         0.27288E-02
         0.31861E-02
         0.32611E-02
         0.27040E-02
         0.27825E-02
         0.27825E-02
         0.27024E-02
         0.31932E-02
         0.31932E-02
         0.37047E-02
         0.36222E-02
         0.28189E-02
         0.31747E-02
         0.33465E-02
         0.33465E-02
         0.32149E-02
         0.29826E-02
         0.32803E-02
         0.27288E-02
         0.30921E-02
         0.31861E-02
         0.32611E-02
         0.32611E-02
         0.30129E-02
         0.27200E-02
         0.27040E-02
         0.27825E-02
         0.27825E-02
         0.27024E-02
         0.31932E-02
         0.31932E-02
         0.32636E-02
         0.34566E-02
         0.37047E-02
         0.37047E-02
         0.36222E-02
         0.28189E-02
         0.29289E-02
         0.32613E-02
         0.32613E-02
         0.32149E-02
         0.29826E-02
         0.32803E-02
         0.32803E-02
         0.42447E-02
         0.35196E-02
         0.37732E-02
         0.42447E-02
         0.37732E-02
         0.37732E-02
         0.30125E-02
         0.32111E-02
         0.42447E-02
         0.32111E-02
         0.24151E-02
         0.30138E-02
         0.32622E-02
         0.26351E-02
         0.27200E-02
         0.42510E-02
         0.36315E-02
         0.42510E-02
         0.32112E-02
         0.29480E-02
         0.34562E-02
         0.32637E-02
         0.37043E-02
         0.32112E-02
         0.30610E-02
         0.35233E-02
         0.26619E-02
         0.26619E-02
         0.24557E-02
         0.27514E-02
         0.42510E-02
         0.35233E-02
         0.42510E-02
         0.34894E-02
         0.27289E-02
         0.31864E-02
         0.32622E-02
         0.27044E-02
         0.27825E-02
         0.27825E-02
         0.27025E-02
         0.31934E-02
         0.31934E-02
         0.37043E-02
         0.36220E-02
         0.28186E-02
         0.31753E-02
         0.33464E-02
         0.33464E-02
         0.32157E-02
         0.29824E-02
         0.32801E-02
         0.27289E-02
         0.30911E-02
         0.31864E-02
         0.32622E-02
         0.32622E-02
         0.30138E-02
         0.27200E-02
         0.27044E-02
         0.27825E-02
         0.27825E-02
         0.27025E-02
         0.31934E-02
         0.31934E-02
         0.32637E-02
         0.34562E-02
         0.37043E-02
         0.37043E-02
         0.36220E-02
         0.28186E-02
         0.29298E-02
         0.32624E-02
         0.32624E-02
         0.32157E-02
         0.29824E-02
         0.32801E-02
         0.32801E-02
         0.42448E-02
         0.35196E-02
         0.37737E-02
         0.42448E-02
         0.37737E-02
         0.37737E-02
         0.30126E-02
         0.32112E-02
         0.42448E-02
         0.32112E-02
         0.24150E-02
         0.30147E-02
         0.32633E-02
         0.26339E-02
         0.27200E-02
         0.42501E-02
         0.36306E-02
         0.42501E-02
         0.32114E-02
         0.29467E-02
         0.34558E-02
         0.32638E-02
         0.37039E-02
         0.32114E-02
         0.30598E-02
         0.35235E-02
         0.26604E-02
         0.26604E-02
         0.24559E-02
         0.27507E-02
         0.42501E-02
         0.35235E-02
         0.42501E-02
         0.34905E-02
         0.27289E-02
         0.31867E-02
         0.32633E-02
         0.27048E-02
         0.27825E-02
         0.27825E-02
         0.27026E-02
         0.31937E-02
         0.31937E-02
         0.37039E-02
         0.36219E-02
         0.28183E-02
         0.31758E-02
         0.33463E-02
         0.33463E-02
         0.32166E-02
         0.29823E-02
         0.32799E-02
         0.27289E-02
         0.30902E-02
         0.31867E-02
         0.32633E-02
         0.32633E-02
         0.30147E-02
         0.27200E-02
         0.27048E-02
         0.27825E-02
         0.27825E-02
         0.27026E-02
         0.31937E-02
         0.31937E-02
         0.32638E-02
         0.34558E-02
         0.37039E-02
         0.37039E-02
         0.36219E-02
         0.28183E-02
         0.29308E-02
         0.32635E-02
         0.32635E-02
         0.32166E-02
         0.29823E-02
         0.32799E-02
         0.32799E-02
         0.42448E-02
         0.35196E-02
         0.37737E-02
         0.42448E-02
         0.37737E-02
         0.37737E-02
         0.30126E-02
         0.32112E-02
         0.42448E-02
         0.32112E-02
         0.24148E-02
         0.30147E-02
         0.32633E-02
         0.26327E-02
         0.27200E-02
         0.42493E-02
         0.36297E-02
         0.42493E-02
         0.32114E-02
         0.29455E-02
         0.34553E-02
         0.32638E-02
         0.37036E-02
         0.32114E-02
         0.30587E-02
         0.35235E-02
         0.26590E-02
         0.26590E-02
         0.24559E-02
         0.27501E-02
         0.42493E-02
         0.35235E-02
         0.42493E-02
         0.34905E-02
         0.27289E-02
         0.31867E-02
         0.32633E-02
         0.27048E-02
         0.27825E-02
         0.27825E-02
         0.27026E-02
         0.31937E-02
         0.31937E-02
         0.37036E-02
         0.36218E-02
         0.28180E-02
         0.31758E-02
         0.33462E-02
         0.33462E-02
         0.32166E-02
         0.29822E-02
         0.32797E-02
         0.27289E-02
         0.30892E-02
         0.31867E-02
         0.32633E-02
         0.32633E-02
         0.30147E-02
         0.27200E-02
         0.27048E-02
         0.27825E-02
         0.27825E-02
         0.27026E-02
         0.31937E-02
         0.31937E-02
         0.32638E-02
         0.34553E-02
         0.37036E-02
         0.37036E-02
         0.36218E-02
         0.28180E-02
         0.29308E-02
         0.32635E-02
         0.32635E-02
         0.32166E-02
         0.29822E-02
         0.32797E-02
         0.32797E-02
  
SCALARS              physical_window_y  double 1
LOOKUP_TABLE default
         0.43155E-02
         0.43155E-02
         0.43155E-02
         0.43155E-02
         0.43155E-02
         0.43155E-02
         0.43155E-02
         0.43155E-02
         0.34883E-02
         0.34883E-02
         0.34882E-02
         0.34882E-02
         0.32826E-02
         0.32142E-02
         0.32826E-02
         0.32142E-02
         0.37863E-02
         0.31884E-02
         0.37863E-02
         0.31884E-02
         0.27172E-02
         0.33887E-02
         0.37164E-02
         0.27172E-02
         0.33887E-02
         0.37164E-02
         0.27582E-02
         0.28966E-02
         0.27582E-02
         0.28954E-02
         0.37007E-02
         0.35859E-02
         0.37863E-02
         0.37007E-02
         0.35824E-02
         0.37863E-02
         0.29875E-02
         0.29875E-02
         0.29867E-02
         0.29867E-02
         0.28561E-02
         0.26860E-02
         0.28556E-02
         0.26852E-02
         0.29518E-02
         0.28068E-02
         0.29517E-02
         0.28066E-02
         0.29975E-02
         0.29949E-02
         0.37007E-02
         0.37007E-02
         0.28693E-02
         0.28693E-02
         0.28693E-02
         0.28693E-02
         0.27602E-02
         0.26193E-02
         0.27602E-02
         0.26193E-02
         0.37007E-02
         0.37007E-02
         0.37007E-02
         0.37007E-02
         0.37685E-02
         0.37665E-02
         0.37685E-02
         0.37665E-02
         0.30230E-02
         0.37003E-02
         0.30229E-02
         0.37003E-02
         0.37164E-02
         0.37164E-02
         0.31934E-02
         0.31921E-02
         0.32777E-02
         0.32771E-02
         0.32777E-02
         0.32771E-02
         0.27006E-02
         0.25920E-02
         0.27006E-02
         0.25920E-02
         0.25916E-02
         0.25916E-02
         0.29715E-02
         0.29715E-02
         0.29715E-02
         0.29715E-02
         0.26477E-02
         0.29102E-02
         0.26477E-02
         0.29102E-02
         0.34085E-02
         0.34085E-02
         0.35350E-02
         0.35350E-02
         0.35350E-02
         0.35350E-02
         0.29766E-02
         0.32272E-02
         0.29763E-02
         0.32254E-02
         0.29087E-02
         0.29835E-02
         0.29087E-02
         0.29825E-02
         0.37003E-02
         0.37003E-02
         0.37164E-02
         0.37164E-02
         0.37164E-02
         0.37164E-02
         0.33887E-02
         0.33887E-02
         0.28966E-02
         0.28954E-02
         0.31934E-02
         0.31921E-02
         0.32777E-02
         0.32771E-02
         0.32777E-02
         0.32771E-02
         0.27006E-02
         0.27006E-02
         0.25920E-02
         0.25920E-02
         0.25916E-02
         0.25916E-02
         0.26860E-02
         0.26852E-02
         0.28561E-02
         0.28556E-02
         0.29518E-02
         0.29517E-02
         0.29715E-02
         0.29715E-02
         0.29715E-02
         0.29715E-02
         0.26477E-02
         0.26477E-02
         0.27685E-02
         0.27685E-02
         0.34085E-02
         0.34085E-02
         0.35350E-02
         0.35350E-02
         0.35350E-02
         0.35350E-02
         0.29766E-02
         0.29763E-02
         0.31381E-02
         0.31368E-02
         0.31381E-02
         0.31368E-02
         0.43153E-02
         0.43153E-02
         0.43153E-02
         0.43153E-02
         0.34883E-02
         0.34883E-02
         0.32812E-02
         0.32132E-02
         0.37858E-02
         0.31880E-02
         0.27155E-02
         0.33883E-02
         0.37163E-02
         0.27535E-02
         0.28978E-02
         0.37004E-02
         0.35894E-02
         0.37858E-02
         0.29882E-02
         0.29882E-02
         0.28566E-02
         0.26867E-02
         0.29519E-02
         0.28071E-02
         0.30001E-02
         0.37004E-02
         0.28667E-02
         0.28667E-02
         0.27589E-02
         0.26183E-02
         0.37004E-02
         0.37004E-02
         0.37706E-02
         0.37706E-02
         0.30232E-02
         0.36991E-02
         0.37163E-02
         0.31947E-02
         0.32784E-02
         0.32784E-02
         0.27006E-02
         0.25920E-02
         0.25909E-02
         0.29715E-02
         0.29715E-02
         0.26476E-02
         0.29101E-02
         0.34078E-02
         0.35344E-02
         0.35344E-02
         0.29769E-02
         0.32290E-02
         0.29059E-02
         0.29845E-02
         0.36991E-02
         0.37163E-02
         0.37163E-02
         0.33883E-02
         0.28978E-02
         0.31947E-02
         0.32784E-02
         0.32784E-02
         0.27006E-02
         0.25920E-02
         0.25909E-02
         0.26867E-02
         0.28566E-02
         0.29519E-02
         0.29715E-02
         0.29715E-02
         0.26476E-02
         0.27685E-02
         0.34078E-02
         0.35344E-02
         0.35344E-02
         0.29769E-02
         0.31395E-02
         0.31395E-02
         0.43150E-02
         0.43150E-02
         0.43150E-02
         0.43150E-02
         0.34884E-02
         0.34884E-02
         0.32798E-02
         0.32122E-02
         0.37853E-02
         0.31876E-02
         0.27137E-02
         0.33879E-02
         0.37162E-02
         0.27488E-02
         0.28990E-02
         0.37001E-02
         0.35930E-02
         0.37853E-02
         0.29889E-02
         0.29889E-02
         0.28571E-02
         0.26875E-02
         0.29521E-02
         0.28074E-02
         0.30027E-02
         0.37001E-02
         0.28641E-02
         0.28641E-02
         0.27576E-02
         0.26173E-02
         0.37001E-02
         0.37001E-02
         0.37727E-02
         0.37727E-02
         0.30234E-02
         0.36979E-02
         0.37162E-02
         0.31960E-02
         0.32790E-02
         0.32790E-02
         0.27006E-02
         0.25920E-02
         0.25902E-02
         0.29715E-02
         0.29715E-02
         0.26476E-02
         0.29100E-02
         0.34071E-02
         0.35339E-02
         0.35339E-02
         0.29772E-02
         0.32307E-02
         0.29032E-02
         0.29855E-02
         0.36979E-02
         0.37162E-02
         0.37162E-02
         0.33879E-02
         0.28990E-02
         0.31960E-02
         0.32790E-02
         0.32790E-02
         0.27006E-02
         0.25920E-02
         0.25902E-02
         0.26875E-02
         0.28571E-02
         0.29521E-02
         0.29715E-02
         0.29715E-02
         0.26476E-02
         0.27684E-02
         0.34071E-02
         0.35339E-02
         0.35339E-02
         0.29772E-02
         0.31408E-02
         0.31408E-02
         0.43148E-02
         0.43148E-02
         0.43148E-02
         0.43148E-02
         0.34885E-02
         0.34885E-02
         0.32783E-02
         0.32112E-02
         0.37849E-02
         0.31872E-02
         0.27120E-02
         0.33875E-02
         0.37161E-02
         0.27441E-02
         0.29003E-02
         0.36998E-02
         0.35965E-02
         0.37849E-02
         0.29896E-02
         0.29896E-02
         0.28575E-02
         0.26882E-02
         0.29522E-02
         0.28077E-02
         0.30053E-02
         0.36998E-02
         0.28615E-02
         0.28615E-02
         0.27563E-02
         0.26163E-02
         0.36998E-02
         0.36998E-02
         0.37747E-02
         0.37747E-02
         0.30236E-02
         0.36967E-02
         0.37161E-02
         0.31973E-02
         0.32796E-02
         0.32796E-02
         0.27006E-02
         0.25920E-02
         0.25895E-02
         0.29714E-02
         0.29714E-02
         0.26475E-02
         0.29099E-02
         0.34063E-02
         0.35333E-02
         0.35333E-02
         0.29775E-02
         0.32325E-02
         0.29004E-02
         0.29865E-02
         0.36967E-02
         0.37161E-02
         0.37161E-02
         0.33875E-02
         0.29003E-02
         0.31973E-02
         0.32796E-02
         0.32796E-02
         0.27006E-02
         0.25920E-02
         0.25895E-02
         0.26882E-02
         0.28575E-02
         0.29522E-02
         0.29714E-02
         0.29714E-02
         0.26475E-02
         0.27684E-02
         0.34063E-02
         0.35333E-02
         0.35333E-02
         0.29775E-02
         0.31422E-02
         0.31422E-02
         0.43145E-02
         0.43145E-02
         0.43145E-02
         0.43145E-02
         0.34886E-02
         0.34886E-02
         0.32769E-02
         0.32102E-02
         0.37844E-02
         0.31868E-02
         0.27103E-02
         0.33871E-02
         0.37160E-02
         0.27394E-02
         0.29015E-02
         0.36995E-02
         0.36000E-02
         0.37844E-02
         0.29903E-02
         0.29903E-02
         0.28580E-02
         0.26890E-02
         0.29523E-02
         0.28079E-02
         0.30079E-02
         0.36995E-02
         0.28589E-02
         0.28589E-02
         0.27550E-02
         0.26152E-02
         0.36995E-02
         0.36995E-02
         0.37768E-02
         0.37768E-02
         0.30238E-02
         0.36956E-02
         0.37160E-02
         0.31986E-02
         0.32802E-02
         0.32802E-02
         0.27006E-02
         0.25920E-02
         0.25887E-02
         0.29714E-02
         0.29714E-02
         0.26475E-02
         0.29098E-02
         0.34056E-02
         0.35327E-02
         0.35327E-02
         0.29778E-02
         0.32342E-02
         0.28977E-02
         0.29875E-02
         0.36956E-02
         0.37160E-02
         0.37160E-02
         0.33871E-02
         0.29015E-02
         0.31986E-02
         0.32802E-02
         0.32802E-02
         0.27006E-02
         0.25920E-02
         0.25887E-02
         0.26890E-02
         0.28580E-02
         0.29523E-02
         0.29714E-02
         0.29714E-02
         0.26475E-02
         0.27683E-02
         0.34056E-02
         0.35327E-02
         0.35327E-02
         0.29778E-02
         0.31435E-02
         0.31435E-02
         0.43143E-02
         0.43143E-02
         0.43143E-02
         0.43143E-02
         0.34887E-02
         0.34887E-02
         0.32755E-02
         0.32091E-02
         0.37839E-02
         0.31864E-02
         0.27086E-02
         0.33867E-02
         0.37159E-02
         0.27347E-02
         0.29027E-02
         0.36991E-02
         0.36036E-02
         0.37839E-02
         0.29920E-02
         0.29920E-02
         0.28585E-02
         0.26897E-02
         0.29525E-02
         0.28082E-02
         0.30105E-02
         0.36991E-02
         0.28563E-02
         0.28563E-02
         0.27537E-02
         0.26142E-02
         0.36991E-02
         0.36991E-02
         0.37789E-02
         0.37789E-02
         0.30240E-02
         0.36944E-02
         0.37159E-02
         0.31999E-02
         0.32808E-02
         0.32808E-02
         0.27006E-02
         0.25920E-02
         0.25880E-02
         0.29714E-02
         0.29714E-02
         0.26474E-02
         0.29097E-02
         0.34049E-02
         0.35322E-02
         0.35322E-02
         0.29781E-02
         0.32360E-02
         0.28949E-02
         0.29885E-02
         0.36944E-02
         0.37159E-02
         0.37159E-02
         0.33867E-02
         0.29027E-02
         0.31999E-02
         0.32808E-02
         0.32808E-02
         0.27006E-02
         0.25920E-02
         0.25880E-02
         0.26897E-02
         0.28585E-02
         0.29525E-02
         0.29714E-02
         0.29714E-02
         0.26474E-02
         0.27683E-02
         0.34049E-02
         0.35322E-02
         0.35322E-02
         0.29781E-02
         0.31449E-02
         0.31449E-02
         0.43140E-02
         0.43140E-02
         0.43140E-02
         0.43140E-02
         0.34888E-02
         0.34888E-02
         0.32740E-02
         0.32081E-02
         0.37834E-02
         0.31860E-02
         0.27069E-02
         0.33863E-02
         0.37158E-02
         0.27299E-02
         0.29039E-02
         0.36988E-02
         0.36071E-02
         0.37834E-02
         0.29946E-02
         0.29946E-02
         0.28589E-02
         0.26905E-02
         0.29526E-02
         0.28085E-02
         0.30131E-02
         0.36988E-02
         0.28538E-02
         0.28538E-02
         0.27524E-02
         0.26132E-02
         0.36988E-02
         0.36988E-02
         0.37809E-02
         0.37809E-02
         0.30241E-02
         0.36932E-02
         0.37158E-02
         0.32012E-02
         0.32814E-02
         0.32814E-02
         0.27006E-02
         0.25920E-02
         0.25873E-02
         0.29714E-02
         0.29714E-02
         0.26473E-02
         0.29097E-02
         0.34041E-02
         0.35316E-02
         0.35316E-02
         0.29784E-02
         0.32378E-02
         0.28921E-02
         0.29895E-02
         0.36932E-02
         0.37158E-02
         0.37158E-02
         0.33863E-02
         0.29039E-02
         0.32012E-02
         0.32814E-02
         0.32814E-02
         0.27006E-02
         0.25920E-02
         0.25873E-02
         0.26905E-02
         0.28589E-02
         0.29526E-02
         0.29714E-02
         0.29714E-02
         0.26473E-02
         0.27683E-02
         0.34041E-02
         0.35316E-02
         0.35316E-02
         0.29784E-02
         0.31463E-02
         0.31463E-02
         0.43138E-02
         0.43138E-02
         0.43138E-02
         0.43138E-02
         0.34888E-02
         0.34888E-02
         0.32726E-02
         0.32071E-02
         0.37830E-02
         0.31856E-02
         0.27051E-02
         0.33859E-02
         0.37157E-02
         0.27252E-02
         0.29051E-02
         0.36985E-02
         0.36106E-02
         0.37830E-02
         0.29972E-02
         0.29972E-02
         0.28594E-02
         0.26912E-02
         0.29528E-02
         0.28087E-02
         0.30156E-02
         0.36985E-02
         0.28512E-02
         0.28512E-02
         0.27512E-02
         0.26122E-02
         0.36985E-02
         0.36985E-02
         0.37830E-02
         0.37830E-02
         0.30243E-02
         0.36920E-02
         0.37157E-02
         0.32025E-02
         0.32821E-02
         0.32821E-02
         0.27006E-02
         0.25920E-02
         0.25866E-02
         0.29714E-02
         0.29714E-02
         0.26473E-02
         0.29096E-02
         0.34034E-02
         0.35310E-02
         0.35310E-02
         0.29787E-02
         0.32396E-02
         0.28894E-02
         0.29905E-02
         0.36920E-02
         0.37157E-02
         0.37157E-02
         0.33859E-02
         0.29051E-02
         0.32025E-02
         0.32821E-02
         0.32821E-02
         0.27006E-02
         0.25920E-02
         0.25866E-02
         0.26912E-02
         0.28594E-02
         0.29528E-02
         0.29714E-02
         0.29714E-02
         0.26473E-02
         0.27682E-02
         0.34034E-02
         0.35310E-02
         0.35310E-02
         0.29787E-02
         0.31476E-02
         0.31476E-02
         0.43135E-02
         0.43135E-02
         0.43135E-02
         0.43135E-02
         0.34889E-02
         0.34889E-02
         0.32712E-02
         0.32061E-02
         0.37825E-02
         0.31852E-02
         0.27034E-02
         0.33856E-02
         0.37156E-02
         0.27205E-02
         0.29063E-02
         0.36982E-02
         0.36142E-02
         0.37851E-02
         0.29998E-02
         0.29998E-02
         0.28599E-02
         0.26920E-02
         0.29529E-02
         0.28090E-02
         0.30182E-02
         0.36982E-02
         0.28486E-02
         0.28486E-02
         0.27499E-02
         0.26112E-02
         0.36982E-02
         0.36982E-02
         0.37851E-02
         0.37851E-02
         0.30245E-02
         0.36908E-02
         0.37156E-02
         0.32038E-02
         0.32827E-02
         0.32827E-02
         0.27006E-02
         0.25920E-02
         0.25859E-02
         0.29714E-02
         0.29714E-02
         0.26472E-02
         0.29095E-02
         0.34027E-02
         0.35304E-02
         0.35304E-02
         0.29790E-02
         0.32413E-02
         0.28866E-02
         0.29915E-02
         0.36908E-02
         0.37156E-02
         0.37156E-02
         0.33856E-02
         0.29063E-02
         0.32038E-02
         0.32827E-02
         0.32827E-02
         0.27006E-02
         0.25920E-02
         0.25859E-02
         0.26920E-02
         0.28599E-02
         0.29529E-02
         0.29714E-02
         0.29714E-02
         0.26472E-02
         0.27682E-02
         0.34027E-02
         0.35304E-02
         0.35304E-02
         0.29790E-02
         0.31490E-02
         0.31490E-02
         0.43133E-02
         0.43133E-02
         0.43133E-02
         0.43133E-02
         0.34890E-02
         0.34890E-02
         0.32698E-02
         0.32051E-02
         0.37820E-02
         0.31848E-02
         0.27017E-02
         0.33851E-02
         0.37155E-02
         0.27158E-02
         0.29075E-02
         0.36979E-02
         0.36177E-02
         0.37871E-02
         0.30024E-02
         0.30024E-02
         0.28603E-02
         0.26927E-02
         0.29530E-02
         0.28093E-02
         0.30208E-02
         0.36979E-02
         0.28460E-02
         0.28460E-02
         0.27486E-02
         0.26101E-02
         0.36979E-02
         0.36979E-02
         0.37871E-02
         0.37871E-02
         0.30247E-02
         0.36896E-02
         0.37155E-02
         0.32051E-02
         0.32833E-02
         0.32833E-02
         0.27006E-02
         0.25920E-02
         0.25851E-02
         0.29714E-02
         0.29714E-02
         0.26472E-02
         0.29094E-02
         0.34019E-02
         0.35299E-02
         0.35299E-02
         0.29793E-02
         0.32431E-02
         0.28838E-02
         0.29925E-02
         0.36896E-02
         0.37155E-02
         0.37155E-02
         0.33851E-02
         0.29075E-02
         0.32051E-02
         0.32833E-02
         0.32833E-02
         0.27006E-02
         0.25920E-02
         0.25851E-02
         0.26927E-02
         0.28603E-02
         0.29530E-02
         0.29714E-02
         0.29714E-02
         0.26472E-02
         0.27681E-02
         0.34019E-02
         0.35299E-02
         0.35299E-02
         0.29793E-02
         0.31503E-02
         0.31503E-02
         0.43130E-02
         0.43130E-02
         0.43130E-02
         0.43130E-02
         0.34891E-02
         0.34891E-02
         0.32683E-02
         0.32041E-02
         0.37816E-02
         0.31844E-02
         0.27000E-02
         0.33848E-02
         0.37154E-02
         0.27111E-02
         0.29087E-02
         0.36976E-02
         0.36213E-02
         0.37892E-02
         0.30050E-02
         0.30050E-02
         0.28608E-02
         0.26935E-02
         0.29532E-02
         0.28096E-02
         0.30234E-02
         0.36976E-02
         0.28434E-02
         0.28434E-02
         0.27472E-02
         0.26091E-02
         0.36976E-02
         0.36976E-02
         0.37892E-02
         0.37892E-02
         0.30249E-02
         0.36885E-02
         0.37154E-02
         0.32064E-02
         0.32839E-02
         0.32839E-02
         0.27006E-02
         0.25920E-02
         0.25844E-02
         0.29714E-02
         0.29714E-02
         0.26471E-02
         0.29094E-02
         0.34012E-02
         0.35293E-02
         0.35293E-02
         0.29797E-02
         0.32449E-02
         0.28811E-02
         0.29935E-02
         0.36885E-02
         0.37154E-02
         0.37154E-02
         0.33848E-02
         0.29087E-02
         0.32064E-02
         0.32839E-02
         0.32839E-02
         0.27006E-02
         0.25920E-02
         0.25844E-02
         0.26935E-02
         0.28608E-02
         0.29532E-02
         0.29714E-02
         0.29714E-02
         0.26471E-02
         0.27681E-02
         0.34012E-02
         0.35293E-02
         0.35293E-02
         0.29797E-02
         0.31517E-02
         0.31517E-02
         0.43128E-02
         0.43128E-02
         0.43128E-02
         0.43128E-02
         0.34892E-02
         0.34892E-02
         0.32669E-02
         0.32031E-02
         0.37811E-02
         0.31840E-02
         0.26982E-02
         0.33844E-02
         0.37152E-02
         0.27063E-02
         0.29099E-02
         0.36973E-02
         0.36248E-02
         0.37913E-02
         0.30076E-02
         0.30076E-02
         0.28613E-02
         0.26942E-02
         0.29533E-02
         0.28099E-02
         0.30260E-02
         0.36973E-02
         0.28408E-02
         0.28408E-02
         0.27460E-02
         0.26081E-02
         0.36973E-02
         0.36973E-02
         0.37913E-02
         0.37913E-02
         0.30250E-02
         0.36873E-02
         0.37152E-02
         0.32077E-02
         0.32845E-02
         0.32845E-02
         0.27006E-02
         0.25920E-02
         0.25837E-02
         0.29714E-02
         0.29714E-02
         0.26471E-02
         0.29093E-02
         0.34005E-02
         0.35287E-02
         0.35287E-02
         0.29800E-02
         0.32467E-02
         0.28783E-02
         0.29945E-02
         0.36873E-02
         0.37152E-02
         0.37152E-02
         0.33844E-02
         0.29099E-02
         0.32077E-02
         0.32845E-02
         0.32845E-02
         0.27006E-02
         0.25920E-02
         0.25837E-02
         0.26942E-02
         0.28613E-02
         0.29533E-02
         0.29714E-02
         0.29714E-02
         0.26471E-02
         0.27681E-02
         0.34005E-02
         0.35287E-02
         0.35287E-02
         0.29800E-02
         0.31530E-02
         0.31530E-02
         0.43125E-02
         0.43125E-02
         0.43125E-02
         0.43125E-02
         0.34893E-02
         0.34893E-02
         0.32655E-02
         0.32021E-02
         0.37806E-02
         0.31836E-02
         0.26965E-02
         0.33840E-02
         0.37151E-02
         0.27016E-02
         0.29111E-02
         0.36969E-02
         0.36283E-02
         0.37933E-02
         0.30102E-02
         0.30102E-02
         0.28617E-02
         0.26950E-02
         0.29535E-02
         0.28101E-02
         0.30286E-02
         0.36969E-02
         0.28382E-02
         0.28382E-02
         0.27447E-02
         0.26071E-02
         0.36969E-02
         0.36969E-02
         0.37933E-02
         0.37933E-02
         0.30252E-02
         0.36861E-02
         0.37151E-02
         0.32090E-02
         0.32852E-02
         0.32852E-02
         0.27006E-02
         0.25920E-02
         0.25830E-02
         0.29714E-02
         0.29714E-02
         0.26470E-02
         0.29092E-02
         0.33997E-02
         0.35282E-02
         0.35282E-02
         0.29803E-02
         0.32484E-02
         0.28755E-02
         0.29955E-02
         0.36861E-02
         0.37151E-02
         0.37151E-02
         0.33840E-02
         0.29111E-02
         0.32090E-02
         0.32852E-02
         0.32852E-02
         0.27006E-02
         0.25920E-02
         0.25830E-02
         0.26950E-02
         0.28617E-02
         0.29535E-02
         0.29714E-02
         0.29714E-02
         0.26470E-02
         0.27680E-02
         0.33997E-02
         0.35282E-02
         0.35282E-02
         0.29803E-02
         0.31544E-02
         0.31544E-02
         0.43123E-02
         0.43123E-02
         0.43123E-02
         0.43123E-02
         0.34893E-02
         0.34893E-02
         0.32640E-02
         0.32011E-02
         0.37801E-02
         0.31832E-02
         0.26948E-02
         0.33836E-02
         0.37150E-02
         0.26969E-02
         0.29123E-02
         0.36966E-02
         0.36319E-02
         0.37954E-02
         0.30128E-02
         0.30128E-02
         0.28622E-02
         0.26957E-02
         0.29536E-02
         0.28104E-02
         0.30312E-02
         0.36966E-02
         0.28357E-02
         0.28357E-02
         0.27434E-02
         0.26061E-02
         0.36966E-02
         0.36966E-02
         0.37954E-02
         0.37954E-02
         0.30254E-02
         0.36849E-02
         0.37150E-02
         0.32103E-02
         0.32858E-02
         0.32858E-02
         0.27006E-02
         0.25920E-02
         0.25823E-02
         0.29714E-02
         0.29714E-02
         0.26470E-02
         0.29091E-02
         0.33990E-02
         0.35276E-02
         0.35276E-02
         0.29806E-02
         0.32502E-02
         0.28728E-02
         0.29965E-02
         0.36849E-02
         0.37150E-02
         0.37150E-02
         0.33836E-02
         0.29123E-02
         0.32103E-02
         0.32858E-02
         0.32858E-02
         0.27006E-02
         0.25920E-02
         0.25823E-02
         0.26957E-02
         0.28622E-02
         0.29536E-02
         0.29714E-02
         0.29714E-02
         0.26470E-02
         0.27680E-02
         0.33990E-02
         0.35276E-02
         0.35276E-02
         0.29806E-02
         0.31557E-02
         0.31557E-02
         0.43120E-02
         0.43120E-02
         0.43120E-02
         0.43120E-02
         0.34894E-02
         0.34894E-02
         0.32626E-02
         0.32001E-02
         0.37797E-02
         0.31828E-02
         0.26931E-02
         0.33832E-02
         0.37149E-02
         0.26922E-02
         0.29135E-02
         0.36963E-02
         0.36354E-02
         0.37975E-02
         0.30154E-02
         0.30154E-02
         0.28627E-02
         0.26965E-02
         0.29537E-02
         0.28107E-02
         0.30338E-02
         0.36963E-02
         0.28331E-02
         0.28331E-02
         0.27421E-02
         0.26051E-02
         0.36963E-02
         0.36963E-02
         0.37975E-02
         0.37975E-02
         0.30256E-02
         0.36838E-02
         0.37149E-02
         0.32116E-02
         0.32864E-02
         0.32864E-02
         0.27006E-02
         0.25920E-02
         0.25815E-02
         0.29714E-02
         0.29714E-02
         0.26469E-02
         0.29090E-02
         0.33983E-02
         0.35270E-02
         0.35270E-02
         0.29809E-02
         0.32519E-02
         0.28700E-02
         0.29975E-02
         0.36838E-02
         0.37149E-02
         0.37149E-02
         0.33832E-02
         0.29135E-02
         0.32116E-02
         0.32864E-02
         0.32864E-02
         0.27006E-02
         0.25920E-02
         0.25815E-02
         0.26965E-02
         0.28627E-02
         0.29537E-02
         0.29714E-02
         0.29714E-02
         0.26469E-02
         0.27680E-02
         0.33983E-02
         0.35270E-02
         0.35270E-02
         0.29809E-02
         0.31571E-02
         0.31571E-02
         0.43118E-02
         0.43118E-02
         0.43118E-02
         0.43118E-02
         0.34895E-02
         0.34895E-02
         0.32612E-02
         0.31990E-02
         0.37792E-02
         0.31824E-02
         0.26913E-02
         0.33828E-02
         0.37148E-02
         0.26875E-02
         0.29148E-02
         0.36960E-02
         0.36390E-02
         0.37995E-02
         0.30180E-02
         0.30180E-02
         0.28631E-02
         0.26972E-02
         0.29539E-02
         0.28110E-02
         0.30364E-02
         0.36960E-02
         0.28305E-02
         0.28305E-02
         0.27408E-02
         0.26040E-02
         0.36960E-02
         0.36960E-02
         0.37995E-02
         0.37995E-02
         0.30258E-02
         0.36826E-02
         0.37148E-02
         0.32129E-02
         0.32870E-02
         0.32870E-02
         0.27006E-02
         0.25920E-02
         0.25808E-02
         0.29713E-02
         0.29713E-02
         0.26468E-02
         0.29089E-02
         0.33975E-02
         0.35264E-02
         0.35264E-02
         0.29812E-02
         0.32537E-02
         0.28672E-02
         0.29985E-02
         0.36826E-02
         0.37148E-02
         0.37148E-02
         0.33828E-02
         0.29148E-02
         0.32129E-02
         0.32870E-02
         0.32870E-02
         0.27006E-02
         0.25920E-02
         0.25808E-02
         0.26972E-02
         0.28631E-02
         0.29539E-02
         0.29713E-02
         0.29713E-02
         0.26468E-02
         0.27679E-02
         0.33975E-02
         0.35264E-02
         0.35264E-02
         0.29812E-02
         0.31585E-02
         0.31585E-02
         0.43115E-02
         0.43115E-02
         0.43115E-02
         0.43115E-02
         0.34896E-02
         0.34896E-02
         0.32597E-02
         0.31980E-02
         0.37787E-02
         0.31820E-02
         0.26896E-02
         0.33824E-02
         0.37147E-02
         0.26827E-02
         0.29160E-02
         0.36957E-02
         0.36425E-02
         0.38016E-02
         0.30206E-02
         0.30206E-02
         0.28636E-02
         0.26980E-02
         0.29540E-02
         0.28112E-02
         0.30390E-02
         0.36957E-02
         0.28279E-02
         0.28279E-02
         0.27395E-02
         0.26030E-02
         0.36957E-02
         0.36957E-02
         0.38016E-02
         0.38016E-02
         0.30260E-02
         0.36814E-02
         0.37147E-02
         0.32141E-02
         0.32876E-02
         0.32876E-02
         0.27006E-02
         0.25920E-02
         0.25801E-02
         0.29713E-02
         0.29713E-02
         0.26468E-02
         0.29089E-02
         0.33968E-02
         0.35259E-02
         0.35259E-02
         0.29815E-02
         0.32555E-02
         0.28645E-02
         0.29995E-02
         0.36814E-02
         0.37147E-02
         0.37147E-02
         0.33824E-02
         0.29160E-02
         0.32141E-02
         0.32876E-02
         0.32876E-02
         0.27006E-02
         0.25920E-02
         0.25801E-02
         0.26980E-02
         0.28636E-02
         0.29540E-02
         0.29713E-02
         0.29713E-02
         0.26468E-02
         0.27679E-02
         0.33968E-02
         0.35259E-02
         0.35259E-02
         0.29815E-02
         0.31598E-02
         0.31598E-02
         0.43113E-02
         0.43113E-02
         0.43113E-02
         0.43113E-02
         0.34897E-02
         0.34897E-02
         0.32583E-02
         0.31970E-02
         0.37783E-02
         0.31816E-02
         0.26879E-02
         0.33820E-02
         0.37146E-02
         0.26780E-02
         0.29172E-02
         0.36954E-02
         0.36460E-02
         0.38037E-02
         0.30232E-02
         0.30232E-02
         0.28641E-02
         0.26987E-02
         0.29542E-02
         0.28115E-02
         0.30416E-02
         0.36954E-02
         0.28253E-02
         0.28253E-02
         0.27382E-02
         0.26020E-02
         0.36954E-02
         0.36954E-02
         0.38037E-02
         0.38037E-02
         0.30261E-02
         0.36802E-02
         0.37146E-02
         0.32154E-02
         0.32882E-02
         0.32882E-02
         0.27006E-02
         0.25921E-02
         0.25794E-02
         0.29713E-02
         0.29713E-02
         0.26467E-02
         0.29088E-02
         0.33961E-02
         0.35253E-02
         0.35253E-02
         0.29818E-02
         0.32573E-02
         0.28617E-02
         0.30005E-02
         0.36802E-02
         0.37146E-02
         0.37146E-02
         0.33820E-02
         0.29172E-02
         0.32154E-02
         0.32882E-02
         0.32882E-02
         0.27006E-02
         0.25921E-02
         0.25794E-02
         0.26987E-02
         0.28641E-02
         0.29542E-02
         0.29713E-02
         0.29713E-02
         0.26467E-02
         0.27678E-02
         0.33961E-02
         0.35253E-02
         0.35253E-02
         0.29818E-02
         0.31612E-02
         0.31612E-02
         0.43110E-02
         0.43110E-02
         0.43110E-02
         0.43110E-02
         0.34898E-02
         0.34898E-02
         0.32569E-02
         0.31960E-02
         0.37778E-02
         0.31812E-02
         0.26862E-02
         0.33816E-02
         0.37145E-02
         0.26733E-02
         0.29184E-02
         0.36950E-02
         0.36495E-02
         0.38057E-02
         0.30258E-02
         0.30258E-02
         0.28645E-02
         0.26995E-02
         0.29543E-02
         0.28118E-02
         0.30442E-02
         0.36950E-02
         0.28227E-02
         0.28227E-02
         0.27369E-02
         0.26010E-02
         0.36950E-02
         0.36950E-02
         0.38057E-02
         0.38057E-02
         0.30263E-02
         0.36790E-02
         0.37145E-02
         0.32167E-02
         0.32889E-02
         0.32889E-02
         0.27006E-02
         0.25921E-02
         0.25787E-02
         0.29713E-02
         0.29713E-02
         0.26467E-02
         0.29087E-02
         0.33953E-02
         0.35247E-02
         0.35247E-02
         0.29821E-02
         0.32590E-02
         0.28589E-02
         0.30015E-02
         0.36790E-02
         0.37145E-02
         0.37145E-02
         0.33816E-02
         0.29184E-02
         0.32167E-02
         0.32889E-02
         0.32889E-02
         0.27006E-02
         0.25921E-02
         0.25787E-02
         0.26995E-02
         0.28645E-02
         0.29543E-02
         0.29713E-02
         0.29713E-02
         0.26467E-02
         0.27678E-02
         0.33953E-02
         0.35247E-02
         0.35247E-02
         0.29821E-02
         0.31625E-02
         0.31625E-02
         0.43108E-02
         0.43108E-02
         0.43108E-02
         0.43108E-02
         0.34898E-02
         0.34898E-02
         0.32555E-02
         0.31950E-02
         0.37773E-02
         0.31808E-02
         0.26845E-02
         0.33812E-02
         0.37144E-02
         0.26686E-02
         0.29196E-02
         0.36948E-02
         0.36531E-02
         0.38078E-02
         0.30285E-02
         0.30285E-02
         0.28650E-02
         0.27002E-02
         0.29544E-02
         0.28120E-02
         0.30467E-02
         0.36948E-02
         0.28201E-02
         0.28201E-02
         0.27356E-02
         0.26000E-02
         0.36948E-02
         0.36948E-02
         0.38078E-02
         0.38078E-02
         0.30265E-02
         0.36779E-02
         0.37144E-02
         0.32181E-02
         0.32895E-02
         0.32895E-02
         0.27006E-02
         0.25921E-02
         0.25779E-02
         0.29713E-02
         0.29713E-02
         0.26466E-02
         0.29086E-02
         0.33946E-02
         0.35242E-02
         0.35242E-02
         0.29824E-02
         0.32608E-02
         0.28562E-02
         0.30025E-02
         0.36779E-02
         0.37144E-02
         0.37144E-02
         0.33812E-02
         0.29196E-02
         0.32181E-02
         0.32895E-02
         0.32895E-02
         0.27006E-02
         0.25921E-02
         0.25779E-02
         0.27002E-02
         0.28650E-02
         0.29544E-02
         0.29713E-02
         0.29713E-02
         0.26466E-02
         0.27678E-02
         0.33946E-02
         0.35242E-02
         0.35242E-02
         0.29824E-02
         0.31639E-02
         0.31639E-02
         0.43105E-02
         0.43105E-02
         0.43105E-02
         0.43105E-02
         0.34899E-02
         0.34899E-02
         0.32540E-02
         0.31940E-02
         0.37768E-02
         0.31804E-02
         0.26827E-02
         0.33808E-02
         0.37143E-02
         0.26639E-02
         0.29208E-02
         0.36944E-02
         0.36566E-02
         0.38099E-02
         0.30311E-02
         0.30311E-02
         0.28655E-02
         0.27010E-02
         0.29546E-02
         0.28123E-02
         0.30493E-02
         0.36944E-02
         0.28175E-02
         0.28175E-02
         0.27343E-02
         0.25990E-02
         0.36944E-02
         0.36944E-02
         0.38099E-02
         0.38099E-02
         0.30267E-02
         0.36767E-02
         0.37143E-02
         0.32193E-02
         0.32901E-02
         0.32901E-02
         0.27006E-02
         0.25921E-02
         0.25772E-02
         0.29713E-02
         0.29713E-02
         0.26466E-02
         0.29085E-02
         0.33939E-02
         0.35236E-02
         0.35236E-02
         0.29827E-02
         0.32626E-02
         0.28534E-02
         0.30035E-02
         0.36767E-02
         0.37143E-02
         0.37143E-02
         0.33808E-02
         0.29208E-02
         0.32193E-02
         0.32901E-02
         0.32901E-02
         0.27006E-02
         0.25921E-02
         0.25772E-02
         0.27010E-02
         0.28655E-02
         0.29546E-02
         0.29713E-02
         0.29713E-02
         0.26466E-02
         0.27677E-02
         0.33939E-02
         0.35236E-02
         0.35236E-02
         0.29827E-02
         0.31652E-02
         0.31652E-02
         0.43103E-02
         0.43103E-02
         0.43103E-02
         0.43103E-02
         0.34900E-02
         0.34900E-02
         0.32526E-02
         0.31930E-02
         0.37764E-02
         0.31800E-02
         0.26810E-02
         0.33804E-02
         0.37142E-02
         0.26591E-02
         0.29220E-02
         0.36941E-02
         0.36602E-02
         0.38119E-02
         0.30337E-02
         0.30337E-02
         0.28660E-02
         0.27017E-02
         0.29547E-02
         0.28126E-02
         0.30519E-02
         0.36941E-02
         0.28150E-02
         0.28150E-02
         0.27330E-02
         0.25979E-02
         0.36941E-02
         0.36941E-02
         0.38119E-02
         0.38119E-02
         0.30269E-02
         0.36755E-02
         0.37142E-02
         0.32206E-02
         0.32907E-02
         0.32907E-02
         0.27006E-02
         0.25921E-02
         0.25765E-02
         0.29713E-02
         0.29713E-02
         0.26465E-02
         0.29085E-02
         0.33931E-02
         0.35230E-02
         0.35230E-02
         0.29830E-02
         0.32643E-02
         0.28507E-02
         0.30045E-02
         0.36755E-02
         0.37142E-02
         0.37142E-02
         0.33804E-02
         0.29220E-02
         0.32206E-02
         0.32907E-02
         0.32907E-02
         0.27006E-02
         0.25921E-02
         0.25765E-02
         0.27017E-02
         0.28660E-02
         0.29547E-02
         0.29713E-02
         0.29713E-02
         0.26465E-02
         0.27677E-02
         0.33931E-02
         0.35230E-02
         0.35230E-02
         0.29830E-02
         0.31666E-02
         0.31666E-02
         0.43100E-02
         0.43100E-02
         0.43100E-02
         0.43100E-02
         0.34901E-02
         0.34901E-02
         0.32512E-02
         0.31920E-02
         0.37759E-02
         0.31796E-02
         0.26793E-02
         0.33800E-02
         0.37141E-02
         0.26544E-02
         0.29232E-02
         0.36938E-02
         0.36637E-02
         0.38140E-02
         0.30363E-02
         0.30363E-02
         0.28664E-02
         0.27025E-02
         0.29548E-02
         0.28129E-02
         0.30545E-02
         0.36938E-02
         0.28124E-02
         0.28124E-02
         0.27317E-02
         0.25969E-02
         0.36938E-02
         0.36938E-02
         0.38140E-02
         0.38140E-02
         0.30271E-02
         0.36743E-02
         0.37141E-02
         0.32219E-02
         0.32913E-02
         0.32913E-02
         0.27006E-02
         0.25921E-02
         0.25758E-02
         0.29713E-02
         0.29713E-02
         0.26465E-02
         0.29084E-02
         0.33924E-02
         0.35224E-02
         0.35224E-02
         0.29833E-02
         0.32661E-02
         0.28479E-02
         0.30055E-02
         0.36743E-02
         0.37141E-02
         0.37141E-02
         0.33800E-02
         0.29232E-02
         0.32219E-02
         0.32913E-02
         0.32913E-02
         0.27006E-02
         0.25921E-02
         0.25758E-02
         0.27025E-02
         0.28664E-02
         0.29548E-02
         0.29713E-02
         0.29713E-02
         0.26465E-02
         0.27677E-02
         0.33924E-02
         0.35224E-02
         0.35224E-02
         0.29833E-02
         0.31680E-02
         0.31680E-02
         0.43098E-02
         0.43098E-02
         0.43098E-02
         0.43098E-02
         0.34901E-02
         0.34901E-02
         0.32498E-02
         0.31910E-02
         0.37754E-02
         0.31792E-02
         0.26776E-02
         0.33796E-02
         0.37140E-02
         0.26497E-02
         0.29232E-02
         0.36935E-02
         0.36637E-02
         0.38140E-02
         0.30363E-02
         0.30363E-02
         0.28664E-02
         0.27025E-02
         0.29548E-02
         0.28129E-02
         0.30545E-02
         0.36935E-02
         0.28098E-02
         0.28098E-02
         0.27304E-02
         0.25959E-02
         0.36935E-02
         0.36935E-02
         0.38140E-02
         0.38140E-02
         0.30271E-02
         0.36731E-02
         0.37140E-02
         0.32219E-02
         0.32913E-02
         0.32913E-02
         0.27006E-02
         0.25921E-02
         0.25751E-02
         0.29713E-02
         0.29713E-02
         0.26464E-02
         0.29083E-02
         0.33916E-02
         0.35219E-02
         0.35219E-02
         0.29833E-02
         0.32661E-02
         0.28451E-02
         0.30055E-02
         0.36731E-02
         0.37140E-02
         0.37140E-02
         0.33796E-02
         0.29232E-02
         0.32219E-02
         0.32913E-02
         0.32913E-02
         0.27006E-02
         0.25921E-02
         0.25751E-02
         0.27025E-02
         0.28664E-02
         0.29548E-02
         0.29713E-02
         0.29713E-02
         0.26464E-02
         0.27676E-02
         0.33916E-02
         0.35219E-02
         0.35219E-02
         0.29833E-02
         0.31680E-02
         0.31680E-02
  
SCALARS              physical_window_z  double 1
LOOKUP_TABLE default
         0.26928E-02
         0.26928E-02
         0.26928E-02
         0.26928E-02
         0.26928E-02
         0.26928E-02
         0.26928E-02
         0.26928E-02
         0.26928E-02
         0.26928E-02
         0.26928E-02
         0.26928E-02
         0.26928E-02
         0.26928E-02
         0.26928E-02
         0.26928E-02
         0.26928E-02
         0.26928E-02
         0.26928E-02
         0.26928E-02
         0.26928E-02
         0.26928E-02
         0.26928E-02
         0.26928E-02
         0.26928E-02
         0.26928E-02
         0.26928E-02
         0.26928E-02
         0.26928E-02
         0.26928E-02
         0.26928E-02
         0.26928E-02
         0.26928E-02
         0.26928E-02
         0.26928E-02
         0.26928E-02
         0.26928E-02
         0.26928E-02
         0.26928E-02
         0.26928E-02
         0.26928E-02
         0.26928E-02
         0.26928E-02
         0.26928E-02
         0.26928E-02
         0.26928E-02
         0.26928E-02
         0.26928E-02
         0.26928E-02
         0.26928E-02
         0.26928E-02
         0.26928E-02
         0.26928E-02
         0.26928E-02
         0.26928E-02
         0.26928E-02
         0.26928E-02
         0.26928E-02
         0.26928E-02
         0.26928E-02
         0.26928E-02
         0.26928E-02
         0.26928E-02
         0.26928E-02
         0.26928E-02
         0.26928E-02
         0.26928E-02
         0.26928E-02
         0.26928E-02
         0.26928E-02
         0.26928E-02
         0.26928E-02
         0.26928E-02
         0.26928E-02
         0.26928E-02
         0.26928E-02
         0.26928E-02
         0.26928E-02
         0.26928E-02
         0.26928E-02
         0.26928E-02
         0.26928E-02
         0.26928E-02
         0.26928E-02
         0.26928E-02
         0.26928E-02
         0.26928E-02
         0.26928E-02
         0.26928E-02
         0.26928E-02
         0.26928E-02
         0.26928E-02
         0.26928E-02
         0.26928E-02
         0.26928E-02
         0.26928E-02
         0.26928E-02
         0.26928E-02
         0.26928E-02
         0.26928E-02
         0.26928E-02
         0.26928E-02
         0.26928E-02
         0.26928E-02
         0.26928E-02
         0.26928E-02
         0.26928E-02
         0.26928E-02
         0.26928E-02
         0.26928E-02
         0.26928E-02
         0.26928E-02
         0.26928E-02
         0.26928E-02
         0.26928E-02
         0.26928E-02
         0.26928E-02
         0.26928E-02
         0.26928E-02
         0.26928E-02
         0.26928E-02
         0.26928E-02
         0.26928E-02
         0.26928E-02
         0.26928E-02
         0.26928E-02
         0.26928E-02
         0.26928E-02
         0.26928E-02
         0.26928E-02
         0.26928E-02
         0.26928E-02
         0.26928E-02
         0.26928E-02
         0.26928E-02
         0.26928E-02
         0.26928E-02
         0.26928E-02
         0.26928E-02
         0.26928E-02
         0.26928E-02
         0.26928E-02
         0.26928E-02
         0.26928E-02
         0.26928E-02
         0.26928E-02
         0.26928E-02
         0.26928E-02
         0.26928E-02
         0.26928E-02
         0.26928E-02
         0.26928E-02
         0.26928E-02
         0.26928E-02
         0.26928E-02
         0.26928E-02
         0.26927E-02
         0.26927E-02
         0.26927E-02
         0.26927E-02
         0.26927E-02
         0.26927E-02
         0.26927E-02
         0.26927E-02
         0.26927E-02
         0.26927E-02
         0.26927E-02
         0.26927E-02
         0.26927E-02
         0.26927E-02
         0.26927E-02
         0.26927E-02
         0.26927E-02
         0.26927E-02
         0.26927E-02
         0.26927E-02
         0.26927E-02
         0.26927E-02
         0.26927E-02
         0.26927E-02
         0.26927E-02
         0.26927E-02
         0.26927E-02
         0.26927E-02
         0.26927E-02
         0.26927E-02
         0.26927E-02
         0.26927E-02
         0.26927E-02
         0.26927E-02
         0.26927E-02
         0.26927E-02
         0.26927E-02
         0.26927E-02
         0.26927E-02
         0.26927E-02
         0.26927E-02
         0.26927E-02
         0.26927E-02
         0.26927E-02
         0.26927E-02
         0.26927E-02
         0.26927E-02
         0.26927E-02
         0.26927E-02
         0.26927E-02
         0.26927E-02
         0.26927E-02
         0.26927E-02
         0.26927E-02
         0.26927E-02
         0.26927E-02
         0.26927E-02
         0.26927E-02
         0.26927E-02
         0.26927E-02
         0.26927E-02
         0.26927E-02
         0.26927E-02
         0.26927E-02
         0.26927E-02
         0.26927E-02
         0.26927E-02
         0.26927E-02
         0.26927E-02
         0.26927E-02
         0.26927E-02
         0.26927E-02
         0.26927E-02
         0.26927E-02
         0.26927E-02
         0.26927E-02
         0.26927E-02
         0.26927E-02
         0.26927E-02
         0.26927E-02
         0.26927E-02
         0.26927E-02
         0.26927E-02
         0.26927E-02
         0.26927E-02
         0.26927E-02
         0.26927E-02
         0.26927E-02
         0.26927E-02
         0.26927E-02
         0.26927E-02
         0.26927E-02
         0.26927E-02
         0.26927E-02
         0.26927E-02
         0.26927E-02
         0.26927E-02
         0.26927E-02
         0.26927E-02
         0.26927E-02
         0.26927E-02
         0.26927E-02
         0.26927E-02
         0.26927E-02
         0.26927E-02
         0.26927E-02
         0.26927E-02
         0.26927E-02
         0.26927E-02
         0.26927E-02
         0.26927E-02
         0.26927E-02
         0.26927E-02
         0.26927E-02
         0.26927E-02
         0.26927E-02
         0.26927E-02
         0.26927E-02
         0.26927E-02
         0.26927E-02
         0.26927E-02
         0.26927E-02
         0.26927E-02
         0.26927E-02
         0.26927E-02
         0.26927E-02
         0.26927E-02
         0.26927E-02
         0.26927E-02
         0.26927E-02
         0.26927E-02
         0.26927E-02
         0.26927E-02
         0.26927E-02
         0.26927E-02
         0.26927E-02
         0.26927E-02
         0.26927E-02
         0.26927E-02
         0.26927E-02
         0.26927E-02
         0.26927E-02
         0.26927E-02
         0.26927E-02
         0.26927E-02
         0.26927E-02
         0.26927E-02
         0.26927E-02
         0.26927E-02
         0.26927E-02
         0.26927E-02
         0.26927E-02
         0.26927E-02
         0.26927E-02
         0.26927E-02
         0.26927E-02
         0.26927E-02
         0.26927E-02
         0.26927E-02
         0.26927E-02
         0.26927E-02
         0.26927E-02
         0.26927E-02
         0.26927E-02
         0.26927E-02
         0.26927E-02
         0.26927E-02
         0.26927E-02
         0.26927E-02
         0.26927E-02
         0.26927E-02
         0.26927E-02
         0.26927E-02
         0.26927E-02
         0.26927E-02
         0.26927E-02
         0.26927E-02
         0.26927E-02
         0.26927E-02
         0.26927E-02
         0.26927E-02
         0.26927E-02
         0.26927E-02
         0.26927E-02
         0.26927E-02
         0.26927E-02
         0.26927E-02
         0.26927E-02
         0.26927E-02
         0.26927E-02
         0.26927E-02
         0.26927E-02
         0.26927E-02
         0.26927E-02
         0.26927E-02
         0.26927E-02
         0.26927E-02
         0.26927E-02
         0.26927E-02
         0.26927E-02
         0.26927E-02
         0.26927E-02
         0.26927E-02
         0.26927E-02
         0.26927E-02
         0.26927E-02
         0.26927E-02
         0.26927E-02
         0.26927E-02
         0.26927E-02
         0.26927E-02
         0.26927E-02
         0.26927E-02
         0.26927E-02
         0.26927E-02
         0.26927E-02
         0.26927E-02
         0.26927E-02
         0.26927E-02
         0.26927E-02
         0.26927E-02
         0.26927E-02
         0.26927E-02
         0.26927E-02
         0.26927E-02
         0.26927E-02
         0.26927E-02
         0.26927E-02
         0.26927E-02
         0.26927E-02
         0.26927E-02
         0.26927E-02
         0.26927E-02
         0.26927E-02
         0.26927E-02
         0.26927E-02
         0.26927E-02
         0.26927E-02
         0.26927E-02
         0.26927E-02
         0.26927E-02
         0.26927E-02
         0.26927E-02
         0.26927E-02
         0.26927E-02
         0.26927E-02
         0.26927E-02
         0.26927E-02
         0.26927E-02
         0.26927E-02
         0.26927E-02
         0.26927E-02
         0.26927E-02
         0.26927E-02
         0.26927E-02
         0.26927E-02
         0.26927E-02
         0.26927E-02
         0.26927E-02
         0.26927E-02
         0.26927E-02
         0.26927E-02
         0.26927E-02
         0.26927E-02
         0.26927E-02
         0.26927E-02
         0.26927E-02
         0.26927E-02
         0.26927E-02
         0.26927E-02
         0.26927E-02
         0.26927E-02
         0.26927E-02
         0.26927E-02
         0.26927E-02
         0.26927E-02
         0.26927E-02
         0.26927E-02
         0.26927E-02
         0.26927E-02
         0.26927E-02
         0.26927E-02
         0.26927E-02
         0.26927E-02
         0.26927E-02
         0.26927E-02
         0.26927E-02
         0.26927E-02
         0.26927E-02
         0.26927E-02
         0.26927E-02
         0.26927E-02
         0.26927E-02
         0.26927E-02
         0.26927E-02
         0.26927E-02
         0.26927E-02
         0.26927E-02
         0.26927E-02
         0.26927E-02
         0.26927E-02
         0.26927E-02
         0.26927E-02
         0.26927E-02
         0.26927E-02
         0.26927E-02
         0.26927E-02
         0.26927E-02
         0.26927E-02
         0.26927E-02
         0.26927E-02
         0.26927E-02
         0.26927E-02
         0.26927E-02
         0.26927E-02
         0.26927E-02
         0.26927E-02
         0.26927E-02
         0.26927E-02
         0.26927E-02
         0.26927E-02
         0.26927E-02
         0.26927E-02
         0.26927E-02
         0.26927E-02
         0.26927E-02
         0.26927E-02
         0.26927E-02
         0.26927E-02
         0.26927E-02
         0.26927E-02
         0.26927E-02
         0.26927E-02
         0.26927E-02
         0.26927E-02
         0.26927E-02
         0.26927E-02
         0.26927E-02
         0.26927E-02
         0.26927E-02
         0.26927E-02
         0.26927E-02
         0.26927E-02
         0.26927E-02
         0.26927E-02
         0.26927E-02
         0.26927E-02
         0.26927E-02
         0.26927E-02
         0.26927E-02
         0.26927E-02
         0.26927E-02
         0.26927E-02
         0.26927E-02
         0.26927E-02
         0.26927E-02
         0.26927E-02
         0.26927E-02
         0.26927E-02
         0.26927E-02
         0.26927E-02
         0.26927E-02
         0.26927E-02
         0.26927E-02
         0.26927E-02
         0.26927E-02
         0.26927E-02
         0.26927E-02
         0.26927E-02
         0.26927E-02
         0.26927E-02
         0.26927E-02
         0.26927E-02
         0.26927E-02
         0.26927E-02
         0.26927E-02
         0.26927E-02
         0.26927E-02
         0.26927E-02
         0.26927E-02
         0.26927E-02
         0.26927E-02
         0.26927E-02
         0.26927E-02
         0.26927E-02
         0.26927E-02
         0.26927E-02
         0.26927E-02
         0.26927E-02
         0.26927E-02
         0.26927E-02
         0.26927E-02
         0.26927E-02
         0.26927E-02
         0.26927E-02
         0.26927E-02
         0.26927E-02
         0.26927E-02
         0.26927E-02
         0.26927E-02
         0.26927E-02
         0.26927E-02
         0.26927E-02
         0.26927E-02
         0.26927E-02
         0.26927E-02
         0.26927E-02
         0.26927E-02
         0.26927E-02
         0.26927E-02
         0.26927E-02
         0.26927E-02
         0.26927E-02
         0.26927E-02
         0.26927E-02
         0.26927E-02
         0.26927E-02
         0.26927E-02
         0.26927E-02
         0.26927E-02
         0.26927E-02
         0.26927E-02
         0.26927E-02
         0.26927E-02
         0.26927E-02
         0.26927E-02
         0.26927E-02
         0.26927E-02
         0.26927E-02
         0.26927E-02
         0.26927E-02
         0.26927E-02
         0.26927E-02
         0.26927E-02
         0.26927E-02
         0.26927E-02
         0.26927E-02
         0.26927E-02
         0.26927E-02
         0.26927E-02
         0.26927E-02
         0.26927E-02
         0.26927E-02
         0.26927E-02
         0.26927E-02
         0.26927E-02
         0.26927E-02
         0.26927E-02
         0.26927E-02
         0.26927E-02
         0.26927E-02
         0.26927E-02
         0.26927E-02
         0.26927E-02
         0.26927E-02
         0.26927E-02
         0.26927E-02
         0.26927E-02
         0.26927E-02
         0.26927E-02
         0.26927E-02
         0.26927E-02
         0.26927E-02
         0.26927E-02
         0.26927E-02
         0.26927E-02
         0.26927E-02
         0.26927E-02
         0.26927E-02
         0.26927E-02
         0.26927E-02
         0.26927E-02
         0.26927E-02
         0.26927E-02
         0.26927E-02
         0.26927E-02
         0.26927E-02
         0.26927E-02
         0.26927E-02
         0.26927E-02
         0.26927E-02
         0.26927E-02
         0.26927E-02
         0.26927E-02
         0.26927E-02
         0.26927E-02
         0.26927E-02
         0.26927E-02
         0.26927E-02
         0.26927E-02
         0.26927E-02
         0.26927E-02
         0.26927E-02
         0.26927E-02
         0.26927E-02
         0.26927E-02
         0.26927E-02
         0.26927E-02
         0.26927E-02
         0.26927E-02
         0.26927E-02
         0.26927E-02
         0.26927E-02
         0.26927E-02
         0.26927E-02
         0.26927E-02
         0.26927E-02
         0.26927E-02
         0.26927E-02
         0.26927E-02
         0.26927E-02
         0.26927E-02
         0.26927E-02
         0.26927E-02
         0.26927E-02
         0.26927E-02
         0.26927E-02
         0.26927E-02
         0.26927E-02
         0.26927E-02
         0.26927E-02
         0.26927E-02
         0.26927E-02
         0.26927E-02
         0.26927E-02
         0.26927E-02
         0.26927E-02
         0.26927E-02
         0.26927E-02
         0.26927E-02
         0.26927E-02
         0.26927E-02
         0.26927E-02
         0.26927E-02
         0.26927E-02
         0.26927E-02
         0.26927E-02
         0.26927E-02
         0.26927E-02
         0.26927E-02
         0.26927E-02
         0.26927E-02
         0.26927E-02
         0.26927E-02
         0.26927E-02
         0.26927E-02
         0.26927E-02
         0.26927E-02
         0.26927E-02
         0.26927E-02
         0.26927E-02
         0.26927E-02
         0.26927E-02
         0.26927E-02
         0.26927E-02
         0.26927E-02
         0.26927E-02
         0.26927E-02
         0.26927E-02
         0.26927E-02
         0.26927E-02
         0.26927E-02
         0.26927E-02
         0.26927E-02
         0.26927E-02
         0.26927E-02
         0.26927E-02
         0.26927E-02
         0.26927E-02
         0.26927E-02
         0.26927E-02
         0.26927E-02
         0.26927E-02
         0.26927E-02
         0.26927E-02
         0.26927E-02
         0.26927E-02
         0.26927E-02
         0.26927E-02
         0.26927E-02
         0.26927E-02
         0.26927E-02
         0.26927E-02
         0.26927E-02
         0.26927E-02
         0.26927E-02
         0.26927E-02
         0.26927E-02
         0.26927E-02
         0.26927E-02
         0.26927E-02
         0.26927E-02
         0.26927E-02
         0.26927E-02
         0.26927E-02
         0.26927E-02
         0.26927E-02
         0.26927E-02
         0.26927E-02
         0.26927E-02
         0.26927E-02
         0.26927E-02
         0.26927E-02
         0.26927E-02
         0.26927E-02
         0.26927E-02
         0.26927E-02
         0.26927E-02
         0.26927E-02
         0.26927E-02
         0.26927E-02
         0.26927E-02
         0.26927E-02
         0.26927E-02
         0.26927E-02
         0.26927E-02
         0.26927E-02
         0.26927E-02
         0.26927E-02
         0.26927E-02
         0.26927E-02
         0.26927E-02
         0.26927E-02
         0.26927E-02
         0.26927E-02
         0.26927E-02
         0.26927E-02
         0.26927E-02
         0.26927E-02
         0.26927E-02
         0.26927E-02
         0.26927E-02
         0.26927E-02
         0.26927E-02
         0.26927E-02
         0.26927E-02
         0.26927E-02
         0.26927E-02
         0.26927E-02
         0.26927E-02
         0.26927E-02
         0.26927E-02
         0.26927E-02
         0.26927E-02
         0.26927E-02
         0.26927E-02
         0.26927E-02
         0.26927E-02
         0.26927E-02
         0.26927E-02
         0.26927E-02
         0.26927E-02
         0.26927E-02
         0.26927E-02
         0.26927E-02
         0.26927E-02
         0.26927E-02
         0.26927E-02
         0.26927E-02
         0.26927E-02
         0.26927E-02
         0.26927E-02
         0.26927E-02
         0.26927E-02
         0.26927E-02
         0.26927E-02
         0.26927E-02
         0.26927E-02
         0.26927E-02
         0.26927E-02
         0.26927E-02
         0.26927E-02
         0.26927E-02
         0.26927E-02
         0.26927E-02
         0.26927E-02
         0.26927E-02
         0.26927E-02
         0.26927E-02
         0.26927E-02
         0.26927E-02
         0.26927E-02
         0.26927E-02
         0.26927E-02
         0.26927E-02
         0.26927E-02
         0.26927E-02
         0.26927E-02
         0.26927E-02
         0.26927E-02
         0.26927E-02
         0.26927E-02
         0.26927E-02
         0.26927E-02
         0.26927E-02
         0.26927E-02
         0.26927E-02
         0.26927E-02
         0.26927E-02
         0.26927E-02
         0.26927E-02
         0.26927E-02
         0.26927E-02
         0.26927E-02
         0.26927E-02
         0.26927E-02
         0.26927E-02
         0.26927E-02
         0.26927E-02
         0.26927E-02
         0.26927E-02
         0.26927E-02
         0.26927E-02
         0.26927E-02
         0.26927E-02
         0.26927E-02
         0.26927E-02
         0.26927E-02
         0.26927E-02
         0.26927E-02
         0.26927E-02
         0.26927E-02
         0.26927E-02
         0.26927E-02
         0.26927E-02
         0.26927E-02
         0.26927E-02
         0.26927E-02
         0.26927E-02
         0.26927E-02
         0.26927E-02
         0.26927E-02
         0.26927E-02
         0.26927E-02
         0.26927E-02
         0.26927E-02
         0.26927E-02
         0.26927E-02
         0.26927E-02
         0.26927E-02
         0.26927E-02
         0.26927E-02
         0.26927E-02
         0.26927E-02
         0.26927E-02
         0.26927E-02
         0.26927E-02
         0.26927E-02
         0.26927E-02
         0.26927E-02
         0.26927E-02
         0.26927E-02
         0.26927E-02
         0.26927E-02
         0.26927E-02
         0.26927E-02
         0.26927E-02
         0.26927E-02
         0.26927E-02
         0.26927E-02
         0.26927E-02
         0.26927E-02
         0.26927E-02
         0.26927E-02
         0.26927E-02
         0.26927E-02
         0.26927E-02
         0.26927E-02
         0.26927E-02
         0.26927E-02
         0.26927E-02
         0.26927E-02
         0.26927E-02
         0.26927E-02
         0.26927E-02
         0.26927E-02
         0.26927E-02
         0.26927E-02
         0.26927E-02
         0.26927E-02
         0.26927E-02
         0.26927E-02
         0.26927E-02
         0.26927E-02
         0.26927E-02
         0.26927E-02
         0.26927E-02
         0.26927E-02
         0.26927E-02
         0.26927E-02
         0.26927E-02
         0.26927E-02
         0.26927E-02
         0.26927E-02
         0.26927E-02
         0.26927E-02
         0.26927E-02
         0.26927E-02
         0.26927E-02
         0.26927E-02
         0.26927E-02
         0.26927E-02
         0.26927E-02
         0.26927E-02
         0.26927E-02
         0.26927E-02
         0.26927E-02
         0.26927E-02
         0.26927E-02
         0.26927E-02
         0.26927E-02
         0.26927E-02
         0.26927E-02
         0.26927E-02
         0.26927E-02
         0.26927E-02
         0.26927E-02
         0.26927E-02
         0.26927E-02
         0.26927E-02
         0.26927E-02
         0.26927E-02
         0.26927E-02
         0.26927E-02
         0.26927E-02
         0.26927E-02
         0.26927E-02
         0.26927E-02
         0.26927E-02
         0.26927E-02
         0.26927E-02
         0.26927E-02
         0.26927E-02
         0.26927E-02
         0.26927E-02
         0.26927E-02
         0.26927E-02
         0.26927E-02
         0.26927E-02
         0.26927E-02
         0.26927E-02
         0.26927E-02
         0.26927E-02
         0.26927E-02
         0.26927E-02
         0.26927E-02
         0.26927E-02
         0.26927E-02
         0.26927E-02
         0.26927E-02
         0.26927E-02
         0.26927E-02
         0.26927E-02
         0.26927E-02
         0.26927E-02
         0.26927E-02
         0.26927E-02
         0.26927E-02
         0.26927E-02
         0.26927E-02
         0.26927E-02
         0.26927E-02
         0.26927E-02
         0.26927E-02
         0.26927E-02
         0.26927E-02
         0.26927E-02
         0.26927E-02
         0.26927E-02
         0.26927E-02
         0.26927E-02
         0.26927E-02
         0.26927E-02
         0.26927E-02
         0.26927E-02
         0.26927E-02
         0.26927E-02
         0.26927E-02
         0.26927E-02
         0.26927E-02
         0.26927E-02
         0.26927E-02
         0.26927E-02
         0.26927E-02
         0.26927E-02
         0.26927E-02
         0.26927E-02
         0.26927E-02
         0.26927E-02
         0.26927E-02
         0.26927E-02
         0.26927E-02
         0.26927E-02
         0.26927E-02
         0.26927E-02
         0.26927E-02
         0.26927E-02
         0.26927E-02
         0.26927E-02
         0.26927E-02
         0.26927E-02
         0.26927E-02
         0.26927E-02
         0.26927E-02
         0.26927E-02
         0.26927E-02
         0.26927E-02
         0.26927E-02
         0.26927E-02
         0.26927E-02
         0.26927E-02
         0.26927E-02
         0.26927E-02
         0.26927E-02
         0.26927E-02
         0.26927E-02
         0.26927E-02
         0.26927E-02
         0.26927E-02
         0.26927E-02
         0.26927E-02
         0.26927E-02
         0.26927E-02
         0.26927E-02
         0.26927E-02
         0.26927E-02
         0.26927E-02
         0.26927E-02
         0.26927E-02
         0.26927E-02
         0.26927E-02
         0.26927E-02
         0.26927E-02
         0.26927E-02
         0.26927E-02
         0.26927E-02
         0.26927E-02
         0.26927E-02
         0.26927E-02
         0.26927E-02
         0.26927E-02
         0.26927E-02
         0.26927E-02
         0.26927E-02
         0.26927E-02
         0.26927E-02
         0.26927E-02
         0.26927E-02
         0.26927E-02
         0.26927E-02
         0.26927E-02
         0.26927E-02
         0.26927E-02
         0.26927E-02
         0.26927E-02
         0.26927E-02
         0.26927E-02
         0.26927E-02
         0.26927E-02
         0.26927E-02
         0.26927E-02
         0.26927E-02
         0.26927E-02
         0.26927E-02
         0.26927E-02
         0.26927E-02
         0.26927E-02
         0.26927E-02
         0.26927E-02
         0.26927E-02
         0.26927E-02
         0.26927E-02
         0.26927E-02
         0.26927E-02
         0.26927E-02
         0.26927E-02
         0.26927E-02
         0.26927E-02
         0.26927E-02
         0.26927E-02
         0.26927E-02
         0.26927E-02
         0.26927E-02
         0.26927E-02
         0.26927E-02
         0.26927E-02
         0.26927E-02
         0.26927E-02
         0.26927E-02
         0.26927E-02
         0.26927E-02
         0.26927E-02
         0.26927E-02
         0.26927E-02
         0.26927E-02
         0.26927E-02
         0.26927E-02
         0.26927E-02
         0.26927E-02
         0.26927E-02
         0.26927E-02
         0.26927E-02
         0.26927E-02
         0.26927E-02
         0.26927E-02
         0.26927E-02
         0.26927E-02
         0.26927E-02
         0.26927E-02
         0.26927E-02
         0.26927E-02
         0.26927E-02
         0.26927E-02
         0.26927E-02
         0.26927E-02
         0.26927E-02
         0.26927E-02
         0.26927E-02
         0.26927E-02
         0.26927E-02
         0.26927E-02
         0.26927E-02
         0.26927E-02
         0.26927E-02
         0.26927E-02
         0.26927E-02
         0.26927E-02
         0.26927E-02
         0.26927E-02
         0.26927E-02
         0.26927E-02
         0.26927E-02
         0.26927E-02
         0.26927E-02
         0.26927E-02
         0.26927E-02
         0.26927E-02
         0.26927E-02
         0.26927E-02
         0.26927E-02
         0.26927E-02
         0.26927E-02
         0.26927E-02
         0.26927E-02
         0.26927E-02
         0.26927E-02
         0.26927E-02
         0.26927E-02
         0.26927E-02
         0.26927E-02
         0.26927E-02
         0.26927E-02
         0.26927E-02
         0.26927E-02
         0.26927E-02
         0.26927E-02
         0.26927E-02
         0.26927E-02
         0.26927E-02
         0.26927E-02
         0.26927E-02
         0.26927E-02
         0.26927E-02
         0.26927E-02
         0.26927E-02
         0.26927E-02
         0.26927E-02
         0.26927E-02
         0.26927E-02
         0.26927E-02
         0.26927E-02
         0.26927E-02
         0.26927E-02
         0.26927E-02
         0.26927E-02
         0.26927E-02
         0.26927E-02
         0.26927E-02
         0.26927E-02
         0.26927E-02
         0.26927E-02
         0.26927E-02
         0.26927E-02
         0.26927E-02
         0.26927E-02
         0.26927E-02
         0.26927E-02
         0.26927E-02
         0.26927E-02
         0.26927E-02
         0.26927E-02
         0.26927E-02
         0.26927E-02
         0.26927E-02
         0.26927E-02
         0.26927E-02
         0.26927E-02
         0.26927E-02
         0.26927E-02
         0.26927E-02
         0.26927E-02
         0.26927E-02
         0.26927E-02
         0.26927E-02
         0.26927E-02
         0.26927E-02
         0.26927E-02
         0.26927E-02
         0.26927E-02
         0.26927E-02
         0.26927E-02
         0.26927E-02
         0.26927E-02
         0.26927E-02
         0.26927E-02
         0.26927E-02
         0.26927E-02
         0.26927E-02
         0.26927E-02
         0.26927E-02
         0.26927E-02
         0.26927E-02
         0.26927E-02
         0.26927E-02
         0.26927E-02
         0.26927E-02
         0.26927E-02
         0.26927E-02
         0.26927E-02
         0.26927E-02
         0.26927E-02
         0.26927E-02
         0.26927E-02
         0.26927E-02
         0.26927E-02
         0.26927E-02
         0.26927E-02
         0.26927E-02
         0.26927E-02
         0.26927E-02
         0.26927E-02
         0.26927E-02
         0.26927E-02
         0.26927E-02
         0.26927E-02
         0.26927E-02
         0.26927E-02
         0.26927E-02
         0.26927E-02
         0.26927E-02
         0.26927E-02
         0.26927E-02
         0.26927E-02
         0.26927E-02
         0.26927E-02
         0.26927E-02
         0.26927E-02
         0.26927E-02
         0.26927E-02
         0.26927E-02
         0.26927E-02
         0.26927E-02
         0.26927E-02
         0.26927E-02
         0.26927E-02
         0.26927E-02
         0.26927E-02
         0.26927E-02
         0.26927E-02
         0.26927E-02
         0.26927E-02
         0.26927E-02
         0.26927E-02
         0.26927E-02
         0.26927E-02
         0.26927E-02
         0.26927E-02
         0.26927E-02
         0.26927E-02
         0.26927E-02
         0.26927E-02
         0.26927E-02
         0.26927E-02
         0.26927E-02
         0.26927E-02
         0.26927E-02
         0.26927E-02
         0.26927E-02
         0.26927E-02
         0.26927E-02
         0.26927E-02
         0.26927E-02
         0.26927E-02
         0.26927E-02
         0.26927E-02
         0.26927E-02
         0.26927E-02
         0.26927E-02
         0.26927E-02
         0.26927E-02
         0.26927E-02
         0.26927E-02
         0.26927E-02
         0.26927E-02
         0.26927E-02
         0.26927E-02
         0.26927E-02
         0.26927E-02
         0.26927E-02
         0.26927E-02
         0.26927E-02
         0.26927E-02
         0.26927E-02
         0.26927E-02
         0.26927E-02
         0.26927E-02
         0.26927E-02
         0.26927E-02
         0.26927E-02
         0.26927E-02
         0.26927E-02
         0.26927E-02
         0.26927E-02
         0.26927E-02
         0.26927E-02
         0.26927E-02
         0.26927E-02
         0.26927E-02
         0.26927E-02
         0.26927E-02
         0.26927E-02
         0.26927E-02
         0.26927E-02
         0.26927E-02
         0.26927E-02
         0.26927E-02
         0.26927E-02
         0.26927E-02
         0.26927E-02
         0.26927E-02
         0.26927E-02
         0.26927E-02
         0.26927E-02
         0.26927E-02
         0.26927E-02
         0.26927E-02
         0.26927E-02
         0.26927E-02
         0.26927E-02
         0.26927E-02
         0.26927E-02
         0.26927E-02
         0.26927E-02
         0.26927E-02
         0.26927E-02
         0.26927E-02
         0.26927E-02
         0.26927E-02
         0.26927E-02
         0.26927E-02
         0.26927E-02
         0.26927E-02
         0.26927E-02
         0.26927E-02
         0.26927E-02
         0.26927E-02
         0.26927E-02
         0.26927E-02
         0.26927E-02
         0.26927E-02
         0.26927E-02
         0.26927E-02
         0.26927E-02
         0.26927E-02
         0.26927E-02
         0.26927E-02
         0.26927E-02
         0.26927E-02
         0.26927E-02
         0.26927E-02
         0.26927E-02
         0.26927E-02
         0.26927E-02
         0.26927E-02
         0.26927E-02
         0.26927E-02
         0.26927E-02
         0.26927E-02
         0.26927E-02
         0.26927E-02
         0.26927E-02
         0.26927E-02
         0.26927E-02
         0.26927E-02
         0.26927E-02
         0.26927E-02
         0.26927E-02
         0.26927E-02
         0.26927E-02
         0.26927E-02
         0.26927E-02
         0.26927E-02
         0.26927E-02
         0.26927E-02
         0.26927E-02
         0.26927E-02
         0.26927E-02
         0.26927E-02
         0.26927E-02
         0.26927E-02
         0.26927E-02
         0.26927E-02
         0.26927E-02
         0.26927E-02
         0.26927E-02
         0.26927E-02
         0.26927E-02
         0.26927E-02
         0.26927E-02
         0.26927E-02
         0.26927E-02
         0.26927E-02
         0.26927E-02
         0.26927E-02
         0.26927E-02
         0.26927E-02
         0.26927E-02
         0.26927E-02
         0.26927E-02
         0.26927E-02
         0.26927E-02
         0.26927E-02
         0.26927E-02
         0.26927E-02
         0.26927E-02
         0.26927E-02
         0.26927E-02
         0.26927E-02
         0.26927E-02
         0.26927E-02
         0.26927E-02
         0.26927E-02
         0.26927E-02
         0.26927E-02
         0.26927E-02
         0.26927E-02
         0.26927E-02
         0.26927E-02
         0.26927E-02
         0.26927E-02
         0.26927E-02
         0.26927E-02
         0.26927E-02
         0.26927E-02
         0.26927E-02
         0.26927E-02
         0.26927E-02
         0.26927E-02
         0.26927E-02
         0.26927E-02
         0.26927E-02
         0.26927E-02
         0.26927E-02
         0.26927E-02
         0.26927E-02
         0.26927E-02
         0.26927E-02
         0.26927E-02
         0.26927E-02
         0.26927E-02
         0.26927E-02
         0.26927E-02
         0.26927E-02
         0.26927E-02
         0.26927E-02
         0.26927E-02
         0.26927E-02
         0.26927E-02
         0.26927E-02
         0.26927E-02
         0.26927E-02
         0.26927E-02
         0.26927E-02
         0.26927E-02
         0.26927E-02
         0.26927E-02
         0.26927E-02
         0.26927E-02
         0.26927E-02
         0.26927E-02
         0.26927E-02
         0.26927E-02
         0.26927E-02
         0.26927E-02
         0.26927E-02
         0.26927E-02
         0.26927E-02
         0.26927E-02
         0.26927E-02
         0.26927E-02
         0.26927E-02
         0.26927E-02
         0.26927E-02
         0.26927E-02
         0.26927E-02
         0.26927E-02
         0.26927E-02
         0.26927E-02
         0.26927E-02
         0.26927E-02
         0.26927E-02
         0.26927E-02
         0.26927E-02
         0.26927E-02
         0.26927E-02
         0.26927E-02
         0.26927E-02
         0.26927E-02
         0.26927E-02
         0.26927E-02
         0.26927E-02
         0.26927E-02
         0.26927E-02
         0.26927E-02
         0.26927E-02
         0.26927E-02
         0.26927E-02
         0.26927E-02
         0.26927E-02
         0.26927E-02
         0.26927E-02
         0.26927E-02
         0.26927E-02
         0.26927E-02
         0.26927E-02
         0.26927E-02
         0.26927E-02
         0.26927E-02
         0.26927E-02
         0.26927E-02
         0.26927E-02
         0.26927E-02
         0.26927E-02
         0.26927E-02
         0.26927E-02
         0.26927E-02
         0.26927E-02
         0.26927E-02
         0.26927E-02
         0.26927E-02
         0.26927E-02
         0.26927E-02
         0.26927E-02
         0.26927E-02
         0.26927E-02
         0.26927E-02
         0.26927E-02
         0.26927E-02
         0.26927E-02
         0.26927E-02
         0.26927E-02
         0.26927E-02
         0.26927E-02
         0.26927E-02
         0.26927E-02
         0.26927E-02
         0.26927E-02
         0.26927E-02
         0.26927E-02
         0.26927E-02
         0.26927E-02
         0.26927E-02
         0.26927E-02
         0.26927E-02
         0.26927E-02
         0.26927E-02
         0.26927E-02
         0.26927E-02
         0.26927E-02
         0.26927E-02
         0.26927E-02
         0.26927E-02
         0.26927E-02
         0.26927E-02
         0.26927E-02
         0.26927E-02
         0.26927E-02
         0.26927E-02
         0.26927E-02
         0.26927E-02
         0.26927E-02
         0.26927E-02
         0.26927E-02
         0.26927E-02
         0.26927E-02
         0.26927E-02
         0.26927E-02
         0.26927E-02
         0.26927E-02
         0.26927E-02
         0.26927E-02
         0.26927E-02
         0.26927E-02
         0.26927E-02
         0.26927E-02
         0.26927E-02
         0.26927E-02
         0.26927E-02
         0.26927E-02
         0.26927E-02
         0.26927E-02
         0.26927E-02
         0.26927E-02
         0.26927E-02
         0.26927E-02
         0.26927E-02
         0.26927E-02
         0.26927E-02
         0.26927E-02
         0.26927E-02
         0.26927E-02
         0.26927E-02
         0.26927E-02
         0.26927E-02
         0.26927E-02
         0.26927E-02
         0.26927E-02
         0.26927E-02
         0.26927E-02
         0.26927E-02
         0.26927E-02
         0.26927E-02
         0.26927E-02
         0.26927E-02
         0.26927E-02
         0.26927E-02
         0.26927E-02
         0.26927E-02
         0.26927E-02
         0.26927E-02
         0.26927E-02
         0.26927E-02
         0.26927E-02
         0.26927E-02
         0.26927E-02
         0.26927E-02
         0.26927E-02
         0.26927E-02
         0.26927E-02
         0.26927E-02
         0.26927E-02
         0.26927E-02
         0.26927E-02
         0.26927E-02
         0.26927E-02
         0.26927E-02
         0.26927E-02
         0.26927E-02
         0.26927E-02
         0.26927E-02
         0.26927E-02
         0.26927E-02
         0.26927E-02
         0.26927E-02
         0.26927E-02
         0.26927E-02
         0.26927E-02
         0.26927E-02
         0.26927E-02
         0.26927E-02
         0.26927E-02
         0.26927E-02
         0.26927E-02
         0.26927E-02
         0.26927E-02
         0.26927E-02
         0.26927E-02
         0.26927E-02
         0.26927E-02
         0.26927E-02
         0.26927E-02
         0.26927E-02
         0.26927E-02
         0.26927E-02
         0.26927E-02
         0.26927E-02
         0.26927E-02
         0.26927E-02
         0.26927E-02
         0.26927E-02
         0.26927E-02
         0.26927E-02
         0.26927E-02
         0.26927E-02
         0.26927E-02
         0.26927E-02
         0.26927E-02
         0.26927E-02
         0.26927E-02
         0.26927E-02
         0.26927E-02
         0.26927E-02
         0.26927E-02
         0.26927E-02
         0.26927E-02
         0.26927E-02
         0.26927E-02
         0.26927E-02
         0.26927E-02
         0.26927E-02
         0.26927E-02
         0.26927E-02
         0.26927E-02
         0.26927E-02
         0.26927E-02
         0.26927E-02
         0.26927E-02
         0.26927E-02
         0.26927E-02
         0.26927E-02
         0.26927E-02
         0.26927E-02
         0.26927E-02
         0.26927E-02
         0.26927E-02
         0.26927E-02
         0.26927E-02
         0.26927E-02
         0.26927E-02
         0.26927E-02
         0.26927E-02
         0.26927E-02
         0.26927E-02
         0.26927E-02
         0.26927E-02
         0.26927E-02
         0.26927E-02
         0.26927E-02
         0.26928E-02
         0.26928E-02
         0.26928E-02
         0.26928E-02
         0.26928E-02
         0.26928E-02
         0.26928E-02
         0.26928E-02
         0.26928E-02
         0.26928E-02
         0.26928E-02
         0.26928E-02
         0.26928E-02
         0.26928E-02
         0.26928E-02
         0.26928E-02
         0.26928E-02
         0.26928E-02
         0.26928E-02
         0.26928E-02
         0.26928E-02
         0.26928E-02
         0.26928E-02
         0.26928E-02
         0.26928E-02
         0.26928E-02
         0.26928E-02
         0.26928E-02
         0.26928E-02
         0.26928E-02
         0.26928E-02
         0.26928E-02
         0.26928E-02
         0.26928E-02
         0.26928E-02
         0.26928E-02
         0.26928E-02
         0.26928E-02
         0.26928E-02
         0.26928E-02
         0.26928E-02
         0.26928E-02
         0.26928E-02
         0.26928E-02
         0.26928E-02
         0.26928E-02
         0.26928E-02
         0.26928E-02
         0.26928E-02
         0.26928E-02
         0.26928E-02
         0.26928E-02
         0.26928E-02
         0.26928E-02
         0.26928E-02
         0.26928E-02
         0.26928E-02
         0.26928E-02
         0.26928E-02
         0.26928E-02
         0.26928E-02
         0.26928E-02
         0.26928E-02
         0.26928E-02
         0.26928E-02
         0.26928E-02
         0.26928E-02
         0.26928E-02
         0.26928E-02
         0.26928E-02
         0.26928E-02
         0.26928E-02
         0.26928E-02
         0.26928E-02
         0.26928E-02
         0.26928E-02
         0.26928E-02
         0.26928E-02
         0.26928E-02
         0.26928E-02
         0.26928E-02
         0.26928E-02
         0.26928E-02
         0.26928E-02
         0.26928E-02
         0.26928E-02
         0.26928E-02
         0.26928E-02
         0.26928E-02
         0.26928E-02
         0.26928E-02
         0.26928E-02
         0.26928E-02
         0.26928E-02
         0.26928E-02
         0.26928E-02
         0.26928E-02
         0.26928E-02
         0.26928E-02
         0.26928E-02
         0.26928E-02
         0.26928E-02
         0.26928E-02
         0.26928E-02
         0.26928E-02
         0.26928E-02
         0.26928E-02
         0.26928E-02
         0.26928E-02
         0.26928E-02
         0.26928E-02
         0.26928E-02
         0.26928E-02
         0.26928E-02
         0.26928E-02
         0.26928E-02
         0.26928E-02
         0.26928E-02
         0.26928E-02
         0.26928E-02
         0.26928E-02
         0.26928E-02
         0.26928E-02
         0.26928E-02
         0.26928E-02
         0.26928E-02
         0.26928E-02
         0.26928E-02
         0.26928E-02
         0.26928E-02
         0.26928E-02
         0.26928E-02
         0.26928E-02
         0.26928E-02
         0.26928E-02
         0.26928E-02
         0.26928E-02
         0.26928E-02
         0.26928E-02
         0.26928E-02
         0.26928E-02
         0.26928E-02
         0.26928E-02
         0.26928E-02
         0.26928E-02
         0.26928E-02
         0.26928E-02
         0.26928E-02
         0.26928E-02
         0.26928E-02
         0.26928E-02
         0.26928E-02
         0.26928E-02
         0.26928E-02
         0.26928E-02
         0.26928E-02
  
SCALARS                   nodal_volume  double 1
LOOKUP_TABLE default
         0.91140E-09
         0.72412E-09
         0.77574E-09
         0.13316E-08
         0.45570E-09
         0.36211E-09
         0.38787E-09
         0.66566E-09
         0.71537E-09
         0.91211E-09
         0.35767E-09
         0.45600E-09
         0.51195E-09
         0.61532E-09
         0.25605E-09
         0.30776E-09
         0.10101E-08
         0.74536E-09
         0.50500E-09
         0.37281E-09
         0.30273E-09
         0.57012E-09
         0.62699E-09
         0.15144E-09
         0.28509E-09
         0.31352E-09
         0.51329E-09
         0.64933E-09
         0.25683E-09
         0.32471E-09
         0.12026E-08
         0.93909E-09
         0.11935E-08
         0.60122E-09
         0.46945E-09
         0.59663E-09
         0.70296E-09
         0.80270E-09
         0.35149E-09
         0.40134E-09
         0.75859E-09
         0.84013E-09
         0.37932E-09
         0.42007E-09
         0.64542E-09
         0.40086E-09
         0.32274E-09
         0.20045E-09
         0.76288E-09
         0.38153E-09
         0.63346E-09
         0.31675E-09
         0.66583E-09
         0.33318E-09
         0.68008E-09
         0.34022E-09
         0.58930E-09
         0.71738E-09
         0.29472E-09
         0.35874E-09
         0.90938E-09
         0.64302E-09
         0.45469E-09
         0.32154E-09
         0.10152E-08
         0.50747E-09
         0.88120E-09
         0.44042E-09
         0.40077E-09
         0.61872E-09
         0.20039E-09
         0.30940E-09
         0.70206E-09
         0.35106E-09
         0.74172E-09
         0.37089E-09
         0.71539E-09
         0.35770E-09
         0.56226E-09
         0.28113E-09
         0.35349E-09
         0.58452E-09
         0.17675E-09
         0.29229E-09
         0.77354E-09
         0.38679E-09
         0.62469E-09
         0.31238E-09
         0.54957E-09
         0.27483E-09
         0.36009E-09
         0.61365E-09
         0.18007E-09
         0.30685E-09
         0.83268E-09
         0.41635E-09
         0.87287E-09
         0.43642E-09
         0.70438E-09
         0.35217E-09
         0.43365E-09
         0.74413E-09
         0.21683E-09
         0.37198E-09
         0.27660E-09
         0.35144E-09
         0.13833E-09
         0.17573E-09
         0.32921E-09
         0.16465E-09
         0.38764E-09
         0.19382E-09
         0.37797E-09
         0.18897E-09
         0.36707E-09
         0.18352E-09
         0.39112E-09
         0.19552E-09
         0.41268E-09
         0.20627E-09
         0.38876E-09
         0.19433E-09
         0.30402E-09
         0.15200E-09
         0.24796E-09
         0.12398E-09
         0.31999E-09
         0.16000E-09
         0.42608E-09
         0.21303E-09
         0.46805E-09
         0.23401E-09
         0.44933E-09
         0.22466E-09
         0.40550E-09
         0.20276E-09
         0.36826E-09
         0.18414E-09
         0.29911E-09
         0.14956E-09
         0.25178E-09
         0.12591E-09
         0.32888E-09
         0.16445E-09
         0.43529E-09
         0.21765E-09
         0.44963E-09
         0.22482E-09
         0.36384E-09
         0.18194E-09
         0.29543E-09
         0.14774E-09
         0.36126E-09
         0.18063E-09
         0.42771E-09
         0.21386E-09
         0.91143E-09
         0.72396E-09
         0.77579E-09
         0.13322E-08
         0.71547E-09
         0.91237E-09
         0.51167E-09
         0.61494E-09
         0.10105E-08
         0.74486E-09
         0.30244E-09
         0.57001E-09
         0.62694E-09
         0.51257E-09
         0.64918E-09
         0.12029E-08
         0.93950E-09
         0.11941E-08
         0.70298E-09
         0.80279E-09
         0.75855E-09
         0.84015E-09
         0.64535E-09
         0.40081E-09
         0.76254E-09
         0.63339E-09
         0.66483E-09
         0.67941E-09
         0.58904E-09
         0.71721E-09
         0.90946E-09
         0.64293E-09
         0.10157E-08
         0.88199E-09
         0.40076E-09
         0.61859E-09
         0.70195E-09
         0.74166E-09
         0.71543E-09
         0.56228E-09
         0.35349E-09
         0.58443E-09
         0.77349E-09
         0.62459E-09
         0.54943E-09
         0.35999E-09
         0.61359E-09
         0.83268E-09
         0.87299E-09
         0.70451E-09
         0.43366E-09
         0.74449E-09
         0.27651E-09
         0.35143E-09
         0.32904E-09
         0.38765E-09
         0.37805E-09
         0.36714E-09
         0.39129E-09
         0.41297E-09
         0.38899E-09
         0.30408E-09
         0.24798E-09
         0.31999E-09
         0.42613E-09
         0.46815E-09
         0.44938E-09
         0.40548E-09
         0.36823E-09
         0.29908E-09
         0.25174E-09
         0.32885E-09
         0.43527E-09
         0.44962E-09
         0.36376E-09
         0.29536E-09
         0.36130E-09
         0.42769E-09
         0.91151E-09
         0.72383E-09
         0.77587E-09
         0.13329E-08
         0.71560E-09
         0.91267E-09
         0.51142E-09
         0.61459E-09
         0.10109E-08
         0.74439E-09
         0.30216E-09
         0.56992E-09
         0.62691E-09
         0.51187E-09
         0.64906E-09
         0.12033E-08
         0.93995E-09
         0.11947E-08
         0.70302E-09
         0.80291E-09
         0.75853E-09
         0.84020E-09
         0.64530E-09
         0.40078E-09
         0.76223E-09
         0.63335E-09
         0.66385E-09
         0.67875E-09
         0.58880E-09
         0.71706E-09
         0.90957E-09
         0.64286E-09
         0.10162E-08
         0.88281E-09
         0.40076E-09
         0.61849E-09
         0.70188E-09
         0.74162E-09
         0.71550E-09
         0.56232E-09
         0.35350E-09
         0.58436E-09
         0.77347E-09
         0.62452E-09
         0.54931E-09
         0.35990E-09
         0.61355E-09
         0.83270E-09
         0.87315E-09
         0.70467E-09
         0.43368E-09
         0.74487E-09
         0.27643E-09
         0.35143E-09
         0.32889E-09
         0.38767E-09
         0.37814E-09
         0.36723E-09
         0.39147E-09
         0.41328E-09
         0.38923E-09
         0.30416E-09
         0.24800E-09
         0.32001E-09
         0.42620E-09
         0.46826E-09
         0.44944E-09
         0.40548E-09
         0.36821E-09
         0.29906E-09
         0.25171E-09
         0.32883E-09
         0.43527E-09
         0.44963E-09
         0.36369E-09
         0.29530E-09
         0.36135E-09
         0.42769E-09
         0.91156E-09
         0.72368E-09
         0.77594E-09
         0.13335E-08
         0.71571E-09
         0.91295E-09
         0.51115E-09
         0.61422E-09
         0.10112E-08
         0.74389E-09
         0.30187E-09
         0.56982E-09
         0.62686E-09
         0.51116E-09
         0.64892E-09
         0.12036E-08
         0.94038E-09
         0.11953E-08
         0.70304E-09
         0.80300E-09
         0.75850E-09
         0.84023E-09
         0.64523E-09
         0.40073E-09
         0.76190E-09
         0.63330E-09
         0.66285E-09
         0.67809E-09
         0.58855E-09
         0.71689E-09
         0.90966E-09
         0.64278E-09
         0.10168E-08
         0.88361E-09
         0.40076E-09
         0.61837E-09
         0.70178E-09
         0.74156E-09
         0.71554E-09
         0.56234E-09
         0.35350E-09
         0.58428E-09
         0.77343E-09
         0.62442E-09
         0.54918E-09
         0.35981E-09
         0.61349E-09
         0.83271E-09
         0.87328E-09
         0.70481E-09
         0.43369E-09
         0.74524E-09
         0.27634E-09
         0.35142E-09
         0.32873E-09
         0.38768E-09
         0.37823E-09
         0.36731E-09
         0.39163E-09
         0.41358E-09
         0.38945E-09
         0.30422E-09
         0.24802E-09
         0.32001E-09
         0.42625E-09
         0.46837E-09
         0.44949E-09
         0.40546E-09
         0.36819E-09
         0.29904E-09
         0.25167E-09
         0.32881E-09
         0.43526E-09
         0.44963E-09
         0.36362E-09
         0.29523E-09
         0.36139E-09
         0.42768E-09
         0.91161E-09
         0.72353E-09
         0.77600E-09
         0.13341E-08
         0.71583E-09
         0.91323E-09
         0.51088E-09
         0.61386E-09
         0.10116E-08
         0.74341E-09
         0.30158E-09
         0.56972E-09
         0.62682E-09
         0.51045E-09
         0.64879E-09
         0.12040E-08
         0.94081E-09
         0.11959E-08
         0.70307E-09
         0.80310E-09
         0.75847E-09
         0.84027E-09
         0.64517E-09
         0.40069E-09
         0.76158E-09
         0.63325E-09
         0.66186E-09
         0.67742E-09
         0.58831E-09
         0.71673E-09
         0.90975E-09
         0.64270E-09
         0.10173E-08
         0.88441E-09
         0.40075E-09
         0.61825E-09
         0.70169E-09
         0.74151E-09
         0.71559E-09
         0.56237E-09
         0.35350E-09
         0.58420E-09
         0.77339E-09
         0.62433E-09
         0.54905E-09
         0.35972E-09
         0.61344E-09
         0.83272E-09
         0.87341E-09
         0.70496E-09
         0.43370E-09
         0.74562E-09
         0.27626E-09
         0.35142E-09
         0.32857E-09
         0.38770E-09
         0.37832E-09
         0.36739E-09
         0.39181E-09
         0.41387E-09
         0.38968E-09
         0.30429E-09
         0.24804E-09
         0.32002E-09
         0.42631E-09
         0.46847E-09
         0.44954E-09
         0.40545E-09
         0.36816E-09
         0.29901E-09
         0.25163E-09
         0.32878E-09
         0.43525E-09
         0.44963E-09
         0.36354E-09
         0.29517E-09
         0.36144E-09
         0.42766E-09
         0.91167E-09
         0.72338E-09
         0.77607E-09
         0.13348E-08
         0.71594E-09
         0.91351E-09
         0.51062E-09
         0.61349E-09
         0.10119E-08
         0.74292E-09
         0.30129E-09
         0.56962E-09
         0.62678E-09
         0.50974E-09
         0.64865E-09
         0.12044E-08
         0.94125E-09
         0.11965E-08
         0.70310E-09
         0.80321E-09
         0.75844E-09
         0.84031E-09
         0.64511E-09
         0.40065E-09
         0.76125E-09
         0.63320E-09
         0.66087E-09
         0.67676E-09
         0.58806E-09
         0.71657E-09
         0.90984E-09
         0.64263E-09
         0.10179E-08
         0.88522E-09
         0.40075E-09
         0.61813E-09
         0.70160E-09
         0.74146E-09
         0.71564E-09
         0.56240E-09
         0.35350E-09
         0.58412E-09
         0.77336E-09
         0.62425E-09
         0.54892E-09
         0.35963E-09
         0.61339E-09
         0.83274E-09
         0.87355E-09
         0.70511E-09
         0.43371E-09
         0.74599E-09
         0.27618E-09
         0.35141E-09
         0.32841E-09
         0.38771E-09
         0.37841E-09
         0.36747E-09
         0.39198E-09
         0.41417E-09
         0.38992E-09
         0.30436E-09
         0.24806E-09
         0.32003E-09
         0.42637E-09
         0.46858E-09
         0.44960E-09
         0.40544E-09
         0.36814E-09
         0.29899E-09
         0.25159E-09
         0.32876E-09
         0.43525E-09
         0.44963E-09
         0.36347E-09
         0.29511E-09
         0.36148E-09
         0.42766E-09
         0.91171E-09
         0.72323E-09
         0.77613E-09
         0.13354E-08
         0.71606E-09
         0.91379E-09
         0.51035E-09
         0.61313E-09
         0.10123E-08
         0.74243E-09
         0.30101E-09
         0.56952E-09
         0.62674E-09
         0.50903E-09
         0.64851E-09
         0.12047E-08
         0.94167E-09
         0.11971E-08
         0.70312E-09
         0.80331E-09
         0.75840E-09
         0.84034E-09
         0.64504E-09
         0.40061E-09
         0.76092E-09
         0.63314E-09
         0.65988E-09
         0.67609E-09
         0.58781E-09
         0.71641E-09
         0.90993E-09
         0.64255E-09
         0.10184E-08
         0.88601E-09
         0.40075E-09
         0.61801E-09
         0.70151E-09
         0.74140E-09
         0.71569E-09
         0.56243E-09
         0.35350E-09
         0.58404E-09
         0.77332E-09
         0.62416E-09
         0.54879E-09
         0.35953E-09
         0.61334E-09
         0.83274E-09
         0.87368E-09
         0.70525E-09
         0.43372E-09
         0.74636E-09
         0.27609E-09
         0.35141E-09
         0.32825E-09
         0.38772E-09
         0.37849E-09
         0.36754E-09
         0.39215E-09
         0.41447E-09
         0.39014E-09
         0.30443E-09
         0.24808E-09
         0.32004E-09
         0.42642E-09
         0.46868E-09
         0.44965E-09
         0.40543E-09
         0.36812E-09
         0.29897E-09
         0.25155E-09
         0.32874E-09
         0.43524E-09
         0.44963E-09
         0.36340E-09
         0.29504E-09
         0.36153E-09
         0.42764E-09
         0.91176E-09
         0.72308E-09
         0.77620E-09
         0.13360E-08
         0.71617E-09
         0.91407E-09
         0.51008E-09
         0.61276E-09
         0.10126E-08
         0.74195E-09
         0.30072E-09
         0.56942E-09
         0.62670E-09
         0.50832E-09
         0.64838E-09
         0.12051E-08
         0.94210E-09
         0.11977E-08
         0.70314E-09
         0.80341E-09
         0.75837E-09
         0.84038E-09
         0.64498E-09
         0.40056E-09
         0.76060E-09
         0.63309E-09
         0.65888E-09
         0.67542E-09
         0.58756E-09
         0.71624E-09
         0.91002E-09
         0.64247E-09
         0.10189E-08
         0.88682E-09
         0.40074E-09
         0.61790E-09
         0.70142E-09
         0.74135E-09
         0.71574E-09
         0.56245E-09
         0.35351E-09
         0.58396E-09
         0.77328E-09
         0.62407E-09
         0.54866E-09
         0.35944E-09
         0.61329E-09
         0.83275E-09
         0.87382E-09
         0.70539E-09
         0.43373E-09
         0.74673E-09
         0.27601E-09
         0.35140E-09
         0.32809E-09
         0.38774E-09
         0.37858E-09
         0.36762E-09
         0.39232E-09
         0.41477E-09
         0.39037E-09
         0.30450E-09
         0.24810E-09
         0.32005E-09
         0.42648E-09
         0.46879E-09
         0.44970E-09
         0.40541E-09
         0.36809E-09
         0.29894E-09
         0.25151E-09
         0.32871E-09
         0.43523E-09
         0.44963E-09
         0.36333E-09
         0.29497E-09
         0.36157E-09
         0.42763E-09
         0.91182E-09
         0.72293E-09
         0.77627E-09
         0.13367E-08
         0.71629E-09
         0.91436E-09
         0.50982E-09
         0.61240E-09
         0.10130E-08
         0.74146E-09
         0.30043E-09
         0.56932E-09
         0.62666E-09
         0.50762E-09
         0.64825E-09
         0.12054E-08
         0.94253E-09
         0.11983E-08
         0.70317E-09
         0.80351E-09
         0.75834E-09
         0.84041E-09
         0.64491E-09
         0.40053E-09
         0.76028E-09
         0.63304E-09
         0.65790E-09
         0.67476E-09
         0.58731E-09
         0.71609E-09
         0.91012E-09
         0.64239E-09
         0.10195E-08
         0.88762E-09
         0.40074E-09
         0.61778E-09
         0.70133E-09
         0.74130E-09
         0.71579E-09
         0.56249E-09
         0.35351E-09
         0.58388E-09
         0.77324E-09
         0.62398E-09
         0.54853E-09
         0.35935E-09
         0.61324E-09
         0.83277E-09
         0.87396E-09
         0.70554E-09
         0.43375E-09
         0.74711E-09
         0.27592E-09
         0.35140E-09
         0.32793E-09
         0.38775E-09
         0.37867E-09
         0.36770E-09
         0.39249E-09
         0.41507E-09
         0.39061E-09
         0.30457E-09
         0.24812E-09
         0.32006E-09
         0.42654E-09
         0.46890E-09
         0.44975E-09
         0.40540E-09
         0.36807E-09
         0.29892E-09
         0.25148E-09
         0.32869E-09
         0.43522E-09
         0.44963E-09
         0.36325E-09
         0.29491E-09
         0.36162E-09
         0.42762E-09
         0.91187E-09
         0.72278E-09
         0.77633E-09
         0.13373E-08
         0.71640E-09
         0.91463E-09
         0.50955E-09
         0.61204E-09
         0.10134E-08
         0.74098E-09
         0.30015E-09
         0.56922E-09
         0.62662E-09
         0.50691E-09
         0.64811E-09
         0.12058E-08
         0.94296E-09
         0.11989E-08
         0.70320E-09
         0.80361E-09
         0.75831E-09
         0.84045E-09
         0.64485E-09
         0.40048E-09
         0.75995E-09
         0.63298E-09
         0.65690E-09
         0.67409E-09
         0.58706E-09
         0.71592E-09
         0.91020E-09
         0.64231E-09
         0.10200E-08
         0.88843E-09
         0.40074E-09
         0.61766E-09
         0.70124E-09
         0.74124E-09
         0.71584E-09
         0.56251E-09
         0.35351E-09
         0.58380E-09
         0.77320E-09
         0.62389E-09
         0.54840E-09
         0.35926E-09
         0.61318E-09
         0.83277E-09
         0.87409E-09
         0.70568E-09
         0.43376E-09
         0.74748E-09
         0.27584E-09
         0.35139E-09
         0.32777E-09
         0.38777E-09
         0.37876E-09
         0.36778E-09
         0.39266E-09
         0.41536E-09
         0.39084E-09
         0.30464E-09
         0.24814E-09
         0.32006E-09
         0.42659E-09
         0.46900E-09
         0.44980E-09
         0.40539E-09
         0.36805E-09
         0.29890E-09
         0.25144E-09
         0.32867E-09
         0.43521E-09
         0.44963E-09
         0.36318E-09
         0.29485E-09
         0.36166E-09
         0.42761E-09
         0.91192E-09
         0.72263E-09
         0.77640E-09
         0.13380E-08
         0.71652E-09
         0.91491E-09
         0.50928E-09
         0.61167E-09
         0.10137E-08
         0.74049E-09
         0.29986E-09
         0.56912E-09
         0.62657E-09
         0.50620E-09
         0.64797E-09
         0.12061E-08
         0.94339E-09
         0.11995E-08
         0.70322E-09
         0.80371E-09
         0.75827E-09
         0.84048E-09
         0.64478E-09
         0.40044E-09
         0.75962E-09
         0.63293E-09
         0.65591E-09
         0.67343E-09
         0.58681E-09
         0.71576E-09
         0.91029E-09
         0.64223E-09
         0.10205E-08
         0.88923E-09
         0.40073E-09
         0.61754E-09
         0.70114E-09
         0.74119E-09
         0.71588E-09
         0.56254E-09
         0.35351E-09
         0.58372E-09
         0.77316E-09
         0.62380E-09
         0.54827E-09
         0.35917E-09
         0.61313E-09
         0.83278E-09
         0.87422E-09
         0.70582E-09
         0.43377E-09
         0.74785E-09
         0.27575E-09
         0.35138E-09
         0.32761E-09
         0.38778E-09
         0.37885E-09
         0.36786E-09
         0.39283E-09
         0.41566E-09
         0.39107E-09
         0.30470E-09
         0.24816E-09
         0.32007E-09
         0.42665E-09
         0.46911E-09
         0.44985E-09
         0.40538E-09
         0.36802E-09
         0.29887E-09
         0.25140E-09
         0.32864E-09
         0.43520E-09
         0.44963E-09
         0.36310E-09
         0.29478E-09
         0.36170E-09
         0.42760E-09
         0.91198E-09
         0.72248E-09
         0.77646E-09
         0.13386E-08
         0.71663E-09
         0.91520E-09
         0.50901E-09
         0.61131E-09
         0.10141E-08
         0.74000E-09
         0.29957E-09
         0.56902E-09
         0.62653E-09
         0.50549E-09
         0.64784E-09
         0.12065E-08
         0.94382E-09
         0.12002E-08
         0.70325E-09
         0.80381E-09
         0.75824E-09
         0.84052E-09
         0.64472E-09
         0.40040E-09
         0.75929E-09
         0.63288E-09
         0.65492E-09
         0.67276E-09
         0.58657E-09
         0.71560E-09
         0.91038E-09
         0.64216E-09
         0.10211E-08
         0.89003E-09
         0.40073E-09
         0.61742E-09
         0.70105E-09
         0.74114E-09
         0.71593E-09
         0.56257E-09
         0.35351E-09
         0.58364E-09
         0.77313E-09
         0.62371E-09
         0.54814E-09
         0.35908E-09
         0.61308E-09
         0.83280E-09
         0.87436E-09
         0.70597E-09
         0.43378E-09
         0.74823E-09
         0.27567E-09
         0.35138E-09
         0.32745E-09
         0.38779E-09
         0.37893E-09
         0.36794E-09
         0.39300E-09
         0.41596E-09
         0.39130E-09
         0.30477E-09
         0.24818E-09
         0.32008E-09
         0.42671E-09
         0.46921E-09
         0.44991E-09
         0.40537E-09
         0.36800E-09
         0.29885E-09
         0.25136E-09
         0.32862E-09
         0.43520E-09
         0.44963E-09
         0.36303E-09
         0.29472E-09
         0.36175E-09
         0.42759E-09
         0.91203E-09
         0.72233E-09
         0.77653E-09
         0.13392E-08
         0.71675E-09
         0.91547E-09
         0.50875E-09
         0.61094E-09
         0.10144E-08
         0.73952E-09
         0.29928E-09
         0.56892E-09
         0.62649E-09
         0.50478E-09
         0.64770E-09
         0.12068E-08
         0.94424E-09
         0.12008E-08
         0.70327E-09
         0.80391E-09
         0.75821E-09
         0.84055E-09
         0.64465E-09
         0.40035E-09
         0.75896E-09
         0.63282E-09
         0.65393E-09
         0.67210E-09
         0.58632E-09
         0.71543E-09
         0.91047E-09
         0.64208E-09
         0.10216E-08
         0.89084E-09
         0.40073E-09
         0.61730E-09
         0.70096E-09
         0.74108E-09
         0.71598E-09
         0.56259E-09
         0.35351E-09
         0.58356E-09
         0.77309E-09
         0.62362E-09
         0.54801E-09
         0.35898E-09
         0.61303E-09
         0.83281E-09
         0.87449E-09
         0.70611E-09
         0.43379E-09
         0.74860E-09
         0.27558E-09
         0.35137E-09
         0.32729E-09
         0.38781E-09
         0.37902E-09
         0.36802E-09
         0.39317E-09
         0.41625E-09
         0.39153E-09
         0.30484E-09
         0.24820E-09
         0.32009E-09
         0.42677E-09
         0.46932E-09
         0.44996E-09
         0.40536E-09
         0.36798E-09
         0.29883E-09
         0.25132E-09
         0.32859E-09
         0.43519E-09
         0.44963E-09
         0.36296E-09
         0.29465E-09
         0.36179E-09
         0.42758E-09
         0.91208E-09
         0.72218E-09
         0.77659E-09
         0.13399E-08
         0.71686E-09
         0.91576E-09
         0.50848E-09
         0.61058E-09
         0.10148E-08
         0.73903E-09
         0.29900E-09
         0.56882E-09
         0.62645E-09
         0.50408E-09
         0.64757E-09
         0.12072E-08
         0.94467E-09
         0.12014E-08
         0.70330E-09
         0.80401E-09
         0.75818E-09
         0.84059E-09
         0.64459E-09
         0.40031E-09
         0.75864E-09
         0.63277E-09
         0.65294E-09
         0.67143E-09
         0.58607E-09
         0.71527E-09
         0.91057E-09
         0.64200E-09
         0.10221E-08
         0.89164E-09
         0.40072E-09
         0.61719E-09
         0.70087E-09
         0.74103E-09
         0.71603E-09
         0.56262E-09
         0.35352E-09
         0.58348E-09
         0.77305E-09
         0.62354E-09
         0.54788E-09
         0.35889E-09
         0.61298E-09
         0.83282E-09
         0.87463E-09
         0.70626E-09
         0.43380E-09
         0.74897E-09
         0.27550E-09
         0.35137E-09
         0.32713E-09
         0.38782E-09
         0.37911E-09
         0.36810E-09
         0.39334E-09
         0.41655E-09
         0.39176E-09
         0.30491E-09
         0.24822E-09
         0.32010E-09
         0.42682E-09
         0.46942E-09
         0.45001E-09
         0.40534E-09
         0.36796E-09
         0.29881E-09
         0.25128E-09
         0.32857E-09
         0.43518E-09
         0.44963E-09
         0.36288E-09
         0.29459E-09
         0.36184E-09
         0.42757E-09
         0.91214E-09
         0.72204E-09
         0.77666E-09
         0.13405E-08
         0.71698E-09
         0.91604E-09
         0.50822E-09
         0.61022E-09
         0.10151E-08
         0.73855E-09
         0.29871E-09
         0.56872E-09
         0.62641E-09
         0.50337E-09
         0.64743E-09
         0.12075E-08
         0.94510E-09
         0.12020E-08
         0.70333E-09
         0.80411E-09
         0.75815E-09
         0.84063E-09
         0.64453E-09
         0.40027E-09
         0.75831E-09
         0.63272E-09
         0.65196E-09
         0.67077E-09
         0.58582E-09
         0.71511E-09
         0.91066E-09
         0.64192E-09
         0.10227E-08
         0.89245E-09
         0.40072E-09
         0.61707E-09
         0.70078E-09
         0.74098E-09
         0.71608E-09
         0.56265E-09
         0.35352E-09
         0.58340E-09
         0.77301E-09
         0.62345E-09
         0.54775E-09
         0.35880E-09
         0.61293E-09
         0.83283E-09
         0.87476E-09
         0.70641E-09
         0.43382E-09
         0.74935E-09
         0.27541E-09
         0.35136E-09
         0.32697E-09
         0.38784E-09
         0.37920E-09
         0.36818E-09
         0.39352E-09
         0.41685E-09
         0.39199E-09
         0.30498E-09
         0.24824E-09
         0.32011E-09
         0.42688E-09
         0.46953E-09
         0.45007E-09
         0.40533E-09
         0.36793E-09
         0.29878E-09
         0.25124E-09
         0.32855E-09
         0.43517E-09
         0.44963E-09
         0.36281E-09
         0.29452E-09
         0.36188E-09
         0.42756E-09
         0.91219E-09
         0.72188E-09
         0.77672E-09
         0.13412E-08
         0.71709E-09
         0.91632E-09
         0.50795E-09
         0.60986E-09
         0.10155E-08
         0.73806E-09
         0.29842E-09
         0.56862E-09
         0.62636E-09
         0.50266E-09
         0.64730E-09
         0.12079E-08
         0.94552E-09
         0.12026E-08
         0.70335E-09
         0.80421E-09
         0.75811E-09
         0.84066E-09
         0.64446E-09
         0.40023E-09
         0.75798E-09
         0.63267E-09
         0.65096E-09
         0.67010E-09
         0.58557E-09
         0.71494E-09
         0.91074E-09
         0.64184E-09
         0.10232E-08
         0.89325E-09
         0.40072E-09
         0.61695E-09
         0.70069E-09
         0.74092E-09
         0.71612E-09
         0.56268E-09
         0.35352E-09
         0.58332E-09
         0.77297E-09
         0.62336E-09
         0.54762E-09
         0.35871E-09
         0.61287E-09
         0.83284E-09
         0.87489E-09
         0.70655E-09
         0.43383E-09
         0.74972E-09
         0.27533E-09
         0.35136E-09
         0.32681E-09
         0.38785E-09
         0.37929E-09
         0.36825E-09
         0.39369E-09
         0.41715E-09
         0.39222E-09
         0.30505E-09
         0.24826E-09
         0.32011E-09
         0.42694E-09
         0.46963E-09
         0.45011E-09
         0.40532E-09
         0.36791E-09
         0.29876E-09
         0.25120E-09
         0.32853E-09
         0.43516E-09
         0.44962E-09
         0.36274E-09
         0.29445E-09
         0.36192E-09
         0.42755E-09
         0.91224E-09
         0.72173E-09
         0.77679E-09
         0.13418E-08
         0.71720E-09
         0.91660E-09
         0.50768E-09
         0.60949E-09
         0.10158E-08
         0.73758E-09
         0.29814E-09
         0.56852E-09
         0.62632E-09
         0.50195E-09
         0.64716E-09
         0.12082E-08
         0.94595E-09
         0.12032E-08
         0.70337E-09
         0.80431E-09
         0.75808E-09
         0.84069E-09
         0.64440E-09
         0.40018E-09
         0.75766E-09
         0.63262E-09
         0.64998E-09
         0.66943E-09
         0.58532E-09
         0.71478E-09
         0.91083E-09
         0.64176E-09
         0.10238E-08
         0.89406E-09
         0.40071E-09
         0.61683E-09
         0.70059E-09
         0.74087E-09
         0.71617E-09
         0.56270E-09
         0.35352E-09
         0.58324E-09
         0.77294E-09
         0.62327E-09
         0.54749E-09
         0.35861E-09
         0.61282E-09
         0.83284E-09
         0.87503E-09
         0.70669E-09
         0.43384E-09
         0.75009E-09
         0.27524E-09
         0.35135E-09
         0.32665E-09
         0.38786E-09
         0.37937E-09
         0.36833E-09
         0.39386E-09
         0.41745E-09
         0.39245E-09
         0.30512E-09
         0.24828E-09
         0.32012E-09
         0.42699E-09
         0.46974E-09
         0.45017E-09
         0.40531E-09
         0.36788E-09
         0.29873E-09
         0.25117E-09
         0.32850E-09
         0.43515E-09
         0.44962E-09
         0.36266E-09
         0.29439E-09
         0.36197E-09
         0.42754E-09
         0.91230E-09
         0.72159E-09
         0.77686E-09
         0.13425E-08
         0.71732E-09
         0.91688E-09
         0.50742E-09
         0.60913E-09
         0.10162E-08
         0.73710E-09
         0.29785E-09
         0.56842E-09
         0.62628E-09
         0.50125E-09
         0.64703E-09
         0.12086E-08
         0.94638E-09
         0.12038E-08
         0.70340E-09
         0.80441E-09
         0.75805E-09
         0.84073E-09
         0.64433E-09
         0.40014E-09
         0.75733E-09
         0.63257E-09
         0.64899E-09
         0.66877E-09
         0.58508E-09
         0.71462E-09
         0.91093E-09
         0.64169E-09
         0.10243E-08
         0.89487E-09
         0.40071E-09
         0.61671E-09
         0.70051E-09
         0.74082E-09
         0.71622E-09
         0.56273E-09
         0.35352E-09
         0.58316E-09
         0.77290E-09
         0.62318E-09
         0.54737E-09
         0.35852E-09
         0.61277E-09
         0.83286E-09
         0.87517E-09
         0.70684E-09
         0.43385E-09
         0.75047E-09
         0.27516E-09
         0.35135E-09
         0.32649E-09
         0.38788E-09
         0.37946E-09
         0.36841E-09
         0.39403E-09
         0.41775E-09
         0.39268E-09
         0.30519E-09
         0.24830E-09
         0.32013E-09
         0.42705E-09
         0.46985E-09
         0.45022E-09
         0.40530E-09
         0.36786E-09
         0.29871E-09
         0.25113E-09
         0.32848E-09
         0.43515E-09
         0.44962E-09
         0.36259E-09
         0.29433E-09
         0.36201E-09
         0.42753E-09
         0.91235E-09
         0.72143E-09
         0.77692E-09
         0.13431E-08
         0.71743E-09
         0.91716E-09
         0.50715E-09
         0.60877E-09
         0.10165E-08
         0.73661E-09
         0.29757E-09
         0.56832E-09
         0.62624E-09
         0.50054E-09
         0.64689E-09
         0.12089E-08
         0.94680E-09
         0.12044E-08
         0.70342E-09
         0.80450E-09
         0.75802E-09
         0.84076E-09
         0.64427E-09
         0.40010E-09
         0.75700E-09
         0.63251E-09
         0.64800E-09
         0.66810E-09
         0.58482E-09
         0.71445E-09
         0.91101E-09
         0.64161E-09
         0.10248E-08
         0.89567E-09
         0.40071E-09
         0.61659E-09
         0.70041E-09
         0.74077E-09
         0.71627E-09
         0.56276E-09
         0.35352E-09
         0.58308E-09
         0.77286E-09
         0.62309E-09
         0.54723E-09
         0.35843E-09
         0.61272E-09
         0.83287E-09
         0.87530E-09
         0.70698E-09
         0.43386E-09
         0.75084E-09
         0.27507E-09
         0.35134E-09
         0.32633E-09
         0.38789E-09
         0.37955E-09
         0.36849E-09
         0.39420E-09
         0.41804E-09
         0.39291E-09
         0.30525E-09
         0.24832E-09
         0.32014E-09
         0.42711E-09
         0.46995E-09
         0.45027E-09
         0.40528E-09
         0.36784E-09
         0.29869E-09
         0.25109E-09
         0.32845E-09
         0.43514E-09
         0.44962E-09
         0.36252E-09
         0.29426E-09
         0.36206E-09
         0.42751E-09
         0.91240E-09
         0.72128E-09
         0.77698E-09
         0.13437E-08
         0.71755E-09
         0.91744E-09
         0.50688E-09
         0.60841E-09
         0.10169E-08
         0.73612E-09
         0.29728E-09
         0.56822E-09
         0.62619E-09
         0.49984E-09
         0.64676E-09
         0.12093E-08
         0.94723E-09
         0.12050E-08
         0.70345E-09
         0.80460E-09
         0.75798E-09
         0.84080E-09
         0.64420E-09
         0.40006E-09
         0.75667E-09
         0.63246E-09
         0.64701E-09
         0.66744E-09
         0.58457E-09
         0.71429E-09
         0.91110E-09
         0.64153E-09
         0.10254E-08
         0.89648E-09
         0.40070E-09
         0.61647E-09
         0.70032E-09
         0.74071E-09
         0.71632E-09
         0.56279E-09
         0.35353E-09
         0.58300E-09
         0.77282E-09
         0.62300E-09
         0.54710E-09
         0.35834E-09
         0.61266E-09
         0.83288E-09
         0.87543E-09
         0.70713E-09
         0.43387E-09
         0.75122E-09
         0.27499E-09
         0.35133E-09
         0.32617E-09
         0.38790E-09
         0.37964E-09
         0.36857E-09
         0.39437E-09
         0.41834E-09
         0.39314E-09
         0.30532E-09
         0.24834E-09
         0.32014E-09
         0.42716E-09
         0.47005E-09
         0.45032E-09
         0.40527E-09
         0.36781E-09
         0.29866E-09
         0.25105E-09
         0.32843E-09
         0.43513E-09
         0.44962E-09
         0.36244E-09
         0.29419E-09
         0.36210E-09
         0.42750E-09
         0.91246E-09
         0.72114E-09
         0.77705E-09
         0.13444E-08
         0.71767E-09
         0.91773E-09
         0.50662E-09
         0.60805E-09
         0.10173E-08
         0.73564E-09
         0.29700E-09
         0.56812E-09
         0.62616E-09
         0.49914E-09
         0.64663E-09
         0.12097E-08
         0.94766E-09
         0.12056E-08
         0.70348E-09
         0.80471E-09
         0.75796E-09
         0.84084E-09
         0.64414E-09
         0.40002E-09
         0.75635E-09
         0.63241E-09
         0.64603E-09
         0.66678E-09
         0.58433E-09
         0.71413E-09
         0.91120E-09
         0.64146E-09
         0.10259E-08
         0.89729E-09
         0.40070E-09
         0.61636E-09
         0.70023E-09
         0.74067E-09
         0.71637E-09
         0.56282E-09
         0.35353E-09
         0.58293E-09
         0.77279E-09
         0.62291E-09
         0.54698E-09
         0.35825E-09
         0.61261E-09
         0.83289E-09
         0.87557E-09
         0.70728E-09
         0.43389E-09
         0.75160E-09
         0.27491E-09
         0.35133E-09
         0.32601E-09
         0.38792E-09
         0.37972E-09
         0.36865E-09
         0.39454E-09
         0.41864E-09
         0.39337E-09
         0.30539E-09
         0.24836E-09
         0.32015E-09
         0.42722E-09
         0.47016E-09
         0.45038E-09
         0.40526E-09
         0.36779E-09
         0.29864E-09
         0.25101E-09
         0.32841E-09
         0.43512E-09
         0.44962E-09
         0.36237E-09
         0.29413E-09
         0.36215E-09
         0.42750E-09
         0.91249E-09
         0.72097E-09
         0.77710E-09
         0.13450E-08
         0.71777E-09
         0.91799E-09
         0.50634E-09
         0.60767E-09
         0.10176E-08
         0.73514E-09
         0.29670E-09
         0.56801E-09
         0.62610E-09
         0.49842E-09
         0.64648E-09
         0.12100E-08
         0.94806E-09
         0.12062E-08
         0.70349E-09
         0.80479E-09
         0.75791E-09
         0.84086E-09
         0.64406E-09
         0.39997E-09
         0.75600E-09
         0.63234E-09
         0.64503E-09
         0.66610E-09
         0.58407E-09
         0.71395E-09
         0.91127E-09
         0.64136E-09
         0.10264E-08
         0.89808E-09
         0.40069E-09
         0.61622E-09
         0.70012E-09
         0.74060E-09
         0.71641E-09
         0.56283E-09
         0.35352E-09
         0.58283E-09
         0.77273E-09
         0.62281E-09
         0.54684E-09
         0.35815E-09
         0.61255E-09
         0.83288E-09
         0.87569E-09
         0.70741E-09
         0.43389E-09
         0.75195E-09
         0.27482E-09
         0.35132E-09
         0.32584E-09
         0.38793E-09
         0.37980E-09
         0.36872E-09
         0.39470E-09
         0.41893E-09
         0.39360E-09
         0.30545E-09
         0.24837E-09
         0.32016E-09
         0.42727E-09
         0.47026E-09
         0.45042E-09
         0.40524E-09
         0.36776E-09
         0.29861E-09
         0.25097E-09
         0.32838E-09
         0.43510E-09
         0.44961E-09
         0.36229E-09
         0.29406E-09
         0.36218E-09
         0.42748E-09
         0.91256E-09
         0.72083E-09
         0.77718E-09
         0.13457E-08
         0.71789E-09
         0.91829E-09
         0.50608E-09
         0.60732E-09
         0.10180E-08
         0.73467E-09
         0.29642E-09
         0.56792E-09
         0.62607E-09
         0.49772E-09
         0.64636E-09
         0.12103E-08
         0.94850E-09
         0.12068E-08
         0.70352E-09
         0.80490E-09
         0.75789E-09
         0.84091E-09
         0.64401E-09
         0.39993E-09
         0.75569E-09
         0.63230E-09
         0.64405E-09
         0.66544E-09
         0.58382E-09
         0.71379E-09
         0.91137E-09
         0.64129E-09
         0.10270E-08
         0.89890E-09
         0.40069E-09
         0.61611E-09
         0.70004E-09
         0.74056E-09
         0.71646E-09
         0.56287E-09
         0.35353E-09
         0.58276E-09
         0.77271E-09
         0.62273E-09
         0.54672E-09
         0.35806E-09
         0.61251E-09
         0.83291E-09
         0.87583E-09
         0.70756E-09
         0.43391E-09
         0.75234E-09
         0.27474E-09
         0.35132E-09
         0.32569E-09
         0.38794E-09
         0.37990E-09
         0.36881E-09
         0.39488E-09
         0.41923E-09
         0.39383E-09
         0.30553E-09
         0.24840E-09
         0.32017E-09
         0.42734E-09
         0.47037E-09
         0.45048E-09
         0.40524E-09
         0.36774E-09
         0.29859E-09
         0.25093E-09
         0.32836E-09
         0.43510E-09
         0.44962E-09
         0.36222E-09
         0.29400E-09
         0.36223E-09
         0.42747E-09
         0.45631E-09
         0.36039E-09
         0.38862E-09
         0.67302E-09
         0.35899E-09
         0.45923E-09
         0.25298E-09
         0.30358E-09
         0.50909E-09
         0.36723E-09
         0.14815E-09
         0.28394E-09
         0.31303E-09
         0.24869E-09
         0.32316E-09
         0.60528E-09
         0.47437E-09
         0.60357E-09
         0.35178E-09
         0.40249E-09
         0.37895E-09
         0.42048E-09
         0.32200E-09
         0.19996E-09
         0.37777E-09
         0.31615E-09
         0.32179E-09
         0.33257E-09
         0.29186E-09
         0.35687E-09
         0.45572E-09
         0.32064E-09
         0.51365E-09
         0.44967E-09
         0.20035E-09
         0.30804E-09
         0.35001E-09
         0.37028E-09
         0.35826E-09
         0.28145E-09
         0.17677E-09
         0.29137E-09
         0.38636E-09
         0.31135E-09
         0.27333E-09
         0.17901E-09
         0.30625E-09
         0.41647E-09
         0.43797E-09
         0.35383E-09
         0.21697E-09
         0.37628E-09
         0.13735E-09
         0.17566E-09
         0.16281E-09
         0.19398E-09
         0.18998E-09
         0.18443E-09
         0.19749E-09
         0.20970E-09
         0.19698E-09
         0.15279E-09
         0.12421E-09
         0.16009E-09
         0.21369E-09
         0.23522E-09
         0.22526E-09
         0.20262E-09
         0.18387E-09
         0.14930E-09
         0.12546E-09
         0.16418E-09
         0.21756E-09
         0.22482E-09
         0.18110E-09
         0.14699E-09
         0.18113E-09
         0.21374E-09
  
SCALARS               pre_disp_force_x  double 1
LOOKUP_TABLE default
         0.00000E+00
         0.00000E+00
         0.00000E+00
         0.00000E+00
         0.00000E+00
         0.00000E+00
         0.00000E+00
         0.00000E+00
         0.00000E+00
         0.00000E+00
         0.00000E+00
         0.00000E+00
         0.00000E+00
         0.00000E+00
         0.00000E+00
         0.00000E+00
         0.00000E+00
         0.00000E+00
         0.00000E+00
         0.00000E+00
         0.00000E+00
         0.00000E+00
         0.00000E+00
         0.00000E+00
         0.00000E+00
         0.00000E+00
         0.00000E+00
         0.00000E+00
         0.00000E+00
         0.00000E+00
         0.00000E+00
         0.00000E+00
         0.00000E+00
         0.00000E+00
         0.00000E+00
         0.00000E+00
         0.00000E+00
         0.00000E+00
         0.00000E+00
         0.00000E+00
         0.00000E+00
         0.00000E+00
         0.00000E+00
         0.00000E+00
         0.00000E+00
         0.00000E+00
         0.00000E+00
         0.00000E+00
         0.00000E+00
         0.00000E+00
         0.00000E+00
         0.00000E+00
         0.00000E+00
         0.00000E+00
         0.00000E+00
         0.00000E+00
         0.00000E+00
         0.00000E+00
         0.00000E+00
         0.00000E+00
         0.00000E+00
         0.00000E+00
         0.00000E+00
         0.00000E+00
         0.00000E+00
         0.00000E+00
         0.00000E+00
         0.00000E+00
         0.00000E+00
         0.00000E+00
         0.00000E+00
         0.00000E+00
         0.00000E+00
         0.00000E+00
         0.00000E+00
         0.00000E+00
         0.00000E+00
         0.00000E+00
         0.00000E+00
         0.00000E+00
         0.00000E+00
         0.00000E+00
         0.00000E+00
         0.00000E+00
         0.00000E+00
         0.00000E+00
         0.00000E+00
         0.00000E+00
         0.00000E+00
         0.00000E+00
         0.00000E+00
         0.00000E+00
         0.00000E+00
         0.00000E+00
         0.00000E+00
         0.00000E+00
         0.00000E+00
         0.00000E+00
         0.00000E+00
         0.00000E+00
         0.00000E+00
         0.00000E+00
         0.00000E+00
         0.00000E+00
         0.00000E+00
         0.00000E+00
         0.00000E+00
         0.00000E+00
         0.00000E+00
         0.00000E+00
         0.00000E+00
         0.00000E+00
         0.00000E+00
         0.00000E+00
         0.00000E+00
         0.00000E+00
         0.00000E+00
         0.00000E+00
         0.00000E+00
         0.00000E+00
         0.00000E+00
         0.00000E+00
         0.00000E+00
         0.00000E+00
         0.00000E+00
         0.00000E+00
         0.00000E+00
         0.00000E+00
         0.00000E+00
         0.00000E+00
         0.00000E+00
         0.00000E+00
         0.00000E+00
         0.00000E+00
         0.00000E+00
         0.00000E+00
         0.00000E+00
         0.00000E+00
         0.00000E+00
         0.00000E+00
         0.00000E+00
         0.00000E+00
         0.00000E+00
         0.00000E+00
         0.00000E+00
         0.00000E+00
         0.00000E+00
         0.00000E+00
         0.00000E+00
         0.00000E+00
         0.00000E+00
         0.00000E+00
         0.00000E+00
         0.00000E+00
         0.00000E+00
         0.00000E+00
         0.00000E+00
         0.00000E+00
         0.00000E+00
         0.00000E+00
         0.00000E+00
         0.00000E+00
         0.00000E+00
         0.00000E+00
         0.00000E+00
         0.00000E+00
         0.00000E+00
         0.00000E+00
         0.00000E+00
         0.00000E+00
         0.00000E+00
         0.00000E+00
         0.00000E+00
         0.00000E+00
         0.00000E+00
         0.00000E+00
         0.00000E+00
         0.00000E+00
         0.00000E+00
         0.00000E+00
         0.00000E+00
         0.00000E+00
         0.00000E+00
         0.00000E+00
         0.00000E+00
         0.00000E+00
         0.00000E+00
         0.00000E+00
         0.00000E+00
         0.00000E+00
         0.00000E+00
         0.00000E+00
         0.00000E+00
         0.00000E+00
         0.00000E+00
         0.00000E+00
         0.00000E+00
         0.00000E+00
         0.00000E+00
         0.00000E+00
         0.00000E+00
         0.00000E+00
         0.00000E+00
         0.00000E+00
         0.00000E+00
         0.00000E+00
         0.00000E+00
         0.00000E+00
         0.00000E+00
         0.00000E+00
         0.00000E+00
         0.00000E+00
         0.00000E+00
         0.00000E+00
         0.00000E+00
         0.00000E+00
         0.00000E+00
         0.00000E+00
         0.00000E+00
         0.00000E+00
         0.00000E+00
         0.00000E+00
         0.00000E+00
         0.00000E+00
         0.00000E+00
         0.00000E+00
         0.00000E+00
         0.00000E+00
         0.00000E+00
         0.00000E+00
         0.00000E+00
         0.00000E+00
         0.00000E+00
         0.00000E+00
         0.00000E+00
         0.00000E+00
         0.00000E+00
         0.00000E+00
         0.00000E+00
         0.00000E+00
         0.00000E+00
         0.00000E+00
         0.00000E+00
         0.00000E+00
         0.00000E+00
         0.00000E+00
         0.00000E+00
         0.00000E+00
         0.00000E+00
         0.00000E+00
         0.00000E+00
         0.00000E+00
         0.00000E+00
         0.00000E+00
         0.00000E+00
         0.00000E+00
         0.00000E+00
         0.00000E+00
         0.00000E+00
         0.00000E+00
         0.00000E+00
         0.00000E+00
         0.00000E+00
         0.00000E+00
         0.00000E+00
         0.00000E+00
         0.00000E+00
         0.00000E+00
         0.00000E+00
         0.00000E+00
         0.00000E+00
         0.00000E+00
         0.00000E+00
         0.00000E+00
         0.00000E+00
         0.00000E+00
         0.00000E+00
         0.00000E+00
         0.00000E+00
         0.00000E+00
         0.00000E+00
         0.00000E+00
         0.00000E+00
         0.00000E+00
         0.00000E+00
         0.00000E+00
         0.00000E+00
         0.00000E+00
         0.00000E+00
         0.00000E+00
         0.00000E+00
         0.00000E+00
         0.00000E+00
         0.00000E+00
         0.00000E+00
         0.00000E+00
         0.00000E+00
         0.00000E+00
         0.00000E+00
         0.00000E+00
         0.00000E+00
         0.00000E+00
         0.00000E+00
         0.00000E+00
         0.00000E+00
         0.00000E+00
         0.00000E+00
         0.00000E+00
         0.00000E+00
         0.00000E+00
         0.00000E+00
         0.00000E+00
         0.00000E+00
         0.00000E+00
         0.00000E+00
         0.00000E+00
         0.00000E+00
         0.00000E+00
         0.00000E+00
         0.00000E+00
         0.00000E+00
         0.00000E+00
         0.00000E+00
         0.00000E+00
         0.00000E+00
         0.00000E+00
         0.00000E+00
         0.00000E+00
         0.00000E+00
         0.00000E+00
         0.00000E+00
         0.00000E+00
         0.00000E+00
         0.00000E+00
         0.00000E+00
         0.00000E+00
         0.00000E+00
         0.00000E+00
         0.00000E+00
         0.00000E+00
         0.00000E+00
         0.00000E+00
         0.00000E+00
         0.00000E+00
         0.00000E+00
         0.00000E+00
         0.00000E+00
         0.00000E+00
         0.00000E+00
         0.00000E+00
         0.00000E+00
         0.00000E+00
         0.00000E+00
         0.00000E+00
         0.00000E+00
         0.00000E+00
         0.00000E+00
         0.00000E+00
         0.00000E+00
         0.00000E+00
         0.00000E+00
         0.00000E+00
         0.00000E+00
         0.00000E+00
         0.00000E+00
         0.00000E+00
         0.00000E+00
         0.00000E+00
         0.00000E+00
         0.00000E+00
         0.00000E+00
         0.00000E+00
         0.00000E+00
         0.00000E+00
         0.00000E+00
         0.00000E+00
         0.00000E+00
         0.00000E+00
         0.00000E+00
         0.00000E+00
         0.00000E+00
         0.00000E+00
         0.00000E+00
         0.00000E+00
         0.00000E+00
         0.00000E+00
         0.00000E+00
         0.00000E+00
         0.00000E+00
         0.00000E+00
         0.00000E+00
         0.00000E+00
         0.00000E+00
         0.00000E+00
         0.00000E+00
         0.00000E+00
         0.00000E+00
         0.00000E+00
         0.00000E+00
         0.00000E+00
         0.00000E+00
         0.00000E+00
         0.00000E+00
         0.00000E+00
         0.00000E+00
         0.00000E+00
         0.00000E+00
         0.00000E+00
         0.00000E+00
         0.00000E+00
         0.00000E+00
         0.00000E+00
         0.00000E+00
         0.00000E+00
         0.00000E+00
         0.00000E+00
         0.00000E+00
         0.00000E+00
         0.00000E+00
         0.00000E+00
         0.00000E+00
         0.00000E+00
         0.00000E+00
         0.00000E+00
         0.00000E+00
         0.00000E+00
         0.00000E+00
         0.00000E+00
         0.00000E+00
         0.00000E+00
         0.00000E+00
         0.00000E+00
         0.00000E+00
         0.00000E+00
         0.00000E+00
         0.00000E+00
         0.00000E+00
         0.00000E+00
         0.00000E+00
         0.00000E+00
         0.00000E+00
         0.00000E+00
         0.00000E+00
         0.00000E+00
         0.00000E+00
         0.00000E+00
         0.00000E+00
         0.00000E+00
         0.00000E+00
         0.00000E+00
         0.00000E+00
         0.00000E+00
         0.00000E+00
         0.00000E+00
         0.00000E+00
         0.00000E+00
         0.00000E+00
         0.00000E+00
         0.00000E+00
         0.00000E+00
         0.00000E+00
         0.00000E+00
         0.00000E+00
         0.00000E+00
         0.00000E+00
         0.00000E+00
         0.00000E+00
         0.00000E+00
         0.00000E+00
         0.00000E+00
         0.00000E+00
         0.00000E+00
         0.00000E+00
         0.00000E+00
         0.00000E+00
         0.00000E+00
         0.00000E+00
         0.00000E+00
         0.00000E+00
         0.00000E+00
         0.00000E+00
         0.00000E+00
         0.00000E+00
         0.00000E+00
         0.00000E+00
         0.00000E+00
         0.00000E+00
         0.00000E+00
         0.00000E+00
         0.00000E+00
         0.00000E+00
         0.00000E+00
         0.00000E+00
         0.00000E+00
         0.00000E+00
         0.00000E+00
         0.00000E+00
         0.00000E+00
         0.00000E+00
         0.00000E+00
         0.00000E+00
         0.00000E+00
         0.00000E+00
         0.00000E+00
         0.00000E+00
         0.00000E+00
         0.00000E+00
         0.00000E+00
         0.00000E+00
         0.00000E+00
         0.00000E+00
         0.00000E+00
         0.00000E+00
         0.00000E+00
         0.00000E+00
         0.00000E+00
         0.00000E+00
         0.00000E+00
         0.00000E+00
         0.00000E+00
         0.00000E+00
         0.00000E+00
         0.00000E+00
         0.00000E+00
         0.00000E+00
         0.00000E+00
         0.00000E+00
         0.00000E+00
         0.00000E+00
         0.00000E+00
         0.00000E+00
         0.00000E+00
         0.00000E+00
         0.00000E+00
         0.00000E+00
         0.00000E+00
         0.00000E+00
         0.00000E+00
         0.00000E+00
         0.00000E+00
         0.00000E+00
         0.00000E+00
         0.00000E+00
         0.00000E+00
         0.00000E+00
         0.00000E+00
         0.00000E+00
         0.00000E+00
         0.00000E+00
         0.00000E+00
         0.00000E+00
         0.00000E+00
         0.00000E+00
         0.00000E+00
         0.00000E+00
         0.00000E+00
         0.00000E+00
         0.00000E+00
         0.00000E+00
         0.00000E+00
         0.00000E+00
         0.00000E+00
         0.00000E+00
         0.00000E+00
         0.00000E+00
         0.00000E+00
         0.00000E+00
         0.00000E+00
         0.00000E+00
         0.00000E+00
         0.00000E+00
         0.00000E+00
         0.00000E+00
         0.00000E+00
         0.00000E+00
         0.00000E+00
         0.00000E+00
         0.00000E+00
         0.00000E+00
         0.00000E+00
         0.00000E+00
         0.00000E+00
         0.00000E+00
         0.00000E+00
         0.00000E+00
         0.00000E+00
         0.00000E+00
         0.00000E+00
         0.00000E+00
         0.00000E+00
         0.00000E+00
         0.00000E+00
         0.00000E+00
         0.00000E+00
         0.00000E+00
         0.00000E+00
         0.00000E+00
         0.00000E+00
         0.00000E+00
         0.00000E+00
         0.00000E+00
         0.00000E+00
         0.00000E+00
         0.00000E+00
         0.00000E+00
         0.00000E+00
         0.00000E+00
         0.00000E+00
         0.00000E+00
         0.00000E+00
         0.00000E+00
         0.00000E+00
         0.00000E+00
         0.00000E+00
         0.00000E+00
         0.00000E+00
         0.00000E+00
         0.00000E+00
         0.00000E+00
         0.00000E+00
         0.00000E+00
         0.00000E+00
         0.00000E+00
         0.00000E+00
         0.00000E+00
         0.00000E+00
         0.00000E+00
         0.00000E+00
         0.00000E+00
         0.00000E+00
         0.00000E+00
         0.00000E+00
         0.00000E+00
         0.00000E+00
         0.00000E+00
         0.00000E+00
         0.00000E+00
         0.00000E+00
         0.00000E+00
         0.00000E+00
         0.00000E+00
         0.00000E+00
         0.00000E+00
         0.00000E+00
         0.00000E+00
         0.00000E+00
         0.00000E+00
         0.00000E+00
         0.00000E+00
         0.00000E+00
         0.00000E+00
         0.00000E+00
         0.00000E+00
         0.00000E+00
         0.00000E+00
         0.00000E+00
         0.00000E+00
         0.00000E+00
         0.00000E+00
         0.00000E+00
         0.00000E+00
         0.00000E+00
         0.00000E+00
         0.00000E+00
         0.00000E+00
         0.00000E+00
         0.00000E+00
         0.00000E+00
         0.00000E+00
         0.00000E+00
         0.00000E+00
         0.00000E+00
         0.00000E+00
         0.00000E+00
         0.00000E+00
         0.00000E+00
         0.00000E+00
         0.00000E+00
         0.00000E+00
         0.00000E+00
         0.00000E+00
         0.00000E+00
         0.00000E+00
         0.00000E+00
         0.00000E+00
         0.00000E+00
         0.00000E+00
         0.00000E+00
         0.00000E+00
         0.00000E+00
         0.00000E+00
         0.00000E+00
         0.00000E+00
         0.00000E+00
         0.00000E+00
         0.00000E+00
         0.00000E+00
         0.00000E+00
         0.00000E+00
         0.00000E+00
         0.00000E+00
         0.00000E+00
         0.00000E+00
         0.00000E+00
         0.00000E+00
         0.00000E+00
         0.00000E+00
         0.00000E+00
         0.00000E+00
         0.00000E+00
         0.00000E+00
         0.00000E+00
         0.00000E+00
         0.00000E+00
         0.00000E+00
         0.00000E+00
         0.00000E+00
         0.00000E+00
         0.00000E+00
         0.00000E+00
         0.00000E+00
         0.00000E+00
         0.00000E+00
         0.00000E+00
         0.00000E+00
         0.00000E+00
         0.00000E+00
         0.00000E+00
         0.00000E+00
         0.00000E+00
         0.00000E+00
         0.00000E+00
         0.00000E+00
         0.00000E+00
         0.00000E+00
         0.00000E+00
         0.00000E+00
         0.00000E+00
         0.00000E+00
         0.00000E+00
         0.00000E+00
         0.00000E+00
         0.00000E+00
         0.00000E+00
         0.00000E+00
         0.00000E+00
         0.00000E+00
         0.00000E+00
         0.00000E+00
         0.00000E+00
         0.00000E+00
         0.00000E+00
         0.00000E+00
         0.00000E+00
         0.00000E+00
         0.00000E+00
         0.00000E+00
         0.00000E+00
         0.00000E+00
         0.00000E+00
         0.00000E+00
         0.00000E+00
         0.00000E+00
         0.00000E+00
         0.00000E+00
         0.00000E+00
         0.00000E+00
         0.00000E+00
         0.00000E+00
         0.00000E+00
         0.00000E+00
         0.00000E+00
         0.00000E+00
         0.00000E+00
         0.00000E+00
         0.00000E+00
         0.00000E+00
         0.00000E+00
         0.00000E+00
         0.00000E+00
         0.00000E+00
         0.00000E+00
         0.00000E+00
         0.00000E+00
         0.00000E+00
         0.00000E+00
         0.00000E+00
         0.00000E+00
         0.00000E+00
         0.00000E+00
         0.00000E+00
         0.00000E+00
         0.00000E+00
         0.00000E+00
         0.00000E+00
         0.00000E+00
         0.00000E+00
         0.00000E+00
         0.00000E+00
         0.00000E+00
         0.00000E+00
         0.00000E+00
         0.00000E+00
         0.00000E+00
         0.00000E+00
         0.00000E+00
         0.00000E+00
         0.00000E+00
         0.00000E+00
         0.00000E+00
         0.00000E+00
         0.00000E+00
         0.00000E+00
         0.00000E+00
         0.00000E+00
         0.00000E+00
         0.00000E+00
         0.00000E+00
         0.00000E+00
         0.00000E+00
         0.00000E+00
         0.00000E+00
         0.00000E+00
         0.00000E+00
         0.00000E+00
         0.00000E+00
         0.00000E+00
         0.00000E+00
         0.00000E+00
         0.00000E+00
         0.00000E+00
         0.00000E+00
         0.00000E+00
         0.00000E+00
         0.00000E+00
         0.00000E+00
         0.00000E+00
         0.00000E+00
         0.00000E+00
         0.00000E+00
         0.00000E+00
         0.00000E+00
         0.00000E+00
         0.00000E+00
         0.00000E+00
         0.00000E+00
         0.00000E+00
         0.00000E+00
         0.00000E+00
         0.00000E+00
         0.00000E+00
         0.00000E+00
         0.00000E+00
         0.00000E+00
         0.00000E+00
         0.00000E+00
         0.00000E+00
         0.00000E+00
         0.00000E+00
         0.00000E+00
         0.00000E+00
         0.00000E+00
         0.00000E+00
         0.00000E+00
         0.00000E+00
         0.00000E+00
         0.00000E+00
         0.00000E+00
         0.00000E+00
         0.00000E+00
         0.00000E+00
         0.00000E+00
         0.00000E+00
         0.00000E+00
         0.00000E+00
         0.00000E+00
         0.00000E+00
         0.00000E+00
         0.00000E+00
         0.00000E+00
         0.00000E+00
         0.00000E+00
         0.00000E+00
         0.00000E+00
         0.00000E+00
         0.00000E+00
         0.00000E+00
         0.00000E+00
         0.00000E+00
         0.00000E+00
         0.00000E+00
         0.00000E+00
         0.00000E+00
         0.00000E+00
         0.00000E+00
         0.00000E+00
         0.00000E+00
         0.00000E+00
         0.00000E+00
         0.00000E+00
         0.00000E+00
         0.00000E+00
         0.00000E+00
         0.00000E+00
         0.00000E+00
         0.00000E+00
         0.00000E+00
         0.00000E+00
         0.00000E+00
         0.00000E+00
         0.00000E+00
         0.00000E+00
         0.00000E+00
         0.00000E+00
         0.00000E+00
         0.00000E+00
         0.00000E+00
         0.00000E+00
         0.00000E+00
         0.00000E+00
         0.00000E+00
         0.00000E+00
         0.00000E+00
         0.00000E+00
         0.00000E+00
         0.00000E+00
         0.00000E+00
         0.00000E+00
         0.00000E+00
         0.00000E+00
         0.00000E+00
         0.00000E+00
         0.00000E+00
         0.00000E+00
         0.00000E+00
         0.00000E+00
         0.00000E+00
         0.00000E+00
         0.00000E+00
         0.00000E+00
         0.00000E+00
         0.00000E+00
         0.00000E+00
         0.00000E+00
         0.00000E+00
         0.00000E+00
         0.00000E+00
         0.00000E+00
         0.00000E+00
         0.00000E+00
         0.00000E+00
         0.00000E+00
         0.00000E+00
         0.00000E+00
         0.00000E+00
         0.00000E+00
         0.00000E+00
         0.00000E+00
         0.00000E+00
         0.00000E+00
         0.00000E+00
         0.00000E+00
         0.00000E+00
         0.00000E+00
         0.00000E+00
         0.00000E+00
         0.00000E+00
         0.00000E+00
         0.00000E+00
         0.00000E+00
         0.00000E+00
         0.00000E+00
         0.00000E+00
         0.00000E+00
         0.00000E+00
         0.00000E+00
         0.00000E+00
         0.00000E+00
         0.00000E+00
         0.00000E+00
         0.00000E+00
         0.00000E+00
         0.00000E+00
         0.00000E+00
         0.00000E+00
         0.00000E+00
         0.00000E+00
         0.00000E+00
         0.00000E+00
         0.00000E+00
         0.00000E+00
         0.00000E+00
         0.00000E+00
         0.00000E+00
         0.00000E+00
         0.00000E+00
         0.00000E+00
         0.00000E+00
         0.00000E+00
         0.00000E+00
         0.00000E+00
         0.00000E+00
         0.00000E+00
         0.00000E+00
         0.00000E+00
         0.00000E+00
         0.00000E+00
         0.00000E+00
         0.00000E+00
         0.00000E+00
         0.00000E+00
         0.00000E+00
         0.00000E+00
         0.00000E+00
         0.00000E+00
         0.00000E+00
         0.00000E+00
         0.00000E+00
         0.00000E+00
         0.00000E+00
         0.00000E+00
         0.00000E+00
         0.00000E+00
         0.00000E+00
         0.00000E+00
         0.00000E+00
         0.00000E+00
         0.00000E+00
         0.00000E+00
         0.00000E+00
         0.00000E+00
         0.00000E+00
         0.00000E+00
         0.00000E+00
         0.00000E+00
         0.00000E+00
         0.00000E+00
         0.00000E+00
         0.00000E+00
         0.00000E+00
         0.00000E+00
         0.00000E+00
         0.00000E+00
         0.00000E+00
         0.00000E+00
         0.00000E+00
         0.00000E+00
         0.00000E+00
         0.00000E+00
         0.00000E+00
         0.00000E+00
         0.00000E+00
         0.00000E+00
         0.00000E+00
         0.00000E+00
         0.00000E+00
         0.00000E+00
         0.00000E+00
         0.00000E+00
         0.00000E+00
         0.00000E+00
         0.00000E+00
         0.00000E+00
         0.00000E+00
         0.00000E+00
         0.00000E+00
         0.00000E+00
         0.00000E+00
         0.00000E+00
         0.00000E+00
         0.00000E+00
         0.00000E+00
         0.00000E+00
         0.00000E+00
         0.00000E+00
         0.00000E+00
         0.00000E+00
         0.00000E+00
         0.00000E+00
         0.00000E+00
         0.00000E+00
         0.00000E+00
         0.00000E+00
         0.00000E+00
         0.00000E+00
         0.00000E+00
         0.00000E+00
         0.00000E+00
         0.00000E+00
         0.00000E+00
         0.00000E+00
         0.00000E+00
         0.00000E+00
         0.00000E+00
         0.00000E+00
         0.00000E+00
         0.00000E+00
         0.00000E+00
         0.00000E+00
         0.00000E+00
         0.00000E+00
         0.00000E+00
         0.00000E+00
         0.00000E+00
         0.00000E+00
         0.00000E+00
         0.00000E+00
         0.00000E+00
         0.00000E+00
         0.00000E+00
         0.00000E+00
         0.00000E+00
         0.00000E+00
         0.00000E+00
         0.00000E+00
         0.00000E+00
         0.00000E+00
         0.00000E+00
         0.00000E+00
         0.00000E+00
         0.00000E+00
         0.00000E+00
         0.00000E+00
         0.00000E+00
         0.00000E+00
         0.00000E+00
         0.00000E+00
         0.00000E+00
         0.00000E+00
         0.00000E+00
         0.00000E+00
         0.00000E+00
         0.00000E+00
         0.00000E+00
         0.00000E+00
         0.00000E+00
         0.00000E+00
         0.00000E+00
         0.00000E+00
         0.00000E+00
         0.00000E+00
         0.00000E+00
         0.00000E+00
         0.00000E+00
         0.00000E+00
         0.00000E+00
         0.00000E+00
         0.00000E+00
         0.00000E+00
         0.00000E+00
         0.00000E+00
         0.00000E+00
         0.00000E+00
         0.00000E+00
         0.00000E+00
         0.00000E+00
         0.00000E+00
         0.00000E+00
         0.00000E+00
         0.00000E+00
         0.00000E+00
         0.00000E+00
         0.00000E+00
         0.00000E+00
         0.00000E+00
         0.00000E+00
         0.00000E+00
         0.00000E+00
         0.00000E+00
         0.00000E+00
         0.00000E+00
         0.00000E+00
         0.00000E+00
         0.00000E+00
         0.00000E+00
         0.00000E+00
         0.00000E+00
         0.00000E+00
         0.00000E+00
         0.00000E+00
         0.00000E+00
         0.00000E+00
         0.00000E+00
         0.00000E+00
         0.00000E+00
         0.00000E+00
         0.00000E+00
         0.00000E+00
         0.00000E+00
         0.00000E+00
         0.00000E+00
         0.00000E+00
         0.00000E+00
         0.00000E+00
         0.00000E+00
         0.00000E+00
         0.00000E+00
         0.00000E+00
         0.00000E+00
         0.00000E+00
         0.00000E+00
         0.00000E+00
         0.00000E+00
         0.00000E+00
         0.00000E+00
         0.00000E+00
         0.00000E+00
         0.00000E+00
         0.00000E+00
         0.00000E+00
         0.00000E+00
         0.00000E+00
         0.00000E+00
         0.00000E+00
         0.00000E+00
         0.00000E+00
         0.00000E+00
         0.00000E+00
         0.00000E+00
         0.00000E+00
         0.00000E+00
         0.00000E+00
         0.00000E+00
         0.00000E+00
         0.00000E+00
         0.00000E+00
         0.00000E+00
         0.00000E+00
         0.00000E+00
         0.00000E+00
         0.00000E+00
         0.00000E+00
         0.00000E+00
         0.00000E+00
         0.00000E+00
         0.00000E+00
         0.00000E+00
         0.00000E+00
         0.00000E+00
         0.00000E+00
         0.00000E+00
         0.00000E+00
         0.00000E+00
         0.00000E+00
         0.00000E+00
         0.00000E+00
         0.00000E+00
         0.00000E+00
         0.00000E+00
         0.00000E+00
         0.00000E+00
         0.00000E+00
         0.00000E+00
         0.00000E+00
         0.00000E+00
         0.00000E+00
         0.00000E+00
         0.00000E+00
         0.00000E+00
         0.00000E+00
         0.00000E+00
         0.00000E+00
         0.00000E+00
         0.00000E+00
         0.00000E+00
         0.00000E+00
         0.00000E+00
         0.00000E+00
         0.00000E+00
         0.00000E+00
         0.00000E+00
         0.00000E+00
         0.00000E+00
         0.00000E+00
         0.00000E+00
         0.00000E+00
         0.00000E+00
         0.00000E+00
         0.00000E+00
         0.00000E+00
         0.00000E+00
         0.00000E+00
         0.00000E+00
         0.00000E+00
         0.00000E+00
         0.00000E+00
         0.00000E+00
         0.00000E+00
         0.00000E+00
         0.00000E+00
         0.00000E+00
         0.00000E+00
         0.00000E+00
         0.00000E+00
         0.00000E+00
         0.00000E+00
         0.00000E+00
         0.00000E+00
         0.00000E+00
         0.00000E+00
         0.00000E+00
         0.00000E+00
         0.00000E+00
         0.00000E+00
         0.00000E+00
         0.00000E+00
         0.00000E+00
         0.00000E+00
         0.00000E+00
         0.00000E+00
         0.00000E+00
         0.00000E+00
         0.00000E+00
         0.00000E+00
         0.00000E+00
         0.00000E+00
         0.00000E+00
         0.00000E+00
         0.00000E+00
         0.00000E+00
         0.00000E+00
         0.00000E+00
         0.00000E+00
         0.00000E+00
         0.00000E+00
         0.00000E+00
         0.00000E+00
         0.00000E+00
         0.00000E+00
         0.00000E+00
         0.00000E+00
         0.00000E+00
         0.00000E+00
         0.00000E+00
         0.00000E+00
         0.00000E+00
         0.00000E+00
         0.00000E+00
         0.00000E+00
         0.00000E+00
         0.00000E+00
         0.00000E+00
         0.00000E+00
         0.00000E+00
         0.00000E+00
         0.00000E+00
         0.00000E+00
         0.00000E+00
         0.00000E+00
         0.00000E+00
         0.00000E+00
         0.00000E+00
         0.00000E+00
         0.00000E+00
         0.00000E+00
         0.00000E+00
         0.00000E+00
         0.00000E+00
         0.00000E+00
         0.00000E+00
         0.00000E+00
         0.00000E+00
         0.00000E+00
         0.00000E+00
         0.00000E+00
         0.00000E+00
         0.00000E+00
         0.00000E+00
         0.00000E+00
         0.00000E+00
         0.00000E+00
         0.00000E+00
         0.00000E+00
         0.00000E+00
         0.00000E+00
         0.00000E+00
         0.00000E+00
         0.00000E+00
         0.00000E+00
         0.00000E+00
         0.00000E+00
         0.00000E+00
         0.00000E+00
         0.00000E+00
         0.00000E+00
         0.00000E+00
         0.00000E+00
         0.00000E+00
         0.00000E+00
         0.00000E+00
         0.00000E+00
         0.00000E+00
         0.00000E+00
         0.00000E+00
         0.00000E+00
         0.00000E+00
         0.00000E+00
         0.00000E+00
         0.00000E+00
         0.00000E+00
         0.00000E+00
         0.00000E+00
         0.00000E+00
         0.00000E+00
         0.00000E+00
         0.00000E+00
         0.00000E+00
         0.00000E+00
         0.00000E+00
         0.00000E+00
         0.00000E+00
         0.00000E+00
         0.00000E+00
         0.00000E+00
         0.00000E+00
         0.00000E+00
         0.00000E+00
         0.00000E+00
         0.00000E+00
         0.00000E+00
         0.00000E+00
         0.00000E+00
         0.00000E+00
         0.00000E+00
         0.00000E+00
         0.00000E+00
         0.00000E+00
         0.00000E+00
         0.00000E+00
         0.00000E+00
         0.00000E+00
         0.00000E+00
         0.00000E+00
         0.00000E+00
         0.00000E+00
         0.00000E+00
         0.00000E+00
         0.00000E+00
         0.00000E+00
         0.00000E+00
         0.00000E+00
         0.00000E+00
         0.00000E+00
         0.00000E+00
         0.00000E+00
         0.00000E+00
         0.00000E+00
         0.00000E+00
         0.00000E+00
         0.00000E+00
         0.00000E+00
         0.00000E+00
         0.00000E+00
         0.00000E+00
         0.00000E+00
         0.00000E+00
         0.00000E+00
         0.00000E+00
         0.00000E+00
         0.00000E+00
         0.00000E+00
         0.00000E+00
         0.00000E+00
         0.00000E+00
         0.00000E+00
         0.00000E+00
         0.00000E+00
         0.00000E+00
         0.00000E+00
         0.00000E+00
         0.00000E+00
         0.00000E+00
         0.00000E+00
         0.00000E+00
         0.00000E+00
         0.00000E+00
         0.00000E+00
         0.00000E+00
         0.00000E+00
         0.00000E+00
         0.00000E+00
         0.00000E+00
         0.00000E+00
         0.00000E+00
         0.00000E+00
         0.00000E+00
         0.00000E+00
         0.00000E+00
         0.00000E+00
         0.00000E+00
         0.00000E+00
         0.00000E+00
         0.00000E+00
         0.00000E+00
         0.00000E+00
         0.00000E+00
         0.00000E+00
         0.00000E+00
         0.00000E+00
         0.00000E+00
         0.00000E+00
         0.00000E+00
         0.00000E+00
         0.00000E+00
         0.00000E+00
         0.00000E+00
         0.00000E+00
         0.00000E+00
         0.00000E+00
         0.00000E+00
         0.00000E+00
         0.00000E+00
         0.00000E+00
         0.00000E+00
         0.00000E+00
         0.00000E+00
         0.00000E+00
         0.00000E+00
         0.00000E+00
         0.00000E+00
         0.00000E+00
         0.00000E+00
         0.00000E+00
         0.00000E+00
         0.00000E+00
         0.00000E+00
         0.00000E+00
         0.00000E+00
         0.00000E+00
         0.00000E+00
         0.00000E+00
         0.00000E+00
         0.00000E+00
         0.00000E+00
         0.00000E+00
         0.00000E+00
         0.00000E+00
         0.00000E+00
         0.00000E+00
         0.00000E+00
         0.00000E+00
         0.00000E+00
         0.00000E+00
         0.00000E+00
         0.00000E+00
         0.00000E+00
         0.00000E+00
         0.00000E+00
         0.00000E+00
         0.00000E+00
         0.00000E+00
         0.00000E+00
         0.00000E+00
         0.00000E+00
         0.00000E+00
         0.00000E+00
         0.00000E+00
         0.00000E+00
         0.00000E+00
         0.00000E+00
         0.00000E+00
         0.00000E+00
         0.00000E+00
         0.00000E+00
         0.00000E+00
         0.00000E+00
         0.00000E+00
         0.00000E+00
         0.00000E+00
         0.00000E+00
         0.00000E+00
         0.00000E+00
         0.00000E+00
         0.00000E+00
         0.00000E+00
         0.00000E+00
         0.00000E+00
         0.00000E+00
         0.00000E+00
         0.00000E+00
         0.00000E+00
         0.00000E+00
         0.00000E+00
         0.00000E+00
         0.00000E+00
         0.00000E+00
         0.00000E+00
         0.00000E+00
         0.00000E+00
         0.00000E+00
         0.00000E+00
         0.00000E+00
         0.00000E+00
         0.00000E+00
         0.00000E+00
         0.00000E+00
         0.00000E+00
         0.00000E+00
         0.00000E+00
         0.00000E+00
         0.00000E+00
         0.00000E+00
         0.00000E+00
         0.00000E+00
         0.00000E+00
         0.00000E+00
         0.00000E+00
         0.00000E+00
         0.00000E+00
         0.00000E+00
         0.00000E+00
         0.00000E+00
         0.00000E+00
         0.00000E+00
         0.00000E+00
         0.00000E+00
         0.00000E+00
         0.00000E+00
         0.00000E+00
         0.00000E+00
         0.00000E+00
         0.00000E+00
         0.00000E+00
         0.00000E+00
         0.00000E+00
         0.00000E+00
         0.00000E+00
         0.00000E+00
         0.00000E+00
         0.00000E+00
         0.00000E+00
         0.00000E+00
         0.00000E+00
         0.00000E+00
         0.00000E+00
         0.00000E+00
         0.00000E+00
         0.00000E+00
         0.00000E+00
         0.00000E+00
         0.00000E+00
         0.00000E+00
         0.00000E+00
         0.00000E+00
         0.00000E+00
         0.00000E+00
         0.00000E+00
         0.00000E+00
         0.00000E+00
         0.00000E+00
         0.00000E+00
         0.00000E+00
         0.00000E+00
         0.00000E+00
         0.00000E+00
         0.00000E+00
         0.00000E+00
         0.00000E+00
         0.00000E+00
         0.00000E+00
         0.00000E+00
         0.00000E+00
         0.00000E+00
         0.00000E+00
         0.00000E+00
         0.00000E+00
         0.00000E+00
         0.00000E+00
         0.00000E+00
         0.00000E+00
         0.00000E+00
         0.00000E+00
         0.00000E+00
         0.00000E+00
         0.00000E+00
         0.00000E+00
         0.00000E+00
         0.00000E+00
         0.00000E+00
         0.00000E+00
         0.00000E+00
         0.00000E+00
         0.00000E+00
         0.00000E+00
         0.00000E+00
         0.00000E+00
         0.00000E+00
         0.00000E+00
         0.00000E+00
         0.00000E+00
         0.00000E+00
         0.00000E+00
         0.00000E+00
         0.00000E+00
         0.00000E+00
         0.00000E+00
         0.00000E+00
         0.00000E+00
         0.00000E+00
         0.00000E+00
         0.00000E+00
         0.00000E+00
         0.00000E+00
         0.00000E+00
         0.00000E+00
         0.00000E+00
         0.00000E+00
         0.00000E+00
         0.00000E+00
         0.00000E+00
         0.00000E+00
         0.00000E+00
         0.00000E+00
         0.00000E+00
         0.00000E+00
         0.00000E+00
         0.00000E+00
         0.00000E+00
         0.00000E+00
         0.00000E+00
         0.00000E+00
         0.00000E+00
         0.00000E+00
         0.00000E+00
         0.00000E+00
         0.00000E+00
         0.00000E+00
         0.00000E+00
         0.00000E+00
         0.00000E+00
         0.00000E+00
         0.00000E+00
         0.00000E+00
         0.00000E+00
         0.00000E+00
         0.00000E+00
         0.00000E+00
         0.00000E+00
         0.00000E+00
         0.00000E+00
         0.00000E+00
         0.00000E+00
         0.00000E+00
         0.00000E+00
         0.00000E+00
         0.00000E+00
         0.00000E+00
         0.00000E+00
         0.00000E+00
         0.00000E+00
         0.00000E+00
         0.00000E+00
         0.00000E+00
         0.00000E+00
         0.00000E+00
         0.00000E+00
         0.00000E+00
         0.00000E+00
         0.00000E+00
         0.00000E+00
         0.00000E+00
         0.00000E+00
         0.00000E+00
         0.00000E+00
         0.00000E+00
         0.00000E+00
         0.00000E+00
         0.00000E+00
         0.00000E+00
         0.00000E+00
         0.00000E+00
         0.00000E+00
         0.00000E+00
         0.00000E+00
         0.00000E+00
         0.00000E+00
         0.00000E+00
         0.00000E+00
         0.00000E+00
         0.00000E+00
         0.00000E+00
         0.00000E+00
         0.00000E+00
         0.00000E+00
         0.00000E+00
         0.00000E+00
         0.00000E+00
         0.00000E+00
         0.00000E+00
         0.00000E+00
         0.00000E+00
         0.00000E+00
         0.00000E+00
         0.00000E+00
         0.00000E+00
         0.00000E+00
         0.00000E+00
         0.00000E+00
         0.00000E+00
         0.00000E+00
         0.00000E+00
         0.00000E+00
         0.00000E+00
         0.00000E+00
         0.00000E+00
         0.00000E+00
         0.00000E+00
         0.00000E+00
         0.00000E+00
         0.00000E+00
         0.00000E+00
         0.00000E+00
         0.00000E+00
         0.00000E+00
         0.00000E+00
         0.00000E+00
         0.00000E+00
         0.00000E+00
         0.00000E+00
         0.00000E+00
         0.00000E+00
         0.00000E+00
         0.00000E+00
         0.00000E+00
         0.00000E+00
         0.00000E+00
         0.00000E+00
         0.00000E+00
         0.00000E+00
         0.00000E+00
         0.00000E+00
         0.00000E+00
         0.00000E+00
         0.00000E+00
         0.00000E+00
         0.00000E+00
         0.00000E+00
         0.00000E+00
         0.00000E+00
         0.00000E+00
         0.00000E+00
         0.00000E+00
         0.00000E+00
         0.00000E+00
         0.00000E+00
         0.00000E+00
         0.00000E+00
         0.00000E+00
         0.00000E+00
         0.00000E+00
         0.00000E+00
         0.00000E+00
         0.00000E+00
         0.00000E+00
         0.00000E+00
         0.00000E+00
         0.00000E+00
         0.00000E+00
         0.00000E+00
         0.00000E+00
         0.00000E+00
         0.00000E+00
         0.00000E+00
         0.00000E+00
         0.00000E+00
         0.00000E+00
         0.00000E+00
         0.00000E+00
         0.00000E+00
         0.00000E+00
         0.00000E+00
         0.00000E+00
         0.00000E+00
         0.00000E+00
         0.00000E+00
         0.00000E+00
         0.00000E+00
         0.00000E+00
         0.00000E+00
         0.00000E+00
         0.00000E+00
         0.00000E+00
         0.00000E+00
         0.00000E+00
         0.00000E+00
         0.00000E+00
         0.00000E+00
         0.00000E+00
         0.00000E+00
         0.00000E+00
         0.00000E+00
         0.00000E+00
         0.00000E+00
         0.00000E+00
         0.00000E+00
         0.00000E+00
         0.00000E+00
         0.00000E+00
         0.00000E+00
         0.00000E+00
         0.00000E+00
         0.00000E+00
         0.00000E+00
         0.00000E+00
         0.00000E+00
         0.00000E+00
         0.00000E+00
         0.00000E+00
         0.00000E+00
         0.00000E+00
         0.00000E+00
         0.00000E+00
         0.00000E+00
         0.00000E+00
         0.00000E+00
         0.00000E+00
         0.00000E+00
         0.00000E+00
         0.00000E+00
         0.00000E+00
         0.00000E+00
         0.00000E+00
         0.00000E+00
         0.00000E+00
         0.00000E+00
         0.00000E+00
         0.00000E+00
         0.00000E+00
         0.00000E+00
         0.00000E+00
         0.00000E+00
         0.00000E+00
         0.00000E+00
         0.00000E+00
         0.00000E+00
         0.00000E+00
         0.00000E+00
         0.00000E+00
         0.00000E+00
         0.00000E+00
         0.00000E+00
         0.00000E+00
         0.00000E+00
         0.00000E+00
         0.00000E+00
         0.00000E+00
         0.00000E+00
         0.00000E+00
         0.00000E+00
         0.00000E+00
  
SCALARS               pre_disp_force_y  double 1
LOOKUP_TABLE default
         0.00000E+00
         0.00000E+00
         0.00000E+00
         0.00000E+00
         0.00000E+00
         0.00000E+00
         0.00000E+00
         0.00000E+00
         0.00000E+00
         0.00000E+00
         0.00000E+00
         0.00000E+00
         0.00000E+00
         0.00000E+00
         0.00000E+00
         0.00000E+00
         0.00000E+00
         0.00000E+00
         0.00000E+00
         0.00000E+00
         0.00000E+00
         0.00000E+00
         0.00000E+00
         0.00000E+00
         0.00000E+00
         0.00000E+00
         0.00000E+00
         0.00000E+00
         0.00000E+00
         0.00000E+00
         0.00000E+00
         0.00000E+00
         0.00000E+00
         0.00000E+00
         0.00000E+00
         0.00000E+00
         0.00000E+00
         0.00000E+00
         0.00000E+00
         0.00000E+00
         0.00000E+00
         0.00000E+00
         0.00000E+00
         0.00000E+00
         0.00000E+00
         0.00000E+00
         0.00000E+00
         0.00000E+00
         0.00000E+00
         0.00000E+00
         0.00000E+00
         0.00000E+00
         0.00000E+00
         0.00000E+00
         0.00000E+00
         0.00000E+00
         0.00000E+00
         0.00000E+00
         0.00000E+00
         0.00000E+00
         0.00000E+00
         0.00000E+00
         0.00000E+00
         0.00000E+00
         0.00000E+00
         0.00000E+00
         0.00000E+00
         0.00000E+00
         0.00000E+00
         0.00000E+00
         0.00000E+00
         0.00000E+00
         0.00000E+00
         0.00000E+00
         0.00000E+00
         0.00000E+00
         0.00000E+00
         0.00000E+00
         0.00000E+00
         0.00000E+00
         0.00000E+00
         0.00000E+00
         0.00000E+00
         0.00000E+00
         0.00000E+00
         0.00000E+00
         0.00000E+00
         0.00000E+00
         0.00000E+00
         0.00000E+00
         0.00000E+00
         0.00000E+00
         0.00000E+00
         0.00000E+00
         0.00000E+00
         0.00000E+00
         0.00000E+00
         0.00000E+00
         0.00000E+00
         0.00000E+00
         0.00000E+00
         0.00000E+00
         0.00000E+00
         0.00000E+00
         0.00000E+00
         0.00000E+00
         0.00000E+00
         0.00000E+00
         0.00000E+00
         0.00000E+00
         0.00000E+00
         0.00000E+00
         0.00000E+00
         0.00000E+00
         0.00000E+00
         0.00000E+00
         0.00000E+00
         0.00000E+00
         0.00000E+00
         0.00000E+00
         0.00000E+00
         0.00000E+00
         0.00000E+00
         0.00000E+00
         0.00000E+00
         0.00000E+00
         0.00000E+00
         0.00000E+00
         0.00000E+00
         0.00000E+00
         0.00000E+00
         0.00000E+00
         0.00000E+00
         0.00000E+00
         0.00000E+00
         0.00000E+00
         0.00000E+00
         0.00000E+00
         0.00000E+00
         0.00000E+00
         0.00000E+00
         0.00000E+00
         0.00000E+00
         0.00000E+00
         0.00000E+00
         0.00000E+00
         0.00000E+00
         0.00000E+00
         0.00000E+00
         0.00000E+00
         0.00000E+00
         0.00000E+00
         0.00000E+00
         0.00000E+00
         0.00000E+00
         0.00000E+00
         0.00000E+00
         0.00000E+00
         0.00000E+00
         0.00000E+00
         0.00000E+00
         0.00000E+00
         0.00000E+00
         0.00000E+00
         0.00000E+00
         0.00000E+00
         0.00000E+00
         0.00000E+00
         0.00000E+00
         0.00000E+00
         0.00000E+00
         0.00000E+00
         0.00000E+00
         0.00000E+00
         0.00000E+00
         0.00000E+00
         0.00000E+00
         0.00000E+00
         0.00000E+00
         0.00000E+00
         0.00000E+00
         0.00000E+00
         0.00000E+00
         0.00000E+00
         0.00000E+00
         0.00000E+00
         0.00000E+00
         0.00000E+00
         0.00000E+00
         0.00000E+00
         0.00000E+00
         0.00000E+00
         0.00000E+00
         0.00000E+00
         0.00000E+00
         0.00000E+00
         0.00000E+00
         0.00000E+00
         0.00000E+00
         0.00000E+00
         0.00000E+00
         0.00000E+00
         0.00000E+00
         0.00000E+00
         0.00000E+00
         0.00000E+00
         0.00000E+00
         0.00000E+00
         0.00000E+00
         0.00000E+00
         0.00000E+00
         0.00000E+00
         0.00000E+00
         0.00000E+00
         0.00000E+00
         0.00000E+00
         0.00000E+00
         0.00000E+00
         0.00000E+00
         0.00000E+00
         0.00000E+00
         0.00000E+00
         0.00000E+00
         0.00000E+00
         0.00000E+00
         0.00000E+00
         0.00000E+00
         0.00000E+00
         0.00000E+00
         0.00000E+00
         0.00000E+00
         0.00000E+00
         0.00000E+00
         0.00000E+00
         0.00000E+00
         0.00000E+00
         0.00000E+00
         0.00000E+00
         0.00000E+00
         0.00000E+00
         0.00000E+00
         0.00000E+00
         0.00000E+00
         0.00000E+00
         0.00000E+00
         0.00000E+00
         0.00000E+00
         0.00000E+00
         0.00000E+00
         0.00000E+00
         0.00000E+00
         0.00000E+00
         0.00000E+00
         0.00000E+00
         0.00000E+00
         0.00000E+00
         0.00000E+00
         0.00000E+00
         0.00000E+00
         0.00000E+00
         0.00000E+00
         0.00000E+00
         0.00000E+00
         0.00000E+00
         0.00000E+00
         0.00000E+00
         0.00000E+00
         0.00000E+00
         0.00000E+00
         0.00000E+00
         0.00000E+00
         0.00000E+00
         0.00000E+00
         0.00000E+00
         0.00000E+00
         0.00000E+00
         0.00000E+00
         0.00000E+00
         0.00000E+00
         0.00000E+00
         0.00000E+00
         0.00000E+00
         0.00000E+00
         0.00000E+00
         0.00000E+00
         0.00000E+00
         0.00000E+00
         0.00000E+00
         0.00000E+00
         0.00000E+00
         0.00000E+00
         0.00000E+00
         0.00000E+00
         0.00000E+00
         0.00000E+00
         0.00000E+00
         0.00000E+00
         0.00000E+00
         0.00000E+00
         0.00000E+00
         0.00000E+00
         0.00000E+00
         0.00000E+00
         0.00000E+00
         0.00000E+00
         0.00000E+00
         0.00000E+00
         0.00000E+00
         0.00000E+00
         0.00000E+00
         0.00000E+00
         0.00000E+00
         0.00000E+00
         0.00000E+00
         0.00000E+00
         0.00000E+00
         0.00000E+00
         0.00000E+00
         0.00000E+00
         0.00000E+00
         0.00000E+00
         0.00000E+00
         0.00000E+00
         0.00000E+00
         0.00000E+00
         0.00000E+00
         0.00000E+00
         0.00000E+00
         0.00000E+00
         0.00000E+00
         0.00000E+00
         0.00000E+00
         0.00000E+00
         0.00000E+00
         0.00000E+00
         0.00000E+00
         0.00000E+00
         0.00000E+00
         0.00000E+00
         0.00000E+00
         0.00000E+00
         0.00000E+00
         0.00000E+00
         0.00000E+00
         0.00000E+00
         0.00000E+00
         0.00000E+00
         0.00000E+00
         0.00000E+00
         0.00000E+00
         0.00000E+00
         0.00000E+00
         0.00000E+00
         0.00000E+00
         0.00000E+00
         0.00000E+00
         0.00000E+00
         0.00000E+00
         0.00000E+00
         0.00000E+00
         0.00000E+00
         0.00000E+00
         0.00000E+00
         0.00000E+00
         0.00000E+00
         0.00000E+00
         0.00000E+00
         0.00000E+00
         0.00000E+00
         0.00000E+00
         0.00000E+00
         0.00000E+00
         0.00000E+00
         0.00000E+00
         0.00000E+00
         0.00000E+00
         0.00000E+00
         0.00000E+00
         0.00000E+00
         0.00000E+00
         0.00000E+00
         0.00000E+00
         0.00000E+00
         0.00000E+00
         0.00000E+00
         0.00000E+00
         0.00000E+00
         0.00000E+00
         0.00000E+00
         0.00000E+00
         0.00000E+00
         0.00000E+00
         0.00000E+00
         0.00000E+00
         0.00000E+00
         0.00000E+00
         0.00000E+00
         0.00000E+00
         0.00000E+00
         0.00000E+00
         0.00000E+00
         0.00000E+00
         0.00000E+00
         0.00000E+00
         0.00000E+00
         0.00000E+00
         0.00000E+00
         0.00000E+00
         0.00000E+00
         0.00000E+00
         0.00000E+00
         0.00000E+00
         0.00000E+00
         0.00000E+00
         0.00000E+00
         0.00000E+00
         0.00000E+00
         0.00000E+00
         0.00000E+00
         0.00000E+00
         0.00000E+00
         0.00000E+00
         0.00000E+00
         0.00000E+00
         0.00000E+00
         0.00000E+00
         0.00000E+00
         0.00000E+00
         0.00000E+00
         0.00000E+00
         0.00000E+00
         0.00000E+00
         0.00000E+00
         0.00000E+00
         0.00000E+00
         0.00000E+00
         0.00000E+00
         0.00000E+00
         0.00000E+00
         0.00000E+00
         0.00000E+00
         0.00000E+00
         0.00000E+00
         0.00000E+00
         0.00000E+00
         0.00000E+00
         0.00000E+00
         0.00000E+00
         0.00000E+00
         0.00000E+00
         0.00000E+00
         0.00000E+00
         0.00000E+00
         0.00000E+00
         0.00000E+00
         0.00000E+00
         0.00000E+00
         0.00000E+00
         0.00000E+00
         0.00000E+00
         0.00000E+00
         0.00000E+00
         0.00000E+00
         0.00000E+00
         0.00000E+00
         0.00000E+00
         0.00000E+00
         0.00000E+00
         0.00000E+00
         0.00000E+00
         0.00000E+00
         0.00000E+00
         0.00000E+00
         0.00000E+00
         0.00000E+00
         0.00000E+00
         0.00000E+00
         0.00000E+00
         0.00000E+00
         0.00000E+00
         0.00000E+00
         0.00000E+00
         0.00000E+00
         0.00000E+00
         0.00000E+00
         0.00000E+00
         0.00000E+00
         0.00000E+00
         0.00000E+00
         0.00000E+00
         0.00000E+00
         0.00000E+00
         0.00000E+00
         0.00000E+00
         0.00000E+00
         0.00000E+00
         0.00000E+00
         0.00000E+00
         0.00000E+00
         0.00000E+00
         0.00000E+00
         0.00000E+00
         0.00000E+00
         0.00000E+00
         0.00000E+00
         0.00000E+00
         0.00000E+00
         0.00000E+00
         0.00000E+00
         0.00000E+00
         0.00000E+00
         0.00000E+00
         0.00000E+00
         0.00000E+00
         0.00000E+00
         0.00000E+00
         0.00000E+00
         0.00000E+00
         0.00000E+00
         0.00000E+00
         0.00000E+00
         0.00000E+00
         0.00000E+00
         0.00000E+00
         0.00000E+00
         0.00000E+00
         0.00000E+00
         0.00000E+00
         0.00000E+00
         0.00000E+00
         0.00000E+00
         0.00000E+00
         0.00000E+00
         0.00000E+00
         0.00000E+00
         0.00000E+00
         0.00000E+00
         0.00000E+00
         0.00000E+00
         0.00000E+00
         0.00000E+00
         0.00000E+00
         0.00000E+00
         0.00000E+00
         0.00000E+00
         0.00000E+00
         0.00000E+00
         0.00000E+00
         0.00000E+00
         0.00000E+00
         0.00000E+00
         0.00000E+00
         0.00000E+00
         0.00000E+00
         0.00000E+00
         0.00000E+00
         0.00000E+00
         0.00000E+00
         0.00000E+00
         0.00000E+00
         0.00000E+00
         0.00000E+00
         0.00000E+00
         0.00000E+00
         0.00000E+00
         0.00000E+00
         0.00000E+00
         0.00000E+00
         0.00000E+00
         0.00000E+00
         0.00000E+00
         0.00000E+00
         0.00000E+00
         0.00000E+00
         0.00000E+00
         0.00000E+00
         0.00000E+00
         0.00000E+00
         0.00000E+00
         0.00000E+00
         0.00000E+00
         0.00000E+00
         0.00000E+00
         0.00000E+00
         0.00000E+00
         0.00000E+00
         0.00000E+00
         0.00000E+00
         0.00000E+00
         0.00000E+00
         0.00000E+00
         0.00000E+00
         0.00000E+00
         0.00000E+00
         0.00000E+00
         0.00000E+00
         0.00000E+00
         0.00000E+00
         0.00000E+00
         0.00000E+00
         0.00000E+00
         0.00000E+00
         0.00000E+00
         0.00000E+00
         0.00000E+00
         0.00000E+00
         0.00000E+00
         0.00000E+00
         0.00000E+00
         0.00000E+00
         0.00000E+00
         0.00000E+00
         0.00000E+00
         0.00000E+00
         0.00000E+00
         0.00000E+00
         0.00000E+00
         0.00000E+00
         0.00000E+00
         0.00000E+00
         0.00000E+00
         0.00000E+00
         0.00000E+00
         0.00000E+00
         0.00000E+00
         0.00000E+00
         0.00000E+00
         0.00000E+00
         0.00000E+00
         0.00000E+00
         0.00000E+00
         0.00000E+00
         0.00000E+00
         0.00000E+00
         0.00000E+00
         0.00000E+00
         0.00000E+00
         0.00000E+00
         0.00000E+00
         0.00000E+00
         0.00000E+00
         0.00000E+00
         0.00000E+00
         0.00000E+00
         0.00000E+00
         0.00000E+00
         0.00000E+00
         0.00000E+00
         0.00000E+00
         0.00000E+00
         0.00000E+00
         0.00000E+00
         0.00000E+00
         0.00000E+00
         0.00000E+00
         0.00000E+00
         0.00000E+00
         0.00000E+00
         0.00000E+00
         0.00000E+00
         0.00000E+00
         0.00000E+00
         0.00000E+00
         0.00000E+00
         0.00000E+00
         0.00000E+00
         0.00000E+00
         0.00000E+00
         0.00000E+00
         0.00000E+00
         0.00000E+00
         0.00000E+00
         0.00000E+00
         0.00000E+00
         0.00000E+00
         0.00000E+00
         0.00000E+00
         0.00000E+00
         0.00000E+00
         0.00000E+00
         0.00000E+00
         0.00000E+00
         0.00000E+00
         0.00000E+00
         0.00000E+00
         0.00000E+00
         0.00000E+00
         0.00000E+00
         0.00000E+00
         0.00000E+00
         0.00000E+00
         0.00000E+00
         0.00000E+00
         0.00000E+00
         0.00000E+00
         0.00000E+00
         0.00000E+00
         0.00000E+00
         0.00000E+00
         0.00000E+00
         0.00000E+00
         0.00000E+00
         0.00000E+00
         0.00000E+00
         0.00000E+00
         0.00000E+00
         0.00000E+00
         0.00000E+00
         0.00000E+00
         0.00000E+00
         0.00000E+00
         0.00000E+00
         0.00000E+00
         0.00000E+00
         0.00000E+00
         0.00000E+00
         0.00000E+00
         0.00000E+00
         0.00000E+00
         0.00000E+00
         0.00000E+00
         0.00000E+00
         0.00000E+00
         0.00000E+00
         0.00000E+00
         0.00000E+00
         0.00000E+00
         0.00000E+00
         0.00000E+00
         0.00000E+00
         0.00000E+00
         0.00000E+00
         0.00000E+00
         0.00000E+00
         0.00000E+00
         0.00000E+00
         0.00000E+00
         0.00000E+00
         0.00000E+00
         0.00000E+00
         0.00000E+00
         0.00000E+00
         0.00000E+00
         0.00000E+00
         0.00000E+00
         0.00000E+00
         0.00000E+00
         0.00000E+00
         0.00000E+00
         0.00000E+00
         0.00000E+00
         0.00000E+00
         0.00000E+00
         0.00000E+00
         0.00000E+00
         0.00000E+00
         0.00000E+00
         0.00000E+00
         0.00000E+00
         0.00000E+00
         0.00000E+00
         0.00000E+00
         0.00000E+00
         0.00000E+00
         0.00000E+00
         0.00000E+00
         0.00000E+00
         0.00000E+00
         0.00000E+00
         0.00000E+00
         0.00000E+00
         0.00000E+00
         0.00000E+00
         0.00000E+00
         0.00000E+00
         0.00000E+00
         0.00000E+00
         0.00000E+00
         0.00000E+00
         0.00000E+00
         0.00000E+00
         0.00000E+00
         0.00000E+00
         0.00000E+00
         0.00000E+00
         0.00000E+00
         0.00000E+00
         0.00000E+00
         0.00000E+00
         0.00000E+00
         0.00000E+00
         0.00000E+00
         0.00000E+00
         0.00000E+00
         0.00000E+00
         0.00000E+00
         0.00000E+00
         0.00000E+00
         0.00000E+00
         0.00000E+00
         0.00000E+00
         0.00000E+00
         0.00000E+00
         0.00000E+00
         0.00000E+00
         0.00000E+00
         0.00000E+00
         0.00000E+00
         0.00000E+00
         0.00000E+00
         0.00000E+00
         0.00000E+00
         0.00000E+00
         0.00000E+00
         0.00000E+00
         0.00000E+00
         0.00000E+00
         0.00000E+00
         0.00000E+00
         0.00000E+00
         0.00000E+00
         0.00000E+00
         0.00000E+00
         0.00000E+00
         0.00000E+00
         0.00000E+00
         0.00000E+00
         0.00000E+00
         0.00000E+00
         0.00000E+00
         0.00000E+00
         0.00000E+00
         0.00000E+00
         0.00000E+00
         0.00000E+00
         0.00000E+00
         0.00000E+00
         0.00000E+00
         0.00000E+00
         0.00000E+00
         0.00000E+00
         0.00000E+00
         0.00000E+00
         0.00000E+00
         0.00000E+00
         0.00000E+00
         0.00000E+00
         0.00000E+00
         0.00000E+00
         0.00000E+00
         0.00000E+00
         0.00000E+00
         0.00000E+00
         0.00000E+00
         0.00000E+00
         0.00000E+00
         0.00000E+00
         0.00000E+00
         0.00000E+00
         0.00000E+00
         0.00000E+00
         0.00000E+00
         0.00000E+00
         0.00000E+00
         0.00000E+00
         0.00000E+00
         0.00000E+00
         0.00000E+00
         0.00000E+00
         0.00000E+00
         0.00000E+00
         0.00000E+00
         0.00000E+00
         0.00000E+00
         0.00000E+00
         0.00000E+00
         0.00000E+00
         0.00000E+00
         0.00000E+00
         0.00000E+00
         0.00000E+00
         0.00000E+00
         0.00000E+00
         0.00000E+00
         0.00000E+00
         0.00000E+00
         0.00000E+00
         0.00000E+00
         0.00000E+00
         0.00000E+00
         0.00000E+00
         0.00000E+00
         0.00000E+00
         0.00000E+00
         0.00000E+00
         0.00000E+00
         0.00000E+00
         0.00000E+00
         0.00000E+00
         0.00000E+00
         0.00000E+00
         0.00000E+00
         0.00000E+00
         0.00000E+00
         0.00000E+00
         0.00000E+00
         0.00000E+00
         0.00000E+00
         0.00000E+00
         0.00000E+00
         0.00000E+00
         0.00000E+00
         0.00000E+00
         0.00000E+00
         0.00000E+00
         0.00000E+00
         0.00000E+00
         0.00000E+00
         0.00000E+00
         0.00000E+00
         0.00000E+00
         0.00000E+00
         0.00000E+00
         0.00000E+00
         0.00000E+00
         0.00000E+00
         0.00000E+00
         0.00000E+00
         0.00000E+00
         0.00000E+00
         0.00000E+00
         0.00000E+00
         0.00000E+00
         0.00000E+00
         0.00000E+00
         0.00000E+00
         0.00000E+00
         0.00000E+00
         0.00000E+00
         0.00000E+00
         0.00000E+00
         0.00000E+00
         0.00000E+00
         0.00000E+00
         0.00000E+00
         0.00000E+00
         0.00000E+00
         0.00000E+00
         0.00000E+00
         0.00000E+00
         0.00000E+00
         0.00000E+00
         0.00000E+00
         0.00000E+00
         0.00000E+00
         0.00000E+00
         0.00000E+00
         0.00000E+00
         0.00000E+00
         0.00000E+00
         0.00000E+00
         0.00000E+00
         0.00000E+00
         0.00000E+00
         0.00000E+00
         0.00000E+00
         0.00000E+00
         0.00000E+00
         0.00000E+00
         0.00000E+00
         0.00000E+00
         0.00000E+00
         0.00000E+00
         0.00000E+00
         0.00000E+00
         0.00000E+00
         0.00000E+00
         0.00000E+00
         0.00000E+00
         0.00000E+00
         0.00000E+00
         0.00000E+00
         0.00000E+00
         0.00000E+00
         0.00000E+00
         0.00000E+00
         0.00000E+00
         0.00000E+00
         0.00000E+00
         0.00000E+00
         0.00000E+00
         0.00000E+00
         0.00000E+00
         0.00000E+00
         0.00000E+00
         0.00000E+00
         0.00000E+00
         0.00000E+00
         0.00000E+00
         0.00000E+00
         0.00000E+00
         0.00000E+00
         0.00000E+00
         0.00000E+00
         0.00000E+00
         0.00000E+00
         0.00000E+00
         0.00000E+00
         0.00000E+00
         0.00000E+00
         0.00000E+00
         0.00000E+00
         0.00000E+00
         0.00000E+00
         0.00000E+00
         0.00000E+00
         0.00000E+00
         0.00000E+00
         0.00000E+00
         0.00000E+00
         0.00000E+00
         0.00000E+00
         0.00000E+00
         0.00000E+00
         0.00000E+00
         0.00000E+00
         0.00000E+00
         0.00000E+00
         0.00000E+00
         0.00000E+00
         0.00000E+00
         0.00000E+00
         0.00000E+00
         0.00000E+00
         0.00000E+00
         0.00000E+00
         0.00000E+00
         0.00000E+00
         0.00000E+00
         0.00000E+00
         0.00000E+00
         0.00000E+00
         0.00000E+00
         0.00000E+00
         0.00000E+00
         0.00000E+00
         0.00000E+00
         0.00000E+00
         0.00000E+00
         0.00000E+00
         0.00000E+00
         0.00000E+00
         0.00000E+00
         0.00000E+00
         0.00000E+00
         0.00000E+00
         0.00000E+00
         0.00000E+00
         0.00000E+00
         0.00000E+00
         0.00000E+00
         0.00000E+00
         0.00000E+00
         0.00000E+00
         0.00000E+00
         0.00000E+00
         0.00000E+00
         0.00000E+00
         0.00000E+00
         0.00000E+00
         0.00000E+00
         0.00000E+00
         0.00000E+00
         0.00000E+00
         0.00000E+00
         0.00000E+00
         0.00000E+00
         0.00000E+00
         0.00000E+00
         0.00000E+00
         0.00000E+00
         0.00000E+00
         0.00000E+00
         0.00000E+00
         0.00000E+00
         0.00000E+00
         0.00000E+00
         0.00000E+00
         0.00000E+00
         0.00000E+00
         0.00000E+00
         0.00000E+00
         0.00000E+00
         0.00000E+00
         0.00000E+00
         0.00000E+00
         0.00000E+00
         0.00000E+00
         0.00000E+00
         0.00000E+00
         0.00000E+00
         0.00000E+00
         0.00000E+00
         0.00000E+00
         0.00000E+00
         0.00000E+00
         0.00000E+00
         0.00000E+00
         0.00000E+00
         0.00000E+00
         0.00000E+00
         0.00000E+00
         0.00000E+00
         0.00000E+00
         0.00000E+00
         0.00000E+00
         0.00000E+00
         0.00000E+00
         0.00000E+00
         0.00000E+00
         0.00000E+00
         0.00000E+00
         0.00000E+00
         0.00000E+00
         0.00000E+00
         0.00000E+00
         0.00000E+00
         0.00000E+00
         0.00000E+00
         0.00000E+00
         0.00000E+00
         0.00000E+00
         0.00000E+00
         0.00000E+00
         0.00000E+00
         0.00000E+00
         0.00000E+00
         0.00000E+00
         0.00000E+00
         0.00000E+00
         0.00000E+00
         0.00000E+00
         0.00000E+00
         0.00000E+00
         0.00000E+00
         0.00000E+00
         0.00000E+00
         0.00000E+00
         0.00000E+00
         0.00000E+00
         0.00000E+00
         0.00000E+00
         0.00000E+00
         0.00000E+00
         0.00000E+00
         0.00000E+00
         0.00000E+00
         0.00000E+00
         0.00000E+00
         0.00000E+00
         0.00000E+00
         0.00000E+00
         0.00000E+00
         0.00000E+00
         0.00000E+00
         0.00000E+00
         0.00000E+00
         0.00000E+00
         0.00000E+00
         0.00000E+00
         0.00000E+00
         0.00000E+00
         0.00000E+00
         0.00000E+00
         0.00000E+00
         0.00000E+00
         0.00000E+00
         0.00000E+00
         0.00000E+00
         0.00000E+00
         0.00000E+00
         0.00000E+00
         0.00000E+00
         0.00000E+00
         0.00000E+00
         0.00000E+00
         0.00000E+00
         0.00000E+00
         0.00000E+00
         0.00000E+00
         0.00000E+00
         0.00000E+00
         0.00000E+00
         0.00000E+00
         0.00000E+00
         0.00000E+00
         0.00000E+00
         0.00000E+00
         0.00000E+00
         0.00000E+00
         0.00000E+00
         0.00000E+00
         0.00000E+00
         0.00000E+00
         0.00000E+00
         0.00000E+00
         0.00000E+00
         0.00000E+00
         0.00000E+00
         0.00000E+00
         0.00000E+00
         0.00000E+00
         0.00000E+00
         0.00000E+00
         0.00000E+00
         0.00000E+00
         0.00000E+00
         0.00000E+00
         0.00000E+00
         0.00000E+00
         0.00000E+00
         0.00000E+00
         0.00000E+00
         0.00000E+00
         0.00000E+00
         0.00000E+00
         0.00000E+00
         0.00000E+00
         0.00000E+00
         0.00000E+00
         0.00000E+00
         0.00000E+00
         0.00000E+00
         0.00000E+00
         0.00000E+00
         0.00000E+00
         0.00000E+00
         0.00000E+00
         0.00000E+00
         0.00000E+00
         0.00000E+00
         0.00000E+00
         0.00000E+00
         0.00000E+00
         0.00000E+00
         0.00000E+00
         0.00000E+00
         0.00000E+00
         0.00000E+00
         0.00000E+00
         0.00000E+00
         0.00000E+00
         0.00000E+00
         0.00000E+00
         0.00000E+00
         0.00000E+00
         0.00000E+00
         0.00000E+00
         0.00000E+00
         0.00000E+00
         0.00000E+00
         0.00000E+00
         0.00000E+00
         0.00000E+00
         0.00000E+00
         0.00000E+00
         0.00000E+00
         0.00000E+00
         0.00000E+00
         0.00000E+00
         0.00000E+00
         0.00000E+00
         0.00000E+00
         0.00000E+00
         0.00000E+00
         0.00000E+00
         0.00000E+00
         0.00000E+00
         0.00000E+00
         0.00000E+00
         0.00000E+00
         0.00000E+00
         0.00000E+00
         0.00000E+00
         0.00000E+00
         0.00000E+00
         0.00000E+00
         0.00000E+00
         0.00000E+00
         0.00000E+00
         0.00000E+00
         0.00000E+00
         0.00000E+00
         0.00000E+00
         0.00000E+00
         0.00000E+00
         0.00000E+00
         0.00000E+00
         0.00000E+00
         0.00000E+00
         0.00000E+00
         0.00000E+00
         0.00000E+00
         0.00000E+00
         0.00000E+00
         0.00000E+00
         0.00000E+00
         0.00000E+00
         0.00000E+00
         0.00000E+00
         0.00000E+00
         0.00000E+00
         0.00000E+00
         0.00000E+00
         0.00000E+00
         0.00000E+00
         0.00000E+00
         0.00000E+00
         0.00000E+00
         0.00000E+00
         0.00000E+00
         0.00000E+00
         0.00000E+00
         0.00000E+00
         0.00000E+00
         0.00000E+00
         0.00000E+00
         0.00000E+00
         0.00000E+00
         0.00000E+00
         0.00000E+00
         0.00000E+00
         0.00000E+00
         0.00000E+00
         0.00000E+00
         0.00000E+00
         0.00000E+00
         0.00000E+00
         0.00000E+00
         0.00000E+00
         0.00000E+00
         0.00000E+00
         0.00000E+00
         0.00000E+00
         0.00000E+00
         0.00000E+00
         0.00000E+00
         0.00000E+00
         0.00000E+00
         0.00000E+00
         0.00000E+00
         0.00000E+00
         0.00000E+00
         0.00000E+00
         0.00000E+00
         0.00000E+00
         0.00000E+00
         0.00000E+00
         0.00000E+00
         0.00000E+00
         0.00000E+00
         0.00000E+00
         0.00000E+00
         0.00000E+00
         0.00000E+00
         0.00000E+00
         0.00000E+00
         0.00000E+00
         0.00000E+00
         0.00000E+00
         0.00000E+00
         0.00000E+00
         0.00000E+00
         0.00000E+00
         0.00000E+00
         0.00000E+00
         0.00000E+00
         0.00000E+00
         0.00000E+00
         0.00000E+00
         0.00000E+00
         0.00000E+00
         0.00000E+00
         0.00000E+00
         0.00000E+00
         0.00000E+00
         0.00000E+00
         0.00000E+00
         0.00000E+00
         0.00000E+00
         0.00000E+00
         0.00000E+00
         0.00000E+00
         0.00000E+00
         0.00000E+00
         0.00000E+00
         0.00000E+00
         0.00000E+00
         0.00000E+00
         0.00000E+00
         0.00000E+00
         0.00000E+00
         0.00000E+00
         0.00000E+00
         0.00000E+00
         0.00000E+00
         0.00000E+00
         0.00000E+00
         0.00000E+00
         0.00000E+00
         0.00000E+00
         0.00000E+00
         0.00000E+00
         0.00000E+00
         0.00000E+00
         0.00000E+00
         0.00000E+00
         0.00000E+00
         0.00000E+00
         0.00000E+00
         0.00000E+00
         0.00000E+00
         0.00000E+00
         0.00000E+00
         0.00000E+00
         0.00000E+00
         0.00000E+00
         0.00000E+00
         0.00000E+00
         0.00000E+00
         0.00000E+00
         0.00000E+00
         0.00000E+00
         0.00000E+00
         0.00000E+00
         0.00000E+00
         0.00000E+00
         0.00000E+00
         0.00000E+00
         0.00000E+00
         0.00000E+00
         0.00000E+00
         0.00000E+00
         0.00000E+00
         0.00000E+00
         0.00000E+00
         0.00000E+00
         0.00000E+00
         0.00000E+00
         0.00000E+00
         0.00000E+00
         0.00000E+00
         0.00000E+00
         0.00000E+00
         0.00000E+00
         0.00000E+00
         0.00000E+00
         0.00000E+00
         0.00000E+00
         0.00000E+00
         0.00000E+00
         0.00000E+00
         0.00000E+00
         0.00000E+00
         0.00000E+00
         0.00000E+00
         0.00000E+00
         0.00000E+00
         0.00000E+00
         0.00000E+00
         0.00000E+00
         0.00000E+00
         0.00000E+00
         0.00000E+00
         0.00000E+00
         0.00000E+00
         0.00000E+00
         0.00000E+00
         0.00000E+00
         0.00000E+00
         0.00000E+00
         0.00000E+00
         0.00000E+00
         0.00000E+00
         0.00000E+00
         0.00000E+00
         0.00000E+00
         0.00000E+00
         0.00000E+00
         0.00000E+00
         0.00000E+00
         0.00000E+00
         0.00000E+00
         0.00000E+00
         0.00000E+00
         0.00000E+00
         0.00000E+00
         0.00000E+00
         0.00000E+00
         0.00000E+00
         0.00000E+00
         0.00000E+00
         0.00000E+00
         0.00000E+00
         0.00000E+00
         0.00000E+00
         0.00000E+00
         0.00000E+00
         0.00000E+00
         0.00000E+00
         0.00000E+00
         0.00000E+00
         0.00000E+00
         0.00000E+00
         0.00000E+00
         0.00000E+00
         0.00000E+00
         0.00000E+00
         0.00000E+00
         0.00000E+00
         0.00000E+00
         0.00000E+00
         0.00000E+00
         0.00000E+00
         0.00000E+00
         0.00000E+00
         0.00000E+00
         0.00000E+00
         0.00000E+00
         0.00000E+00
         0.00000E+00
         0.00000E+00
         0.00000E+00
         0.00000E+00
         0.00000E+00
         0.00000E+00
         0.00000E+00
         0.00000E+00
         0.00000E+00
         0.00000E+00
         0.00000E+00
         0.00000E+00
         0.00000E+00
         0.00000E+00
         0.00000E+00
         0.00000E+00
         0.00000E+00
         0.00000E+00
         0.00000E+00
         0.00000E+00
         0.00000E+00
         0.00000E+00
         0.00000E+00
         0.00000E+00
         0.00000E+00
         0.00000E+00
         0.00000E+00
         0.00000E+00
         0.00000E+00
         0.00000E+00
         0.00000E+00
         0.00000E+00
         0.00000E+00
         0.00000E+00
         0.00000E+00
         0.00000E+00
         0.00000E+00
         0.00000E+00
         0.00000E+00
         0.00000E+00
         0.00000E+00
         0.00000E+00
         0.00000E+00
         0.00000E+00
         0.00000E+00
         0.00000E+00
         0.00000E+00
         0.00000E+00
         0.00000E+00
         0.00000E+00
         0.00000E+00
         0.00000E+00
         0.00000E+00
         0.00000E+00
         0.00000E+00
         0.00000E+00
         0.00000E+00
         0.00000E+00
         0.00000E+00
         0.00000E+00
         0.00000E+00
         0.00000E+00
         0.00000E+00
         0.00000E+00
         0.00000E+00
         0.00000E+00
         0.00000E+00
         0.00000E+00
         0.00000E+00
         0.00000E+00
         0.00000E+00
         0.00000E+00
         0.00000E+00
         0.00000E+00
         0.00000E+00
         0.00000E+00
         0.00000E+00
         0.00000E+00
         0.00000E+00
         0.00000E+00
         0.00000E+00
         0.00000E+00
         0.00000E+00
         0.00000E+00
         0.00000E+00
         0.00000E+00
         0.00000E+00
         0.00000E+00
         0.00000E+00
         0.00000E+00
         0.00000E+00
         0.00000E+00
         0.00000E+00
         0.00000E+00
         0.00000E+00
         0.00000E+00
         0.00000E+00
         0.00000E+00
         0.00000E+00
         0.00000E+00
         0.00000E+00
         0.00000E+00
         0.00000E+00
         0.00000E+00
         0.00000E+00
         0.00000E+00
         0.00000E+00
         0.00000E+00
         0.00000E+00
         0.00000E+00
         0.00000E+00
         0.00000E+00
         0.00000E+00
         0.00000E+00
         0.00000E+00
         0.00000E+00
         0.00000E+00
         0.00000E+00
         0.00000E+00
         0.00000E+00
         0.00000E+00
         0.00000E+00
         0.00000E+00
         0.00000E+00
         0.00000E+00
         0.00000E+00
         0.00000E+00
         0.00000E+00
         0.00000E+00
         0.00000E+00
         0.00000E+00
         0.00000E+00
         0.00000E+00
         0.00000E+00
         0.00000E+00
         0.00000E+00
         0.00000E+00
         0.00000E+00
         0.00000E+00
         0.00000E+00
         0.00000E+00
         0.00000E+00
         0.00000E+00
         0.00000E+00
         0.00000E+00
         0.00000E+00
         0.00000E+00
         0.00000E+00
         0.00000E+00
         0.00000E+00
         0.00000E+00
         0.00000E+00
         0.00000E+00
         0.00000E+00
         0.00000E+00
         0.00000E+00
         0.00000E+00
         0.00000E+00
         0.00000E+00
         0.00000E+00
         0.00000E+00
         0.00000E+00
         0.00000E+00
         0.00000E+00
         0.00000E+00
         0.00000E+00
         0.00000E+00
         0.00000E+00
         0.00000E+00
         0.00000E+00
         0.00000E+00
         0.00000E+00
         0.00000E+00
         0.00000E+00
         0.00000E+00
         0.00000E+00
         0.00000E+00
         0.00000E+00
         0.00000E+00
         0.00000E+00
         0.00000E+00
         0.00000E+00
         0.00000E+00
         0.00000E+00
         0.00000E+00
         0.00000E+00
         0.00000E+00
         0.00000E+00
         0.00000E+00
         0.00000E+00
         0.00000E+00
         0.00000E+00
         0.00000E+00
         0.00000E+00
         0.00000E+00
         0.00000E+00
         0.00000E+00
         0.00000E+00
         0.00000E+00
         0.00000E+00
         0.00000E+00
         0.00000E+00
         0.00000E+00
         0.00000E+00
         0.00000E+00
         0.00000E+00
         0.00000E+00
         0.00000E+00
         0.00000E+00
         0.00000E+00
         0.00000E+00
         0.00000E+00
         0.00000E+00
         0.00000E+00
         0.00000E+00
         0.00000E+00
         0.00000E+00
         0.00000E+00
         0.00000E+00
         0.00000E+00
         0.00000E+00
         0.00000E+00
         0.00000E+00
         0.00000E+00
         0.00000E+00
         0.00000E+00
         0.00000E+00
         0.00000E+00
         0.00000E+00
         0.00000E+00
         0.00000E+00
         0.00000E+00
         0.00000E+00
         0.00000E+00
         0.00000E+00
         0.00000E+00
         0.00000E+00
         0.00000E+00
         0.00000E+00
         0.00000E+00
         0.00000E+00
         0.00000E+00
         0.00000E+00
         0.00000E+00
         0.00000E+00
         0.00000E+00
         0.00000E+00
         0.00000E+00
         0.00000E+00
         0.00000E+00
         0.00000E+00
         0.00000E+00
         0.00000E+00
         0.00000E+00
         0.00000E+00
         0.00000E+00
         0.00000E+00
         0.00000E+00
         0.00000E+00
         0.00000E+00
         0.00000E+00
         0.00000E+00
         0.00000E+00
         0.00000E+00
         0.00000E+00
         0.00000E+00
         0.00000E+00
         0.00000E+00
         0.00000E+00
         0.00000E+00
         0.00000E+00
         0.00000E+00
         0.00000E+00
         0.00000E+00
         0.00000E+00
         0.00000E+00
         0.00000E+00
         0.00000E+00
         0.00000E+00
         0.00000E+00
         0.00000E+00
         0.00000E+00
         0.00000E+00
         0.00000E+00
         0.00000E+00
         0.00000E+00
         0.00000E+00
         0.00000E+00
         0.00000E+00
         0.00000E+00
         0.00000E+00
         0.00000E+00
         0.00000E+00
         0.00000E+00
         0.00000E+00
         0.00000E+00
         0.00000E+00
         0.00000E+00
         0.00000E+00
         0.00000E+00
         0.00000E+00
         0.00000E+00
         0.00000E+00
         0.00000E+00
         0.00000E+00
         0.00000E+00
         0.00000E+00
         0.00000E+00
         0.00000E+00
         0.00000E+00
         0.00000E+00
         0.00000E+00
         0.00000E+00
         0.00000E+00
         0.00000E+00
         0.00000E+00
         0.00000E+00
         0.00000E+00
         0.00000E+00
         0.00000E+00
         0.00000E+00
         0.00000E+00
         0.00000E+00
         0.00000E+00
         0.00000E+00
         0.00000E+00
         0.00000E+00
         0.00000E+00
         0.00000E+00
         0.00000E+00
         0.00000E+00
         0.00000E+00
         0.00000E+00
         0.00000E+00
         0.00000E+00
         0.00000E+00
         0.00000E+00
         0.00000E+00
         0.00000E+00
         0.00000E+00
         0.00000E+00
         0.00000E+00
         0.00000E+00
         0.00000E+00
         0.00000E+00
         0.00000E+00
         0.00000E+00
         0.00000E+00
         0.00000E+00
         0.00000E+00
         0.00000E+00
         0.00000E+00
         0.00000E+00
         0.00000E+00
         0.00000E+00
         0.00000E+00
         0.00000E+00
         0.00000E+00
         0.00000E+00
         0.00000E+00
         0.00000E+00
         0.00000E+00
         0.00000E+00
         0.00000E+00
         0.00000E+00
         0.00000E+00
         0.00000E+00
         0.00000E+00
         0.00000E+00
         0.00000E+00
         0.00000E+00
         0.00000E+00
         0.00000E+00
         0.00000E+00
         0.00000E+00
         0.00000E+00
         0.00000E+00
         0.00000E+00
         0.00000E+00
         0.00000E+00
         0.00000E+00
         0.00000E+00
         0.00000E+00
         0.00000E+00
         0.00000E+00
         0.00000E+00
         0.00000E+00
         0.00000E+00
         0.00000E+00
         0.00000E+00
         0.00000E+00
         0.00000E+00
         0.00000E+00
         0.00000E+00
         0.00000E+00
         0.00000E+00
         0.00000E+00
         0.00000E+00
         0.00000E+00
         0.00000E+00
         0.00000E+00
         0.00000E+00
         0.00000E+00
         0.00000E+00
         0.00000E+00
         0.00000E+00
         0.00000E+00
         0.00000E+00
         0.00000E+00
         0.00000E+00
         0.00000E+00
         0.00000E+00
         0.00000E+00
         0.00000E+00
         0.00000E+00
         0.00000E+00
         0.00000E+00
         0.00000E+00
         0.00000E+00
         0.00000E+00
  
SCALARS               pre_disp_force_z  double 1
LOOKUP_TABLE default
         0.00000E+00
         0.00000E+00
         0.00000E+00
         0.00000E+00
        -0.00000E+00
        -0.00000E+00
        -0.00000E+00
        -0.00000E+00
         0.00000E+00
         0.00000E+00
        -0.00000E+00
        -0.00000E+00
         0.00000E+00
         0.00000E+00
        -0.00000E+00
        -0.00000E+00
         0.00000E+00
         0.00000E+00
        -0.00000E+00
        -0.00000E+00
         0.00000E+00
         0.00000E+00
         0.00000E+00
        -0.00000E+00
        -0.00000E+00
        -0.00000E+00
         0.00000E+00
         0.00000E+00
        -0.00000E+00
        -0.00000E+00
         0.00000E+00
         0.00000E+00
         0.00000E+00
        -0.00000E+00
        -0.00000E+00
        -0.00000E+00
         0.00000E+00
         0.00000E+00
        -0.00000E+00
        -0.00000E+00
         0.00000E+00
         0.00000E+00
        -0.00000E+00
        -0.00000E+00
         0.00000E+00
         0.00000E+00
        -0.00000E+00
        -0.00000E+00
         0.00000E+00
        -0.00000E+00
         0.00000E+00
        -0.00000E+00
         0.00000E+00
        -0.00000E+00
         0.00000E+00
        -0.00000E+00
         0.00000E+00
         0.00000E+00
        -0.00000E+00
        -0.00000E+00
         0.00000E+00
         0.00000E+00
        -0.00000E+00
        -0.00000E+00
         0.00000E+00
        -0.00000E+00
         0.00000E+00
        -0.00000E+00
         0.00000E+00
         0.00000E+00
        -0.00000E+00
        -0.00000E+00
         0.00000E+00
        -0.00000E+00
         0.00000E+00
        -0.00000E+00
         0.00000E+00
        -0.00000E+00
         0.00000E+00
        -0.00000E+00
         0.00000E+00
         0.00000E+00
        -0.00000E+00
        -0.00000E+00
         0.00000E+00
        -0.00000E+00
         0.00000E+00
        -0.00000E+00
         0.00000E+00
        -0.00000E+00
         0.00000E+00
         0.00000E+00
        -0.00000E+00
        -0.00000E+00
         0.00000E+00
        -0.00000E+00
         0.00000E+00
        -0.00000E+00
         0.00000E+00
        -0.00000E+00
         0.00000E+00
         0.00000E+00
        -0.00000E+00
        -0.00000E+00
         0.00000E+00
         0.00000E+00
        -0.00000E+00
        -0.00000E+00
         0.00000E+00
        -0.00000E+00
         0.00000E+00
        -0.00000E+00
         0.00000E+00
        -0.00000E+00
         0.00000E+00
        -0.00000E+00
         0.00000E+00
        -0.00000E+00
         0.00000E+00
        -0.00000E+00
         0.00000E+00
        -0.00000E+00
         0.00000E+00
        -0.00000E+00
         0.00000E+00
        -0.00000E+00
         0.00000E+00
        -0.00000E+00
         0.00000E+00
        -0.00000E+00
         0.00000E+00
        -0.00000E+00
         0.00000E+00
        -0.00000E+00
         0.00000E+00
        -0.00000E+00
         0.00000E+00
        -0.00000E+00
         0.00000E+00
        -0.00000E+00
         0.00000E+00
        -0.00000E+00
         0.00000E+00
        -0.00000E+00
         0.00000E+00
        -0.00000E+00
         0.00000E+00
        -0.00000E+00
         0.00000E+00
        -0.00000E+00
         0.00000E+00
        -0.00000E+00
         0.00000E+00
        -0.00000E+00
         0.00000E+00
        -0.00000E+00
         0.00000E+00
         0.00000E+00
         0.00000E+00
         0.00000E+00
         0.00000E+00
         0.00000E+00
         0.00000E+00
         0.00000E+00
         0.00000E+00
         0.00000E+00
         0.00000E+00
         0.00000E+00
         0.00000E+00
         0.00000E+00
         0.00000E+00
         0.00000E+00
         0.00000E+00
         0.00000E+00
         0.00000E+00
         0.00000E+00
         0.00000E+00
         0.00000E+00
         0.00000E+00
         0.00000E+00
         0.00000E+00
         0.00000E+00
         0.00000E+00
         0.00000E+00
         0.00000E+00
         0.00000E+00
         0.00000E+00
         0.00000E+00
         0.00000E+00
         0.00000E+00
         0.00000E+00
         0.00000E+00
         0.00000E+00
         0.00000E+00
         0.00000E+00
         0.00000E+00
         0.00000E+00
         0.00000E+00
         0.00000E+00
         0.00000E+00
         0.00000E+00
         0.00000E+00
         0.00000E+00
         0.00000E+00
         0.00000E+00
         0.00000E+00
         0.00000E+00
         0.00000E+00
         0.00000E+00
         0.00000E+00
         0.00000E+00
         0.00000E+00
         0.00000E+00
         0.00000E+00
         0.00000E+00
         0.00000E+00
         0.00000E+00
         0.00000E+00
         0.00000E+00
         0.00000E+00
         0.00000E+00
         0.00000E+00
         0.00000E+00
         0.00000E+00
         0.00000E+00
         0.00000E+00
         0.00000E+00
         0.00000E+00
         0.00000E+00
         0.00000E+00
         0.00000E+00
         0.00000E+00
         0.00000E+00
         0.00000E+00
         0.00000E+00
         0.00000E+00
         0.00000E+00
         0.00000E+00
         0.00000E+00
         0.00000E+00
         0.00000E+00
         0.00000E+00
         0.00000E+00
         0.00000E+00
         0.00000E+00
         0.00000E+00
         0.00000E+00
         0.00000E+00
         0.00000E+00
         0.00000E+00
         0.00000E+00
         0.00000E+00
         0.00000E+00
         0.00000E+00
         0.00000E+00
         0.00000E+00
         0.00000E+00
         0.00000E+00
         0.00000E+00
         0.00000E+00
         0.00000E+00
         0.00000E+00
         0.00000E+00
         0.00000E+00
         0.00000E+00
         0.00000E+00
         0.00000E+00
         0.00000E+00
         0.00000E+00
         0.00000E+00
         0.00000E+00
         0.00000E+00
         0.00000E+00
         0.00000E+00
         0.00000E+00
         0.00000E+00
         0.00000E+00
         0.00000E+00
         0.00000E+00
         0.00000E+00
         0.00000E+00
         0.00000E+00
         0.00000E+00
         0.00000E+00
         0.00000E+00
         0.00000E+00
         0.00000E+00
         0.00000E+00
         0.00000E+00
         0.00000E+00
         0.00000E+00
         0.00000E+00
         0.00000E+00
         0.00000E+00
         0.00000E+00
         0.00000E+00
         0.00000E+00
         0.00000E+00
         0.00000E+00
         0.00000E+00
         0.00000E+00
         0.00000E+00
         0.00000E+00
         0.00000E+00
         0.00000E+00
         0.00000E+00
         0.00000E+00
         0.00000E+00
         0.00000E+00
         0.00000E+00
         0.00000E+00
         0.00000E+00
         0.00000E+00
         0.00000E+00
         0.00000E+00
         0.00000E+00
         0.00000E+00
         0.00000E+00
         0.00000E+00
         0.00000E+00
         0.00000E+00
         0.00000E+00
         0.00000E+00
         0.00000E+00
         0.00000E+00
         0.00000E+00
         0.00000E+00
         0.00000E+00
         0.00000E+00
         0.00000E+00
         0.00000E+00
         0.00000E+00
         0.00000E+00
         0.00000E+00
         0.00000E+00
         0.00000E+00
         0.00000E+00
         0.00000E+00
         0.00000E+00
         0.00000E+00
         0.00000E+00
         0.00000E+00
         0.00000E+00
         0.00000E+00
         0.00000E+00
         0.00000E+00
         0.00000E+00
         0.00000E+00
         0.00000E+00
         0.00000E+00
         0.00000E+00
         0.00000E+00
         0.00000E+00
         0.00000E+00
         0.00000E+00
         0.00000E+00
         0.00000E+00
         0.00000E+00
         0.00000E+00
         0.00000E+00
         0.00000E+00
         0.00000E+00
         0.00000E+00
         0.00000E+00
         0.00000E+00
         0.00000E+00
         0.00000E+00
         0.00000E+00
         0.00000E+00
         0.00000E+00
         0.00000E+00
         0.00000E+00
         0.00000E+00
         0.00000E+00
         0.00000E+00
         0.00000E+00
         0.00000E+00
         0.00000E+00
         0.00000E+00
         0.00000E+00
         0.00000E+00
         0.00000E+00
         0.00000E+00
         0.00000E+00
         0.00000E+00
         0.00000E+00
         0.00000E+00
         0.00000E+00
         0.00000E+00
         0.00000E+00
         0.00000E+00
         0.00000E+00
         0.00000E+00
         0.00000E+00
         0.00000E+00
         0.00000E+00
         0.00000E+00
         0.00000E+00
         0.00000E+00
         0.00000E+00
         0.00000E+00
         0.00000E+00
         0.00000E+00
         0.00000E+00
         0.00000E+00
         0.00000E+00
         0.00000E+00
         0.00000E+00
         0.00000E+00
         0.00000E+00
         0.00000E+00
         0.00000E+00
         0.00000E+00
         0.00000E+00
         0.00000E+00
         0.00000E+00
         0.00000E+00
         0.00000E+00
         0.00000E+00
         0.00000E+00
         0.00000E+00
         0.00000E+00
         0.00000E+00
         0.00000E+00
         0.00000E+00
         0.00000E+00
         0.00000E+00
         0.00000E+00
         0.00000E+00
         0.00000E+00
         0.00000E+00
         0.00000E+00
         0.00000E+00
         0.00000E+00
         0.00000E+00
         0.00000E+00
         0.00000E+00
         0.00000E+00
         0.00000E+00
         0.00000E+00
         0.00000E+00
         0.00000E+00
         0.00000E+00
         0.00000E+00
         0.00000E+00
         0.00000E+00
         0.00000E+00
         0.00000E+00
         0.00000E+00
         0.00000E+00
         0.00000E+00
         0.00000E+00
         0.00000E+00
         0.00000E+00
         0.00000E+00
         0.00000E+00
         0.00000E+00
         0.00000E+00
         0.00000E+00
         0.00000E+00
         0.00000E+00
         0.00000E+00
         0.00000E+00
         0.00000E+00
         0.00000E+00
         0.00000E+00
         0.00000E+00
         0.00000E+00
         0.00000E+00
         0.00000E+00
         0.00000E+00
         0.00000E+00
         0.00000E+00
         0.00000E+00
         0.00000E+00
         0.00000E+00
         0.00000E+00
         0.00000E+00
         0.00000E+00
         0.00000E+00
         0.00000E+00
         0.00000E+00
         0.00000E+00
         0.00000E+00
         0.00000E+00
         0.00000E+00
         0.00000E+00
         0.00000E+00
         0.00000E+00
         0.00000E+00
         0.00000E+00
         0.00000E+00
         0.00000E+00
         0.00000E+00
         0.00000E+00
         0.00000E+00
         0.00000E+00
         0.00000E+00
         0.00000E+00
         0.00000E+00
         0.00000E+00
         0.00000E+00
         0.00000E+00
         0.00000E+00
         0.00000E+00
         0.00000E+00
         0.00000E+00
         0.00000E+00
         0.00000E+00
         0.00000E+00
         0.00000E+00
         0.00000E+00
         0.00000E+00
         0.00000E+00
         0.00000E+00
         0.00000E+00
         0.00000E+00
         0.00000E+00
         0.00000E+00
         0.00000E+00
         0.00000E+00
         0.00000E+00
         0.00000E+00
         0.00000E+00
         0.00000E+00
         0.00000E+00
         0.00000E+00
         0.00000E+00
         0.00000E+00
         0.00000E+00
         0.00000E+00
         0.00000E+00
         0.00000E+00
         0.00000E+00
         0.00000E+00
         0.00000E+00
         0.00000E+00
         0.00000E+00
         0.00000E+00
         0.00000E+00
         0.00000E+00
         0.00000E+00
         0.00000E+00
         0.00000E+00
         0.00000E+00
         0.00000E+00
         0.00000E+00
         0.00000E+00
         0.00000E+00
         0.00000E+00
         0.00000E+00
         0.00000E+00
         0.00000E+00
         0.00000E+00
         0.00000E+00
         0.00000E+00
         0.00000E+00
         0.00000E+00
         0.00000E+00
         0.00000E+00
         0.00000E+00
         0.00000E+00
         0.00000E+00
         0.00000E+00
         0.00000E+00
         0.00000E+00
         0.00000E+00
         0.00000E+00
         0.00000E+00
         0.00000E+00
         0.00000E+00
         0.00000E+00
         0.00000E+00
         0.00000E+00
         0.00000E+00
         0.00000E+00
         0.00000E+00
         0.00000E+00
         0.00000E+00
         0.00000E+00
         0.00000E+00
         0.00000E+00
         0.00000E+00
         0.00000E+00
         0.00000E+00
         0.00000E+00
         0.00000E+00
         0.00000E+00
         0.00000E+00
         0.00000E+00
         0.00000E+00
         0.00000E+00
         0.00000E+00
         0.00000E+00
         0.00000E+00
         0.00000E+00
         0.00000E+00
         0.00000E+00
         0.00000E+00
         0.00000E+00
         0.00000E+00
         0.00000E+00
         0.00000E+00
         0.00000E+00
         0.00000E+00
         0.00000E+00
         0.00000E+00
         0.00000E+00
         0.00000E+00
         0.00000E+00
         0.00000E+00
         0.00000E+00
         0.00000E+00
         0.00000E+00
         0.00000E+00
         0.00000E+00
         0.00000E+00
         0.00000E+00
         0.00000E+00
         0.00000E+00
         0.00000E+00
         0.00000E+00
         0.00000E+00
         0.00000E+00
         0.00000E+00
         0.00000E+00
         0.00000E+00
         0.00000E+00
         0.00000E+00
         0.00000E+00
         0.00000E+00
         0.00000E+00
         0.00000E+00
         0.00000E+00
         0.00000E+00
         0.00000E+00
         0.00000E+00
         0.00000E+00
         0.00000E+00
         0.00000E+00
         0.00000E+00
         0.00000E+00
         0.00000E+00
         0.00000E+00
         0.00000E+00
         0.00000E+00
         0.00000E+00
         0.00000E+00
         0.00000E+00
         0.00000E+00
         0.00000E+00
         0.00000E+00
         0.00000E+00
         0.00000E+00
         0.00000E+00
         0.00000E+00
         0.00000E+00
         0.00000E+00
         0.00000E+00
         0.00000E+00
         0.00000E+00
         0.00000E+00
         0.00000E+00
         0.00000E+00
         0.00000E+00
         0.00000E+00
         0.00000E+00
         0.00000E+00
         0.00000E+00
         0.00000E+00
         0.00000E+00
         0.00000E+00
         0.00000E+00
         0.00000E+00
         0.00000E+00
         0.00000E+00
         0.00000E+00
         0.00000E+00
         0.00000E+00
         0.00000E+00
         0.00000E+00
         0.00000E+00
         0.00000E+00
         0.00000E+00
         0.00000E+00
         0.00000E+00
         0.00000E+00
         0.00000E+00
         0.00000E+00
         0.00000E+00
         0.00000E+00
         0.00000E+00
         0.00000E+00
         0.00000E+00
         0.00000E+00
         0.00000E+00
         0.00000E+00
         0.00000E+00
         0.00000E+00
         0.00000E+00
         0.00000E+00
         0.00000E+00
         0.00000E+00
         0.00000E+00
         0.00000E+00
         0.00000E+00
         0.00000E+00
         0.00000E+00
         0.00000E+00
         0.00000E+00
         0.00000E+00
         0.00000E+00
         0.00000E+00
         0.00000E+00
         0.00000E+00
         0.00000E+00
         0.00000E+00
         0.00000E+00
         0.00000E+00
         0.00000E+00
         0.00000E+00
         0.00000E+00
         0.00000E+00
         0.00000E+00
         0.00000E+00
         0.00000E+00
         0.00000E+00
         0.00000E+00
         0.00000E+00
         0.00000E+00
         0.00000E+00
         0.00000E+00
         0.00000E+00
         0.00000E+00
         0.00000E+00
         0.00000E+00
         0.00000E+00
         0.00000E+00
         0.00000E+00
         0.00000E+00
         0.00000E+00
         0.00000E+00
         0.00000E+00
         0.00000E+00
         0.00000E+00
         0.00000E+00
         0.00000E+00
         0.00000E+00
         0.00000E+00
         0.00000E+00
         0.00000E+00
         0.00000E+00
         0.00000E+00
         0.00000E+00
         0.00000E+00
         0.00000E+00
         0.00000E+00
         0.00000E+00
         0.00000E+00
         0.00000E+00
         0.00000E+00
         0.00000E+00
         0.00000E+00
         0.00000E+00
         0.00000E+00
         0.00000E+00
         0.00000E+00
         0.00000E+00
         0.00000E+00
         0.00000E+00
         0.00000E+00
         0.00000E+00
         0.00000E+00
         0.00000E+00
         0.00000E+00
         0.00000E+00
         0.00000E+00
         0.00000E+00
         0.00000E+00
         0.00000E+00
         0.00000E+00
         0.00000E+00
         0.00000E+00
         0.00000E+00
         0.00000E+00
         0.00000E+00
         0.00000E+00
         0.00000E+00
         0.00000E+00
         0.00000E+00
         0.00000E+00
         0.00000E+00
         0.00000E+00
         0.00000E+00
         0.00000E+00
         0.00000E+00
         0.00000E+00
         0.00000E+00
         0.00000E+00
         0.00000E+00
         0.00000E+00
         0.00000E+00
         0.00000E+00
         0.00000E+00
         0.00000E+00
         0.00000E+00
         0.00000E+00
         0.00000E+00
         0.00000E+00
         0.00000E+00
         0.00000E+00
         0.00000E+00
         0.00000E+00
         0.00000E+00
         0.00000E+00
         0.00000E+00
         0.00000E+00
         0.00000E+00
         0.00000E+00
         0.00000E+00
         0.00000E+00
         0.00000E+00
         0.00000E+00
         0.00000E+00
         0.00000E+00
         0.00000E+00
         0.00000E+00
         0.00000E+00
         0.00000E+00
         0.00000E+00
         0.00000E+00
         0.00000E+00
         0.00000E+00
         0.00000E+00
         0.00000E+00
         0.00000E+00
         0.00000E+00
         0.00000E+00
         0.00000E+00
         0.00000E+00
         0.00000E+00
         0.00000E+00
         0.00000E+00
         0.00000E+00
         0.00000E+00
         0.00000E+00
         0.00000E+00
         0.00000E+00
         0.00000E+00
         0.00000E+00
         0.00000E+00
         0.00000E+00
         0.00000E+00
         0.00000E+00
         0.00000E+00
         0.00000E+00
         0.00000E+00
         0.00000E+00
         0.00000E+00
         0.00000E+00
         0.00000E+00
         0.00000E+00
         0.00000E+00
         0.00000E+00
         0.00000E+00
         0.00000E+00
         0.00000E+00
         0.00000E+00
         0.00000E+00
         0.00000E+00
         0.00000E+00
         0.00000E+00
         0.00000E+00
         0.00000E+00
         0.00000E+00
         0.00000E+00
         0.00000E+00
         0.00000E+00
         0.00000E+00
         0.00000E+00
         0.00000E+00
         0.00000E+00
         0.00000E+00
         0.00000E+00
         0.00000E+00
         0.00000E+00
         0.00000E+00
         0.00000E+00
         0.00000E+00
         0.00000E+00
         0.00000E+00
         0.00000E+00
         0.00000E+00
         0.00000E+00
         0.00000E+00
         0.00000E+00
         0.00000E+00
         0.00000E+00
         0.00000E+00
         0.00000E+00
         0.00000E+00
         0.00000E+00
         0.00000E+00
         0.00000E+00
         0.00000E+00
         0.00000E+00
         0.00000E+00
         0.00000E+00
         0.00000E+00
         0.00000E+00
         0.00000E+00
         0.00000E+00
         0.00000E+00
         0.00000E+00
         0.00000E+00
         0.00000E+00
         0.00000E+00
         0.00000E+00
         0.00000E+00
         0.00000E+00
         0.00000E+00
         0.00000E+00
         0.00000E+00
         0.00000E+00
         0.00000E+00
         0.00000E+00
         0.00000E+00
         0.00000E+00
         0.00000E+00
         0.00000E+00
         0.00000E+00
         0.00000E+00
         0.00000E+00
         0.00000E+00
         0.00000E+00
         0.00000E+00
         0.00000E+00
         0.00000E+00
         0.00000E+00
         0.00000E+00
         0.00000E+00
         0.00000E+00
         0.00000E+00
         0.00000E+00
         0.00000E+00
         0.00000E+00
         0.00000E+00
         0.00000E+00
         0.00000E+00
         0.00000E+00
         0.00000E+00
         0.00000E+00
         0.00000E+00
         0.00000E+00
         0.00000E+00
         0.00000E+00
         0.00000E+00
         0.00000E+00
         0.00000E+00
         0.00000E+00
         0.00000E+00
         0.00000E+00
         0.00000E+00
         0.00000E+00
         0.00000E+00
         0.00000E+00
         0.00000E+00
         0.00000E+00
         0.00000E+00
         0.00000E+00
         0.00000E+00
         0.00000E+00
         0.00000E+00
         0.00000E+00
         0.00000E+00
         0.00000E+00
         0.00000E+00
         0.00000E+00
         0.00000E+00
         0.00000E+00
         0.00000E+00
         0.00000E+00
         0.00000E+00
         0.00000E+00
         0.00000E+00
         0.00000E+00
         0.00000E+00
         0.00000E+00
         0.00000E+00
         0.00000E+00
         0.00000E+00
         0.00000E+00
         0.00000E+00
         0.00000E+00
         0.00000E+00
         0.00000E+00
         0.00000E+00
         0.00000E+00
         0.00000E+00
         0.00000E+00
         0.00000E+00
         0.00000E+00
         0.00000E+00
         0.00000E+00
         0.00000E+00
         0.00000E+00
         0.00000E+00
         0.00000E+00
         0.00000E+00
         0.00000E+00
         0.00000E+00
         0.00000E+00
         0.00000E+00
         0.00000E+00
         0.00000E+00
         0.00000E+00
         0.00000E+00
         0.00000E+00
         0.00000E+00
         0.00000E+00
         0.00000E+00
         0.00000E+00
         0.00000E+00
         0.00000E+00
         0.00000E+00
         0.00000E+00
         0.00000E+00
         0.00000E+00
         0.00000E+00
         0.00000E+00
         0.00000E+00
         0.00000E+00
         0.00000E+00
         0.00000E+00
         0.00000E+00
         0.00000E+00
         0.00000E+00
         0.00000E+00
         0.00000E+00
         0.00000E+00
         0.00000E+00
         0.00000E+00
         0.00000E+00
         0.00000E+00
         0.00000E+00
         0.00000E+00
         0.00000E+00
         0.00000E+00
         0.00000E+00
         0.00000E+00
         0.00000E+00
         0.00000E+00
         0.00000E+00
         0.00000E+00
         0.00000E+00
         0.00000E+00
         0.00000E+00
         0.00000E+00
         0.00000E+00
         0.00000E+00
         0.00000E+00
         0.00000E+00
         0.00000E+00
         0.00000E+00
         0.00000E+00
         0.00000E+00
         0.00000E+00
         0.00000E+00
         0.00000E+00
         0.00000E+00
         0.00000E+00
         0.00000E+00
         0.00000E+00
         0.00000E+00
         0.00000E+00
         0.00000E+00
         0.00000E+00
         0.00000E+00
         0.00000E+00
         0.00000E+00
         0.00000E+00
         0.00000E+00
         0.00000E+00
         0.00000E+00
         0.00000E+00
         0.00000E+00
         0.00000E+00
         0.00000E+00
         0.00000E+00
         0.00000E+00
         0.00000E+00
         0.00000E+00
         0.00000E+00
         0.00000E+00
         0.00000E+00
         0.00000E+00
         0.00000E+00
         0.00000E+00
         0.00000E+00
         0.00000E+00
         0.00000E+00
         0.00000E+00
         0.00000E+00
         0.00000E+00
         0.00000E+00
         0.00000E+00
         0.00000E+00
         0.00000E+00
         0.00000E+00
         0.00000E+00
         0.00000E+00
         0.00000E+00
         0.00000E+00
         0.00000E+00
         0.00000E+00
         0.00000E+00
         0.00000E+00
         0.00000E+00
         0.00000E+00
         0.00000E+00
         0.00000E+00
         0.00000E+00
         0.00000E+00
         0.00000E+00
         0.00000E+00
         0.00000E+00
         0.00000E+00
         0.00000E+00
         0.00000E+00
         0.00000E+00
         0.00000E+00
         0.00000E+00
         0.00000E+00
         0.00000E+00
         0.00000E+00
         0.00000E+00
         0.00000E+00
         0.00000E+00
         0.00000E+00
         0.00000E+00
         0.00000E+00
         0.00000E+00
         0.00000E+00
         0.00000E+00
         0.00000E+00
         0.00000E+00
         0.00000E+00
         0.00000E+00
         0.00000E+00
         0.00000E+00
         0.00000E+00
         0.00000E+00
         0.00000E+00
         0.00000E+00
         0.00000E+00
         0.00000E+00
         0.00000E+00
         0.00000E+00
         0.00000E+00
         0.00000E+00
         0.00000E+00
         0.00000E+00
         0.00000E+00
         0.00000E+00
         0.00000E+00
         0.00000E+00
         0.00000E+00
         0.00000E+00
         0.00000E+00
         0.00000E+00
         0.00000E+00
         0.00000E+00
         0.00000E+00
         0.00000E+00
         0.00000E+00
         0.00000E+00
         0.00000E+00
         0.00000E+00
         0.00000E+00
         0.00000E+00
         0.00000E+00
         0.00000E+00
         0.00000E+00
         0.00000E+00
         0.00000E+00
         0.00000E+00
         0.00000E+00
         0.00000E+00
         0.00000E+00
         0.00000E+00
         0.00000E+00
         0.00000E+00
         0.00000E+00
         0.00000E+00
         0.00000E+00
         0.00000E+00
         0.00000E+00
         0.00000E+00
         0.00000E+00
         0.00000E+00
         0.00000E+00
         0.00000E+00
         0.00000E+00
         0.00000E+00
         0.00000E+00
         0.00000E+00
         0.00000E+00
         0.00000E+00
         0.00000E+00
         0.00000E+00
         0.00000E+00
         0.00000E+00
         0.00000E+00
         0.00000E+00
         0.00000E+00
         0.00000E+00
         0.00000E+00
         0.00000E+00
         0.00000E+00
         0.00000E+00
         0.00000E+00
         0.00000E+00
         0.00000E+00
         0.00000E+00
         0.00000E+00
         0.00000E+00
         0.00000E+00
         0.00000E+00
         0.00000E+00
         0.00000E+00
         0.00000E+00
         0.00000E+00
         0.00000E+00
         0.00000E+00
         0.00000E+00
         0.00000E+00
         0.00000E+00
         0.00000E+00
         0.00000E+00
         0.00000E+00
         0.00000E+00
         0.00000E+00
         0.00000E+00
         0.00000E+00
         0.00000E+00
         0.00000E+00
         0.00000E+00
         0.00000E+00
         0.00000E+00
         0.00000E+00
         0.00000E+00
         0.00000E+00
         0.00000E+00
         0.00000E+00
         0.00000E+00
         0.00000E+00
         0.00000E+00
         0.00000E+00
         0.00000E+00
         0.00000E+00
         0.00000E+00
         0.00000E+00
         0.00000E+00
         0.00000E+00
         0.00000E+00
         0.00000E+00
         0.00000E+00
         0.00000E+00
         0.00000E+00
         0.00000E+00
         0.00000E+00
         0.00000E+00
         0.00000E+00
         0.00000E+00
         0.00000E+00
         0.00000E+00
         0.00000E+00
         0.00000E+00
         0.00000E+00
         0.00000E+00
         0.00000E+00
         0.00000E+00
         0.00000E+00
         0.00000E+00
         0.00000E+00
         0.00000E+00
         0.00000E+00
         0.00000E+00
         0.00000E+00
         0.00000E+00
         0.00000E+00
         0.00000E+00
         0.00000E+00
         0.00000E+00
         0.00000E+00
         0.00000E+00
         0.00000E+00
         0.00000E+00
         0.00000E+00
         0.00000E+00
         0.00000E+00
         0.00000E+00
         0.00000E+00
         0.00000E+00
         0.00000E+00
         0.00000E+00
         0.00000E+00
         0.00000E+00
         0.00000E+00
         0.00000E+00
         0.00000E+00
         0.00000E+00
         0.00000E+00
         0.00000E+00
         0.00000E+00
         0.00000E+00
         0.00000E+00
         0.00000E+00
         0.00000E+00
         0.00000E+00
         0.00000E+00
         0.00000E+00
         0.00000E+00
         0.00000E+00
         0.00000E+00
         0.00000E+00
         0.00000E+00
         0.00000E+00
         0.00000E+00
         0.00000E+00
         0.00000E+00
         0.00000E+00
         0.00000E+00
         0.00000E+00
         0.00000E+00
         0.00000E+00
         0.00000E+00
         0.00000E+00
         0.00000E+00
         0.00000E+00
         0.00000E+00
         0.00000E+00
         0.00000E+00
         0.00000E+00
         0.00000E+00
         0.00000E+00
         0.00000E+00
         0.00000E+00
         0.00000E+00
         0.00000E+00
         0.00000E+00
         0.00000E+00
         0.00000E+00
         0.00000E+00
         0.00000E+00
         0.00000E+00
         0.00000E+00
         0.00000E+00
         0.00000E+00
         0.00000E+00
         0.00000E+00
         0.00000E+00
         0.00000E+00
         0.00000E+00
         0.00000E+00
         0.00000E+00
         0.00000E+00
         0.00000E+00
         0.00000E+00
         0.00000E+00
         0.00000E+00
         0.00000E+00
         0.00000E+00
         0.00000E+00
         0.00000E+00
         0.00000E+00
         0.00000E+00
         0.00000E+00
         0.00000E+00
         0.00000E+00
         0.00000E+00
         0.00000E+00
         0.00000E+00
         0.00000E+00
         0.00000E+00
         0.00000E+00
         0.00000E+00
         0.00000E+00
         0.00000E+00
         0.00000E+00
         0.00000E+00
         0.00000E+00
         0.00000E+00
         0.00000E+00
         0.00000E+00
         0.00000E+00
         0.00000E+00
         0.00000E+00
         0.00000E+00
         0.00000E+00
         0.00000E+00
         0.00000E+00
         0.00000E+00
         0.00000E+00
         0.00000E+00
         0.00000E+00
         0.00000E+00
         0.00000E+00
         0.00000E+00
         0.00000E+00
         0.00000E+00
         0.00000E+00
         0.00000E+00
         0.00000E+00
         0.00000E+00
         0.00000E+00
         0.00000E+00
         0.00000E+00
         0.00000E+00
         0.00000E+00
         0.00000E+00
         0.00000E+00
         0.00000E+00
         0.00000E+00
         0.00000E+00
         0.00000E+00
         0.00000E+00
         0.00000E+00
         0.00000E+00
         0.00000E+00
         0.00000E+00
         0.00000E+00
         0.00000E+00
         0.00000E+00
         0.00000E+00
         0.00000E+00
         0.00000E+00
         0.00000E+00
         0.00000E+00
         0.00000E+00
         0.00000E+00
         0.00000E+00
         0.00000E+00
         0.00000E+00
         0.00000E+00
         0.00000E+00
         0.00000E+00
         0.00000E+00
         0.00000E+00
         0.00000E+00
         0.00000E+00
         0.00000E+00
         0.00000E+00
         0.00000E+00
         0.00000E+00
         0.00000E+00
         0.00000E+00
         0.00000E+00
         0.00000E+00
         0.00000E+00
         0.00000E+00
         0.00000E+00
         0.00000E+00
         0.00000E+00
         0.00000E+00
         0.00000E+00
         0.00000E+00
         0.00000E+00
         0.00000E+00
         0.00000E+00
         0.00000E+00
         0.00000E+00
         0.00000E+00
         0.00000E+00
         0.00000E+00
         0.00000E+00
         0.00000E+00
         0.00000E+00
         0.00000E+00
         0.00000E+00
         0.00000E+00
         0.00000E+00
         0.00000E+00
         0.00000E+00
         0.00000E+00
         0.00000E+00
         0.00000E+00
         0.00000E+00
         0.00000E+00
         0.00000E+00
         0.00000E+00
         0.00000E+00
         0.00000E+00
         0.00000E+00
         0.00000E+00
         0.00000E+00
         0.00000E+00
         0.00000E+00
         0.00000E+00
         0.00000E+00
         0.00000E+00
         0.00000E+00
         0.00000E+00
         0.00000E+00
         0.00000E+00
         0.00000E+00
         0.00000E+00
         0.00000E+00
         0.00000E+00
         0.00000E+00
         0.00000E+00
         0.00000E+00
         0.00000E+00
         0.00000E+00
         0.00000E+00
         0.00000E+00
         0.00000E+00
         0.00000E+00
         0.00000E+00
         0.00000E+00
         0.00000E+00
         0.00000E+00
         0.00000E+00
         0.00000E+00
         0.00000E+00
         0.00000E+00
         0.00000E+00
         0.00000E+00
         0.00000E+00
         0.00000E+00
         0.00000E+00
         0.00000E+00
         0.00000E+00
         0.00000E+00
         0.00000E+00
         0.00000E+00
         0.00000E+00
         0.00000E+00
         0.00000E+00
         0.00000E+00
         0.00000E+00
         0.00000E+00
         0.00000E+00
         0.00000E+00
         0.00000E+00
         0.00000E+00
         0.00000E+00
         0.00000E+00
         0.00000E+00
         0.00000E+00
         0.00000E+00
         0.00000E+00
         0.00000E+00
         0.00000E+00
         0.00000E+00
         0.00000E+00
         0.00000E+00
         0.00000E+00
         0.00000E+00
         0.00000E+00
         0.00000E+00
         0.00000E+00
         0.00000E+00
         0.00000E+00
         0.00000E+00
         0.00000E+00
         0.00000E+00
         0.00000E+00
         0.00000E+00
         0.00000E+00
         0.00000E+00
         0.00000E+00
         0.00000E+00
         0.00000E+00
         0.00000E+00
         0.00000E+00
         0.00000E+00
         0.00000E+00
         0.00000E+00
         0.00000E+00
         0.00000E+00
         0.00000E+00
         0.00000E+00
         0.00000E+00
         0.00000E+00
         0.00000E+00
         0.00000E+00
         0.00000E+00
         0.00000E+00
         0.00000E+00
         0.00000E+00
         0.00000E+00
         0.00000E+00
         0.00000E+00
         0.00000E+00
         0.00000E+00
         0.00000E+00
         0.00000E+00
         0.00000E+00
         0.00000E+00
         0.00000E+00
         0.00000E+00
         0.00000E+00
         0.00000E+00
         0.00000E+00
         0.00000E+00
         0.00000E+00
         0.00000E+00
         0.00000E+00
         0.00000E+00
         0.00000E+00
         0.00000E+00
         0.00000E+00
         0.00000E+00
         0.00000E+00
         0.00000E+00
         0.00000E+00
         0.00000E+00
         0.00000E+00
         0.00000E+00
         0.00000E+00
         0.00000E+00
         0.00000E+00
         0.00000E+00
         0.00000E+00
         0.00000E+00
         0.00000E+00
         0.00000E+00
         0.00000E+00
         0.00000E+00
         0.00000E+00
         0.00000E+00
         0.00000E+00
         0.00000E+00
         0.00000E+00
         0.00000E+00
         0.00000E+00
         0.00000E+00
         0.00000E+00
         0.00000E+00
         0.00000E+00
         0.00000E+00
         0.00000E+00
         0.00000E+00
         0.00000E+00
         0.00000E+00
         0.00000E+00
         0.00000E+00
         0.00000E+00
         0.00000E+00
         0.00000E+00
         0.00000E+00
         0.00000E+00
         0.00000E+00
         0.00000E+00
         0.00000E+00
         0.00000E+00
         0.00000E+00
         0.00000E+00
         0.00000E+00
         0.00000E+00
         0.00000E+00
         0.00000E+00
         0.00000E+00
         0.00000E+00
         0.00000E+00
         0.00000E+00
         0.00000E+00
         0.00000E+00
         0.00000E+00
         0.00000E+00
         0.00000E+00
         0.00000E+00
         0.00000E+00
         0.00000E+00
         0.00000E+00
         0.00000E+00
         0.00000E+00
         0.00000E+00
         0.00000E+00
         0.00000E+00
         0.00000E+00
         0.00000E+00
         0.00000E+00
         0.00000E+00
         0.00000E+00
         0.00000E+00
         0.00000E+00
         0.00000E+00
         0.00000E+00
         0.00000E+00
         0.00000E+00
         0.00000E+00
         0.00000E+00
         0.00000E+00
         0.00000E+00
         0.00000E+00
         0.00000E+00
         0.00000E+00
         0.00000E+00
         0.00000E+00
         0.00000E+00
         0.00000E+00
         0.00000E+00
         0.00000E+00
         0.00000E+00
         0.00000E+00
         0.00000E+00
         0.00000E+00
         0.00000E+00
         0.00000E+00
         0.00000E+00
         0.00000E+00
         0.00000E+00
         0.00000E+00
         0.00000E+00
         0.00000E+00
         0.00000E+00
         0.00000E+00
         0.00000E+00
         0.00000E+00
         0.00000E+00
         0.00000E+00
         0.00000E+00
         0.00000E+00
         0.00000E+00
         0.00000E+00
         0.00000E+00
         0.00000E+00
         0.00000E+00
         0.00000E+00
         0.00000E+00
         0.00000E+00
         0.00000E+00
         0.00000E+00
         0.00000E+00
         0.00000E+00
         0.00000E+00
         0.00000E+00
         0.00000E+00
         0.00000E+00
         0.00000E+00
         0.00000E+00
         0.00000E+00
         0.00000E+00
         0.00000E+00
         0.00000E+00
         0.00000E+00
         0.00000E+00
         0.00000E+00
         0.00000E+00
         0.00000E+00
         0.00000E+00
         0.00000E+00
         0.00000E+00
         0.00000E+00
         0.00000E+00
         0.00000E+00
         0.00000E+00
         0.00000E+00
         0.00000E+00
         0.00000E+00
         0.00000E+00
         0.00000E+00
         0.00000E+00
         0.00000E+00
         0.00000E+00
         0.00000E+00
         0.00000E+00
         0.00000E+00
         0.00000E+00
         0.00000E+00
         0.00000E+00
         0.00000E+00
         0.00000E+00
         0.00000E+00
         0.00000E+00
         0.00000E+00
         0.00000E+00
         0.00000E+00
         0.00000E+00
         0.00000E+00
         0.00000E+00
         0.00000E+00
         0.00000E+00
         0.00000E+00
         0.00000E+00
         0.00000E+00
         0.00000E+00
         0.00000E+00
         0.00000E+00
         0.00000E+00
         0.00000E+00
         0.00000E+00
         0.00000E+00
         0.00000E+00
         0.00000E+00
         0.00000E+00
         0.00000E+00
         0.00000E+00
         0.00000E+00
         0.00000E+00
         0.00000E+00
         0.00000E+00
         0.00000E+00
         0.00000E+00
         0.00000E+00
         0.00000E+00
         0.00000E+00
         0.00000E+00
         0.00000E+00
         0.00000E+00
         0.00000E+00
         0.00000E+00
         0.00000E+00
         0.00000E+00
         0.00000E+00
         0.00000E+00
         0.00000E+00
         0.00000E+00
         0.00000E+00
         0.00000E+00
         0.00000E+00
         0.00000E+00
         0.00000E+00
         0.00000E+00
         0.00000E+00
         0.00000E+00
         0.00000E+00
         0.00000E+00
         0.00000E+00
         0.00000E+00
         0.00000E+00
         0.00000E+00
         0.00000E+00
         0.00000E+00
         0.00000E+00
         0.00000E+00
         0.00000E+00
         0.00000E+00
         0.00000E+00
         0.00000E+00
         0.00000E+00
         0.00000E+00
         0.00000E+00
         0.00000E+00
         0.00000E+00
         0.00000E+00
         0.00000E+00
         0.00000E+00
         0.00000E+00
         0.00000E+00
         0.00000E+00
         0.00000E+00
         0.00000E+00
         0.00000E+00
         0.00000E+00
         0.00000E+00
         0.00000E+00
         0.00000E+00
         0.00000E+00
         0.00000E+00
         0.00000E+00
         0.00000E+00
         0.00000E+00
         0.00000E+00
         0.00000E+00
         0.00000E+00
         0.00000E+00
         0.00000E+00
         0.00000E+00
         0.00000E+00
         0.00000E+00
         0.00000E+00
         0.00000E+00
         0.00000E+00
         0.00000E+00
         0.00000E+00
         0.00000E+00
         0.00000E+00
         0.00000E+00
         0.00000E+00
         0.00000E+00
         0.00000E+00
         0.00000E+00
         0.00000E+00
         0.00000E+00
         0.00000E+00
         0.00000E+00
         0.00000E+00
         0.00000E+00
         0.00000E+00
         0.00000E+00
         0.00000E+00
         0.00000E+00
         0.00000E+00
         0.00000E+00
         0.00000E+00
         0.00000E+00
         0.00000E+00
         0.00000E+00
         0.00000E+00
         0.00000E+00
         0.00000E+00
         0.00000E+00
         0.00000E+00
         0.00000E+00
         0.00000E+00
         0.00000E+00
         0.00000E+00
         0.00000E+00
         0.00000E+00
         0.00000E+00
         0.00000E+00
         0.00000E+00
         0.00000E+00
         0.00000E+00
         0.00000E+00
         0.00000E+00
         0.00000E+00
         0.00000E+00
         0.00000E+00
         0.00000E+00
         0.00000E+00
         0.00000E+00
         0.00000E+00
         0.00000E+00
         0.00000E+00
         0.00000E+00
         0.00000E+00
         0.00000E+00
         0.00000E+00
         0.00000E+00
         0.00000E+00
         0.00000E+00
         0.00000E+00
         0.00000E+00
         0.00000E+00
         0.00000E+00
         0.00000E+00
         0.00000E+00
         0.00000E+00
         0.00000E+00
         0.00000E+00
         0.00000E+00
         0.00000E+00
         0.00000E+00
         0.00000E+00
         0.00000E+00
         0.00000E+00
  
SCALARS                      stress_xx  double 1
LOOKUP_TABLE default
         0.31988E+12
         0.31502E+12
         0.31811E+12
         0.32364E+12
        -0.11020E+03
        -0.12357E+03
        -0.11832E+03
        -0.10749E+03
         0.31485E+12
         0.31650E+12
        -0.11112E+03
        -0.10753E+03
         0.30797E+12
         0.30771E+12
        -0.13203E+03
        -0.12414E+03
         0.32283E+12
         0.30809E+12
        -0.97557E+02
        -0.10821E+03
         0.30267E+12
         0.29846E+12
         0.30515E+12
        -0.13086E+03
        -0.11428E+03
        -0.11801E+03
         0.29862E+12
         0.29247E+12
        -0.12554E+03
        -0.10587E+03
         0.32256E+12
         0.31615E+12
         0.32877E+12
        -0.10713E+03
        -0.99593E+02
        -0.96830E+02
         0.31885E+12
         0.31068E+12
        -0.11334E+03
        -0.10342E+03
         0.31562E+12
         0.30931E+12
        -0.97956E+02
        -0.86719E+02
         0.32095E+12
         0.32332E+12
        -0.10735E+03
        -0.11994E+03
         0.30425E+12
        -0.10487E+03
         0.32286E+12
        -0.12323E+03
         0.29685E+12
        -0.11074E+03
         0.29492E+12
        -0.10623E+03
         0.29495E+12
         0.30181E+12
        -0.10823E+03
        -0.10541E+03
         0.32243E+12
         0.31997E+12
        -0.10853E+03
        -0.12269E+03
         0.32397E+12
        -0.10472E+03
         0.32104E+12
        -0.11429E+03
         0.31333E+12
         0.31256E+12
        -0.11002E+03
        -0.11528E+03
         0.31082E+12
        -0.11625E+03
         0.29029E+12
        -0.91843E+02
         0.28921E+12
        -0.89148E+02
         0.28975E+12
        -0.93998E+02
         0.29272E+12
         0.29581E+12
        -0.89558E+02
        -0.93370E+02
         0.30203E+12
        -0.86961E+02
         0.32083E+12
        -0.11404E+03
         0.31790E+12
        -0.11672E+03
         0.31549E+12
         0.31417E+12
        -0.11208E+03
        -0.11339E+03
         0.31580E+12
        -0.10299E+03
         0.31696E+12
        -0.10152E+03
         0.31591E+12
        -0.10868E+03
         0.31554E+12
         0.31660E+12
        -0.10658E+03
        -0.10971E+03
         0.30974E+12
         0.31252E+12
        -0.82749E+02
        -0.77830E+02
         0.30921E+12
        -0.79014E+02
         0.31242E+12
        -0.75761E+02
         0.30925E+12
        -0.74706E+02
         0.30223E+12
        -0.70598E+02
         0.29542E+12
        -0.62718E+02
         0.29134E+12
        -0.56474E+02
         0.29092E+12
        -0.56082E+02
         0.29105E+12
        -0.60818E+02
         0.29548E+12
        -0.63918E+02
         0.30374E+12
        -0.58364E+02
         0.31282E+12
        -0.52609E+02
         0.31813E+12
        -0.52549E+02
         0.32337E+12
        -0.58736E+02
         0.32684E+12
        -0.66973E+02
         0.32671E+12
        -0.71950E+02
         0.31829E+12
        -0.77705E+02
         0.31242E+12
        -0.83249E+02
         0.31041E+12
        -0.76262E+02
         0.31355E+12
        -0.66902E+02
         0.31520E+12
        -0.66696E+02
         0.31244E+12
        -0.72973E+02
         0.31248E+12
        -0.77795E+02
         0.31456E+12
        -0.73827E+02
         0.31727E+12
        -0.71373E+02
        -0.31059E+11
        -0.31252E+11
        -0.31227E+11
        -0.30971E+11
        -0.31421E+11
        -0.31206E+11
        -0.31469E+11
        -0.31337E+11
        -0.31014E+11
        -0.31221E+11
        -0.31599E+11
        -0.31636E+11
        -0.31535E+11
        -0.31527E+11
        -0.31594E+11
        -0.30984E+11
        -0.31034E+11
        -0.30892E+11
        -0.31272E+11
        -0.31208E+11
        -0.31299E+11
        -0.31239E+11
        -0.31348E+11
        -0.31321E+11
        -0.31213E+11
        -0.31221E+11
        -0.31400E+11
        -0.31385E+11
        -0.31507E+11
        -0.31318E+11
        -0.31009E+11
        -0.31255E+11
        -0.31011E+11
        -0.31175E+11
        -0.31662E+11
        -0.31522E+11
        -0.31450E+11
        -0.31534E+11
        -0.31545E+11
        -0.31671E+11
        -0.31755E+11
        -0.31539E+11
        -0.31295E+11
        -0.31331E+11
        -0.31458E+11
        -0.31657E+11
        -0.31489E+11
        -0.31284E+11
        -0.31299E+11
        -0.31458E+11
        -0.31605E+11
        -0.31403E+11
        -0.31932E+11
        -0.31802E+11
        -0.31825E+11
        -0.31793E+11
        -0.31801E+11
        -0.31874E+11
        -0.31942E+11
        -0.31962E+11
        -0.31953E+11
        -0.31960E+11
        -0.31986E+11
        -0.31808E+11
        -0.31731E+11
        -0.31699E+11
        -0.31643E+11
        -0.31598E+11
        -0.31601E+11
        -0.31675E+11
        -0.31891E+11
        -0.31844E+11
        -0.31771E+11
        -0.31772E+11
        -0.31785E+11
        -0.31854E+11
        -0.31751E+11
        -0.31709E+11
         0.76430E+06
         0.33573E+06
         0.41876E+06
         0.44359E+06
         0.16797E+06
         0.40841E+06
        -0.27333E+06
        -0.64494E+06
         0.94452E+06
        -0.70348E+06
        -0.71477E+06
        -0.35595E+05
        -0.14060E+06
        -0.24031E+07
        -0.77748E+06
        -0.25529E+06
         0.19760E+06
         0.52973E+06
        -0.17918E+05
        -0.45597E+05
        -0.10394E+07
        -0.60180E+06
        -0.13914E+07
        -0.40089E+06
        -0.73696E+06
        -0.10296E+06
        -0.30196E+07
        -0.16532E+07
        -0.95878E+06
        -0.74360E+06
        -0.14820E+06
        -0.24302E+06
         0.40832E+06
         0.81284E+06
        -0.89592E+06
        -0.57421E+06
        -0.33263E+06
        -0.99410E+06
        -0.60879E+06
        -0.40116E+06
        -0.71643E+06
        -0.11570E+07
        -0.10022E+07
        -0.11137E+07
        -0.82380E+06
        -0.34227E+06
        -0.18821E+06
        -0.23750E+06
         0.40797E+06
         0.68399E+06
         0.14544E+06
         0.20299E+06
        -0.23110E+07
        -0.68334E+06
        -0.13844E+07
         0.14019E+06
         0.14560E+07
         0.24020E+07
         0.19957E+07
         0.21582E+07
         0.17024E+07
         0.85484E+06
         0.23065E+05
        -0.60527E+06
        -0.10982E+07
        -0.44959E+06
        -0.15706E+07
        -0.22736E+07
        -0.18839E+07
        -0.16294E+07
        -0.82929E+06
         0.42282E+06
         0.40426E+06
         0.18195E+05
        -0.70210E+06
        -0.12095E+07
        -0.94346E+06
        -0.31708E+06
         0.71617E+06
         0.29105E+06
         0.37537E+06
         0.40740E+06
         0.11101E+06
         0.35883E+06
        -0.31836E+06
        -0.69923E+06
         0.89882E+06
        -0.76257E+06
        -0.76380E+06
        -0.11272E+06
        -0.20669E+06
        -0.24582E+07
        -0.85385E+06
        -0.30485E+06
         0.15010E+06
         0.49470E+06
        -0.66695E+05
        -0.94453E+05
        -0.11046E+07
        -0.66532E+06
        -0.14584E+07
        -0.44898E+06
        -0.79712E+06
        -0.14891E+06
        -0.30745E+07
        -0.17021E+07
        -0.10136E+07
        -0.80626E+06
        -0.19443E+06
        -0.28636E+06
         0.37336E+06
         0.77623E+06
        -0.96262E+06
        -0.62798E+06
        -0.38914E+06
        -0.10710E+07
        -0.67943E+06
        -0.47045E+06
        -0.79217E+06
        -0.12308E+07
        -0.10721E+07
        -0.11773E+07
        -0.88328E+06
        -0.40956E+06
        -0.24740E+06
        -0.29232E+06
         0.36013E+06
         0.63415E+06
         0.84406E+05
         0.14980E+06
        -0.24374E+07
        -0.80661E+06
        -0.15058E+07
         0.23863E+05
         0.13330E+07
         0.22649E+07
         0.18588E+07
         0.20197E+07
         0.15626E+07
         0.71184E+06
        -0.11927E+06
        -0.73682E+06
        -0.12078E+07
        -0.55195E+06
        -0.16780E+07
        -0.23883E+07
        -0.20012E+07
        -0.17520E+07
        -0.95233E+06
         0.29263E+06
         0.28157E+06
        -0.92602E+05
        -0.81300E+06
        -0.13232E+07
        -0.10584E+07
        -0.43416E+06
         0.72730E+06
         0.29981E+06
         0.38459E+06
         0.41663E+06
         0.12664E+06
         0.37284E+06
        -0.31037E+06
        -0.68600E+06
         0.90696E+06
        -0.75974E+06
        -0.75318E+06
        -0.98105E+05
        -0.19437E+06
        -0.24419E+07
        -0.83475E+06
        -0.31526E+06
         0.14638E+06
         0.50487E+06
        -0.78671E+05
        -0.10334E+06
        -0.11152E+07
        -0.66934E+06
        -0.15023E+07
        -0.48369E+06
        -0.82354E+06
        -0.18114E+06
        -0.30640E+07
        -0.17079E+07
        -0.10366E+07
        -0.85014E+06
        -0.19503E+06
        -0.29616E+06
         0.38519E+06
         0.78809E+06
        -0.94559E+06
        -0.61400E+06
        -0.37640E+06
        -0.10582E+07
        -0.66860E+06
        -0.46717E+06
        -0.79418E+06
        -0.12578E+07
        -0.11097E+07
        -0.12198E+07
        -0.89326E+06
        -0.40019E+06
        -0.23656E+06
        -0.28034E+06
         0.37326E+06
         0.64941E+06
         0.10198E+06
         0.16532E+06
        -0.23997E+07
        -0.77273E+06
        -0.14682E+07
         0.52689E+05
         0.13544E+07
         0.22862E+07
         0.18859E+07
         0.20469E+07
         0.15903E+07
         0.74053E+06
        -0.10243E+06
        -0.73742E+06
        -0.12060E+07
        -0.53306E+06
        -0.16656E+07
        -0.24116E+07
        -0.20263E+07
        -0.17455E+07
        -0.91843E+06
         0.33178E+06
         0.31664E+06
        -0.57215E+05
        -0.77313E+06
        -0.12898E+07
        -0.10313E+07
        -0.40802E+06
         0.72035E+06
         0.29600E+06
         0.38096E+06
         0.41060E+06
         0.12179E+06
         0.36909E+06
        -0.31517E+06
        -0.69241E+06
         0.89408E+06
        -0.78487E+06
        -0.75776E+06
        -0.10618E+06
        -0.19986E+06
        -0.24464E+07
        -0.84399E+06
        -0.35487E+06
         0.11779E+06
         0.49905E+06
        -0.12133E+06
        -0.14438E+06
        -0.11646E+07
        -0.71321E+06
        -0.16046E+07
        -0.56129E+06
        -0.89510E+06
        -0.25444E+06
        -0.30791E+07
        -0.17473E+07
        -0.11036E+07
        -0.95514E+06
        -0.21792E+06
        -0.33530E+06
         0.38143E+06
         0.78204E+06
        -0.95444E+06
        -0.61910E+06
        -0.38076E+06
        -0.10727E+07
        -0.68632E+06
        -0.49895E+06
        -0.83712E+06
        -0.13414E+07
        -0.12118E+07
        -0.13203E+07
        -0.94235E+06
        -0.42722E+06
        -0.25553E+06
        -0.29079E+06
         0.36516E+06
         0.63995E+06
         0.92953E+05
         0.15984E+06
        -0.24173E+07
        -0.78480E+06
        -0.14873E+07
         0.35906E+05
         0.13432E+07
         0.22731E+07
         0.18641E+07
         0.20232E+07
         0.15676E+07
         0.71288E+06
        -0.14628E+06
        -0.80817E+06
        -0.12725E+07
        -0.56454E+06
        -0.17011E+07
        -0.25092E+07
        -0.21297E+07
        -0.17939E+07
        -0.94139E+06
         0.30983E+06
         0.30001E+06
        -0.76901E+05
        -0.79356E+06
        -0.13037E+07
        -0.10419E+07
        -0.41865E+06
         0.70780E+06
         0.28829E+06
         0.37464E+06
         0.40439E+06
         0.11610E+06
         0.36367E+06
        -0.32211E+06
        -0.70356E+06
         0.87856E+06
        -0.81105E+06
        -0.76269E+06
        -0.11125E+06
        -0.20597E+06
        -0.24516E+07
        -0.84826E+06
        -0.38192E+06
         0.94817E+05
         0.49370E+06
        -0.14939E+06
        -0.17379E+06
        -0.11964E+07
        -0.74472E+06
        -0.16675E+07
        -0.60937E+06
        -0.94707E+06
        -0.30143E+06
        -0.30923E+07
        -0.17756E+07
        -0.11504E+07
        -0.10250E+07
        -0.24187E+06
        -0.36379E+06
         0.37222E+06
         0.77364E+06
        -0.96357E+06
        -0.62572E+06
        -0.38738E+06
        -0.10836E+07
        -0.70110E+06
        -0.52318E+06
        -0.86739E+06
        -0.13978E+07
        -0.12789E+07
        -0.13839E+07
        -0.97453E+06
        -0.44500E+06
        -0.27235E+06
        -0.30735E+06
         0.35103E+06
         0.62598E+06
         0.78745E+05
         0.15071E+06
        -0.24331E+07
        -0.79532E+06
        -0.15035E+07
         0.22849E+05
         0.13380E+07
         0.22693E+07
         0.18547E+07
         0.20075E+07
         0.15483E+07
         0.69580E+06
        -0.17296E+06
        -0.85711E+06
        -0.13178E+07
        -0.58887E+06
        -0.17262E+07
        -0.25725E+07
        -0.22022E+07
        -0.18286E+07
        -0.95178E+06
         0.28989E+06
         0.27795E+06
        -0.99493E+05
        -0.81991E+06
        -0.13264E+07
        -0.10560E+07
        -0.42925E+06
         0.67758E+06
         0.27352E+06
         0.36840E+06
         0.40901E+06
         0.12445E+06
         0.37360E+06
        -0.32726E+06
        -0.72365E+06
         0.85659E+06
        -0.84658E+06
        -0.75797E+06
        -0.94154E+05
        -0.19961E+06
        -0.24470E+07
        -0.82637E+06
        -0.37780E+06
         0.88358E+05
         0.50410E+06
        -0.14360E+06
        -0.16894E+06
        -0.11868E+07
        -0.73356E+06
        -0.16661E+07
        -0.61034E+06
        -0.96994E+06
        -0.30814E+06
        -0.30954E+07
        -0.17781E+07
        -0.11496E+07
        -0.10278E+07
        -0.27035E+06
        -0.37883E+06
         0.35553E+06
         0.77151E+06
        -0.95624E+06
        -0.62466E+06
        -0.38846E+06
        -0.10705E+07
        -0.69007E+06
        -0.51100E+06
        -0.85271E+06
        -0.13894E+07
        -0.12718E+07
        -0.13877E+07
        -0.97832E+06
        -0.44787E+06
        -0.28688E+06
        -0.34035E+06
         0.31638E+06
         0.60701E+06
         0.74204E+05
         0.15557E+06
        -0.24021E+07
        -0.76323E+06
        -0.14773E+07
         0.40319E+05
         0.13564E+07
         0.22943E+07
         0.18830E+07
         0.20345E+07
         0.15794E+07
         0.73699E+06
        -0.13698E+06
        -0.83538E+06
        -0.12938E+07
        -0.56392E+06
        -0.17021E+07
        -0.25532E+07
        -0.21881E+07
        -0.18146E+07
        -0.93500E+06
         0.30143E+06
         0.27551E+06
        -0.11520E+06
        -0.83013E+06
        -0.13211E+07
        -0.10404E+07
        -0.40704E+06
         0.63163E+06
         0.24740E+06
         0.35345E+06
         0.40513E+06
         0.11883E+06
         0.37359E+06
        -0.34612E+06
        -0.76358E+06
         0.81916E+06
        -0.89924E+06
        -0.76944E+06
        -0.10085E+06
        -0.21047E+06
        -0.24630E+07
        -0.83075E+06
        -0.38639E+06
         0.69283E+05
         0.50288E+06
        -0.14850E+06
        -0.17539E+06
        -0.11910E+07
        -0.73661E+06
        -0.16711E+07
        -0.61620E+06
        -0.10018E+07
        -0.32008E+06
        -0.31177E+07
        -0.17922E+07
        -0.11562E+07
        -0.10364E+07
        -0.30983E+06
        -0.40336E+06
         0.32907E+06
         0.76036E+06
        -0.96690E+06
        -0.63565E+06
        -0.40164E+06
        -0.10819E+07
        -0.70092E+06
        -0.51713E+06
        -0.85536E+06
        -0.13910E+07
        -0.12725E+07
        -0.13972E+07
        -0.99597E+06
        -0.47310E+06
        -0.32045E+06
        -0.38976E+06
         0.26697E+06
         0.57391E+06
         0.55121E+05
         0.14950E+06
        -0.24150E+07
        -0.77321E+06
        -0.14849E+07
         0.31508E+05
         0.13438E+07
         0.22790E+07
         0.18703E+07
         0.20236E+07
         0.15686E+07
         0.72889E+06
        -0.14346E+06
        -0.84325E+06
        -0.12952E+07
        -0.56585E+06
        -0.17075E+07
        -0.25563E+07
        -0.21942E+07
        -0.18366E+07
        -0.96752E+06
         0.26548E+06
         0.23522E+06
        -0.16499E+06
        -0.87374E+06
        -0.13442E+07
        -0.10529E+07
        -0.41689E+06
         0.61815E+06
         0.23766E+06
         0.34731E+06
         0.40000E+06
         0.11273E+06
         0.36836E+06
        -0.35627E+06
        -0.77685E+06
         0.80846E+06
        -0.91486E+06
        -0.77753E+06
        -0.11022E+06
        -0.22117E+06
        -0.24707E+07
        -0.83840E+06
        -0.39418E+06
         0.60760E+05
         0.49884E+06
        -0.15299E+06
        -0.18036E+06
        -0.11978E+07
        -0.74383E+06
        -0.16776E+07
        -0.62069E+06
        -0.10139E+07
        -0.32691E+06
        -0.31274E+07
        -0.17993E+07
        -0.11664E+07
        -0.10446E+07
        -0.32325E+06
        -0.41301E+06
         0.32191E+06
         0.75411E+06
        -0.97596E+06
        -0.64148E+06
        -0.40962E+06
        -0.10962E+07
        -0.71337E+06
        -0.52960E+06
        -0.86812E+06
        -0.14014E+07
        -0.12790E+07
        -0.14057E+07
        -0.10064E+07
        -0.48487E+06
        -0.33141E+06
        -0.40217E+06
         0.25481E+06
         0.56240E+06
         0.43380E+05
         0.14181E+06
        -0.24327E+07
        -0.79059E+06
        -0.14966E+07
         0.19331E+05
         0.13291E+07
         0.22660E+07
         0.18570E+07
         0.20051E+07
         0.15444E+07
         0.70337E+06
        -0.16659E+06
        -0.85369E+06
        -0.13035E+07
        -0.58354E+06
        -0.17262E+07
        -0.25741E+07
        -0.22171E+07
        -0.18587E+07
        -0.98601E+06
         0.25045E+06
         0.22301E+06
        -0.18156E+06
        -0.89558E+06
        -0.13646E+07
        -0.10702E+07
        -0.43403E+06
         0.62651E+06
         0.24413E+06
         0.35204E+06
         0.40124E+06
         0.12047E+06
         0.37067E+06
        -0.35130E+06
        -0.76574E+06
         0.81614E+06
        -0.90453E+06
        -0.77119E+06
        -0.10100E+06
        -0.21464E+06
        -0.24580E+07
        -0.82334E+06
        -0.38558E+06
         0.66192E+05
         0.50393E+06
        -0.14449E+06
        -0.17279E+06
        -0.11881E+07
        -0.73488E+06
        -0.16681E+07
        -0.61280E+06
        -0.10071E+07
        -0.31958E+06
        -0.31140E+07
        -0.17893E+07
        -0.11615E+07
        -0.10374E+07
        -0.31666E+06
        -0.40735E+06
         0.32847E+06
         0.75621E+06
        -0.96635E+06
        -0.63414E+06
        -0.40313E+06
        -0.10865E+07
        -0.70603E+06
        -0.52319E+06
        -0.85949E+06
        -0.13925E+07
        -0.12695E+07
        -0.13969E+07
        -0.99904E+06
        -0.47721E+06
        -0.32398E+06
        -0.39387E+06
         0.26300E+06
         0.56878E+06
         0.48582E+05
         0.14415E+06
        -0.24062E+07
        -0.76449E+06
        -0.14810E+07
         0.25708E+05
         0.13421E+07
         0.22862E+07
         0.18795E+07
         0.20211E+07
         0.15507E+07
         0.71291E+06
        -0.14949E+06
        -0.82942E+06
        -0.12823E+07
        -0.56981E+06
        -0.17133E+07
        -0.25592E+07
        -0.22019E+07
        -0.18399E+07
        -0.96810E+06
         0.27137E+06
         0.24465E+06
        -0.16228E+06
        -0.87931E+06
        -0.13502E+07
        -0.10558E+07
        -0.41858E+06
         0.62420E+06
         0.24349E+06
         0.35082E+06
         0.39773E+06
         0.11964E+06
         0.36811E+06
        -0.35359E+06
        -0.76868E+06
         0.81105E+06
        -0.91041E+06
        -0.77446E+06
        -0.10672E+06
        -0.21645E+06
        -0.24606E+07
        -0.83139E+06
        -0.39065E+06
         0.60188E+05
         0.49956E+06
        -0.14820E+06
        -0.17656E+06
        -0.11915E+07
        -0.73947E+06
        -0.16715E+07
        -0.61577E+06
        -0.10114E+07
        -0.32245E+06
        -0.31172E+07
        -0.17895E+07
        -0.11656E+07
        -0.10414E+07
        -0.32138E+06
        -0.41024E+06
         0.32547E+06
         0.75159E+06
        -0.96986E+06
        -0.63659E+06
        -0.40486E+06
        -0.10989E+07
        -0.71323E+06
        -0.52977E+06
        -0.86572E+06
        -0.13967E+07
        -0.12750E+07
        -0.13991E+07
        -0.10012E+07
        -0.48090E+06
        -0.32898E+06
        -0.39964E+06
         0.25827E+06
         0.56424E+06
         0.44064E+05
         0.13988E+06
        -0.24138E+07
        -0.77047E+06
        -0.14933E+07
         0.15157E+05
         0.13407E+07
         0.22787E+07
         0.18621E+07
         0.20017E+07
         0.15395E+07
         0.69595E+06
        -0.16803E+06
        -0.83864E+06
        -0.12932E+07
        -0.57577E+06
        -0.17190E+07
        -0.25645E+07
        -0.22026E+07
        -0.18436E+07
        -0.97334E+06
         0.25720E+06
         0.22721E+06
        -0.17574E+06
        -0.88600E+06
        -0.13535E+07
        -0.10636E+07
        -0.42955E+06
         0.61794E+06
         0.23848E+06
         0.34730E+06
         0.39561E+06
         0.11551E+06
         0.36667E+06
        -0.35844E+06
        -0.77344E+06
         0.80647E+06
        -0.91629E+06
        -0.77819E+06
        -0.11429E+06
        -0.22143E+06
        -0.24622E+07
        -0.83964E+06
        -0.39745E+06
         0.55149E+05
         0.49730E+06
        -0.15276E+06
        -0.17927E+06
        -0.11959E+07
        -0.74413E+06
        -0.16766E+07
        -0.62039E+06
        -0.10156E+07
        -0.32781E+06
        -0.31195E+07
        -0.17907E+07
        -0.11700E+07
        -0.10444E+07
        -0.32783E+06
        -0.41504E+06
         0.32462E+06
         0.75075E+06
        -0.97789E+06
        -0.64109E+06
        -0.40908E+06
        -0.11109E+07
        -0.72123E+06
        -0.53557E+06
        -0.86931E+06
        -0.14005E+07
        -0.12801E+07
        -0.14035E+07
        -0.10053E+07
        -0.48591E+06
        -0.33364E+06
        -0.40467E+06
         0.25377E+06
         0.56027E+06
         0.39780E+05
         0.13819E+06
        -0.24291E+07
        -0.78317E+06
        -0.15026E+07
         0.11955E+05
         0.13366E+07
         0.22637E+07
         0.18404E+07
         0.19842E+07
         0.15278E+07
         0.68376E+06
        -0.17561E+06
        -0.84774E+06
        -0.13063E+07
        -0.58465E+06
        -0.17285E+07
        -0.25754E+07
        -0.22097E+07
        -0.18521E+07
        -0.98374E+06
         0.24552E+06
         0.21399E+06
        -0.18951E+06
        -0.89575E+06
        -0.13628E+07
        -0.10754E+07
        -0.44204E+06
         0.62183E+06
         0.24046E+06
         0.34905E+06
         0.39807E+06
         0.12093E+06
         0.37156E+06
        -0.35568E+06
        -0.76547E+06
         0.81025E+06
        -0.91178E+06
        -0.77225E+06
        -0.10801E+06
        -0.21958E+06
        -0.24503E+07
        -0.82566E+06
        -0.39291E+06
         0.56477E+05
         0.50236E+06
        -0.14763E+06
        -0.17313E+06
        -0.11881E+07
        -0.73612E+06
        -0.16702E+07
        -0.61556E+06
        -0.10130E+07
        -0.32319E+06
        -0.31110E+07
        -0.17841E+07
        -0.11643E+07
        -0.10364E+07
        -0.32279E+06
        -0.41115E+06
         0.33212E+06
         0.75594E+06
        -0.97207E+06
        -0.63628E+06
        -0.40627E+06
        -0.11032E+07
        -0.71392E+06
        -0.52593E+06
        -0.85969E+06
        -0.13937E+07
        -0.12724E+07
        -0.13980E+07
        -0.10007E+07
        -0.48163E+06
        -0.32905E+06
        -0.39971E+06
         0.25919E+06
         0.56569E+06
         0.45232E+05
         0.14403E+06
        -0.24097E+07
        -0.76212E+06
        -0.14827E+07
         0.21623E+05
         0.13335E+07
         0.22647E+07
         0.18559E+07
         0.20013E+07
         0.15396E+07
         0.70147E+06
        -0.15881E+06
        -0.83974E+06
        -0.12922E+07
        -0.57027E+06
        -0.17155E+07
        -0.25654E+07
        -0.22028E+07
        -0.18435E+07
        -0.97558E+06
         0.25811E+06
         0.22894E+06
        -0.17517E+06
        -0.88318E+06
        -0.13522E+07
        -0.10598E+07
        -0.42390E+06
         0.61886E+06
         0.23643E+06
         0.34565E+06
         0.39416E+06
         0.11672E+06
         0.36769E+06
        -0.36152E+06
        -0.76970E+06
         0.80666E+06
        -0.91906E+06
        -0.77780E+06
        -0.11739E+06
        -0.22943E+06
        -0.24544E+07
        -0.83143E+06
        -0.39853E+06
         0.50385E+05
         0.49766E+06
        -0.15323E+06
        -0.17764E+06
        -0.11963E+07
        -0.74459E+06
        -0.16790E+07
        -0.62090E+06
        -0.10205E+07
        -0.32790E+06
        -0.31193E+07
        -0.17909E+07
        -0.11724E+07
        -0.10416E+07
        -0.32885E+06
        -0.41567E+06
         0.32805E+06
         0.75177E+06
        -0.97975E+06
        -0.64160E+06
        -0.41332E+06
        -0.11163E+07
        -0.72647E+06
        -0.53678E+06
        -0.87161E+06
        -0.14051E+07
        -0.12810E+07
        -0.14073E+07
        -0.10086E+07
        -0.48895E+06
        -0.33578E+06
        -0.40748E+06
         0.25335E+06
         0.56122E+06
         0.39474E+05
         0.13912E+06
        -0.24248E+07
        -0.77513E+06
        -0.14975E+07
         0.43863E+04
         0.13135E+07
         0.22455E+07
         0.18441E+07
         0.19861E+07
         0.15198E+07
         0.68186E+06
        -0.18274E+06
        -0.86336E+06
        -0.13078E+07
        -0.58648E+06
        -0.17295E+07
        -0.25815E+07
        -0.22275E+07
        -0.18657E+07
        -0.98662E+06
         0.24268E+06
         0.21316E+06
        -0.18327E+06
        -0.88857E+06
        -0.13638E+07
        -0.10757E+07
        -0.43979E+06
         0.61824E+06
         0.23505E+06
         0.34462E+06
         0.39277E+06
         0.11669E+06
         0.36698E+06
        -0.36351E+06
        -0.76925E+06
         0.80737E+06
        -0.91903E+06
        -0.77843E+06
        -0.11876E+06
        -0.23118E+06
        -0.24513E+07
        -0.83070E+06
        -0.40013E+06
         0.49194E+05
         0.49713E+06
        -0.15375E+06
        -0.17759E+06
        -0.11978E+07
        -0.74584E+06
        -0.16809E+07
        -0.62193E+06
        -0.10222E+07
        -0.32932E+06
        -0.31177E+07
        -0.17913E+07
        -0.11760E+07
        -0.10429E+07
        -0.33244E+06
        -0.41741E+06
         0.32758E+06
         0.75090E+06
        -0.98179E+06
        -0.64308E+06
        -0.41532E+06
        -0.11227E+07
        -0.73385E+06
        -0.54147E+06
        -0.87298E+06
        -0.14065E+07
        -0.12822E+07
        -0.14087E+07
        -0.10097E+07
        -0.49062E+06
        -0.33783E+06
        -0.41064E+06
         0.25113E+06
         0.56026E+06
         0.38519E+05
         0.13823E+06
        -0.24251E+07
        -0.77476E+06
        -0.15015E+07
        -0.22588E+04
         0.13132E+07
         0.22451E+07
         0.18394E+07
         0.19734E+07
         0.15056E+07
         0.67401E+06
        -0.18351E+06
        -0.86566E+06
        -0.13118E+07
        -0.59277E+06
        -0.17369E+07
        -0.25867E+07
        -0.22308E+07
        -0.18686E+07
        -0.98969E+06
         0.23711E+06
         0.20624E+06
        -0.18771E+06
        -0.88886E+06
        -0.13652E+07
        -0.10828E+07
        -0.44628E+06
         0.63077E+06
         0.24743E+06
         0.35490E+06
         0.39966E+06
         0.13150E+06
         0.37754E+06
        -0.35159E+06
        -0.75339E+06
         0.81647E+06
        -0.90717E+06
        -0.76467E+06
        -0.98694E+05
        -0.21408E+06
        -0.24327E+07
        -0.81000E+06
        -0.38956E+06
         0.57110E+05
         0.50607E+06
        -0.14254E+06
        -0.16543E+06
        -0.11808E+07
        -0.73006E+06
        -0.16651E+07
        -0.61142E+06
        -0.10102E+07
        -0.31894E+06
        -0.31007E+07
        -0.17749E+07
        -0.11630E+07
        -0.10279E+07
        -0.32147E+06
        -0.40663E+06
         0.33806E+06
         0.75782E+06
        -0.96566E+06
        -0.62973E+06
        -0.40127E+06
        -0.11104E+07
        -0.71888E+06
        -0.52541E+06
        -0.85684E+06
        -0.13907E+07
        -0.12679E+07
        -0.13923E+07
        -0.99346E+06
        -0.47389E+06
        -0.32350E+06
        -0.39777E+06
         0.26197E+06
         0.57007E+06
         0.49723E+05
         0.14810E+06
        -0.23899E+07
        -0.73965E+06
        -0.14718E+07
         0.19116E+05
         0.13394E+07
         0.22782E+07
         0.18671E+07
         0.19943E+07
         0.15293E+07
         0.69993E+06
        -0.16016E+06
        -0.83829E+06
        -0.12901E+07
        -0.56871E+06
        -0.17095E+07
        -0.25581E+07
        -0.21985E+07
        -0.18338E+07
        -0.95980E+06
         0.26824E+06
         0.23284E+06
        -0.16795E+06
        -0.86691E+06
        -0.13392E+07
        -0.10547E+07
        -0.41793E+06
         0.62537E+06
         0.24379E+06
         0.35174E+06
         0.39490E+06
         0.12608E+06
         0.37353E+06
        -0.35693E+06
        -0.75914E+06
         0.81113E+06
        -0.91633E+06
        -0.77016E+06
        -0.10592E+06
        -0.21855E+06
        -0.24372E+07
        -0.81844E+06
        -0.39661E+06
         0.49784E+05
         0.50233E+06
        -0.14995E+06
        -0.17109E+06
        -0.11862E+07
        -0.73778E+06
        -0.16705E+07
        -0.61785E+06
        -0.10189E+07
        -0.32556E+06
        -0.31081E+07
        -0.17793E+07
        -0.11663E+07
        -0.10316E+07
        -0.32610E+06
        -0.41178E+06
         0.33584E+06
         0.75275E+06
        -0.97546E+06
        -0.63451E+06
        -0.40461E+06
        -0.11251E+07
        -0.72921E+06
        -0.53047E+06
        -0.86436E+06
        -0.13996E+07
        -0.12778E+07
        -0.13992E+07
        -0.10003E+07
        -0.48077E+06
        -0.32907E+06
        -0.40220E+06
         0.25709E+06
         0.56337E+06
         0.42790E+05
         0.14306E+06
        -0.24122E+07
        -0.75845E+06
        -0.14890E+07
         0.10010E+05
         0.13363E+07
         0.22696E+07
         0.18482E+07
         0.19716E+07
         0.15075E+07
         0.68040E+06
        -0.18322E+06
        -0.86468E+06
        -0.13088E+07
        -0.57795E+06
        -0.17139E+07
        -0.25610E+07
        -0.22074E+07
        -0.18495E+07
        -0.97137E+06
         0.25436E+06
         0.22021E+06
        -0.18220E+06
        -0.88205E+06
        -0.13488E+07
        -0.10637E+07
        -0.43296E+06
         0.61642E+06
         0.23463E+06
         0.34304E+06
         0.38862E+06
         0.11705E+06
         0.36547E+06
        -0.36504E+06
        -0.76614E+06
         0.80326E+06
        -0.93279E+06
        -0.77692E+06
        -0.11757E+06
        -0.22818E+06
        -0.24419E+07
        -0.82923E+06
        -0.40511E+06
         0.39358E+05
         0.49791E+06
        -0.15602E+06
        -0.17355E+06
        -0.11930E+07
        -0.74682E+06
        -0.16771E+07
        -0.62338E+06
        -0.10336E+07
        -0.33207E+06
        -0.31250E+07
        -0.17871E+07
        -0.11507E+07
        -0.10210E+07
        -0.33387E+06
        -0.41907E+06
         0.33365E+06
         0.74923E+06
        -0.98644E+06
        -0.64262E+06
        -0.41291E+06
        -0.11467E+07
        -0.73939E+06
        -0.51568E+06
        -0.86506E+06
        -0.14092E+07
        -0.12910E+07
        -0.14066E+07
        -0.10090E+07
        -0.49186E+06
        -0.33890E+06
        -0.40999E+06
         0.25143E+06
         0.55798E+06
         0.36676E+05
         0.13678E+06
        -0.24270E+07
        -0.77210E+06
        -0.15006E+07
        -0.23887E+03
         0.13221E+07
         0.22463E+07
         0.18215E+07
         0.19461E+07
         0.14854E+07
         0.67531E+06
        -0.22347E+06
        -0.92796E+06
        -0.13350E+07
        -0.59248E+06
        -0.17270E+07
        -0.25727E+07
        -0.22217E+07
        -0.18660E+07
        -0.99045E+06
         0.23267E+06
         0.20571E+06
        -0.19581E+06
        -0.89749E+06
        -0.13603E+07
        -0.10815E+07
        -0.45297E+06
         0.62835E+06
         0.24600E+06
         0.35420E+06
         0.39706E+06
         0.13274E+06
         0.37683E+06
        -0.35474E+06
        -0.75051E+06
         0.80970E+06
        -0.93527E+06
        -0.76456E+06
        -0.10260E+06
        -0.21556E+06
        -0.24242E+07
        -0.81069E+06
        -0.39440E+06
         0.44345E+05
         0.50633E+06
        -0.14309E+06
        -0.15391E+06
        -0.11787E+07
        -0.73303E+06
        -0.16643E+07
        -0.61204E+06
        -0.10314E+07
        -0.32076E+06
        -0.31278E+07
        -0.17766E+07
        -0.10982E+07
        -0.97398E+06
        -0.32462E+06
        -0.40811E+06
         0.34392E+06
         0.75842E+06
        -0.96914E+06
        -0.62777E+06
        -0.39962E+06
        -0.11458E+07
        -0.72214E+06
        -0.45850E+06
        -0.83395E+06
        -0.13931E+07
        -0.12826E+07
        -0.13925E+07
        -0.99308E+06
        -0.47326E+06
        -0.32398E+06
        -0.39823E+06
         0.26330E+06
         0.57134E+06
         0.51539E+05
         0.14840E+06
        -0.23908E+07
        -0.73643E+06
        -0.14641E+07
         0.25224E+05
         0.13384E+07
         0.22651E+07
         0.18475E+07
         0.19723E+07
         0.15144E+07
         0.73170E+06
        -0.23651E+06
        -0.97889E+06
        -0.13331E+07
        -0.57253E+06
        -0.17104E+07
        -0.25587E+07
        -0.22042E+07
        -0.18369E+07
        -0.95475E+06
         0.26598E+06
         0.23456E+06
        -0.16614E+06
        -0.86388E+06
        -0.13293E+07
        -0.10564E+07
        -0.42672E+06
         0.58333E+06
         0.20390E+06
         0.31403E+06
         0.36155E+06
         0.79403E+05
         0.32976E+06
        -0.39753E+06
        -0.80216E+06
         0.76522E+06
        -0.99983E+06
        -0.81130E+06
        -0.17430E+06
        -0.28155E+06
        -0.24778E+07
        -0.88350E+06
        -0.43778E+06
         0.31827E+03
         0.47141E+06
        -0.18645E+06
        -0.19287E+06
        -0.12401E+07
        -0.79313E+06
        -0.17237E+07
        -0.65226E+06
        -0.10889E+07
        -0.35896E+06
        -0.31942E+07
        -0.18237E+07
        -0.11218E+07
        -0.10063E+07
        -0.36635E+06
        -0.44757E+06
         0.30869E+06
         0.71923E+06
        -0.10341E+07
        -0.68080E+06
        -0.45749E+06
        -0.12296E+07
        -0.78719E+06
        -0.49673E+06
        -0.89497E+06
        -0.14589E+07
        -0.13484E+07
        -0.14492E+07
        -0.10516E+07
        -0.54265E+06
        -0.38118E+06
        -0.44900E+06
         0.21604E+06
         0.51815E+06
        -0.14105E+05
         0.94031E+05
        -0.25169E+07
        -0.85880E+06
        -0.15914E+07
        -0.10450E+06
         0.12092E+07
         0.21404E+07
         0.17207E+07
         0.18364E+07
         0.13870E+07
         0.61562E+06
        -0.39824E+06
        -0.11549E+07
        -0.14575E+07
        -0.67568E+06
        -0.18187E+07
        -0.26714E+07
        -0.23205E+07
        -0.19671E+07
        -0.10885E+07
         0.13769E+06
         0.11577E+06
        -0.27985E+06
        -0.98022E+06
        -0.14489E+07
        -0.11714E+07
        -0.54097E+06
         0.60892E+06
         0.20674E+06
         0.32154E+06
         0.37465E+06
         0.98007E+05
         0.34582E+06
        -0.39278E+06
        -0.76941E+06
         0.79497E+06
        -0.95285E+06
        -0.79827E+06
        -0.17305E+06
        -0.29855E+06
        -0.24392E+07
        -0.85018E+06
        -0.40515E+06
         0.26666E+05
         0.49120E+06
        -0.16301E+06
        -0.16900E+06
        -0.12119E+07
        -0.77241E+06
        -0.16811E+07
        -0.62221E+06
        -0.10404E+07
        -0.33102E+06
        -0.31375E+07
        -0.17682E+07
        -0.10783E+07
        -0.95877E+06
        -0.34188E+06
        -0.43005E+06
         0.32107E+06
         0.71349E+06
        -0.10246E+07
        -0.68455E+06
        -0.47379E+06
        -0.11913E+07
        -0.74165E+06
        -0.45724E+06
        -0.86744E+06
        -0.14221E+07
        -0.13091E+07
        -0.14102E+07
        -0.10298E+07
        -0.53192E+06
        -0.37238E+06
        -0.42758E+06
         0.23202E+06
         0.51903E+06
        -0.97263E+04
         0.95478E+05
        -0.24684E+07
        -0.79560E+06
        -0.15753E+07
        -0.13249E+06
         0.11511E+07
         0.21050E+07
         0.17787E+07
         0.18958E+07
         0.14345E+07
         0.64380E+06
        -0.39034E+06
        -0.11307E+07
        -0.14105E+07
        -0.65239E+06
        -0.17696E+07
        -0.26011E+07
        -0.22605E+07
        -0.19212E+07
        -0.10685E+07
         0.13537E+06
         0.14227E+06
        -0.24205E+06
        -0.92007E+06
        -0.13760E+07
        -0.11140E+07
        -0.48161E+06
         0.17713E+09
         0.16908E+09
         0.16620E+09
         0.13864E+09
         0.21244E+09
         0.18756E+09
         0.16250E+09
         0.20098E+09
         0.16140E+09
         0.20075E+09
         0.19474E+09
         0.27431E+09
         0.24052E+09
         0.21601E+09
         0.28294E+09
         0.16097E+09
         0.15217E+09
         0.12824E+09
         0.16782E+09
         0.15927E+09
         0.22074E+09
         0.22156E+09
         0.20945E+09
         0.14841E+09
         0.18847E+09
         0.13937E+09
         0.21282E+09
         0.17452E+09
         0.17687E+09
         0.19658E+09
         0.15797E+09
         0.14407E+09
         0.13855E+09
         0.14258E+09
         0.24290E+09
         0.20363E+09
         0.21171E+09
         0.26436E+09
         0.24923E+09
         0.24336E+09
         0.25820E+09
         0.24129E+09
         0.22869E+09
         0.20016E+09
         0.20644E+09
         0.24664E+09
         0.21274E+09
         0.19310E+09
         0.18212E+09
         0.19519E+09
         0.23105E+09
         0.19994E+09
         0.45961E+09
         0.45042E+09
         0.45907E+09
         0.44472E+09
         0.45937E+09
         0.48244E+09
         0.48434E+09
         0.47852E+09
         0.48210E+09
         0.49556E+09
         0.47988E+09
         0.45196E+09
         0.40000E+09
         0.37737E+09
         0.38330E+09
         0.39256E+09
         0.39806E+09
         0.43432E+09
         0.46550E+09
         0.46792E+09
         0.42869E+09
         0.41323E+09
         0.42806E+09
         0.42297E+09
         0.41988E+09
         0.42072E+09
         0.21033E+10
         0.22019E+10
         0.21699E+10
         0.19780E+10
         0.24405E+10
         0.22905E+10
         0.23825E+10
         0.24034E+10
         0.20547E+10
         0.24020E+10
         0.26178E+10
         0.29387E+10
         0.26626E+10
         0.26946E+10
         0.30417E+10
         0.20135E+10
         0.21640E+10
         0.18858E+10
         0.22357E+10
         0.23525E+10
         0.24384E+10
         0.24914E+10
         0.23399E+10
         0.21492E+10
         0.24290E+10
         0.20729E+10
         0.26848E+10
         0.26383E+10
         0.26504E+10
         0.25153E+10
         0.20349E+10
         0.21397E+10
         0.19938E+10
         0.20859E+10
         0.26737E+10
         0.24510E+10
         0.24600E+10
         0.29444E+10
         0.28678E+10
         0.28331E+10
         0.28845E+10
         0.27387E+10
         0.25899E+10
         0.22834E+10
         0.23774E+10
         0.26731E+10
         0.24700E+10
         0.23215E+10
         0.22747E+10
         0.23593E+10
         0.25639E+10
         0.23665E+10
         0.42447E+10
         0.41364E+10
         0.42228E+10
         0.40913E+10
         0.42130E+10
         0.44286E+10
         0.44994E+10
         0.44892E+10
         0.45205E+10
         0.46236E+10
         0.44901E+10
         0.42225E+10
         0.37861E+10
         0.35788E+10
         0.35891E+10
         0.36352E+10
         0.36707E+10
         0.39798E+10
         0.42632E+10
         0.42807E+10
         0.39628E+10
         0.38405E+10
         0.39672E+10
         0.39386E+10
         0.38940E+10
         0.38830E+10
  
SCALARS                      stress_yy  double 1
LOOKUP_TABLE default
         0.31988E+12
         0.31502E+12
         0.31811E+12
         0.32364E+12
        -0.11020E+03
        -0.12357E+03
        -0.11832E+03
        -0.10749E+03
         0.31485E+12
         0.31650E+12
        -0.11112E+03
        -0.10753E+03
         0.30797E+12
         0.30771E+12
        -0.13203E+03
        -0.12414E+03
         0.32283E+12
         0.30809E+12
        -0.97557E+02
        -0.10821E+03
         0.30267E+12
         0.29846E+12
         0.30515E+12
        -0.13086E+03
        -0.11428E+03
        -0.11801E+03
         0.29862E+12
         0.29247E+12
        -0.12554E+03
        -0.10587E+03
         0.32256E+12
         0.31615E+12
         0.32877E+12
        -0.10713E+03
        -0.99593E+02
        -0.96830E+02
         0.31885E+12
         0.31068E+12
        -0.11334E+03
        -0.10342E+03
         0.31562E+12
         0.30931E+12
        -0.97956E+02
        -0.86719E+02
         0.32095E+12
         0.32332E+12
        -0.10735E+03
        -0.11994E+03
         0.30425E+12
        -0.10487E+03
         0.32286E+12
        -0.12323E+03
         0.29685E+12
        -0.11074E+03
         0.29492E+12
        -0.10623E+03
         0.29495E+12
         0.30181E+12
        -0.10823E+03
        -0.10541E+03
         0.32243E+12
         0.31997E+12
        -0.10853E+03
        -0.12269E+03
         0.32397E+12
        -0.10472E+03
         0.32104E+12
        -0.11429E+03
         0.31333E+12
         0.31256E+12
        -0.11002E+03
        -0.11528E+03
         0.31082E+12
        -0.11625E+03
         0.29029E+12
        -0.91843E+02
         0.28921E+12
        -0.89148E+02
         0.28975E+12
        -0.93998E+02
         0.29272E+12
         0.29581E+12
        -0.89558E+02
        -0.93370E+02
         0.30203E+12
        -0.86961E+02
         0.32083E+12
        -0.11404E+03
         0.31790E+12
        -0.11672E+03
         0.31549E+12
         0.31417E+12
        -0.11208E+03
        -0.11339E+03
         0.31580E+12
        -0.10299E+03
         0.31696E+12
        -0.10152E+03
         0.31591E+12
        -0.10868E+03
         0.31554E+12
         0.31660E+12
        -0.10658E+03
        -0.10971E+03
         0.30974E+12
         0.31252E+12
        -0.82749E+02
        -0.77830E+02
         0.30921E+12
        -0.79014E+02
         0.31242E+12
        -0.75761E+02
         0.30925E+12
        -0.74706E+02
         0.30223E+12
        -0.70598E+02
         0.29542E+12
        -0.62718E+02
         0.29134E+12
        -0.56474E+02
         0.29092E+12
        -0.56082E+02
         0.29105E+12
        -0.60818E+02
         0.29548E+12
        -0.63918E+02
         0.30374E+12
        -0.58364E+02
         0.31282E+12
        -0.52609E+02
         0.31813E+12
        -0.52549E+02
         0.32337E+12
        -0.58736E+02
         0.32684E+12
        -0.66973E+02
         0.32671E+12
        -0.71950E+02
         0.31829E+12
        -0.77705E+02
         0.31242E+12
        -0.83249E+02
         0.31041E+12
        -0.76262E+02
         0.31355E+12
        -0.66902E+02
         0.31520E+12
        -0.66696E+02
         0.31244E+12
        -0.72973E+02
         0.31248E+12
        -0.77795E+02
         0.31456E+12
        -0.73827E+02
         0.31727E+12
        -0.71373E+02
        -0.31059E+11
        -0.31252E+11
        -0.31227E+11
        -0.30971E+11
        -0.31421E+11
        -0.31206E+11
        -0.31469E+11
        -0.31337E+11
        -0.31014E+11
        -0.31221E+11
        -0.31599E+11
        -0.31636E+11
        -0.31535E+11
        -0.31527E+11
        -0.31594E+11
        -0.30984E+11
        -0.31034E+11
        -0.30892E+11
        -0.31272E+11
        -0.31208E+11
        -0.31299E+11
        -0.31239E+11
        -0.31348E+11
        -0.31321E+11
        -0.31213E+11
        -0.31221E+11
        -0.31400E+11
        -0.31385E+11
        -0.31507E+11
        -0.31318E+11
        -0.31009E+11
        -0.31255E+11
        -0.31011E+11
        -0.31175E+11
        -0.31662E+11
        -0.31522E+11
        -0.31450E+11
        -0.31534E+11
        -0.31545E+11
        -0.31671E+11
        -0.31755E+11
        -0.31539E+11
        -0.31295E+11
        -0.31331E+11
        -0.31458E+11
        -0.31657E+11
        -0.31489E+11
        -0.31284E+11
        -0.31299E+11
        -0.31458E+11
        -0.31605E+11
        -0.31403E+11
        -0.31931E+11
        -0.31802E+11
        -0.31825E+11
        -0.31793E+11
        -0.31801E+11
        -0.31874E+11
        -0.31942E+11
        -0.31962E+11
        -0.31953E+11
        -0.31960E+11
        -0.31986E+11
        -0.31808E+11
        -0.31731E+11
        -0.31699E+11
        -0.31643E+11
        -0.31598E+11
        -0.31601E+11
        -0.31675E+11
        -0.31891E+11
        -0.31844E+11
        -0.31771E+11
        -0.31772E+11
        -0.31785E+11
        -0.31854E+11
        -0.31751E+11
        -0.31709E+11
         0.98665E+05
        -0.25696E+06
        -0.10321E+06
         0.71339E+06
         0.20600E+06
         0.82103E+06
        -0.34413E+06
        -0.11909E+07
         0.43971E+06
        -0.12282E+07
        -0.11550E+07
        -0.10470E+07
        -0.32782E+06
        -0.17660E+07
        -0.15594E+07
         0.10190E+06
         0.45618E+06
         0.60736E+06
        -0.43985E+06
         0.78740E+05
        -0.18659E+06
         0.29159E+06
        -0.45637E+06
        -0.18534E+06
        -0.12188E+07
        -0.11024E+06
        -0.23439E+07
        -0.16433E+07
        -0.85826E+06
        -0.10783E+07
        -0.95142E+04
        -0.39001E+05
         0.49274E+06
         0.87441E+06
         0.41375E+05
        -0.59612E+05
        -0.52186E+05
        -0.15054E+07
        -0.15191E+07
        -0.11011E+07
        -0.18036E+06
        -0.20110E+06
        -0.15581E+06
        -0.55445E+06
        -0.64933E+06
        -0.11034E+07
        -0.51861E+06
        -0.12364E+06
        -0.23297E+06
        -0.31525E+05
         0.34133E+06
         0.98524E+06
        -0.10901E+07
         0.46353E+06
        -0.87825E+06
         0.80542E+05
         0.74545E+06
         0.11653E+07
         0.66079E+06
         0.94552E+06
         0.57831E+06
         0.74135E+05
         0.48102E+06
         0.61410E+06
         0.14940E+06
         0.79026E+06
        -0.29433E+06
        -0.11764E+07
        -0.13248E+07
        -0.15342E+07
        -0.17504E+07
        -0.87554E+06
        -0.74290E+06
        -0.10972E+07
        -0.15248E+07
        -0.10111E+07
         0.77923E+05
         0.72742E+06
         0.50677E+05
        -0.30164E+06
        -0.14669E+06
         0.67704E+06
         0.14812E+06
         0.77052E+06
        -0.38852E+06
        -0.12475E+07
         0.39318E+06
        -0.12902E+07
        -0.12052E+07
        -0.11239E+07
        -0.39360E+06
        -0.18225E+07
        -0.16368E+07
         0.53032E+05
         0.40944E+06
         0.57183E+06
        -0.48904E+06
         0.29591E+05
        -0.25248E+06
         0.22789E+06
        -0.52341E+06
        -0.23336E+06
        -0.12812E+07
        -0.15589E+06
        -0.23988E+07
        -0.16930E+07
        -0.91093E+06
        -0.11421E+07
        -0.54879E+05
        -0.82289E+05
         0.45523E+06
         0.83759E+06
        -0.24957E+05
        -0.11390E+06
        -0.10894E+06
        -0.15825E+07
        -0.15901E+07
        -0.11700E+07
        -0.25610E+06
        -0.27452E+06
        -0.22593E+06
        -0.61842E+06
        -0.70915E+06
        -0.11709E+07
        -0.57800E+06
        -0.17779E+06
        -0.28038E+06
        -0.80856E+05
         0.28006E+06
         0.93159E+06
        -0.12165E+07
         0.34011E+06
        -0.99992E+06
        -0.35792E+05
         0.62226E+06
         0.10282E+07
         0.52394E+06
         0.80728E+06
         0.43838E+06
        -0.68921E+05
         0.33874E+06
         0.48247E+06
         0.39731E+05
         0.68782E+06
        -0.40169E+06
        -0.12912E+07
        -0.14423E+07
        -0.16569E+07
        -0.18736E+07
        -0.10057E+07
        -0.86575E+06
        -0.12081E+07
        -0.16361E+07
        -0.11247E+07
        -0.36845E+05
         0.61063E+06
         0.61963E+05
        -0.29290E+06
        -0.13758E+06
         0.68608E+06
         0.16280E+06
         0.78361E+06
        -0.37986E+06
        -0.12365E+07
         0.40047E+06
        -0.12902E+07
        -0.11956E+07
        -0.11091E+07
        -0.38097E+06
        -0.18075E+07
        -0.16188E+07
         0.43332E+05
         0.40649E+06
         0.58151E+06
        -0.50145E+06
         0.20431E+05
        -0.26366E+06
         0.22370E+06
        -0.56738E+06
        -0.26799E+06
        -0.13097E+07
        -0.18780E+06
        -0.23882E+07
        -0.16996E+07
        -0.93187E+06
        -0.11870E+07
        -0.54580E+05
        -0.92004E+05
         0.46451E+06
         0.84926E+06
        -0.75626E+04
        -0.10044E+06
        -0.96429E+05
        -0.15698E+07
        -0.15797E+07
        -0.11664E+07
        -0.25815E+06
        -0.30116E+06
        -0.26375E+06
        -0.66136E+06
        -0.71953E+06
        -0.11617E+07
        -0.56735E+06
        -0.16511E+06
        -0.26683E+06
        -0.65076E+05
         0.29741E+06
         0.94665E+06
        -0.11787E+07
         0.37384E+06
        -0.96263E+06
        -0.69689E+04
         0.64358E+06
         0.10496E+07
         0.55123E+06
         0.83468E+06
         0.46589E+06
        -0.40297E+05
         0.35563E+06
         0.48179E+06
         0.41509E+05
         0.70663E+06
        -0.38915E+06
        -0.13145E+07
        -0.14677E+07
        -0.16504E+07
        -0.18399E+07
        -0.96650E+06
        -0.83085E+06
        -0.11728E+07
        -0.15965E+07
        -0.10911E+07
        -0.94990E+04
         0.63707E+06
         0.55160E+05
        -0.29671E+06
        -0.14132E+06
         0.67986E+06
         0.15700E+06
         0.77893E+06
        -0.38403E+06
        -0.12451E+07
         0.38672E+06
        -0.13183E+07
        -0.12013E+07
        -0.11169E+07
        -0.38616E+06
        -0.18133E+07
        -0.16291E+07
         0.44825E+04
         0.37872E+06
         0.57519E+06
        -0.54454E+06
        -0.20888E+05
        -0.31376E+06
         0.17968E+06
        -0.66974E+06
        -0.34547E+06
        -0.13832E+07
        -0.26068E+06
        -0.24033E+07
        -0.17399E+07
        -0.99660E+06
        -0.12930E+07
        -0.76454E+05
        -0.13093E+06
         0.45819E+06
         0.84300E+06
        -0.16051E+05
        -0.10606E+06
        -0.10101E+06
        -0.15845E+07
        -0.15979E+07
        -0.11979E+07
        -0.30118E+06
        -0.38429E+06
        -0.36605E+06
        -0.76236E+06
        -0.76920E+06
        -0.11890E+07
        -0.58655E+06
        -0.17487E+06
        -0.27451E+06
        -0.74025E+05
         0.28816E+06
         0.94069E+06
        -0.11963E+07
         0.36163E+06
        -0.98202E+06
        -0.23752E+05
         0.63220E+06
         0.10366E+07
         0.52952E+06
         0.81120E+06
         0.44299E+06
        -0.68001E+05
         0.31181E+06
         0.41095E+06
        -0.24966E+05
         0.67507E+06
        -0.42457E+06
        -0.14122E+07
        -0.15714E+07
        -0.16990E+07
        -0.18630E+07
        -0.98841E+06
        -0.84764E+06
        -0.11926E+07
        -0.16173E+07
        -0.11050E+07
        -0.19937E+05
         0.62674E+06
         0.42763E+05
        -0.30442E+06
        -0.14774E+06
         0.67346E+06
         0.15038E+06
         0.77257E+06
        -0.39029E+06
        -0.12585E+07
         0.37032E+06
        -0.13474E+07
        -0.12073E+07
        -0.11217E+07
        -0.39195E+06
        -0.18199E+07
        -0.16345E+07
        -0.21744E+05
         0.35662E+06
         0.56935E+06
        -0.57308E+06
        -0.50574E+05
        -0.34614E+06
         0.14805E+06
        -0.73265E+06
        -0.39339E+06
        -0.14369E+07
        -0.30717E+06
        -0.24164E+07
        -0.17690E+07
        -0.10410E+07
        -0.13637E+07
        -0.99273E+05
        -0.15909E+06
         0.44644E+06
         0.83440E+06
        -0.24824E+05
        -0.11320E+06
        -0.10787E+06
        -0.15956E+07
        -0.16131E+07
        -0.12219E+07
        -0.33162E+06
        -0.44013E+06
        -0.43316E+06
        -0.82678E+06
        -0.80213E+06
        -0.12070E+07
        -0.60362E+06
        -0.19075E+06
        -0.28822E+06
        -0.87474E+05
         0.27373E+06
         0.93109E+06
        -0.12121E+07
         0.35096E+06
        -0.99854E+06
        -0.36813E+05
         0.62684E+06
         0.10329E+07
         0.52031E+06
         0.79574E+06
         0.42353E+06
        -0.85151E+05
         0.28512E+06
         0.36190E+06
        -0.70286E+05
         0.65067E+06
        -0.44958E+06
        -0.14755E+07
        -0.16443E+07
        -0.17337E+07
        -0.18736E+07
        -0.10083E+07
        -0.86986E+06
        -0.12153E+07
        -0.16439E+07
        -0.11276E+07
        -0.33810E+05
         0.61643E+06
         0.12694E+05
        -0.31915E+06
        -0.15410E+06
         0.67785E+06
         0.15779E+06
         0.78157E+06
        -0.39472E+06
        -0.12808E+07
         0.34745E+06
        -0.13858E+07
        -0.12037E+07
        -0.11044E+07
        -0.38530E+06
        -0.18166E+07
        -0.16137E+07
        -0.16796E+05
         0.35101E+06
         0.57925E+06
        -0.56776E+06
        -0.45970E+05
        -0.33722E+06
         0.15909E+06
        -0.73132E+06
        -0.39418E+06
        -0.14614E+07
        -0.31334E+06
        -0.24196E+07
        -0.17724E+07
        -0.10378E+07
        -0.13673E+07
        -0.12660E+06
        -0.17378E+06
         0.42717E+06
         0.83203E+06
        -0.17126E+05
        -0.11264E+06
        -0.10919E+06
        -0.15827E+07
        -0.16026E+07
        -0.12095E+07
        -0.31714E+06
        -0.43118E+06
        -0.42608E+06
        -0.83134E+06
        -0.80672E+06
        -0.12102E+07
        -0.61845E+06
        -0.22317E+06
        -0.32249E+06
        -0.10593E+06
         0.26898E+06
         0.93549E+06
        -0.11811E+07
         0.38290E+06
        -0.97263E+06
        -0.19350E+05
         0.64511E+06
         0.10579E+07
         0.54866E+06
         0.82300E+06
         0.45454E+06
        -0.44015E+05
         0.32108E+06
         0.38351E+06
        -0.46359E+05
         0.67554E+06
        -0.42547E+06
        -0.14563E+07
        -0.16306E+07
        -0.17200E+07
        -0.18570E+07
        -0.99674E+06
        -0.87247E+06
        -0.12311E+07
        -0.16545E+07
        -0.11221E+07
        -0.18090E+05
         0.63894E+06
        -0.33119E+05
        -0.34514E+06
        -0.16919E+06
         0.67372E+06
         0.15124E+06
         0.78063E+06
        -0.41276E+06
        -0.13229E+07
         0.30911E+06
        -0.14412E+07
        -0.12163E+07
        -0.11109E+07
        -0.39591E+06
        -0.18340E+07
        -0.16191E+07
        -0.24584E+05
         0.33272E+06
         0.57753E+06
        -0.57312E+06
        -0.52659E+05
        -0.34208E+06
         0.15593E+06
        -0.73634E+06
        -0.39984E+06
        -0.14950E+07
        -0.32478E+06
        -0.24419E+07
        -0.17873E+07
        -0.10421E+07
        -0.13766E+07
        -0.16497E+06
        -0.19803E+06
         0.39808E+06
         0.82059E+06
        -0.27417E+05
        -0.12414E+06
        -0.12262E+06
        -0.15944E+07
        -0.16139E+07
        -0.12153E+07
        -0.31999E+06
        -0.43228E+06
        -0.42681E+06
        -0.84160E+06
        -0.82519E+06
        -0.12357E+07
        -0.65249E+06
        -0.27221E+06
        -0.37164E+06
        -0.13851E+06
         0.24976E+06
         0.92896E+06
        -0.11940E+07
         0.37277E+06
        -0.98056E+06
        -0.28166E+05
         0.63227E+06
         0.10427E+07
         0.53612E+06
         0.81232E+06
         0.44359E+06
        -0.52167E+05
         0.31459E+06
         0.37554E+06
        -0.47753E+05
         0.67353E+06
        -0.43075E+06
        -0.14594E+07
        -0.16371E+07
        -0.17420E+07
        -0.18896E+07
        -0.10326E+07
        -0.91294E+06
        -0.12810E+07
        -0.16984E+07
        -0.11451E+07
        -0.30371E+05
         0.62939E+06
        -0.46475E+05
        -0.35472E+06
        -0.17549E+06
         0.66832E+06
         0.14423E+06
         0.77445E+06
        -0.42201E+06
        -0.13382E+07
         0.29750E+06
        -0.14595E+07
        -0.12255E+07
        -0.11200E+07
        -0.40636E+06
        -0.18432E+07
        -0.16279E+07
        -0.31593E+05
         0.32495E+06
         0.57300E+06
        -0.57809E+06
        -0.57840E+05
        -0.34951E+06
         0.14859E+06
        -0.74293E+06
        -0.40414E+06
        -0.15087E+07
        -0.33111E+06
        -0.24515E+07
        -0.17953E+07
        -0.10497E+07
        -0.13855E+07
        -0.17730E+06
        -0.20744E+06
         0.38827E+06
         0.81401E+06
        -0.36103E+05
        -0.13046E+06
        -0.13085E+06
        -0.16089E+07
        -0.16268E+07
        -0.12276E+07
        -0.33295E+06
        -0.44215E+06
        -0.43329E+06
        -0.85084E+06
        -0.83641E+06
        -0.12477E+07
        -0.66400E+06
        -0.28432E+06
        -0.38358E+06
        -0.14950E+06
         0.23787E+06
         0.92082E+06
        -0.12117E+07
         0.35524E+06
        -0.99261E+06
        -0.40348E+05
         0.61742E+06
         0.10298E+07
         0.52292E+06
         0.79407E+06
         0.41919E+06
        -0.77731E+05
         0.29144E+06
         0.36498E+06
        -0.56059E+05
         0.65576E+06
        -0.44935E+06
        -0.14773E+07
        -0.16604E+07
        -0.17643E+07
        -0.19083E+07
        -0.10476E+07
        -0.92535E+06
        -0.12976E+07
        -0.17205E+07
        -0.11654E+07
        -0.47428E+05
         0.61254E+06
        -0.37979E+05
        -0.34810E+06
        -0.17092E+06
         0.66928E+06
         0.15106E+06
         0.77583E+06
        -0.41614E+06
        -0.13291E+07
         0.30427E+06
        -0.14518E+07
        -0.12203E+07
        -0.11106E+07
        -0.39957E+06
        -0.18319E+07
        -0.16139E+07
        -0.22214E+05
         0.33112E+06
         0.57760E+06
        -0.57006E+06
        -0.50500E+05
        -0.34039E+06
         0.15742E+06
        -0.73341E+06
        -0.39605E+06
        -0.15036E+07
        -0.32329E+06
        -0.24382E+07
        -0.17862E+07
        -0.10424E+07
        -0.13789E+07
        -0.16962E+06
        -0.20153E+06
         0.39218E+06
         0.81579E+06
        -0.26119E+05
        -0.12362E+06
        -0.12462E+06
        -0.15995E+07
        -0.16199E+07
        -0.12209E+07
        -0.32453E+06
        -0.43262E+06
        -0.42375E+06
        -0.84283E+06
        -0.82987E+06
        -0.12403E+07
        -0.65707E+06
        -0.27573E+06
        -0.37519E+06
        -0.14260E+06
         0.24294E+06
         0.92269E+06
        -0.11852E+07
         0.38120E+06
        -0.97727E+06
        -0.33976E+05
         0.63030E+06
         0.10501E+07
         0.54555E+06
         0.81029E+06
         0.42529E+06
        -0.68247E+05
         0.30852E+06
         0.38913E+06
        -0.34910E+05
         0.66942E+06
        -0.43640E+06
        -0.14624E+07
        -0.16456E+07
        -0.17457E+07
        -0.18906E+07
        -0.10267E+07
        -0.90389E+06
        -0.12785E+07
        -0.17045E+07
        -0.11509E+07
        -0.32907E+05
         0.62830E+06
        -0.40151E+05
        -0.34857E+06
        -0.17230E+06
         0.66550E+06
         0.14931E+06
         0.77233E+06
        -0.41751E+06
        -0.13341E+07
         0.29827E+06
        -0.14603E+07
        -0.12247E+07
        -0.11161E+07
        -0.40114E+06
        -0.18360E+07
        -0.16230E+07
        -0.26502E+05
         0.32585E+06
         0.57274E+06
        -0.57423E+06
        -0.54477E+05
        -0.34442E+06
         0.15272E+06
        -0.73684E+06
        -0.39882E+06
        -0.15096E+07
        -0.32568E+06
        -0.24414E+07
        -0.17872E+07
        -0.10440E+07
        -0.13836E+07
        -0.17325E+06
        -0.20419E+06
         0.38655E+06
         0.81085E+06
        -0.29261E+05
        -0.12657E+06
        -0.12660E+06
        -0.16122E+07
        -0.16276E+07
        -0.12272E+07
        -0.33096E+06
        -0.43635E+06
        -0.42929E+06
        -0.84581E+06
        -0.83283E+06
        -0.12443E+07
        -0.66262E+06
        -0.28123E+06
        -0.37969E+06
        -0.14660E+06
         0.23829E+06
         0.91796E+06
        -0.11928E+07
         0.37508E+06
        -0.98985E+06
        -0.44537E+05
         0.62875E+06
         0.10428E+07
         0.52835E+06
         0.79114E+06
         0.41391E+06
        -0.85256E+05
         0.28997E+06
         0.37981E+06
        -0.45828E+05
         0.66338E+06
        -0.44201E+06
        -0.14678E+07
        -0.16467E+07
        -0.17495E+07
        -0.18960E+07
        -0.10408E+07
        -0.92152E+06
        -0.12920E+07
        -0.17115E+07
        -0.11541E+07
        -0.40458E+05
         0.61762E+06
        -0.46274E+05
        -0.35341E+06
        -0.17596E+06
         0.66309E+06
         0.14428E+06
         0.76997E+06
        -0.42148E+06
        -0.13409E+07
         0.29278E+06
        -0.14687E+07
        -0.12296E+07
        -0.11234E+07
        -0.40586E+06
        -0.18390E+07
        -0.16324E+07
        -0.32530E+05
         0.32154E+06
         0.56999E+06
        -0.57924E+06
        -0.57418E+05
        -0.34949E+06
         0.14795E+06
        -0.74204E+06
        -0.40324E+06
        -0.15155E+07
        -0.33055E+06
        -0.24437E+07
        -0.17893E+07
        -0.10460E+07
        -0.13873E+07
        -0.17862E+06
        -0.20876E+06
         0.38307E+06
         0.80968E+06
        -0.36917E+05
        -0.13157E+06
        -0.13107E+06
        -0.16244E+07
        -0.16360E+07
        -0.12328E+07
        -0.33475E+06
        -0.43952E+06
        -0.43436E+06
        -0.85099E+06
        -0.83776E+06
        -0.12496E+07
        -0.66782E+06
        -0.28596E+06
        -0.38398E+06
        -0.15006E+06
         0.23387E+06
         0.91581E+06
        -0.12080E+07
         0.36224E+06
        -0.99947E+06
        -0.47751E+05
         0.62450E+06
         0.10278E+07
         0.50672E+06
         0.77385E+06
         0.40213E+06
        -0.97494E+05
         0.28238E+06
         0.37060E+06
        -0.58940E+05
         0.65442E+06
        -0.45136E+06
        -0.14788E+07
        -0.16542E+07
        -0.17582E+07
        -0.19065E+07
        -0.10525E+07
        -0.93493E+06
        -0.13059E+07
        -0.17216E+07
        -0.11633E+07
        -0.52061E+05
         0.60543E+06
        -0.42240E+05
        -0.35127E+06
        -0.17438E+06
         0.66526E+06
         0.14878E+06
         0.77392E+06
        -0.41779E+06
        -0.13350E+07
         0.29565E+06
        -0.14668E+07
        -0.12247E+07
        -0.11169E+07
        -0.40376E+06
        -0.18286E+07
        -0.16195E+07
        -0.27223E+05
         0.32359E+06
         0.57457E+06
        -0.57458E+06
        -0.51496E+05
        -0.34229E+06
         0.15584E+06
        -0.73562E+06
        -0.39821E+06
        -0.15145E+07
        -0.32545E+06
        -0.24352E+07
        -0.17835E+07
        -0.10378E+07
        -0.13799E+07
        -0.17248E+06
        -0.20464E+06
         0.38794E+06
         0.81454E+06
        -0.30733E+05
        -0.12726E+06
        -0.12851E+06
        -0.16170E+07
        -0.16292E+07
        -0.12229E+07
        -0.32532E+06
        -0.43224E+06
        -0.42669E+06
        -0.84628E+06
        -0.83397E+06
        -0.12456E+07
        -0.66375E+06
        -0.28073E+06
        -0.37834E+06
        -0.14411E+06
         0.23918E+06
         0.92117E+06
        -0.11886E+07
         0.38314E+06
        -0.97992E+06
        -0.38093E+05
         0.62126E+06
         0.10289E+07
         0.52243E+06
         0.79125E+06
         0.41370E+06
        -0.79834E+05
         0.29917E+06
         0.37847E+06
        -0.44801E+05
         0.66873E+06
        -0.43827E+06
        -0.14688E+07
        -0.16477E+07
        -0.17498E+07
        -0.18985E+07
        -0.10398E+07
        -0.92017E+06
        -0.12917E+07
        -0.17093E+07
        -0.11526E+07
        -0.36319E+05
         0.62387E+06
        -0.45073E+05
        -0.35513E+06
        -0.17794E+06
         0.66104E+06
         0.14365E+06
         0.76911E+06
        -0.42271E+06
        -0.13412E+07
         0.29114E+06
        -0.14766E+07
        -0.12314E+07
        -0.11261E+07
        -0.41337E+06
        -0.18341E+07
        -0.16263E+07
        -0.32069E+05
         0.31822E+06
         0.56939E+06
        -0.58064E+06
        -0.56234E+05
        -0.35117E+06
         0.14727E+06
        -0.74447E+06
        -0.40334E+06
        -0.15238E+07
        -0.32967E+06
        -0.24435E+07
        -0.17911E+07
        -0.10435E+07
        -0.13857E+07
        -0.17746E+06
        -0.20893E+06
         0.38126E+06
         0.81004E+06
        -0.38045E+05
        -0.13307E+06
        -0.13581E+06
        -0.16303E+07
        -0.16422E+07
        -0.12335E+07
        -0.33744E+06
        -0.44306E+06
        -0.43528E+06
        -0.85635E+06
        -0.84264E+06
        -0.12531E+07
        -0.67102E+06
        -0.28823E+06
        -0.38398E+06
        -0.14806E+06
         0.23328E+06
         0.91578E+06
        -0.12037E+07
         0.36999E+06
        -0.99506E+06
        -0.55337E+05
         0.60107E+06
         0.10098E+07
         0.51077E+06
         0.77630E+06
         0.39380E+06
        -0.99491E+05
         0.27523E+06
         0.35475E+06
        -0.60476E+05
         0.65245E+06
        -0.45223E+06
        -0.14850E+07
        -0.16728E+07
        -0.17722E+07
        -0.19097E+07
        -0.10552E+07
        -0.93614E+06
        -0.12999E+07
        -0.17150E+07
        -0.11640E+07
        -0.52039E+05
         0.60827E+06
        -0.45549E+05
        -0.35635E+06
        -0.17912E+06
         0.65933E+06
         0.14273E+06
         0.76745E+06
        -0.42380E+06
        -0.13428E+07
         0.29094E+06
        -0.14791E+07
        -0.12331E+07
        -0.11272E+07
        -0.41488E+06
        -0.18325E+07
        -0.16267E+07
        -0.32898E+05
         0.31774E+06
         0.56837E+06
        -0.58161E+06
        -0.56400E+05
        -0.35335E+06
         0.14590E+06
        -0.74647E+06
        -0.40417E+06
        -0.15271E+07
        -0.33060E+06
        -0.24420E+07
        -0.17922E+07
        -0.10446E+07
        -0.13878E+07
        -0.17996E+06
        -0.21044E+06
         0.37818E+06
         0.80884E+06
        -0.39722E+05
        -0.13504E+06
        -0.13805E+06
        -0.16370E+07
        -0.16500E+07
        -0.12379E+07
        -0.33902E+06
        -0.44391E+06
        -0.43652E+06
        -0.85845E+06
        -0.84460E+06
        -0.12551E+07
        -0.67362E+06
        -0.29110E+06
        -0.38596E+06
        -0.14850E+06
         0.23219E+06
         0.91441E+06
        -0.12040E+07
         0.37021E+06
        -0.99927E+06
        -0.61991E+05
         0.60059E+06
         0.10095E+07
         0.50612E+06
         0.76383E+06
         0.37941E+06
        -0.10738E+06
         0.27445E+06
         0.35234E+06
        -0.64415E+05
         0.64608E+06
        -0.45952E+06
        -0.14902E+07
        -0.16765E+07
        -0.17752E+07
        -0.19130E+07
        -0.10608E+07
        -0.94325E+06
        -0.13044E+07
        -0.17156E+07
        -0.11653E+07
        -0.58942E+05
         0.60209E+06
        -0.32873E+05
        -0.34381E+06
        -0.16900E+06
         0.66590E+06
         0.15663E+06
         0.77708E+06
        -0.41094E+06
        -0.13290E+07
         0.29913E+06
        -0.14698E+07
        -0.12203E+07
        -0.11069E+07
        -0.39752E+06
        -0.18154E+07
        -0.16071E+07
        -0.21557E+05
         0.32636E+06
         0.57683E+06
        -0.57086E+06
        -0.44473E+05
        -0.33695E+06
         0.16157E+06
        -0.73067E+06
        -0.39346E+06
        -0.15167E+07
        -0.31974E+06
        -0.24250E+07
        -0.17766E+07
        -0.10292E+07
        -0.13734E+07
        -0.16791E+06
        -0.19944E+06
         0.38605E+06
         0.81543E+06
        -0.23239E+05
        -0.12218E+06
        -0.12424E+06
        -0.16250E+07
        -0.16355E+07
        -0.12216E+07
        -0.32308E+06
        -0.42759E+06
        -0.42219E+06
        -0.84284E+06
        -0.82914E+06
        -0.12386E+07
        -0.65982E+06
        -0.27797E+06
        -0.37490E+06
        -0.13815E+06
         0.24324E+06
         0.92379E+06
        -0.11688E+07
         0.40518E+06
        -0.96993E+06
        -0.40626E+05
         0.62660E+06
         0.10427E+07
         0.53395E+06
         0.78500E+06
         0.40298E+06
        -0.81499E+05
         0.29779E+06
         0.37959E+06
        -0.42808E+05
         0.67006E+06
        -0.43210E+06
        -0.14618E+07
        -0.16446E+07
        -0.17406E+07
        -0.18833E+07
        -0.10296E+07
        -0.91683E+06
        -0.12848E+07
        -0.16939E+07
        -0.11392E+07
        -0.30641E+05
         0.63074E+06
        -0.38122E+05
        -0.34726E+06
        -0.17232E+06
         0.66082E+06
         0.15029E+06
         0.77214E+06
        -0.41536E+06
        -0.13367E+07
         0.29288E+06
        -0.14815E+07
        -0.12269E+07
        -0.11139E+07
        -0.40175E+06
        -0.18214E+07
        -0.16166E+07
        -0.27831E+05
         0.31974E+06
         0.57262E+06
        -0.57872E+06
        -0.50355E+05
        -0.34301E+06
         0.15374E+06
        -0.73614E+06
        -0.39969E+06
        -0.15271E+07
        -0.32588E+06
        -0.24325E+07
        -0.17818E+07
        -0.10299E+07
        -0.13778E+07
        -0.17146E+06
        -0.20437E+06
         0.38125E+06
         0.81001E+06
        -0.32671E+05
        -0.12745E+06
        -0.12783E+06
        -0.16400E+07
        -0.16462E+07
        -0.12264E+07
        -0.33081E+06
        -0.43596E+06
        -0.43207E+06
        -0.85046E+06
        -0.83675E+06
        -0.12458E+07
        -0.66592E+06
        -0.28212E+06
        -0.37956E+06
        -0.14433E+06
         0.23618E+06
         0.91826E+06
        -0.11911E+07
         0.38625E+06
        -0.98739E+06
        -0.49741E+05
         0.62341E+06
         0.10342E+07
         0.51518E+06
         0.76245E+06
         0.38094E+06
        -0.10107E+06
         0.27471E+06
         0.35309E+06
        -0.61466E+05
         0.66074E+06
        -0.43642E+06
        -0.14647E+07
        -0.16539E+07
        -0.17565E+07
        -0.18950E+07
        -0.10435E+07
        -0.92965E+06
        -0.12991E+07
        -0.17093E+07
        -0.11487E+07
        -0.39504E+05
         0.61600E+06
        -0.46928E+05
        -0.35625E+06
        -0.18118E+06
         0.65422E+06
         0.14036E+06
         0.76314E+06
        -0.42254E+06
        -0.13457E+07
         0.28408E+06
        -0.15005E+07
        -0.12346E+07
        -0.11253E+07
        -0.41113E+06
        -0.18274E+07
        -0.16285E+07
        -0.35562E+05
         0.31001E+06
         0.56774E+06
        -0.58525E+06
        -0.53044E+05
        -0.35041E+06
         0.14460E+06
        -0.74274E+06
        -0.40502E+06
        -0.15435E+07
        -0.33190E+06
        -0.24494E+07
        -0.17903E+07
        -0.10119E+07
        -0.13678E+07
        -0.17813E+06
        -0.21143E+06
         0.37648E+06
         0.80617E+06
        -0.43294E+05
        -0.13606E+06
        -0.13638E+06
        -0.16619E+07
        -0.16568E+07
        -0.12113E+07
        -0.33172E+06
        -0.44504E+06
        -0.44527E+06
        -0.85868E+06
        -0.84632E+06
        -0.12571E+07
        -0.67630E+06
        -0.28963E+06
        -0.38501E+06
        -0.14919E+06
         0.22992E+06
         0.91149E+06
        -0.12059E+07
         0.37245E+06
        -0.99931E+06
        -0.60003E+05
         0.60901E+06
         0.10109E+07
         0.48868E+06
         0.73725E+06
         0.35873E+06
        -0.10620E+06
         0.23444E+06
         0.28970E+06
        -0.87691E+05
         0.64614E+06
        -0.44943E+06
        -0.14764E+07
        -0.16686E+07
        -0.17731E+07
        -0.19142E+07
        -0.10651E+07
        -0.94434E+06
        -0.13128E+07
        -0.17251E+07
        -0.11601E+07
        -0.57119E+05
         0.59629E+06
        -0.34852E+05
        -0.34472E+06
        -0.17018E+06
         0.66231E+06
         0.15515E+06
         0.77357E+06
        -0.41130E+06
        -0.13320E+07
         0.28958E+06
        -0.15055E+07
        -0.12232E+07
        -0.11101E+07
        -0.39826E+06
        -0.18112E+07
        -0.16110E+07
        -0.24093E+05
         0.31567E+06
         0.57568E+06
        -0.57276E+06
        -0.33635E+05
        -0.33682E+06
         0.15829E+06
        -0.73004E+06
        -0.39348E+06
        -0.15429E+07
        -0.32011E+06
        -0.24523E+07
        -0.17806E+07
        -0.95693E+06
        -0.13213E+07
        -0.16779E+06
        -0.20025E+06
         0.38417E+06
         0.81503E+06
        -0.25634E+05
        -0.12171E+06
        -0.12334E+06
        -0.16614E+07
        -0.16400E+07
        -0.11538E+07
        -0.30085E+06
        -0.42851E+06
        -0.43695E+06
        -0.84535E+06
        -0.83121E+06
        -0.12388E+07
        -0.66189E+06
        -0.27759E+06
        -0.37290E+06
        -0.13529E+06
         0.24464E+06
         0.92262E+06
        -0.11697E+07
         0.40798E+06
        -0.96308E+06
        -0.34550E+05
         0.62522E+06
         0.10298E+07
         0.51477E+06
         0.76370E+06
         0.38756E+06
        -0.49834E+05
         0.22135E+06
         0.23867E+06
        -0.85789E+05
         0.66601E+06
        -0.43269E+06
        -0.14625E+07
        -0.16515E+07
        -0.17442E+07
        -0.18787E+07
        -0.10318E+07
        -0.91568E+06
        -0.12833E+07
        -0.16917E+07
        -0.11289E+07
        -0.31845E+05
         0.62284E+06
        -0.79723E+05
        -0.38665E+06
        -0.21051E+06
         0.62646E+06
         0.10090E+06
         0.72556E+06
        -0.45314E+06
        -0.13857E+07
         0.24414E+06
        -0.15727E+07
        -0.12710E+07
        -0.11816E+07
        -0.46401E+06
        -0.18664E+07
        -0.16849E+07
        -0.66705E+05
         0.27229E+06
         0.54029E+06
        -0.61657E+06
        -0.72842E+05
        -0.39879E+06
         0.98078E+05
        -0.78941E+06
        -0.43350E+06
        -0.16021E+07
        -0.35782E+06
        -0.25188E+07
        -0.18284E+07
        -0.97797E+06
        -0.13542E+07
        -0.20843E+06
        -0.23949E+06
         0.34637E+06
         0.77550E+06
        -0.90285E+05
        -0.17522E+06
        -0.18144E+06
        -0.17456E+07
        -0.17054E+07
        -0.11917E+07
        -0.36215E+06
        -0.49383E+06
        -0.50275E+06
        -0.90282E+06
        -0.89053E+06
        -0.13085E+07
        -0.71964E+06
        -0.32807E+06
        -0.41993E+06
        -0.18795E+06
         0.17886E+06
         0.86774E+06
        -0.12958E+07
         0.28547E+06
        -0.10907E+07
        -0.16428E+06
         0.49577E+06
         0.90524E+06
         0.38814E+06
         0.62796E+06
         0.26005E+06
        -0.16595E+06
         0.59559E+05
         0.62604E+05
        -0.21019E+06
         0.56279E+06
        -0.54094E+06
        -0.15752E+07
        -0.17682E+07
        -0.18746E+07
        -0.20126E+07
        -0.11600E+07
        -0.10347E+07
        -0.13971E+07
        -0.18084E+07
        -0.12484E+07
        -0.14667E+06
         0.50889E+06
        -0.53983E+05
        -0.38364E+06
        -0.20317E+06
         0.63922E+06
         0.11859E+06
         0.74069E+06
        -0.44746E+06
        -0.13549E+07
         0.27291E+06
        -0.15283E+07
        -0.12589E+07
        -0.11801E+07
        -0.48077E+06
        -0.18292E+07
        -0.16527E+07
        -0.33319E+05
         0.29928E+06
         0.55962E+06
        -0.59360E+06
        -0.49214E+05
        -0.37127E+06
         0.11869E+06
        -0.74686E+06
        -0.40326E+06
        -0.15553E+07
        -0.32942E+06
        -0.24622E+07
        -0.17736E+07
        -0.93204E+06
        -0.13072E+07
        -0.18289E+06
        -0.22177E+06
         0.35620E+06
         0.76942E+06
        -0.80423E+05
        -0.17945E+06
        -0.19796E+06
        -0.17077E+07
        -0.16602E+07
        -0.11519E+07
        -0.33489E+06
        -0.45655E+06
        -0.46354E+06
        -0.86456E+06
        -0.86958E+06
        -0.12980E+07
        -0.71136E+06
        -0.30635E+06
        -0.40372E+06
        -0.18654E+06
         0.18310E+06
         0.86869E+06
        -0.12472E+07
         0.34853E+06
        -0.10749E+07
        -0.19227E+06
         0.43758E+06
         0.86987E+06
         0.44623E+06
         0.68766E+06
         0.30737E+06
        -0.13779E+06
         0.67381E+05
         0.86634E+05
        -0.16315E+06
         0.58600E+06
        -0.49178E+06
        -0.15050E+07
        -0.17086E+07
        -0.18288E+07
        -0.19928E+07
        -0.11623E+07
        -0.10083E+07
        -0.13594E+07
        -0.17485E+07
        -0.11754E+07
        -0.89100E+05
         0.56855E+06
         0.17651E+09
         0.16857E+09
         0.16574E+09
         0.13889E+09
         0.21245E+09
         0.18791E+09
         0.16245E+09
         0.20044E+09
         0.16094E+09
         0.20022E+09
         0.19439E+09
         0.27334E+09
         0.24035E+09
         0.21653E+09
         0.28216E+09
         0.16131E+09
         0.15242E+09
         0.12831E+09
         0.16746E+09
         0.15939E+09
         0.22155E+09
         0.22241E+09
         0.21035E+09
         0.14862E+09
         0.18802E+09
         0.13938E+09
         0.21340E+09
         0.17452E+09
         0.17701E+09
         0.19629E+09
         0.15811E+09
         0.14428E+09
         0.13858E+09
         0.14263E+09
         0.24379E+09
         0.20408E+09
         0.21196E+09
         0.26387E+09
         0.24837E+09
         0.24272E+09
         0.25871E+09
         0.24221E+09
         0.22950E+09
         0.20067E+09
         0.20659E+09
         0.24592E+09
         0.21243E+09
         0.19321E+09
         0.18157E+09
         0.19456E+09
         0.23123E+09
         0.20063E+09
         0.46082E+09
         0.45155E+09
         0.45956E+09
         0.44466E+09
         0.45867E+09
         0.48121E+09
         0.48302E+09
         0.47733E+09
         0.48099E+09
         0.49479E+09
         0.48033E+09
         0.45317E+09
         0.40123E+09
         0.37859E+09
         0.38456E+09
         0.39364E+09
         0.39861E+09
         0.43441E+09
         0.46459E+09
         0.46663E+09
         0.42755E+09
         0.41212E+09
         0.42724E+09
         0.42317E+09
         0.42090E+09
         0.42176E+09
         0.21031E+10
         0.22018E+10
         0.21698E+10
         0.19780E+10
         0.24405E+10
         0.22906E+10
         0.23825E+10
         0.24032E+10
         0.20546E+10
         0.24019E+10
         0.26177E+10
         0.29384E+10
         0.26625E+10
         0.26947E+10
         0.30414E+10
         0.20136E+10
         0.21640E+10
         0.18858E+10
         0.22356E+10
         0.23525E+10
         0.24386E+10
         0.24917E+10
         0.23402E+10
         0.21493E+10
         0.24289E+10
         0.20729E+10
         0.26849E+10
         0.26383E+10
         0.26505E+10
         0.25153E+10
         0.20349E+10
         0.21398E+10
         0.19938E+10
         0.20859E+10
         0.26739E+10
         0.24511E+10
         0.24600E+10
         0.29442E+10
         0.28676E+10
         0.28329E+10
         0.28847E+10
         0.27390E+10
         0.25902E+10
         0.22835E+10
         0.23774E+10
         0.26729E+10
         0.24699E+10
         0.23215E+10
         0.22746E+10
         0.23592E+10
         0.25640E+10
         0.23666E+10
         0.42455E+10
         0.41372E+10
         0.42231E+10
         0.40913E+10
         0.42125E+10
         0.44277E+10
         0.44985E+10
         0.44884E+10
         0.45198E+10
         0.46231E+10
         0.44904E+10
         0.42233E+10
         0.37869E+10
         0.35796E+10
         0.35899E+10
         0.36360E+10
         0.36711E+10
         0.39799E+10
         0.42626E+10
         0.42798E+10
         0.39621E+10
         0.38398E+10
         0.39666E+10
         0.39387E+10
         0.38947E+10
         0.38837E+10
  
SCALARS                      stress_zz  double 1
LOOKUP_TABLE default
         0.32042E+12
         0.31556E+12
         0.31864E+12
         0.32418E+12
        -0.25712E+03
        -0.28832E+03
        -0.27608E+03
        -0.25081E+03
         0.31538E+12
         0.31703E+12
        -0.25927E+03
        -0.25091E+03
         0.30850E+12
         0.30824E+12
        -0.30807E+03
        -0.28966E+03
         0.32337E+12
         0.30862E+12
        -0.22763E+03
        -0.25248E+03
         0.30320E+12
         0.29899E+12
         0.30569E+12
        -0.30533E+03
        -0.26665E+03
        -0.27535E+03
         0.29916E+12
         0.29301E+12
        -0.29292E+03
        -0.24703E+03
         0.32310E+12
         0.31669E+12
         0.32931E+12
        -0.24997E+03
        -0.23238E+03
        -0.22594E+03
         0.31939E+12
         0.31122E+12
        -0.26446E+03
        -0.24132E+03
         0.31615E+12
         0.30985E+12
        -0.22857E+03
        -0.20234E+03
         0.32149E+12
         0.32386E+12
        -0.25048E+03
        -0.27987E+03
         0.30479E+12
        -0.24469E+03
         0.32340E+12
        -0.28753E+03
         0.29738E+12
        -0.25840E+03
         0.29545E+12
        -0.24786E+03
         0.29548E+12
         0.30235E+12
        -0.25254E+03
        -0.24595E+03
         0.32297E+12
         0.32050E+12
        -0.25324E+03
        -0.28628E+03
         0.32451E+12
        -0.24436E+03
         0.32158E+12
        -0.26668E+03
         0.31387E+12
         0.31310E+12
        -0.25671E+03
        -0.26899E+03
         0.31135E+12
        -0.27124E+03
         0.29082E+12
        -0.21430E+03
         0.28974E+12
        -0.20801E+03
         0.29028E+12
        -0.21933E+03
         0.29325E+12
         0.29635E+12
        -0.20897E+03
        -0.21786E+03
         0.30257E+12
        -0.20291E+03
         0.32137E+12
        -0.26609E+03
         0.31844E+12
        -0.27234E+03
         0.31603E+12
         0.31471E+12
        -0.26153E+03
        -0.26458E+03
         0.31634E+12
        -0.24032E+03
         0.31749E+12
        -0.23689E+03
         0.31645E+12
        -0.25359E+03
         0.31608E+12
         0.31714E+12
        -0.24869E+03
        -0.25598E+03
         0.31027E+12
         0.31306E+12
        -0.19308E+03
        -0.18160E+03
         0.30975E+12
        -0.18437E+03
         0.31296E+12
        -0.17678E+03
         0.30979E+12
        -0.17431E+03
         0.30276E+12
        -0.16473E+03
         0.29595E+12
        -0.14634E+03
         0.29187E+12
        -0.13177E+03
         0.29146E+12
        -0.13086E+03
         0.29158E+12
        -0.14191E+03
         0.29601E+12
        -0.14914E+03
         0.30428E+12
        -0.13618E+03
         0.31335E+12
        -0.12275E+03
         0.31866E+12
        -0.12261E+03
         0.32391E+12
        -0.13705E+03
         0.32738E+12
        -0.15627E+03
         0.32725E+12
        -0.16788E+03
         0.31883E+12
        -0.18131E+03
         0.31296E+12
        -0.19425E+03
         0.31094E+12
        -0.17795E+03
         0.31409E+12
        -0.15611E+03
         0.31573E+12
        -0.15562E+03
         0.31298E+12
        -0.17027E+03
         0.31302E+12
        -0.18152E+03
         0.31510E+12
        -0.17226E+03
         0.31780E+12
        -0.16654E+03
        -0.31479E+11
        -0.31672E+11
        -0.31647E+11
        -0.31391E+11
        -0.31842E+11
        -0.31626E+11
        -0.31889E+11
        -0.31757E+11
        -0.31433E+11
        -0.31641E+11
        -0.32020E+11
        -0.32057E+11
        -0.31955E+11
        -0.31948E+11
        -0.32015E+11
        -0.31404E+11
        -0.31453E+11
        -0.31311E+11
        -0.31692E+11
        -0.31627E+11
        -0.31719E+11
        -0.31659E+11
        -0.31768E+11
        -0.31741E+11
        -0.31633E+11
        -0.31641E+11
        -0.31820E+11
        -0.31805E+11
        -0.31927E+11
        -0.31738E+11
        -0.31428E+11
        -0.31675E+11
        -0.31430E+11
        -0.31595E+11
        -0.32082E+11
        -0.31942E+11
        -0.31871E+11
        -0.31955E+11
        -0.31965E+11
        -0.32091E+11
        -0.32175E+11
        -0.31959E+11
        -0.31715E+11
        -0.31751E+11
        -0.31878E+11
        -0.32077E+11
        -0.31909E+11
        -0.31704E+11
        -0.31719E+11
        -0.31878E+11
        -0.32025E+11
        -0.31823E+11
        -0.32351E+11
        -0.32222E+11
        -0.32245E+11
        -0.32212E+11
        -0.32220E+11
        -0.32293E+11
        -0.32361E+11
        -0.32382E+11
        -0.32373E+11
        -0.32379E+11
        -0.32406E+11
        -0.32228E+11
        -0.32150E+11
        -0.32118E+11
        -0.32062E+11
        -0.32018E+11
        -0.32020E+11
        -0.32094E+11
        -0.32310E+11
        -0.32263E+11
        -0.32191E+11
        -0.32191E+11
        -0.32205E+11
        -0.32273E+11
        -0.32170E+11
        -0.32129E+11
         0.21176E+07
         0.12619E+07
         0.14631E+07
         0.21066E+07
         0.17645E+07
         0.23571E+07
        -0.21709E+06
         0.73930E+05
         0.25033E+07
        -0.61734E+05
        -0.11559E+07
         0.10410E+07
         0.13200E+07
        -0.22487E+07
         0.28296E+06
         0.11673E+07
         0.14417E+07
         0.16030E+07
         0.56083E+06
         0.39020E+06
         0.83503E+06
         0.14136E+07
         0.36403E+06
        -0.19863E+05
        -0.68708E+06
        -0.67534E+05
        -0.34366E+07
        -0.37816E+07
        -0.17927E+07
        -0.43092E+06
         0.10588E+07
         0.21716E+06
         0.18611E+07
         0.25746E+07
         0.10128E+07
         0.83548E+06
         0.12031E+07
         0.54278E+05
         0.10402E+06
         0.48508E+06
         0.10983E+07
         0.74852E+06
         0.88399E+06
         0.37024E+06
         0.41878E+06
         0.66172E+06
         0.90797E+06
         0.10680E+07
         0.14098E+07
         0.18873E+07
         0.19187E+07
         0.23444E+07
         0.16226E+06
         0.19024E+07
         0.81066E+06
         0.21537E+07
         0.32434E+07
         0.39959E+07
         0.34963E+07
         0.37115E+07
         0.32585E+07
         0.25430E+07
         0.23067E+07
         0.20337E+07
         0.14455E+07
         0.21415E+07
         0.95795E+06
         0.12013E+06
         0.26879E+06
         0.33359E+06
         0.63249E+06
         0.17954E+07
         0.18213E+07
         0.13985E+07
         0.79636E+06
         0.79034E+06
         0.15405E+07
         0.22329E+07
         0.20456E+07
         0.11768E+07
         0.13775E+07
         0.20241E+07
         0.16792E+07
         0.22704E+07
        -0.31836E+06
        -0.88351E+04
         0.24164E+07
        -0.15203E+06
        -0.12709E+07
         0.94466E+06
         0.12324E+07
        -0.23495E+07
         0.18826E+06
         0.10831E+07
         0.13355E+07
         0.15193E+07
         0.45451E+06
         0.27431E+06
         0.74855E+06
         0.13282E+07
         0.27345E+06
        -0.13204E+06
        -0.79659E+06
        -0.17448E+06
        -0.35321E+07
        -0.38980E+07
        -0.19150E+07
        -0.54364E+06
         0.97376E+06
         0.11574E+06
         0.17739E+07
         0.24900E+07
         0.92220E+06
         0.74652E+06
         0.11190E+07
        -0.44235E+05
         0.77788E+04
         0.38831E+06
         0.10010E+07
         0.65173E+06
         0.79188E+06
         0.28001E+06
         0.33105E+06
         0.57169E+06
         0.81743E+06
         0.97897E+06
         0.13235E+07
         0.18049E+07
         0.18341E+07
         0.22602E+07
         0.24442E+05
         0.17682E+07
         0.67899E+06
         0.20276E+07
         0.31105E+07
         0.38485E+07
         0.33487E+07
         0.35612E+07
         0.31063E+07
         0.23881E+07
         0.21524E+07
         0.18909E+07
         0.13247E+07
         0.20282E+07
         0.84009E+06
        -0.50899E+04
         0.14116E+06
         0.20101E+06
         0.49893E+06
         0.16544E+07
         0.16873E+07
         0.12770E+07
         0.67515E+06
         0.66600E+06
         0.14151E+07
         0.21053E+07
         0.20626E+07
         0.11936E+07
         0.13958E+07
         0.20476E+07
         0.17015E+07
         0.22938E+07
        -0.29586E+06
         0.10455E+05
         0.24307E+07
        -0.14662E+06
        -0.12476E+07
         0.96307E+06
         0.12492E+07
        -0.23282E+07
         0.21184E+06
         0.10664E+07
         0.13316E+07
         0.15410E+07
         0.42855E+06
         0.25174E+06
         0.73427E+06
         0.13227E+07
         0.21403E+06
        -0.21299E+06
        -0.84135E+06
        -0.24943E+06
        -0.35126E+07
        -0.39138E+07
        -0.19632E+07
        -0.62195E+06
         0.97420E+06
         0.92618E+05
         0.17958E+07
         0.25185E+07
         0.94596E+06
         0.76885E+06
         0.11376E+07
        -0.26617E+05
         0.24377E+05
         0.39428E+06
         0.99870E+06
         0.61666E+06
         0.74229E+06
         0.21961E+06
         0.31596E+06
         0.58406E+06
         0.83385E+06
         0.99905E+06
         0.13467E+07
         0.18301E+07
         0.18581E+07
         0.22840E+07
         0.65369E+05
         0.18049E+07
         0.71956E+06
         0.20588E+07
         0.31336E+07
         0.38714E+07
         0.33780E+07
         0.35907E+07
         0.31362E+07
         0.24190E+07
         0.21706E+07
         0.18902E+07
         0.13266E+07
         0.20490E+07
         0.85386E+06
        -0.30397E+05
         0.11374E+06
         0.20813E+06
         0.53557E+06
         0.16968E+07
         0.17254E+07
         0.13157E+07
         0.71828E+06
         0.70229E+06
         0.14446E+07
         0.21338E+07
         0.20525E+07
         0.11865E+07
         0.13888E+07
         0.20355E+07
         0.16934E+07
         0.22865E+07
        -0.30321E+06
         0.57932E+02
         0.24056E+07
        -0.18441E+06
        -0.12594E+07
         0.95310E+06
         0.12423E+07
        -0.23427E+07
         0.20031E+06
         0.99956E+06
         0.12699E+07
         0.15254E+07
         0.33577E+06
         0.15408E+06
         0.66867E+06
         0.12637E+07
         0.75805E+05
        -0.39404E+06
        -0.97162E+06
        -0.42013E+06
        -0.35382E+07
        -0.40079E+07
        -0.21139E+07
        -0.81162E+06
         0.93311E+06
         0.12727E+04
         0.17813E+07
         0.25053E+07
         0.93437E+06
         0.75982E+06
         0.11308E+07
        -0.44388E+05
         0.15040E+04
         0.35070E+06
         0.94368E+06
         0.50708E+06
         0.60777E+06
         0.77269E+05
         0.24336E+06
         0.54780E+06
         0.80476E+06
         0.98252E+06
         0.13318E+07
         0.18144E+07
         0.18453E+07
         0.22747E+07
         0.46028E+05
         0.17916E+07
         0.69873E+06
         0.20406E+07
         0.31213E+07
         0.38573E+07
         0.33544E+07
         0.35650E+07
         0.31114E+07
         0.23890E+07
         0.21230E+07
         0.18134E+07
         0.12533E+07
         0.20141E+07
         0.81498E+06
        -0.13685E+06
         0.12018E+04
         0.15578E+06
         0.51056E+06
         0.16731E+07
         0.17072E+07
         0.12940E+07
         0.69570E+06
         0.68684E+06
         0.14329E+07
         0.21222E+07
         0.20340E+07
         0.11719E+07
         0.13765E+07
         0.20230E+07
         0.16841E+07
         0.22762E+07
        -0.31550E+06
        -0.17479E+05
         0.23755E+07
        -0.22382E+06
        -0.12721E+07
         0.94690E+06
         0.12345E+07
        -0.23583E+07
         0.19495E+06
         0.95447E+06
         0.12216E+07
         0.15110E+07
         0.27484E+06
         0.83513E+05
         0.62646E+06
         0.12214E+07
        -0.91024E+04
        -0.50624E+06
        -0.10642E+07
        -0.52943E+06
        -0.35606E+07
        -0.40758E+07
        -0.22175E+07
        -0.93719E+06
         0.89023E+06
        -0.65063E+05
         0.17541E+07
         0.24866E+07
         0.92239E+06
         0.74828E+06
         0.11207E+07
        -0.57479E+05
        -0.17256E+05
         0.31785E+06
         0.90495E+06
         0.43347E+06
         0.51957E+06
        -0.13120E+05
         0.19552E+06
         0.52389E+06
         0.77897E+06
         0.95602E+06
         0.13060E+07
         0.17912E+07
         0.18253E+07
         0.22597E+07
         0.28618E+05
         0.17800E+07
         0.68099E+06
         0.20265E+07
         0.31156E+07
         0.38532E+07
         0.33443E+07
         0.35481E+07
         0.30902E+07
         0.23703E+07
         0.20940E+07
         0.17602E+07
         0.12034E+07
         0.19871E+07
         0.78754E+06
        -0.20579E+06
        -0.77774E+05
         0.11837E+06
         0.49917E+06
         0.16515E+07
         0.16830E+07
         0.12692E+07
         0.66665E+06
         0.66184E+06
         0.14175E+07
         0.21106E+07
         0.19890E+07
         0.11439E+07
         0.13643E+07
         0.20357E+07
         0.16956E+07
         0.22926E+07
        -0.32365E+06
        -0.48537E+05
         0.23335E+07
        -0.27758E+06
        -0.12621E+07
         0.96841E+06
         0.12434E+07
        -0.23571E+07
         0.22195E+06
         0.96300E+06
         0.12117E+07
         0.15333E+07
         0.28772E+06
         0.92974E+05
         0.63874E+06
         0.12362E+07
        -0.71831E+04
        -0.50851E+06
        -0.11015E+07
        -0.54473E+06
        -0.35654E+07
        -0.40836E+07
        -0.22101E+07
        -0.94050E+06
         0.83894E+06
        -0.10006E+06
         0.17094E+07
         0.24824E+07
         0.93292E+06
         0.74943E+06
         0.11188E+07
        -0.39627E+05
        -0.35237E+03
         0.33647E+06
         0.92410E+06
         0.44528E+06
         0.52906E+06
        -0.18783E+05
         0.18940E+06
         0.51994E+06
         0.75666E+06
         0.90261E+06
         0.12432E+07
         0.17597E+07
         0.18187E+07
         0.22668E+07
         0.62253E+05
         0.18147E+07
         0.70922E+06
         0.20454E+07
         0.31353E+07
         0.38800E+07
         0.33747E+07
         0.35775E+07
         0.31240E+07
         0.24148E+07
         0.21330E+07
         0.17838E+07
         0.12297E+07
         0.20147E+07
         0.81402E+06
        -0.18468E+06
        -0.62535E+05
         0.13345E+06
         0.51726E+06
         0.16640E+07
         0.16802E+07
         0.12519E+07
         0.65519E+06
         0.66746E+06
         0.14343E+07
         0.21348E+07
         0.19203E+07
         0.10942E+07
         0.13349E+07
         0.20286E+07
         0.16864E+07
         0.22917E+07
        -0.36377E+06
        -0.10959E+06
         0.22626E+07
        -0.35758E+06
        -0.12894E+07
         0.96019E+06
         0.12293E+07
        -0.23914E+07
         0.21644E+06
         0.94967E+06
         0.11723E+07
         0.15284E+07
         0.27734E+06
         0.76098E+05
         0.63284E+06
         0.12321E+07
        -0.13847E+05
        -0.52212E+06
        -0.11559E+07
        -0.57234E+06
        -0.36038E+07
        -0.41183E+07
        -0.22200E+07
        -0.95446E+06
         0.76709E+06
        -0.15751E+06
         0.16418E+07
         0.24571E+07
         0.91888E+06
         0.73079E+06
         0.10990E+07
        -0.53376E+05
        -0.13629E+05
         0.32924E+06
         0.92094E+06
         0.44385E+06
         0.52826E+06
        -0.32508E+05
         0.16295E+06
         0.48614E+06
         0.70521E+06
         0.82233E+06
         0.11537E+07
         0.17048E+07
         0.17921E+07
         0.22566E+07
         0.48046E+05
         0.18037E+07
         0.70079E+06
         0.20359E+07
         0.31215E+07
         0.38635E+07
         0.33610E+07
         0.35657E+07
         0.31121E+07
         0.24059E+07
         0.21259E+07
         0.17752E+07
         0.12282E+07
         0.20125E+07
         0.80824E+06
        -0.18787E+06
        -0.69170E+05
         0.10978E+06
         0.48187E+06
         0.16251E+07
         0.16361E+07
         0.11973E+07
         0.60733E+06
         0.64200E+06
         0.14206E+07
         0.21241E+07
         0.19004E+07
         0.10758E+07
         0.13229E+07
         0.20185E+07
         0.16765E+07
         0.22818E+07
        -0.38356E+06
        -0.13042E+06
         0.22418E+07
        -0.38058E+06
        -0.13087E+07
         0.94861E+06
         0.12154E+07
        -0.24115E+07
         0.20690E+06
         0.93771E+06
         0.11575E+07
         0.15170E+07
         0.26784E+06
         0.62779E+05
         0.62357E+06
         0.12223E+07
        -0.22634E+05
        -0.53254E+06
        -0.11729E+07
        -0.58804E+06
        -0.36199E+07
        -0.41368E+07
        -0.22378E+07
        -0.96768E+06
         0.74387E+06
        -0.18039E+06
         0.16192E+07
         0.24432E+07
         0.90705E+06
         0.72069E+06
         0.10869E+07
        -0.70833E+05
        -0.29119E+05
         0.31308E+06
         0.90478E+06
         0.43086E+06
         0.51989E+06
        -0.44767E+05
         0.14715E+06
         0.47035E+06
         0.68825E+06
         0.80242E+06
         0.11313E+07
         0.16856E+07
         0.17756E+07
         0.22438E+07
         0.28582E+05
         0.17846E+07
         0.68790E+06
         0.20227E+07
         0.31055E+07
         0.38495E+07
         0.33466E+07
         0.35457E+07
         0.30856E+07
         0.23782E+07
         0.21007E+07
         0.17638E+07
         0.12190E+07
         0.19929E+07
         0.78784E+06
        -0.20715E+06
        -0.94220E+05
         0.85899E+05
         0.46169E+06
         0.16088E+07
         0.16226E+07
         0.11791E+07
         0.58322E+06
         0.61948E+06
         0.14017E+07
         0.21054E+07
         0.19133E+07
         0.10883E+07
         0.13324E+07
         0.20233E+07
         0.16872E+07
         0.22849E+07
        -0.36806E+06
        -0.11448E+06
         0.22553E+07
        -0.36374E+06
        -0.12945E+07
         0.96028E+06
         0.12245E+07
        -0.23964E+07
         0.22544E+06
         0.95388E+06
         0.11752E+07
         0.15269E+07
         0.28660E+06
         0.78657E+05
         0.63611E+06
         0.12342E+07
        -0.96579E+04
        -0.51403E+06
        -0.11544E+07
        -0.57070E+06
        -0.35955E+07
        -0.41152E+07
        -0.22206E+07
        -0.95271E+06
         0.75796E+06
        -0.16754E+06
         0.16287E+07
         0.24488E+07
         0.92070E+06
         0.73220E+06
         0.10962E+07
        -0.57420E+05
        -0.17293E+05
         0.32354E+06
         0.91613E+06
         0.44344E+06
         0.53261E+06
        -0.32632E+05
         0.15746E+06
         0.48049E+06
         0.69938E+06
         0.81633E+06
         0.11456E+07
         0.16961E+07
         0.17826E+07
         0.22468E+07
         0.57289E+05
         0.18128E+07
         0.70469E+06
         0.20296E+07
         0.31195E+07
         0.38712E+07
         0.33708E+07
         0.35631E+07
         0.30922E+07
         0.23884E+07
         0.21192E+07
         0.17901E+07
         0.12424E+07
         0.20080E+07
         0.80207E+06
        -0.19075E+06
        -0.77641E+05
         0.10625E+06
         0.48099E+06
         0.16314E+07
         0.16461E+07
         0.12001E+07
         0.60064E+06
         0.63495E+06
         0.14172E+07
         0.21223E+07
         0.19101E+07
         0.10872E+07
         0.13301E+07
         0.20170E+07
         0.16851E+07
         0.22796E+07
        -0.36944E+06
        -0.11972E+06
         0.22450E+07
        -0.37178E+06
        -0.13025E+07
         0.95327E+06
         0.12225E+07
        -0.24079E+07
         0.21539E+06
         0.94659E+06
         0.11662E+07
         0.15148E+07
         0.27881E+06
         0.68143E+05
         0.63133E+06
         0.12280E+07
        -0.14186E+05
        -0.52085E+06
        -0.11569E+07
        -0.57718E+06
        -0.36002E+07
        -0.41173E+07
        -0.22243E+07
        -0.95825E+06
         0.75096E+06
        -0.17466E+06
         0.16159E+07
         0.24387E+07
         0.91643E+06
         0.72763E+06
         0.10934E+07
        -0.72439E+05
        -0.25521E+05
         0.31571E+06
         0.90837E+06
         0.43855E+06
         0.52547E+06
        -0.36046E+05
         0.15379E+06
         0.47548E+06
         0.69152E+06
         0.80727E+06
         0.11366E+07
         0.16885E+07
         0.17761E+07
         0.22395E+07
         0.48834E+05
         0.18062E+07
         0.69121E+06
         0.20181E+07
         0.31178E+07
         0.38632E+07
         0.33521E+07
         0.35421E+07
         0.30799E+07
         0.23699E+07
         0.20991E+07
         0.17801E+07
         0.12303E+07
         0.20014E+07
         0.79593E+06
        -0.19644E+06
        -0.78508E+05
         0.10227E+06
         0.47519E+06
         0.16161E+07
         0.16269E+07
         0.11853E+07
         0.59304E+06
         0.63117E+06
         0.14087E+07
         0.21103E+07
         0.19010E+07
         0.10778E+07
         0.13232E+07
         0.20140E+07
         0.16781E+07
         0.22763E+07
        -0.37681E+06
        -0.12771E+06
         0.22356E+07
        -0.37978E+06
        -0.13115E+07
         0.94396E+06
         0.12162E+07
        -0.24174E+07
         0.20511E+06
         0.93634E+06
         0.11595E+07
         0.15075E+07
         0.26919E+06
         0.60030E+05
         0.62515E+06
         0.12217E+07
        -0.21086E+05
        -0.53151E+06
        -0.11592E+07
        -0.58944E+06
        -0.36035E+07
        -0.41220E+07
        -0.22287E+07
        -0.96200E+06
         0.74075E+06
        -0.18623E+06
         0.16082E+07
         0.24375E+07
         0.90602E+06
         0.71969E+06
         0.10869E+07
        -0.86953E+05
        -0.34835E+05
         0.30894E+06
         0.90400E+06
         0.43441E+06
         0.51897E+06
        -0.42585E+05
         0.14724E+06
         0.46872E+06
         0.68419E+06
         0.79943E+06
         0.11279E+07
         0.16818E+07
         0.17699E+07
         0.22362E+07
         0.32023E+05
         0.17922E+07
         0.68094E+06
         0.20147E+07
         0.31133E+07
         0.38469E+07
         0.33286E+07
         0.35232E+07
         0.30671E+07
         0.23566E+07
         0.20908E+07
         0.17702E+07
         0.12159E+07
         0.19915E+07
         0.78568E+06
        -0.20822E+06
        -0.86319E+05
         0.93085E+05
         0.46379E+06
         0.16034E+07
         0.16124E+07
         0.11701E+07
         0.58209E+06
         0.62075E+06
         0.13957E+07
         0.20967E+07
         0.19071E+07
         0.10818E+07
         0.13268E+07
         0.20217E+07
         0.16853E+07
         0.22839E+07
        -0.36639E+06
        -0.11649E+06
         0.22418E+07
        -0.37189E+06
        -0.12980E+07
         0.95195E+06
         0.12190E+07
        -0.24037E+07
         0.22231E+06
         0.94551E+06
         0.11677E+07
         0.15174E+07
         0.28061E+06
         0.72629E+05
         0.63517E+06
         0.12323E+07
        -0.12300E+05
        -0.52011E+06
        -0.11488E+07
        -0.57842E+06
        -0.35877E+07
        -0.41081E+07
        -0.22095E+07
        -0.94577E+06
         0.75194E+06
        -0.17752E+06
         0.16200E+07
         0.24503E+07
         0.91449E+06
         0.72705E+06
         0.10908E+07
        -0.76085E+05
        -0.23090E+05
         0.32396E+06
         0.91664E+06
         0.44402E+06
         0.52921E+06
        -0.35128E+05
         0.15349E+06
         0.47438E+06
         0.69099E+06
         0.80789E+06
         0.11372E+07
         0.16908E+07
         0.17772E+07
         0.22448E+07
         0.52986E+05
         0.18149E+07
         0.70228E+06
         0.20251E+07
         0.31098E+07
         0.38480E+07
         0.33453E+07
         0.35419E+07
         0.30797E+07
         0.23756E+07
         0.21089E+07
         0.17788E+07
         0.12314E+07
         0.20074E+07
         0.80007E+06
        -0.19713E+06
        -0.78858E+05
         0.10240E+06
         0.47252E+06
         0.16171E+07
         0.16286E+07
         0.11858E+07
         0.59549E+06
         0.63210E+06
         0.14126E+07
         0.21164E+07
         0.19030E+07
         0.10742E+07
         0.13202E+07
         0.20144E+07
         0.16782E+07
         0.22763E+07
        -0.37603E+06
        -0.12367E+06
         0.22343E+07
        -0.38203E+06
        -0.13111E+07
         0.94037E+06
         0.12063E+07
        -0.24177E+07
         0.21509E+06
         0.93729E+06
         0.11586E+07
         0.15044E+07
         0.26873E+06
         0.60352E+05
         0.62399E+06
         0.12209E+07
        -0.24140E+05
        -0.53243E+06
        -0.11574E+07
        -0.58917E+06
        -0.36013E+07
        -0.41257E+07
        -0.22225E+07
        -0.95336E+06
         0.74245E+06
        -0.18847E+06
         0.16047E+07
         0.24412E+07
         0.90454E+06
         0.71779E+06
         0.10801E+07
        -0.91935E+05
        -0.38654E+05
         0.31011E+06
         0.90157E+06
         0.42979E+06
         0.51807E+06
        -0.48553E+05
         0.14146E+06
         0.46451E+06
         0.68051E+06
         0.79556E+06
         0.11262E+07
         0.16833E+07
         0.17689E+07
         0.22363E+07
         0.36377E+05
         0.18006E+07
         0.68604E+06
         0.20064E+07
         0.30881E+07
         0.38273E+07
         0.33326E+07
         0.35254E+07
         0.30581E+07
         0.23543E+07
         0.20829E+07
         0.17532E+07
         0.12142E+07
         0.19894E+07
         0.78475E+06
        -0.21455E+06
        -0.10578E+06
         0.78404E+05
         0.46043E+06
         0.16003E+07
         0.16112E+07
         0.11768E+07
         0.58931E+06
         0.61925E+06
         0.13951E+07
         0.20991E+07
         0.19024E+07
         0.10718E+07
         0.13183E+07
         0.20131E+07
         0.16774E+07
         0.22742E+07
        -0.37667E+06
        -0.12378E+06
         0.22349E+07
        -0.38101E+06
        -0.13127E+07
         0.93880E+06
         0.12043E+07
        -0.24194E+07
         0.21591E+06
         0.93595E+06
         0.11609E+07
         0.15013E+07
         0.26790E+06
         0.58761E+05
         0.62164E+06
         0.12192E+07
        -0.26721E+05
        -0.53471E+06
        -0.11550E+07
        -0.59224E+06
        -0.35977E+07
        -0.41280E+07
        -0.22248E+07
        -0.95409E+06
         0.73759E+06
        -0.19288E+06
         0.15979E+07
         0.24399E+07
         0.90229E+06
         0.71483E+06
         0.10768E+07
        -0.99287E+05
        -0.47098E+05
         0.30494E+06
         0.90006E+06
         0.42871E+06
         0.51660E+06
        -0.50728E+05
         0.13927E+06
         0.46220E+06
         0.67717E+06
         0.79076E+06
         0.11217E+07
         0.16816E+07
         0.17674E+07
         0.22343E+07
         0.35847E+05
         0.18009E+07
         0.68163E+06
         0.19992E+07
         0.30876E+07
         0.38269E+07
         0.33274E+07
         0.35117E+07
         0.30424E+07
         0.23456E+07
         0.20820E+07
         0.17506E+07
         0.12098E+07
         0.19824E+07
         0.77677E+06
        -0.22011E+06
        -0.10940E+06
         0.75271E+05
         0.45698E+06
         0.15943E+07
         0.16035E+07
         0.11719E+07
         0.58867E+06
         0.61749E+06
         0.13873E+07
         0.20920E+07
         0.19214E+07
         0.10955E+07
         0.13386E+07
         0.20311E+07
         0.16985E+07
         0.22917E+07
        -0.34481E+06
        -0.10070E+06
         0.22509E+07
        -0.36193E+06
        -0.12811E+07
         0.96404E+06
         0.12275E+07
        -0.23941E+07
         0.24140E+06
         0.95542E+06
         0.11845E+07
         0.15202E+07
         0.29249E+06
         0.85369E+05
         0.64380E+06
         0.12403E+07
        -0.52760E+04
        -0.51006E+06
        -0.11274E+07
        -0.56777E+06
        -0.35671E+07
        -0.40913E+07
        -0.21884E+07
        -0.92522E+06
         0.75976E+06
        -0.16813E+06
         0.16167E+07
         0.24567E+07
         0.92480E+06
         0.73626E+06
         0.10974E+07
        -0.82460E+05
        -0.24860E+05
         0.32895E+06
         0.92106E+06
         0.45022E+06
         0.53561E+06
        -0.27875E+05
         0.16265E+06
         0.48448E+06
         0.69880E+06
         0.81212E+06
         0.11408E+07
         0.16979E+07
         0.17826E+07
         0.22493E+07
         0.74034E+05
         0.18389E+07
         0.71357E+06
         0.20224E+07
         0.31157E+07
         0.38624E+07
         0.33572E+07
         0.35345E+07
         0.30681E+07
         0.23736E+07
         0.21073E+07
         0.17803E+07
         0.12336E+07
         0.20090E+07
         0.80689E+06
        -0.18884E+06
        -0.74276E+05
         0.11288E+06
         0.48928E+06
         0.16280E+07
         0.16324E+07
         0.11934E+07
         0.61230E+06
         0.64568E+06
         0.14179E+07
         0.21229E+07
         0.19137E+07
         0.10887E+07
         0.13325E+07
         0.20219E+07
         0.16896E+07
         0.22839E+07
        -0.35325E+06
        -0.11014E+06
         0.22402E+07
        -0.37491E+06
        -0.12938E+07
         0.95515E+06
         0.12219E+07
        -0.24089E+07
         0.23088E+06
         0.94477E+06
         0.11725E+07
         0.15095E+07
         0.27671E+06
         0.70451E+05
         0.63633E+06
         0.12298E+07
        -0.12550E+05
        -0.52492E+06
        -0.11382E+07
        -0.58299E+06
        -0.35793E+07
        -0.41032E+07
        -0.21898E+07
        -0.93024E+06
         0.75293E+06
        -0.18052E+06
         0.16059E+07
         0.24455E+07
         0.91197E+06
         0.72787E+06
         0.10922E+07
        -0.10045E+06
        -0.37348E+05
         0.32323E+06
         0.91163E+06
         0.43924E+06
         0.52276E+06
        -0.37858E+05
         0.15219E+06
         0.47521E+06
         0.69010E+06
         0.80524E+06
         0.11314E+07
         0.16867E+07
         0.17728E+07
         0.22406E+07
         0.49555E+05
         0.18183E+07
         0.69481E+06
         0.20125E+07
         0.31123E+07
         0.38532E+07
         0.33368E+07
         0.35098E+07
         0.30441E+07
         0.23523E+07
         0.20822E+07
         0.17516E+07
         0.12131E+07
         0.19987E+07
         0.80216E+06
        -0.19180E+06
        -0.84052E+05
         0.95938E+05
         0.47661E+06
         0.16130E+07
         0.16185E+07
         0.11778E+07
         0.59548E+06
         0.63496E+06
         0.14079E+07
         0.21065E+07
         0.19006E+07
         0.10714E+07
         0.13154E+07
         0.20092E+07
         0.16754E+07
         0.22690E+07
        -0.36808E+06
        -0.12144E+06
         0.22249E+07
        -0.39900E+06
        -0.13095E+07
         0.94073E+06
         0.12094E+07
        -0.24240E+07
         0.21747E+06
         0.93164E+06
         0.11534E+07
         0.14973E+07
         0.26384E+06
         0.62983E+05
         0.62710E+06
         0.12176E+07
        -0.21349E+05
        -0.53766E+06
        -0.11601E+07
        -0.59792E+06
        -0.36081E+07
        -0.41228E+07
        -0.21474E+07
        -0.90941E+06
         0.74032E+06
        -0.19787E+06
         0.15952E+07
         0.24381E+07
         0.89753E+06
         0.71399E+06
         0.10796E+07
        -0.12729E+06
        -0.49618E+05
         0.34542E+06
         0.91097E+06
         0.42732E+06
         0.50556E+06
        -0.48661E+05
         0.13885E+06
         0.46034E+06
         0.67489E+06
         0.79290E+06
         0.11207E+07
         0.16776E+07
         0.17640E+07
         0.22300E+07
         0.33206E+05
         0.18033E+07
         0.68205E+06
         0.20014E+07
         0.30968E+07
         0.38281E+07
         0.33080E+07
         0.34823E+07
         0.30200E+07
         0.23467E+07
         0.20385E+07
         0.16829E+07
         0.11841E+07
         0.19826E+07
         0.78789E+06
        -0.20446E+06
        -0.99685E+05
         0.78170E+05
         0.45580E+06
         0.15895E+07
         0.16025E+07
         0.11628E+07
         0.57834E+06
         0.62221E+06
         0.13884E+07
         0.20847E+07
         0.19187E+07
         0.10933E+07
         0.13375E+07
         0.20308E+07
         0.16978E+07
         0.22879E+07
        -0.33998E+06
        -0.98720E+05
         0.22359E+07
        -0.40185E+06
        -0.12809E+07
         0.95959E+06
         0.12266E+07
        -0.24003E+07
         0.24026E+06
         0.95131E+06
         0.11702E+07
         0.15150E+07
         0.29217E+06
         0.10713E+06
         0.64554E+06
         0.12361E+07
        -0.40871E+04
        -0.51107E+06
        -0.11507E+07
        -0.57127E+06
        -0.36125E+07
        -0.40997E+07
        -0.20188E+07
        -0.82298E+06
         0.75928E+06
        -0.17270E+06
         0.16136E+07
         0.24602E+07
         0.92164E+06
         0.73789E+06
         0.10991E+07
        -0.12534E+06
        -0.24303E+05
         0.42709E+06
         0.95114E+06
         0.44908E+06
         0.51667E+06
        -0.29036E+05
         0.16171E+06
         0.48509E+06
         0.69744E+06
         0.81245E+06
         0.11417E+07
         0.16998E+07
         0.17843E+07
         0.22478E+07
         0.72516E+05
         0.18419E+07
         0.72146E+06
         0.20290E+07
         0.31144E+07
         0.38482E+07
         0.33360E+07
         0.35108E+07
         0.30514E+07
         0.24076E+07
         0.20243E+07
         0.16276E+07
         0.11862E+07
         0.20046E+07
         0.80628E+06
        -0.18909E+06
        -0.80682E+05
         0.10965E+06
         0.49440E+06
         0.16256E+07
         0.16339E+07
         0.11952E+07
         0.61467E+06
         0.65590E+06
         0.14156E+07
         0.21133E+07
         0.18517E+07
         0.10131E+07
         0.12586E+07
         0.19498E+07
         0.16177E+07
         0.22051E+07
        -0.43571E+06
        -0.17717E+06
         0.21530E+07
        -0.49904E+06
        -0.13888E+07
         0.87009E+06
         0.11393E+07
        -0.25010E+07
         0.15028E+06
         0.87863E+06
         0.10726E+07
         0.14317E+07
         0.19859E+06
         0.14539E+05
         0.56437E+06
         0.11554E+07
        -0.84136E+05
        -0.60477E+06
        -0.12514E+07
        -0.66014E+06
        -0.37287E+07
        -0.42111E+07
        -0.20674E+07
        -0.87980E+06
         0.68368E+06
        -0.26514E+06
         0.15258E+07
         0.23695E+07
         0.83357E+06
         0.65015E+06
         0.10130E+07
        -0.23206E+06
        -0.11166E+06
         0.37474E+06
         0.87289E+06
         0.36313E+06
         0.43026E+06
        -0.10942E+06
         0.75380E+05
         0.39239E+06
         0.60998E+06
         0.72998E+06
         0.10555E+07
         0.16109E+07
         0.16932E+07
         0.21607E+07
        -0.65059E+05
         0.17087E+07
         0.58334E+06
         0.18884E+07
         0.29747E+07
         0.37142E+07
         0.31993E+07
         0.33632E+07
         0.29126E+07
         0.22818E+07
         0.18488E+07
         0.14366E+07
         0.10491E+07
         0.18904E+07
         0.68749E+06
        -0.31188E+06
        -0.20726E+06
        -0.31152E+05
         0.34924E+06
         0.14866E+07
         0.15041E+07
         0.10705E+07
         0.48749E+06
         0.52492E+06
         0.12901E+07
         0.19887E+07
         0.18903E+07
         0.10187E+07
         0.12735E+07
         0.19824E+07
         0.16445E+07
         0.22322E+07
        -0.42051E+06
        -0.12868E+06
         0.22071E+07
        -0.42680E+06
        -0.13585E+07
         0.87181E+06
         0.11171E+07
        -0.24408E+07
         0.19133E+06
         0.93571E+06
         0.11392E+07
         0.14760E+07
         0.24963E+06
         0.68593E+05
         0.60118E+06
         0.11831E+07
        -0.26577E+05
        -0.53449E+06
        -0.11571E+07
        -0.59471E+06
        -0.36291E+07
        -0.40830E+07
        -0.19597E+07
        -0.79266E+06
         0.73085E+06
        -0.22465E+06
         0.15492E+07
         0.23568E+07
         0.84706E+06
         0.64348E+06
         0.98858E+06
        -0.18195E+06
        -0.47656E+05
         0.43146E+06
         0.90840E+06
         0.41216E+06
         0.48201E+06
        -0.54586E+05
         0.10681E+06
         0.40665E+06
         0.62321E+06
         0.76533E+06
         0.10840E+07
         0.16123E+07
         0.16990E+07
         0.21623E+07
        -0.12304E+05
         0.17773E+07
         0.60062E+06
         0.18580E+07
         0.29119E+07
         0.36761E+07
         0.32617E+07
         0.34278E+07
         0.29642E+07
         0.23122E+07
         0.18573E+07
         0.14628E+07
         0.11010E+07
         0.19161E+07
         0.74146E+06
        -0.23508E+06
        -0.14198E+06
         0.18560E+05
         0.37076E+06
         0.14841E+07
         0.15329E+07
         0.11119E+07
         0.55278E+06
         0.60439E+06
         0.13526E+07
         0.20534E+07
         0.26162E+09
         0.30244E+09
         0.30378E+09
         0.30430E+09
         0.31074E+09
         0.31273E+09
         0.36575E+09
         0.29699E+09
         0.28328E+09
         0.29884E+09
         0.37809E+09
         0.34215E+09
         0.31806E+09
         0.35646E+09
         0.34868E+09
         0.26705E+09
         0.33044E+09
         0.29956E+09
         0.32469E+09
         0.37210E+09
         0.29105E+09
         0.29673E+09
         0.28257E+09
         0.33337E+09
         0.32481E+09
         0.32538E+09
         0.35250E+09
         0.40727E+09
         0.40673E+09
         0.33339E+09
         0.27923E+09
         0.33694E+09
         0.30777E+09
         0.32690E+09
         0.32916E+09
         0.32367E+09
         0.30928E+09
         0.33836E+09
         0.33728E+09
         0.33705E+09
         0.33122E+09
         0.31697E+09
         0.30069E+09
         0.28113E+09
         0.29917E+09
         0.32709E+09
         0.31755E+09
         0.30581E+09
         0.31281E+09
         0.31423E+09
         0.31738E+09
         0.31048E+09
         0.50297E+09
         0.49199E+09
         0.49930E+09
         0.48372E+09
         0.49717E+09
         0.51948E+09
         0.52289E+09
         0.52074E+09
         0.52563E+09
         0.53789E+09
         0.52222E+09
         0.49272E+09
         0.44300E+09
         0.41993E+09
         0.42301E+09
         0.43063E+09
         0.43512E+09
         0.47138E+09
         0.50605E+09
         0.50752E+09
         0.46877E+09
         0.45373E+09
         0.46799E+09
         0.46402E+09
         0.46003E+09
         0.46123E+09
         0.24007E+10
         0.25198E+10
         0.24882E+10
         0.22980E+10
         0.27493E+10
         0.26073E+10
         0.27103E+10
         0.27109E+10
         0.23681E+10
         0.27106E+10
         0.29467E+10
         0.32265E+10
         0.29590E+10
         0.30190E+10
         0.33273E+10
         0.23214E+10
         0.24874E+10
         0.22085E+10
         0.25577E+10
         0.26812E+10
         0.27252E+10
         0.27839E+10
         0.26291E+10
         0.24731E+10
         0.27499E+10
         0.23989E+10
         0.30090E+10
         0.29717E+10
         0.29824E+10
         0.28372E+10
         0.23480E+10
         0.24643E+10
         0.23144E+10
         0.24089E+10
         0.29770E+10
         0.27682E+10
         0.27686E+10
         0.32396E+10
         0.31745E+10
         0.31430E+10
         0.31777E+10
         0.30336E+10
         0.28799E+10
         0.25797E+10
         0.26827E+10
         0.29723E+10
         0.27821E+10
         0.26351E+10
         0.25928E+10
         0.26753E+10
         0.28665E+10
         0.26796E+10
         0.44818E+10
         0.43668E+10
         0.44498E+10
         0.43141E+10
         0.44322E+10
         0.46458E+10
         0.47230E+10
         0.47258E+10
         0.47615E+10
         0.48604E+10
         0.47251E+10
         0.44504E+10
         0.40210E+10
         0.38117E+10
         0.38120E+10
         0.38523E+10
         0.38847E+10
         0.41949E+10
         0.44935E+10
         0.45079E+10
         0.41910E+10
         0.40701E+10
         0.41946E+10
         0.41685E+10
         0.41192E+10
         0.41093E+10
  
SCALARS                      stress_yz  double 1
LOOKUP_TABLE default
         0.33872E+06
        -0.11267E+06
        -0.29273E+06
        -0.15056E+06
        -0.56829E+01
        -0.15663E+01
        -0.70428E+01
        -0.53718E+01
        -0.10972E+07
         0.72165E+06
        -0.10481E+02
        -0.92273E+01
        -0.96246E+06
        -0.48940E+05
         0.75009E+01
        -0.48091E+00
         0.33092E+06
         0.12333E+07
         0.11036E+00
         0.11292E+01
        -0.63998E+06
        -0.24089E+07
        -0.25043E+07
         0.17194E+02
         0.29695E+02
         0.24821E+02
        -0.23744E+06
        -0.24421E+07
         0.12368E+02
         0.23994E+02
         0.37819E+06
         0.32965E+06
        -0.28001E+06
         0.64120E+01
         0.65456E+01
        -0.13589E+00
         0.11239E+07
         0.10830E+07
         0.11799E+02
         0.91802E+01
         0.11048E+07
         0.70325E+06
         0.89171E+01
         0.81491E+01
         0.10020E+07
         0.34546E+06
        -0.29580E+00
         0.45754E+01
         0.93032E+06
         0.21542E+01
         0.91695E+05
        -0.17448E+00
         0.54808E+05
         0.83328E+01
        -0.36323E+06
         0.48474E+01
        -0.11846E+07
         0.21036E+06
         0.13150E+00
        -0.26691E+00
         0.45863E+06
         0.16734E+07
        -0.17917E+01
        -0.67019E+01
         0.27695E+06
        -0.36167E+01
         0.11890E+07
        -0.44059E+01
        -0.96561E+06
        -0.51147E+06
        -0.54449E+00
         0.71892E+01
        -0.17883E+07
         0.15786E+02
        -0.30999E+07
         0.15285E+02
        -0.31284E+07
         0.11603E+02
        -0.25770E+07
         0.97254E+01
        -0.37796E+07
        -0.29009E+07
         0.62389E+01
        -0.13833E+01
        -0.40572E+06
        -0.15478E+00
         0.15659E+07
        -0.96959E+01
         0.37009E+07
        -0.16974E+02
         0.51716E+07
         0.32057E+07
        -0.25175E+02
        -0.20377E+02
         0.22546E+07
        -0.15818E+02
         0.20230E+07
        -0.16183E+02
         0.19686E+07
        -0.17400E+02
         0.32759E+07
         0.27224E+07
        -0.16181E+02
        -0.77532E+01
        -0.21975E+07
         0.83181E+06
         0.56896E+01
        -0.70703E+01
        -0.54024E+07
         0.18928E+02
        -0.77338E+07
         0.27687E+02
        -0.94687E+07
         0.34193E+02
        -0.11104E+08
         0.33917E+02
        -0.13072E+08
         0.26841E+02
        -0.13362E+08
         0.20772E+02
        -0.12582E+08
         0.19319E+02
        -0.11196E+08
         0.18381E+02
        -0.81652E+07
         0.11747E+02
        -0.55146E+07
         0.38783E+01
        -0.27666E+07
         0.25060E+01
         0.19902E+06
         0.37667E+01
         0.26400E+07
         0.19455E+01
         0.47361E+07
        -0.58835E+01
         0.73294E+07
        -0.16607E+02
         0.82468E+07
        -0.25932E+02
         0.90204E+07
        -0.33997E+02
         0.11524E+08
        -0.33967E+02
         0.11936E+08
        -0.29652E+02
         0.11030E+08
        -0.28899E+02
         0.89711E+07
        -0.29078E+02
         0.60992E+07
        -0.22994E+02
         0.43201E+07
        -0.13598E+02
         0.31067E+07
        -0.10514E+02
        -0.28705E+07
        -0.14840E+07
        -0.12956E+07
        -0.40262E+06
        -0.13261E+07
        -0.14116E+07
        -0.14863E+06
        -0.22860E+07
        -0.19642E+07
        -0.28792E+07
         0.15004E+07
         0.63990E+07
         0.43753E+07
         0.50750E+06
         0.64664E+07
         0.76056E+06
        -0.67371E+06
         0.43398E+06
         0.56563E+06
        -0.42769E+06
         0.39252E+06
         0.32376E+06
        -0.10872E+07
         0.91650E+05
        -0.19658E+07
         0.29062E+06
         0.15033E+05
         0.26286E+06
         0.31871E+06
        -0.15402E+07
         0.74231E+06
        -0.80434E+06
         0.53983E+06
        -0.13139E+06
         0.21614E+06
         0.11730E+07
         0.26320E+07
         0.56855E+07
         0.51946E+07
         0.43844E+07
         0.41247E+07
         0.10267E+07
        -0.84156E+06
        -0.23077E+07
        -0.38093E+07
        -0.62103E+07
        -0.40817E+07
        -0.29320E+07
        -0.31279E+07
        -0.33187E+07
        -0.38874E+07
        -0.17798E+07
         0.33333E+07
        -0.40131E+07
         0.10866E+08
         0.15017E+08
         0.19140E+08
         0.22708E+08
         0.22812E+08
         0.20648E+08
         0.19650E+08
         0.18570E+08
         0.11993E+08
         0.52770E+07
         0.23241E+07
         0.10250E+07
        -0.15705E+07
        -0.62107E+07
        -0.11414E+08
        -0.14884E+08
        -0.17974E+08
        -0.20620E+08
        -0.19439E+08
        -0.18377E+08
        -0.17095E+08
        -0.11880E+08
        -0.69470E+07
        -0.61020E+07
        -0.16486E+09
        -0.16849E+09
        -0.16486E+09
        -0.48974E+08
        -0.12061E+09
        -0.76875E+08
        -0.95643E+08
        -0.15827E+09
        -0.16167E+09
        -0.15744E+09
         0.16495E+09
         0.18007E+09
         0.13775E+09
         0.37969E+08
         0.16998E+09
         0.84550E+08
        -0.40658E+08
         0.38816E+08
         0.16081E+09
         0.33825E+08
         0.47167E+08
         0.35539E+08
        -0.21119E+08
         0.52391E+08
        -0.16062E+09
         0.52380E+08
         0.86092E+07
         0.24435E+08
        -0.39030E+08
        -0.14828E+09
         0.10585E+09
         0.38087E+08
         0.93455E+08
         0.81145E+08
        -0.13681E+08
         0.67583E+08
         0.10115E+09
         0.15606E+09
         0.17575E+09
         0.16564E+09
         0.87727E+08
        -0.23748E+08
        -0.48615E+08
        -0.77122E+08
        -0.11043E+09
        -0.16826E+09
        -0.14542E+09
        -0.11208E+09
        -0.16914E+09
        -0.17052E+09
        -0.11126E+09
        -0.11884E+08
         0.35530E+08
        -0.49742E+08
         0.11118E+09
         0.14464E+09
         0.17614E+09
         0.19815E+09
         0.20150E+09
         0.19579E+09
         0.19210E+09
         0.17868E+09
         0.11428E+09
         0.38138E+08
         0.18072E+08
         0.16218E+08
        -0.68943E+07
        -0.54937E+08
        -0.10641E+09
        -0.13670E+09
        -0.18430E+09
        -0.19946E+09
        -0.19269E+09
        -0.19097E+09
        -0.17957E+09
        -0.12907E+09
        -0.65325E+08
        -0.62332E+08
        -0.16485E+09
        -0.16849E+09
        -0.16486E+09
        -0.49334E+08
        -0.12068E+09
        -0.76977E+08
        -0.95763E+08
        -0.15840E+09
        -0.16169E+09
        -0.15759E+09
         0.16505E+09
         0.18006E+09
         0.13774E+09
         0.38054E+08
         0.17003E+09
         0.84491E+08
        -0.41027E+08
         0.38758E+08
         0.16083E+09
         0.33637E+08
         0.47280E+08
         0.35576E+08
        -0.21126E+08
         0.52366E+08
        -0.16069E+09
         0.52285E+08
         0.87079E+07
         0.24571E+08
        -0.38773E+08
        -0.14835E+09
         0.10577E+09
         0.38004E+08
         0.93662E+08
         0.81278E+08
        -0.13547E+08
         0.67646E+08
         0.10117E+09
         0.15608E+09
         0.17576E+09
         0.16562E+09
         0.87740E+08
        -0.23673E+08
        -0.48660E+08
        -0.77163E+08
        -0.11045E+09
        -0.16827E+09
        -0.14544E+09
        -0.11202E+09
        -0.16914E+09
        -0.17052E+09
        -0.11127E+09
        -0.11721E+08
         0.35508E+08
        -0.49755E+08
         0.11120E+09
         0.14464E+09
         0.17615E+09
         0.19814E+09
         0.20149E+09
         0.19578E+09
         0.19210E+09
         0.17868E+09
         0.11427E+09
         0.38154E+08
         0.18073E+08
         0.16252E+08
        -0.68374E+07
        -0.54955E+08
        -0.10643E+09
        -0.13670E+09
        -0.18431E+09
        -0.19946E+09
        -0.19269E+09
        -0.19098E+09
        -0.17958E+09
        -0.12905E+09
        -0.65286E+08
        -0.62280E+08
        -0.16483E+09
        -0.16848E+09
        -0.16485E+09
        -0.49697E+08
        -0.12074E+09
        -0.77081E+08
        -0.95883E+08
        -0.15852E+09
        -0.16172E+09
        -0.15774E+09
         0.16515E+09
         0.18005E+09
         0.13772E+09
         0.38136E+08
         0.17009E+09
         0.84431E+08
        -0.41401E+08
         0.38699E+08
         0.16085E+09
         0.33445E+08
         0.47394E+08
         0.35611E+08
        -0.21135E+08
         0.52334E+08
        -0.16076E+09
         0.52176E+08
         0.88136E+07
         0.24716E+08
        -0.38492E+08
        -0.14841E+09
         0.10569E+09
         0.37903E+08
         0.93871E+08
         0.81409E+08
        -0.13412E+08
         0.67708E+08
         0.10119E+09
         0.15609E+09
         0.17577E+09
         0.16559E+09
         0.87756E+08
        -0.23591E+08
        -0.48701E+08
        -0.77211E+08
        -0.11048E+09
        -0.16827E+09
        -0.14545E+09
        -0.11195E+09
        -0.16915E+09
        -0.17051E+09
        -0.11128E+09
        -0.11559E+08
         0.35487E+08
        -0.49769E+08
         0.11123E+09
         0.14464E+09
         0.17615E+09
         0.19813E+09
         0.20148E+09
         0.19577E+09
         0.19210E+09
         0.17868E+09
         0.11427E+09
         0.38172E+08
         0.18073E+08
         0.16285E+08
        -0.67802E+07
        -0.54972E+08
        -0.10646E+09
        -0.13671E+09
        -0.18431E+09
        -0.19945E+09
        -0.19270E+09
        -0.19098E+09
        -0.17959E+09
        -0.12904E+09
        -0.65248E+08
        -0.62228E+08
        -0.16482E+09
        -0.16848E+09
        -0.16484E+09
        -0.50062E+08
        -0.12081E+09
        -0.77185E+08
        -0.96010E+08
        -0.15864E+09
        -0.16174E+09
        -0.15789E+09
         0.16525E+09
         0.18004E+09
         0.13771E+09
         0.38222E+08
         0.17014E+09
         0.84366E+08
        -0.41781E+08
         0.38639E+08
         0.16087E+09
         0.33241E+08
         0.47508E+08
         0.35643E+08
        -0.21153E+08
         0.52282E+08
        -0.16081E+09
         0.52033E+08
         0.89233E+07
         0.24909E+08
        -0.38143E+08
        -0.14847E+09
         0.10559E+09
         0.37767E+08
         0.94077E+08
         0.81541E+08
        -0.13279E+08
         0.67770E+08
         0.10120E+09
         0.15611E+09
         0.17578E+09
         0.16557E+09
         0.87779E+08
        -0.23489E+08
        -0.48731E+08
        -0.77278E+08
        -0.11053E+09
        -0.16829E+09
        -0.14546E+09
        -0.11189E+09
        -0.16915E+09
        -0.17050E+09
        -0.11129E+09
        -0.11396E+08
         0.35466E+08
        -0.49783E+08
         0.11125E+09
         0.14464E+09
         0.17616E+09
         0.19813E+09
         0.20147E+09
         0.19576E+09
         0.19211E+09
         0.17868E+09
         0.11426E+09
         0.38193E+08
         0.18075E+08
         0.16319E+08
        -0.67225E+07
        -0.54990E+08
        -0.10649E+09
        -0.13672E+09
        -0.18432E+09
        -0.19945E+09
        -0.19270E+09
        -0.19098E+09
        -0.17960E+09
        -0.12903E+09
        -0.65210E+08
        -0.62176E+08
        -0.16481E+09
        -0.16847E+09
        -0.16483E+09
        -0.50424E+08
        -0.12087E+09
        -0.77288E+08
        -0.96127E+08
        -0.15876E+09
        -0.16177E+09
        -0.15804E+09
         0.16534E+09
         0.18003E+09
         0.13769E+09
         0.38309E+08
         0.17019E+09
         0.84297E+08
        -0.42168E+08
         0.38578E+08
         0.16089E+09
         0.33027E+08
         0.47624E+08
         0.35670E+08
        -0.21179E+08
         0.52209E+08
        -0.16085E+09
         0.51854E+08
         0.90457E+07
         0.25144E+08
        -0.37725E+08
        -0.14852E+09
         0.10549E+09
         0.37589E+08
         0.94282E+08
         0.81673E+08
        -0.13144E+08
         0.67833E+08
         0.10122E+09
         0.15612E+09
         0.17579E+09
         0.16555E+09
         0.87810E+08
        -0.23367E+08
        -0.48750E+08
        -0.77366E+08
        -0.11059E+09
        -0.16830E+09
        -0.14548E+09
        -0.11183E+09
        -0.16915E+09
        -0.17050E+09
        -0.11130E+09
        -0.11232E+08
         0.35444E+08
        -0.49796E+08
         0.11127E+09
         0.14464E+09
         0.17616E+09
         0.19812E+09
         0.20147E+09
         0.19575E+09
         0.19211E+09
         0.17868E+09
         0.11426E+09
         0.38217E+08
         0.18077E+08
         0.16351E+08
        -0.66646E+07
        -0.55009E+08
        -0.10652E+09
        -0.13673E+09
        -0.18433E+09
        -0.19945E+09
        -0.19271E+09
        -0.19099E+09
        -0.17961E+09
        -0.12901E+09
        -0.65172E+08
        -0.62124E+08
        -0.16479E+09
        -0.16846E+09
        -0.16483E+09
        -0.50791E+08
        -0.12094E+09
        -0.77392E+08
        -0.96233E+08
        -0.15888E+09
        -0.16180E+09
        -0.15819E+09
         0.16544E+09
         0.18002E+09
         0.13767E+09
         0.38402E+08
         0.17025E+09
         0.84228E+08
        -0.42562E+08
         0.38519E+08
         0.16091E+09
         0.32808E+08
         0.47738E+08
         0.35696E+08
        -0.21209E+08
         0.52128E+08
        -0.16090E+09
         0.51662E+08
         0.91777E+07
         0.25404E+08
        -0.37277E+08
        -0.14856E+09
         0.10538E+09
         0.37390E+08
         0.94493E+08
         0.81812E+08
        -0.13008E+08
         0.67896E+08
         0.10124E+09
         0.15614E+09
         0.17580E+09
         0.16554E+09
         0.87842E+08
        -0.23238E+08
        -0.48764E+08
        -0.77461E+08
        -0.11065E+09
        -0.16831E+09
        -0.14550E+09
        -0.11178E+09
        -0.16916E+09
        -0.17049E+09
        -0.11131E+09
        -0.11067E+08
         0.35422E+08
        -0.49810E+08
         0.11129E+09
         0.14464E+09
         0.17617E+09
         0.19812E+09
         0.20146E+09
         0.19573E+09
         0.19212E+09
         0.17868E+09
         0.11426E+09
         0.38243E+08
         0.18080E+08
         0.16384E+08
        -0.66067E+07
        -0.55028E+08
        -0.10655E+09
        -0.13674E+09
        -0.18433E+09
        -0.19945E+09
        -0.19271E+09
        -0.19099E+09
        -0.17962E+09
        -0.12899E+09
        -0.65133E+08
        -0.62072E+08
        -0.16478E+09
        -0.16845E+09
        -0.16483E+09
        -0.51168E+08
        -0.12100E+09
        -0.77496E+08
        -0.96316E+08
        -0.15900E+09
        -0.16183E+09
        -0.15833E+09
         0.16553E+09
         0.18001E+09
         0.13766E+09
         0.38517E+08
         0.17030E+09
         0.84163E+08
        -0.42966E+08
         0.38460E+08
         0.16093E+09
         0.32589E+08
         0.47853E+08
         0.35722E+08
        -0.21239E+08
         0.52050E+08
        -0.16094E+09
         0.51469E+08
         0.93331E+07
         0.25681E+08
        -0.36821E+08
        -0.14859E+09
         0.10528E+09
         0.37178E+08
         0.94710E+08
         0.81956E+08
        -0.12872E+08
         0.67961E+08
         0.10126E+09
         0.15616E+09
         0.17581E+09
         0.16552E+09
         0.87877E+08
        -0.23106E+08
        -0.48776E+08
        -0.77555E+08
        -0.11072E+09
        -0.16833E+09
        -0.14553E+09
        -0.11175E+09
        -0.16917E+09
        -0.17048E+09
        -0.11131E+09
        -0.10899E+08
         0.35400E+08
        -0.49823E+08
         0.11131E+09
         0.14464E+09
         0.17617E+09
         0.19811E+09
         0.20145E+09
         0.19572E+09
         0.19212E+09
         0.17868E+09
         0.11426E+09
         0.38269E+08
         0.18083E+08
         0.16416E+08
        -0.65488E+07
        -0.55048E+08
        -0.10659E+09
        -0.13675E+09
        -0.18434E+09
        -0.19945E+09
        -0.19272E+09
        -0.19099E+09
        -0.17963E+09
        -0.12898E+09
        -0.65095E+08
        -0.62020E+08
        -0.16477E+09
        -0.16844E+09
        -0.16483E+09
        -0.51550E+08
        -0.12107E+09
        -0.77600E+08
        -0.96381E+08
        -0.15911E+09
        -0.16186E+09
        -0.15847E+09
         0.16563E+09
         0.18000E+09
         0.13765E+09
         0.38637E+08
         0.17036E+09
         0.84100E+08
        -0.43375E+08
         0.38399E+08
         0.16096E+09
         0.32370E+08
         0.47968E+08
         0.35749E+08
        -0.21269E+08
         0.51973E+08
        -0.16099E+09
         0.51278E+08
         0.94947E+07
         0.25965E+08
        -0.36363E+08
        -0.14863E+09
         0.10517E+09
         0.36957E+08
         0.94930E+08
         0.82107E+08
        -0.12734E+08
         0.68026E+08
         0.10128E+09
         0.15618E+09
         0.17582E+09
         0.16550E+09
         0.87911E+08
        -0.22974E+08
        -0.48788E+08
        -0.77647E+08
        -0.11078E+09
        -0.16834E+09
        -0.14556E+09
        -0.11173E+09
        -0.16918E+09
        -0.17047E+09
        -0.11131E+09
        -0.10730E+08
         0.35379E+08
        -0.49837E+08
         0.11133E+09
         0.14464E+09
         0.17618E+09
         0.19810E+09
         0.20144E+09
         0.19571E+09
         0.19212E+09
         0.17868E+09
         0.11426E+09
         0.38295E+08
         0.18086E+08
         0.16450E+08
        -0.64908E+07
        -0.55067E+08
        -0.10662E+09
        -0.13676E+09
        -0.18434E+09
        -0.19944E+09
        -0.19273E+09
        -0.19100E+09
        -0.17964E+09
        -0.12896E+09
        -0.65057E+08
        -0.61968E+08
        -0.16475E+09
        -0.16843E+09
        -0.16482E+09
        -0.51932E+08
        -0.12113E+09
        -0.77704E+08
        -0.96447E+08
        -0.15923E+09
        -0.16189E+09
        -0.15860E+09
         0.16572E+09
         0.17999E+09
         0.13764E+09
         0.38762E+08
         0.17041E+09
         0.84037E+08
        -0.43786E+08
         0.38337E+08
         0.16098E+09
         0.32149E+08
         0.48084E+08
         0.35775E+08
        -0.21299E+08
         0.51898E+08
        -0.16103E+09
         0.51087E+08
         0.96600E+07
         0.26246E+08
        -0.35906E+08
        -0.14866E+09
         0.10507E+09
         0.36738E+08
         0.95150E+08
         0.82256E+08
        -0.12596E+08
         0.68090E+08
         0.10130E+09
         0.15620E+09
         0.17584E+09
         0.16548E+09
         0.87944E+08
        -0.22843E+08
        -0.48800E+08
        -0.77740E+08
        -0.11085E+09
        -0.16835E+09
        -0.14559E+09
        -0.11170E+09
        -0.16919E+09
        -0.17046E+09
        -0.11132E+09
        -0.10561E+08
         0.35357E+08
        -0.49850E+08
         0.11135E+09
         0.14464E+09
         0.17618E+09
         0.19810E+09
         0.20143E+09
         0.19570E+09
         0.19213E+09
         0.17868E+09
         0.11425E+09
         0.38320E+08
         0.18090E+08
         0.16483E+08
        -0.64330E+07
        -0.55086E+08
        -0.10666E+09
        -0.13678E+09
        -0.18435E+09
        -0.19944E+09
        -0.19273E+09
        -0.19100E+09
        -0.17965E+09
        -0.12895E+09
        -0.65018E+08
        -0.61915E+08
        -0.16474E+09
        -0.16842E+09
        -0.16482E+09
        -0.52311E+08
        -0.12120E+09
        -0.77807E+08
        -0.96511E+08
        -0.15934E+09
        -0.16191E+09
        -0.15873E+09
         0.16581E+09
         0.17998E+09
         0.13763E+09
         0.38882E+08
         0.17047E+09
         0.83974E+08
        -0.44199E+08
         0.38276E+08
         0.16100E+09
         0.31927E+08
         0.48198E+08
         0.35801E+08
        -0.21327E+08
         0.51822E+08
        -0.16108E+09
         0.50897E+08
         0.98208E+07
         0.26524E+08
        -0.35451E+08
        -0.14870E+09
         0.10497E+09
         0.36518E+08
         0.95367E+08
         0.82405E+08
        -0.12459E+08
         0.68155E+08
         0.10132E+09
         0.15622E+09
         0.17585E+09
         0.16546E+09
         0.87978E+08
        -0.22712E+08
        -0.48813E+08
        -0.77832E+08
        -0.11091E+09
        -0.16836E+09
        -0.14563E+09
        -0.11168E+09
        -0.16919E+09
        -0.17045E+09
        -0.11132E+09
        -0.10391E+08
         0.35335E+08
        -0.49863E+08
         0.11137E+09
         0.14464E+09
         0.17619E+09
         0.19809E+09
         0.20142E+09
         0.19569E+09
         0.19213E+09
         0.17867E+09
         0.11425E+09
         0.38346E+08
         0.18094E+08
         0.16517E+08
        -0.63753E+07
        -0.55105E+08
        -0.10669E+09
        -0.13679E+09
        -0.18436E+09
        -0.19944E+09
        -0.19274E+09
        -0.19100E+09
        -0.17966E+09
        -0.12893E+09
        -0.64980E+08
        -0.61863E+08
        -0.16473E+09
        -0.16841E+09
        -0.16482E+09
        -0.52691E+08
        -0.12126E+09
        -0.77910E+08
        -0.96583E+08
        -0.15945E+09
        -0.16194E+09
        -0.15887E+09
         0.16589E+09
         0.17997E+09
         0.13761E+09
         0.39006E+08
         0.17052E+09
         0.83912E+08
        -0.44612E+08
         0.38215E+08
         0.16102E+09
         0.31704E+08
         0.48313E+08
         0.35827E+08
        -0.21357E+08
         0.51747E+08
        -0.16112E+09
         0.50706E+08
         0.99842E+07
         0.26797E+08
        -0.34996E+08
        -0.14873E+09
         0.10486E+09
         0.36298E+08
         0.95587E+08
         0.82554E+08
        -0.12321E+08
         0.68220E+08
         0.10134E+09
         0.15624E+09
         0.17586E+09
         0.16544E+09
         0.88011E+08
        -0.22582E+08
        -0.48825E+08
        -0.77924E+08
        -0.11098E+09
        -0.16838E+09
        -0.14566E+09
        -0.11166E+09
        -0.16920E+09
        -0.17045E+09
        -0.11133E+09
        -0.10221E+08
         0.35313E+08
        -0.49876E+08
         0.11139E+09
         0.14464E+09
         0.17619E+09
         0.19808E+09
         0.20141E+09
         0.19568E+09
         0.19214E+09
         0.17867E+09
         0.11425E+09
         0.38371E+08
         0.18097E+08
         0.16550E+08
        -0.63174E+07
        -0.55124E+08
        -0.10672E+09
        -0.13680E+09
        -0.18436E+09
        -0.19944E+09
        -0.19275E+09
        -0.19101E+09
        -0.17966E+09
        -0.12892E+09
        -0.64943E+08
        -0.61811E+08
        -0.16472E+09
        -0.16840E+09
        -0.16482E+09
        -0.53073E+08
        -0.12132E+09
        -0.78014E+08
        -0.96648E+08
        -0.15956E+09
        -0.16197E+09
        -0.15900E+09
         0.16598E+09
         0.17996E+09
         0.13760E+09
         0.39130E+08
         0.17057E+09
         0.83850E+08
        -0.45027E+08
         0.38152E+08
         0.16104E+09
         0.31482E+08
         0.48428E+08
         0.35852E+08
        -0.21386E+08
         0.51673E+08
        -0.16117E+09
         0.50518E+08
         0.10144E+08
         0.27070E+08
        -0.34541E+08
        -0.14876E+09
         0.10476E+09
         0.36079E+08
         0.95805E+08
         0.82706E+08
        -0.12182E+08
         0.68285E+08
         0.10136E+09
         0.15626E+09
         0.17587E+09
         0.16542E+09
         0.88045E+08
        -0.22453E+08
        -0.48836E+08
        -0.78015E+08
        -0.11104E+09
        -0.16839E+09
        -0.14569E+09
        -0.11164E+09
        -0.16921E+09
        -0.17044E+09
        -0.11133E+09
        -0.10050E+08
         0.35291E+08
        -0.49889E+08
         0.11141E+09
         0.14464E+09
         0.17620E+09
         0.19808E+09
         0.20140E+09
         0.19566E+09
         0.19214E+09
         0.17867E+09
         0.11425E+09
         0.38397E+08
         0.18100E+08
         0.16583E+08
        -0.62594E+07
        -0.55143E+08
        -0.10676E+09
        -0.13681E+09
        -0.18437E+09
        -0.19944E+09
        -0.19275E+09
        -0.19101E+09
        -0.17967E+09
        -0.12890E+09
        -0.64905E+08
        -0.61758E+08
        -0.16471E+09
        -0.16839E+09
        -0.16482E+09
        -0.53457E+08
        -0.12139E+09
        -0.78118E+08
        -0.96713E+08
        -0.15967E+09
        -0.16200E+09
        -0.15913E+09
         0.16606E+09
         0.17995E+09
         0.13759E+09
         0.39251E+08
         0.17063E+09
         0.83788E+08
        -0.45441E+08
         0.38089E+08
         0.16106E+09
         0.31262E+08
         0.48543E+08
         0.35877E+08
        -0.21415E+08
         0.51600E+08
        -0.16122E+09
         0.50327E+08
         0.10308E+08
         0.27339E+08
        -0.34087E+08
        -0.14880E+09
         0.10466E+09
         0.35857E+08
         0.96022E+08
         0.82855E+08
        -0.12044E+08
         0.68350E+08
         0.10138E+09
         0.15628E+09
         0.17588E+09
         0.16541E+09
         0.88078E+08
        -0.22323E+08
        -0.48848E+08
        -0.78107E+08
        -0.11111E+09
        -0.16840E+09
        -0.14572E+09
        -0.11161E+09
        -0.16922E+09
        -0.17043E+09
        -0.11134E+09
        -0.98794E+07
         0.35269E+08
        -0.49902E+08
         0.11143E+09
         0.14464E+09
         0.17620E+09
         0.19807E+09
         0.20140E+09
         0.19565E+09
         0.19215E+09
         0.17867E+09
         0.11425E+09
         0.38422E+08
         0.18104E+08
         0.16616E+08
        -0.62015E+07
        -0.55162E+08
        -0.10679E+09
        -0.13682E+09
        -0.18437E+09
        -0.19944E+09
        -0.19276E+09
        -0.19102E+09
        -0.17968E+09
        -0.12888E+09
        -0.64867E+08
        -0.61706E+08
        -0.16469E+09
        -0.16837E+09
        -0.16482E+09
        -0.53841E+08
        -0.12145E+09
        -0.78223E+08
        -0.96787E+08
        -0.15978E+09
        -0.16203E+09
        -0.15926E+09
         0.16614E+09
         0.17994E+09
         0.13758E+09
         0.39376E+08
         0.17068E+09
         0.83726E+08
        -0.45858E+08
         0.38027E+08
         0.16108E+09
         0.31041E+08
         0.48657E+08
         0.35903E+08
        -0.21444E+08
         0.51526E+08
        -0.16126E+09
         0.50136E+08
         0.10468E+08
         0.27605E+08
        -0.33636E+08
        -0.14883E+09
         0.10455E+09
         0.35637E+08
         0.96240E+08
         0.83006E+08
        -0.11904E+08
         0.68414E+08
         0.10139E+09
         0.15630E+09
         0.17589E+09
         0.16539E+09
         0.88112E+08
        -0.22193E+08
        -0.48860E+08
        -0.78199E+08
        -0.11118E+09
        -0.16842E+09
        -0.14576E+09
        -0.11159E+09
        -0.16923E+09
        -0.17042E+09
        -0.11134E+09
        -0.97092E+07
         0.35247E+08
        -0.49915E+08
         0.11145E+09
         0.14464E+09
         0.17621E+09
         0.19806E+09
         0.20139E+09
         0.19564E+09
         0.19215E+09
         0.17867E+09
         0.11425E+09
         0.38448E+08
         0.18107E+08
         0.16649E+08
        -0.61438E+07
        -0.55181E+08
        -0.10683E+09
        -0.13684E+09
        -0.18438E+09
        -0.19943E+09
        -0.19277E+09
        -0.19102E+09
        -0.17969E+09
        -0.12887E+09
        -0.64830E+08
        -0.61653E+08
        -0.16468E+09
        -0.16836E+09
        -0.16482E+09
        -0.54223E+08
        -0.12151E+09
        -0.78326E+08
        -0.96853E+08
        -0.15989E+09
        -0.16206E+09
        -0.15939E+09
         0.16622E+09
         0.17993E+09
         0.13757E+09
         0.39496E+08
         0.17074E+09
         0.83664E+08
        -0.46276E+08
         0.37966E+08
         0.16110E+09
         0.30819E+08
         0.48772E+08
         0.35928E+08
        -0.21473E+08
         0.51455E+08
        -0.16131E+09
         0.49946E+08
         0.10631E+08
         0.27866E+08
        -0.33185E+08
        -0.14887E+09
         0.10445E+09
         0.35416E+08
         0.96457E+08
         0.83157E+08
        -0.11766E+08
         0.68479E+08
         0.10141E+09
         0.15632E+09
         0.17590E+09
         0.16537E+09
         0.88146E+08
        -0.22063E+08
        -0.48872E+08
        -0.78290E+08
        -0.11124E+09
        -0.16843E+09
        -0.14579E+09
        -0.11157E+09
        -0.16924E+09
        -0.17041E+09
        -0.11135E+09
        -0.95375E+07
         0.35225E+08
        -0.49928E+08
         0.11147E+09
         0.14465E+09
         0.17621E+09
         0.19806E+09
         0.20138E+09
         0.19563E+09
         0.19215E+09
         0.17867E+09
         0.11424E+09
         0.38473E+08
         0.18110E+08
         0.16682E+08
        -0.60860E+07
        -0.55200E+08
        -0.10686E+09
        -0.13685E+09
        -0.18439E+09
        -0.19943E+09
        -0.19277E+09
        -0.19102E+09
        -0.17970E+09
        -0.12885E+09
        -0.64793E+08
        -0.61600E+08
        -0.16467E+09
        -0.16835E+09
        -0.16482E+09
        -0.54605E+08
        -0.12158E+09
        -0.78429E+08
        -0.96921E+08
        -0.16000E+09
        -0.16209E+09
        -0.15951E+09
         0.16629E+09
         0.17992E+09
         0.13755E+09
         0.39620E+08
         0.17079E+09
         0.83602E+08
        -0.46696E+08
         0.37903E+08
         0.16112E+09
         0.30597E+08
         0.48887E+08
         0.35952E+08
        -0.21502E+08
         0.51384E+08
        -0.16135E+09
         0.49755E+08
         0.10789E+08
         0.28124E+08
        -0.32737E+08
        -0.14890E+09
         0.10435E+09
         0.35196E+08
         0.96674E+08
         0.83309E+08
        -0.11626E+08
         0.68543E+08
         0.10143E+09
         0.15634E+09
         0.17591E+09
         0.16535E+09
         0.88179E+08
        -0.21934E+08
        -0.48884E+08
        -0.78381E+08
        -0.11131E+09
        -0.16844E+09
        -0.14582E+09
        -0.11154E+09
        -0.16925E+09
        -0.17040E+09
        -0.11135E+09
        -0.93652E+07
         0.35203E+08
        -0.49940E+08
         0.11149E+09
         0.14465E+09
         0.17622E+09
         0.19805E+09
         0.20137E+09
         0.19562E+09
         0.19216E+09
         0.17867E+09
         0.11424E+09
         0.38499E+08
         0.18114E+08
         0.16715E+08
        -0.60282E+07
        -0.55218E+08
        -0.10690E+09
        -0.13686E+09
        -0.18439E+09
        -0.19943E+09
        -0.19278E+09
        -0.19103E+09
        -0.17971E+09
        -0.12884E+09
        -0.64756E+08
        -0.61548E+08
        -0.16465E+09
        -0.16834E+09
        -0.16482E+09
        -0.54988E+08
        -0.12164E+09
        -0.78533E+08
        -0.96991E+08
        -0.16011E+09
        -0.16212E+09
        -0.15964E+09
         0.16637E+09
         0.17991E+09
         0.13754E+09
         0.39740E+08
         0.17085E+09
         0.83541E+08
        -0.47119E+08
         0.37840E+08
         0.16114E+09
         0.30378E+08
         0.49001E+08
         0.35976E+08
        -0.21531E+08
         0.51312E+08
        -0.16140E+09
         0.49563E+08
         0.10952E+08
         0.28379E+08
        -0.32288E+08
        -0.14893E+09
         0.10424E+09
         0.34975E+08
         0.96890E+08
         0.83461E+08
        -0.11486E+08
         0.68608E+08
         0.10145E+09
         0.15636E+09
         0.17593E+09
         0.16533E+09
         0.88214E+08
        -0.21807E+08
        -0.48897E+08
        -0.78472E+08
        -0.11137E+09
        -0.16846E+09
        -0.14586E+09
        -0.11152E+09
        -0.16926E+09
        -0.17039E+09
        -0.11135E+09
        -0.91938E+07
         0.35181E+08
        -0.49953E+08
         0.11151E+09
         0.14465E+09
         0.17622E+09
         0.19804E+09
         0.20136E+09
         0.19561E+09
         0.19216E+09
         0.17867E+09
         0.11424E+09
         0.38524E+08
         0.18116E+08
         0.16748E+08
        -0.59707E+07
        -0.55237E+08
        -0.10693E+09
        -0.13687E+09
        -0.18440E+09
        -0.19943E+09
        -0.19279E+09
        -0.19103E+09
        -0.17972E+09
        -0.12882E+09
        -0.64719E+08
        -0.61495E+08
        -0.16464E+09
        -0.16833E+09
        -0.16482E+09
        -0.55373E+08
        -0.12170E+09
        -0.78636E+08
        -0.97059E+08
        -0.16021E+09
        -0.16215E+09
        -0.15977E+09
         0.16644E+09
         0.17990E+09
         0.13753E+09
         0.39865E+08
         0.17090E+09
         0.83479E+08
        -0.47546E+08
         0.37776E+08
         0.16116E+09
         0.30169E+08
         0.49115E+08
         0.35998E+08
        -0.21560E+08
         0.51240E+08
        -0.16145E+09
         0.49373E+08
         0.11114E+08
         0.28633E+08
        -0.31840E+08
        -0.14896E+09
         0.10414E+09
         0.34751E+08
         0.97105E+08
         0.83613E+08
        -0.11346E+08
         0.68673E+08
         0.10147E+09
         0.15639E+09
         0.17594E+09
         0.16531E+09
         0.88250E+08
        -0.21679E+08
        -0.48912E+08
        -0.78563E+08
        -0.11144E+09
        -0.16847E+09
        -0.14589E+09
        -0.11150E+09
        -0.16927E+09
        -0.17038E+09
        -0.11136E+09
        -0.90219E+07
         0.35158E+08
        -0.49966E+08
         0.11153E+09
         0.14465E+09
         0.17623E+09
         0.19804E+09
         0.20135E+09
         0.19559E+09
         0.19217E+09
         0.17866E+09
         0.11424E+09
         0.38549E+08
         0.18117E+08
         0.16780E+08
        -0.59133E+07
        -0.55255E+08
        -0.10696E+09
        -0.13689E+09
        -0.18441E+09
        -0.19943E+09
        -0.19279E+09
        -0.19103E+09
        -0.17973E+09
        -0.12880E+09
        -0.64682E+08
        -0.61442E+08
        -0.16463E+09
        -0.16832E+09
        -0.16482E+09
        -0.55757E+08
        -0.12177E+09
        -0.78739E+08
        -0.97126E+08
        -0.16032E+09
        -0.16218E+09
        -0.15990E+09
         0.16651E+09
         0.17989E+09
         0.13752E+09
         0.39992E+08
         0.17095E+09
         0.83418E+08
        -0.47980E+08
         0.37711E+08
         0.16118E+09
         0.29969E+08
         0.49229E+08
         0.36021E+08
        -0.21588E+08
         0.51170E+08
        -0.16150E+09
         0.49182E+08
         0.11284E+08
         0.28883E+08
        -0.31394E+08
        -0.14899E+09
         0.10404E+09
         0.34531E+08
         0.97320E+08
         0.83764E+08
        -0.11205E+08
         0.68737E+08
         0.10149E+09
         0.15641E+09
         0.17595E+09
         0.16528E+09
         0.88288E+08
        -0.21552E+08
        -0.48930E+08
        -0.78653E+08
        -0.11151E+09
        -0.16848E+09
        -0.14592E+09
        -0.11148E+09
        -0.16928E+09
        -0.17037E+09
        -0.11136E+09
        -0.88481E+07
         0.35136E+08
        -0.49978E+08
         0.11155E+09
         0.14465E+09
         0.17623E+09
         0.19803E+09
         0.20134E+09
         0.19558E+09
         0.19217E+09
         0.17866E+09
         0.11424E+09
         0.38573E+08
         0.18116E+08
         0.16813E+08
        -0.58556E+07
        -0.55274E+08
        -0.10700E+09
        -0.13690E+09
        -0.18441E+09
        -0.19942E+09
        -0.19280E+09
        -0.19104E+09
        -0.17974E+09
        -0.12879E+09
        -0.64646E+08
        -0.61389E+08
        -0.16462E+09
        -0.16830E+09
        -0.16481E+09
        -0.56140E+08
        -0.12183E+09
        -0.78842E+08
        -0.97201E+08
        -0.16043E+09
        -0.16221E+09
        -0.16003E+09
         0.16658E+09
         0.17988E+09
         0.13751E+09
         0.40114E+08
         0.17101E+09
         0.83357E+08
        -0.48416E+08
         0.37648E+08
         0.16120E+09
         0.29774E+08
         0.49344E+08
         0.36044E+08
        -0.21616E+08
         0.51104E+08
        -0.16155E+09
         0.48997E+08
         0.11449E+08
         0.29124E+08
        -0.30953E+08
        -0.14901E+09
         0.10393E+09
         0.34314E+08
         0.97536E+08
         0.83919E+08
        -0.11066E+08
         0.68799E+08
         0.10151E+09
         0.15644E+09
         0.17595E+09
         0.16526E+09
         0.88326E+08
        -0.21429E+08
        -0.48949E+08
        -0.78742E+08
        -0.11157E+09
        -0.16849E+09
        -0.14596E+09
        -0.11145E+09
        -0.16929E+09
        -0.17036E+09
        -0.11137E+09
        -0.86749E+07
         0.35113E+08
        -0.49991E+08
         0.11157E+09
         0.14465E+09
         0.17624E+09
         0.19802E+09
         0.20133E+09
         0.19557E+09
         0.19217E+09
         0.17866E+09
         0.11425E+09
         0.38596E+08
         0.18114E+08
         0.16845E+08
        -0.57979E+07
        -0.55292E+08
        -0.10703E+09
        -0.13691E+09
        -0.18442E+09
        -0.19942E+09
        -0.19281E+09
        -0.19104E+09
        -0.17974E+09
        -0.12877E+09
        -0.64610E+08
        -0.61336E+08
        -0.15843E+09
        -0.15092E+09
        -0.14654E+09
        -0.52243E+08
        -0.11573E+09
        -0.72012E+08
        -0.93142E+08
        -0.15269E+09
        -0.14848E+09
        -0.15196E+09
         0.13135E+09
         0.17598E+09
         0.13345E+09
         0.35728E+08
         0.16764E+09
         0.78152E+08
        -0.44524E+08
         0.37699E+08
         0.13719E+09
         0.29683E+08
         0.48286E+08
         0.35078E+08
        -0.21066E+08
         0.48694E+08
        -0.14429E+09
         0.49016E+08
         0.10316E+08
         0.29385E+08
        -0.30086E+08
        -0.13305E+09
         0.95169E+08
         0.34261E+08
         0.91900E+08
         0.82310E+08
        -0.10539E+08
         0.63394E+08
         0.96469E+08
         0.15235E+09
         0.16907E+09
         0.15781E+09
         0.86132E+08
        -0.20747E+08
        -0.47767E+08
        -0.76202E+08
        -0.10663E+09
        -0.16310E+09
        -0.13742E+09
        -0.10367E+09
        -0.15272E+09
        -0.15692E+09
        -0.10721E+09
        -0.79441E+07
         0.34853E+08
        -0.49709E+08
         0.11096E+09
         0.14387E+09
         0.17536E+09
         0.19707E+09
         0.20026E+09
         0.19428E+09
         0.19083E+09
         0.17750E+09
         0.11353E+09
         0.38390E+08
         0.17987E+08
         0.16763E+08
        -0.57111E+07
        -0.55025E+08
        -0.10654E+09
        -0.13627E+09
        -0.18332E+09
        -0.19828E+09
        -0.19166E+09
        -0.18986E+09
        -0.17869E+09
        -0.12797E+09
        -0.64210E+08
        -0.60933E+08
        -0.78274E+08
        -0.50049E+08
        -0.47229E+08
        -0.14162E+08
        -0.51027E+08
        -0.25577E+08
        -0.20815E+08
        -0.68192E+08
        -0.53453E+08
        -0.66656E+08
         0.32596E+08
         0.10477E+09
         0.71757E+08
         0.11446E+08
         0.10238E+09
         0.31780E+08
        -0.11324E+08
         0.98651E+07
         0.39120E+08
         0.63341E+07
         0.27960E+08
         0.19344E+08
        -0.11779E+08
         0.11828E+08
        -0.47151E+08
         0.11877E+08
         0.33447E+07
         0.57943E+07
        -0.59695E+07
        -0.43475E+08
         0.34304E+08
         0.79801E+07
         0.24294E+08
         0.20140E+08
        -0.51646E+07
         0.23414E+08
         0.42769E+08
         0.85251E+08
         0.82237E+08
         0.72933E+08
         0.48955E+08
        -0.11426E+08
        -0.27274E+08
        -0.39224E+08
        -0.49154E+08
        -0.84870E+08
        -0.57130E+08
        -0.40279E+08
        -0.51704E+08
        -0.58055E+08
        -0.52923E+08
        -0.31160E+07
         0.27768E+08
        -0.40378E+08
         0.91044E+08
         0.11914E+09
         0.14675E+09
         0.16614E+09
         0.16644E+09
         0.15574E+09
         0.15096E+09
         0.14247E+09
         0.91539E+08
         0.31489E+08
         0.14345E+08
         0.13428E+08
        -0.46718E+07
        -0.46003E+08
        -0.89775E+08
        -0.11487E+09
        -0.14886E+09
        -0.16241E+09
        -0.15593E+09
        -0.15360E+09
        -0.14576E+09
        -0.10371E+09
        -0.52726E+08
        -0.49856E+08
  
SCALARS                      stress_xz  double 1
LOOKUP_TABLE default
         0.55895E+05
        -0.39419E+06
        -0.13013E+07
         0.89400E+05
        -0.58820E+01
         0.20856E+01
         0.69738E+01
         0.13928E+01
        -0.36616E+07
        -0.24464E+07
         0.20859E+02
         0.18789E+02
         0.15611E+06
        -0.63702E+06
        -0.25727E+01
        -0.12052E+02
        -0.13071E+06
        -0.61132E+06
        -0.87054E+01
        -0.12965E+02
        -0.89588E+06
        -0.15095E+07
        -0.14295E+07
        -0.86575E+01
        -0.39922E+01
         0.69746E+01
        -0.15945E+07
        -0.12946E+07
        -0.16206E+02
        -0.12855E+02
         0.30584E+06
        -0.67935E+06
         0.65019E+05
         0.16499E+01
        -0.63761E+01
        -0.39281E+01
         0.90737E+06
         0.43733E+06
        -0.94664E+01
        -0.10079E+02
         0.18085E+07
         0.25624E+07
        -0.21353E+02
        -0.15747E+02
         0.19350E+07
         0.10305E+07
        -0.23450E+02
        -0.11287E+02
        -0.55539E+06
        -0.70849E+01
         0.13228E+07
        -0.19722E+01
        -0.57932E+06
        -0.13844E+02
         0.43276E+06
        -0.36620E+01
         0.18934E+07
         0.51945E+06
        -0.31371E+01
        -0.75827E+01
        -0.32657E+05
         0.90090E+06
         0.62744E+01
         0.43027E+01
        -0.23398E+06
        -0.63113E+00
        -0.78323E+06
         0.41513E+01
        -0.51528E+07
        -0.35310E+07
         0.25947E+02
         0.18818E+02
        -0.22709E+07
         0.13702E+02
         0.53515E+06
        -0.94786E+01
         0.16746E+07
        -0.18603E+01
         0.35502E+07
        -0.28861E+01
         0.46975E+07
         0.33358E+07
        -0.10577E+02
        -0.12097E+02
         0.29466E+07
        -0.13009E+02
         0.23466E+07
        -0.18730E+02
         0.14613E+07
        -0.11947E+02
         0.23004E+07
         0.16918E+07
        -0.50987E+01
         0.69922E+01
        -0.38675E+06
         0.82016E+01
        -0.10616E+07
         0.34437E+01
        -0.25490E+07
         0.85040E+01
        -0.37681E+07
        -0.25860E+07
         0.19608E+02
         0.20461E+02
        -0.92282E+07
        -0.10218E+08
         0.36231E+02
         0.35705E+02
        -0.91397E+07
         0.30952E+02
        -0.83300E+07
         0.23131E+02
        -0.59761E+07
         0.12712E+02
        -0.43420E+07
         0.13593E+01
        -0.16110E+07
        -0.48414E+01
         0.20755E+07
        -0.38734E+01
         0.49529E+07
        -0.38071E+01
         0.73593E+07
        -0.85853E+01
         0.98996E+07
        -0.16334E+02
         0.12030E+08
        -0.19491E+02
         0.12789E+08
        -0.18390E+02
         0.12182E+08
        -0.19998E+02
         0.11165E+08
        -0.25955E+02
         0.10041E+08
        -0.30606E+02
         0.88562E+07
        -0.28451E+02
         0.70424E+07
        -0.23122E+02
         0.41319E+07
        -0.10916E+02
         0.35421E+06
         0.20844E+01
        -0.23107E+07
         0.50606E+01
        -0.36166E+07
         0.82752E+01
        -0.54393E+07
         0.16195E+02
        -0.71716E+07
         0.26575E+02
        -0.94261E+07
         0.31928E+02
        -0.10830E+08
         0.32657E+02
        -0.88894E+06
         0.46260E+06
         0.54274E+06
        -0.10935E+07
         0.42281E+07
         0.32727E+07
         0.49372E+06
        -0.72556E+06
        -0.37463E+06
        -0.66626E+06
         0.36523E+06
         0.15811E+07
         0.33040E+07
        -0.10570E+07
        -0.12712E+07
         0.14553E+07
         0.12210E+07
        -0.56636E+06
        -0.88028E+06
        -0.94710E+06
        -0.51759E+07
        -0.55119E+07
        -0.49766E+07
        -0.15468E+07
         0.62039E+06
        -0.46230E+06
        -0.14844E+07
        -0.16645E+06
        -0.17024E+07
        -0.11713E+07
         0.12992E+07
         0.25480E+06
        -0.61219E+06
        -0.19787E+06
         0.62473E+07
         0.39828E+07
         0.36054E+07
        -0.25229E+07
        -0.14371E+07
        -0.30724E+07
        -0.63194E+07
        -0.58960E+07
        -0.58265E+07
        -0.42825E+07
        -0.30706E+07
        -0.24002E+07
         0.45111E+06
         0.18856E+07
         0.54525E+06
         0.17275E+07
         0.46118E+07
         0.38877E+07
         0.18211E+08
         0.19135E+08
         0.17100E+08
         0.14550E+08
         0.10833E+08
         0.55151E+07
        -0.32706E+06
        -0.39261E+07
        -0.59826E+07
        -0.10270E+08
        -0.16737E+08
        -0.20395E+08
        -0.18694E+08
        -0.17932E+08
        -0.18948E+08
        -0.18947E+08
        -0.17212E+08
        -0.15064E+08
        -0.76212E+07
         0.12051E+07
         0.46341E+07
         0.51659E+07
         0.87470E+07
         0.13962E+08
         0.18124E+08
         0.19053E+08
        -0.55980E+08
         0.18621E+08
        -0.37484E+08
        -0.13669E+09
         0.12611E+09
         0.15272E+09
         0.69811E+08
        -0.72140E+08
        -0.51630E+08
        -0.72534E+08
        -0.29038E+08
         0.26723E+08
         0.11352E+09
        -0.16697E+09
        -0.66906E+08
         0.14873E+09
         0.13138E+09
        -0.78692E+08
        -0.48676E+08
        -0.93002E+08
        -0.17260E+09
        -0.17457E+09
        -0.17658E+09
        -0.12552E+09
         0.54077E+08
         0.48004E+08
        -0.17052E+09
         0.34567E+08
        -0.87125E+08
        -0.83400E+08
         0.13274E+09
         0.11733E+09
        -0.11760E+09
        -0.10149E+09
         0.17682E+09
         0.15814E+09
         0.14221E+09
        -0.89633E+08
        -0.19164E+08
        -0.59422E+08
        -0.15738E+09
        -0.17736E+09
        -0.17230E+09
        -0.15822E+09
        -0.13548E+09
        -0.59129E+08
         0.94920E+08
         0.13060E+09
        -0.20729E+08
         0.21315E+08
         0.13757E+09
         0.17253E+09
         0.19579E+09
         0.19311E+09
         0.16650E+09
         0.13824E+09
         0.97327E+08
         0.42022E+08
        -0.10832E+08
        -0.39050E+08
        -0.52665E+08
        -0.90760E+08
        -0.16419E+09
        -0.19612E+09
        -0.19559E+09
        -0.19487E+09
        -0.19706E+09
        -0.19064E+09
        -0.16823E+09
        -0.14688E+09
        -0.77526E+08
         0.19667E+08
         0.47851E+08
         0.50822E+08
         0.85216E+08
         0.15062E+09
         0.18783E+09
         0.18869E+09
        -0.56046E+08
         0.18686E+08
        -0.37534E+08
        -0.13678E+09
         0.12604E+09
         0.15266E+09
         0.70255E+08
        -0.71892E+08
        -0.51601E+08
        -0.72276E+08
        -0.28451E+08
         0.26789E+08
         0.11355E+09
        -0.16693E+09
        -0.66806E+08
         0.14877E+09
         0.13167E+09
        -0.78474E+08
        -0.48625E+08
        -0.92839E+08
        -0.17257E+09
        -0.17456E+09
        -0.17657E+09
        -0.12553E+09
         0.53977E+08
         0.48085E+08
        -0.17051E+09
         0.33917E+08
        -0.87738E+08
        -0.83313E+08
         0.13281E+09
         0.11731E+09
        -0.11711E+09
        -0.10154E+09
         0.17683E+09
         0.15811E+09
         0.14219E+09
        -0.89648E+08
        -0.19307E+08
        -0.59532E+08
        -0.15739E+09
        -0.17738E+09
        -0.17229E+09
        -0.15820E+09
        -0.13546E+09
        -0.59101E+08
         0.94900E+08
         0.13065E+09
        -0.20606E+08
         0.21270E+08
         0.13756E+09
         0.17252E+09
         0.19578E+09
         0.19310E+09
         0.16649E+09
         0.13824E+09
         0.97311E+08
         0.42022E+08
        -0.10848E+08
        -0.39084E+08
        -0.52633E+08
        -0.90749E+08
        -0.16419E+09
        -0.19612E+09
        -0.19559E+09
        -0.19487E+09
        -0.19706E+09
        -0.19064E+09
        -0.16822E+09
        -0.14688E+09
        -0.77509E+08
         0.19677E+08
         0.47820E+08
         0.50804E+08
         0.85179E+08
         0.15062E+09
         0.18784E+09
         0.18869E+09
        -0.56112E+08
         0.18750E+08
        -0.37584E+08
        -0.13687E+09
         0.12597E+09
         0.15261E+09
         0.70701E+08
        -0.71644E+08
        -0.51569E+08
        -0.72017E+08
        -0.27864E+08
         0.26855E+08
         0.11357E+09
        -0.16689E+09
        -0.66707E+08
         0.14881E+09
         0.13197E+09
        -0.78254E+08
        -0.48573E+08
        -0.92681E+08
        -0.17254E+09
        -0.17455E+09
        -0.17657E+09
        -0.12554E+09
         0.53888E+08
         0.48171E+08
        -0.17051E+09
         0.33275E+08
        -0.88354E+08
        -0.83231E+08
         0.13288E+09
         0.11730E+09
        -0.11662E+09
        -0.10159E+09
         0.17685E+09
         0.15809E+09
         0.14218E+09
        -0.89661E+08
        -0.19450E+08
        -0.59643E+08
        -0.15739E+09
        -0.17740E+09
        -0.17228E+09
        -0.15817E+09
        -0.13543E+09
        -0.59074E+08
         0.94882E+08
         0.13070E+09
        -0.20478E+08
         0.21222E+08
         0.13754E+09
         0.17252E+09
         0.19578E+09
         0.19309E+09
         0.16647E+09
         0.13824E+09
         0.97296E+08
         0.42023E+08
        -0.10865E+08
        -0.39117E+08
        -0.52601E+08
        -0.90738E+08
        -0.16419E+09
        -0.19612E+09
        -0.19559E+09
        -0.19487E+09
        -0.19707E+09
        -0.19063E+09
        -0.16821E+09
        -0.14688E+09
        -0.77491E+08
         0.19687E+08
         0.47790E+08
         0.50787E+08
         0.85143E+08
         0.15062E+09
         0.18784E+09
         0.18870E+09
        -0.56178E+08
         0.18816E+08
        -0.37633E+08
        -0.13696E+09
         0.12590E+09
         0.15255E+09
         0.71142E+08
        -0.71397E+08
        -0.51531E+08
        -0.71754E+08
        -0.27279E+08
         0.26922E+08
         0.11360E+09
        -0.16685E+09
        -0.66608E+08
         0.14886E+09
         0.13227E+09
        -0.78033E+08
        -0.48522E+08
        -0.92516E+08
        -0.17251E+09
        -0.17455E+09
        -0.17657E+09
        -0.12554E+09
         0.53829E+08
         0.48278E+08
        -0.17051E+09
         0.32653E+08
        -0.88969E+08
        -0.83158E+08
         0.13297E+09
         0.11732E+09
        -0.11612E+09
        -0.10163E+09
         0.17686E+09
         0.15806E+09
         0.14216E+09
        -0.89674E+08
        -0.19590E+08
        -0.59748E+08
        -0.15739E+09
        -0.17742E+09
        -0.17227E+09
        -0.15814E+09
        -0.13539E+09
        -0.59043E+08
         0.94861E+08
         0.13075E+09
        -0.20350E+08
         0.21175E+08
         0.13752E+09
         0.17252E+09
         0.19578E+09
         0.19308E+09
         0.16646E+09
         0.13824E+09
         0.97281E+08
         0.42023E+08
        -0.10881E+08
        -0.39151E+08
        -0.52568E+08
        -0.90726E+08
        -0.16419E+09
        -0.19611E+09
        -0.19558E+09
        -0.19486E+09
        -0.19707E+09
        -0.19063E+09
        -0.16820E+09
        -0.14688E+09
        -0.77473E+08
         0.19697E+08
         0.47760E+08
         0.50770E+08
         0.85107E+08
         0.15061E+09
         0.18784E+09
         0.18871E+09
        -0.56244E+08
         0.18882E+08
        -0.37682E+08
        -0.13705E+09
         0.12583E+09
         0.15249E+09
         0.71588E+08
        -0.71149E+08
        -0.51487E+08
        -0.71485E+08
        -0.26692E+08
         0.26988E+08
         0.11363E+09
        -0.16681E+09
        -0.66508E+08
         0.14891E+09
         0.13259E+09
        -0.77812E+08
        -0.48465E+08
        -0.92349E+08
        -0.17248E+09
        -0.17454E+09
        -0.17657E+09
        -0.12555E+09
         0.53799E+08
         0.48400E+08
        -0.17050E+09
         0.32051E+08
        -0.89580E+08
        -0.83094E+08
         0.13306E+09
         0.11734E+09
        -0.11562E+09
        -0.10168E+09
         0.17688E+09
         0.15803E+09
         0.14215E+09
        -0.89686E+08
        -0.19728E+08
        -0.59851E+08
        -0.15738E+09
        -0.17744E+09
        -0.17227E+09
        -0.15810E+09
        -0.13535E+09
        -0.59007E+08
         0.94840E+08
         0.13080E+09
        -0.20221E+08
         0.21128E+08
         0.13751E+09
         0.17251E+09
         0.19578E+09
         0.19307E+09
         0.16644E+09
         0.13824E+09
         0.97265E+08
         0.42023E+08
        -0.10898E+08
        -0.39185E+08
        -0.52536E+08
        -0.90715E+08
        -0.16419E+09
        -0.19611E+09
        -0.19558E+09
        -0.19486E+09
        -0.19708E+09
        -0.19064E+09
        -0.16818E+09
        -0.14687E+09
        -0.77455E+08
         0.19707E+08
         0.47729E+08
         0.50753E+08
         0.85071E+08
         0.15061E+09
         0.18784E+09
         0.18872E+09
        -0.56307E+08
         0.18956E+08
        -0.37724E+08
        -0.13714E+09
         0.12576E+09
         0.15243E+09
         0.72034E+08
        -0.70904E+08
        -0.51442E+08
        -0.71221E+08
        -0.26103E+08
         0.27054E+08
         0.11365E+09
        -0.16677E+09
        -0.66409E+08
         0.14896E+09
         0.13291E+09
        -0.77590E+08
        -0.48408E+08
        -0.92190E+08
        -0.17245E+09
        -0.17454E+09
        -0.17657E+09
        -0.12556E+09
         0.53773E+08
         0.48526E+08
        -0.17050E+09
         0.31453E+08
        -0.90197E+08
        -0.83042E+08
         0.13316E+09
         0.11737E+09
        -0.11512E+09
        -0.10172E+09
         0.17690E+09
         0.15800E+09
         0.14213E+09
        -0.89696E+08
        -0.19866E+08
        -0.59951E+08
        -0.15737E+09
        -0.17747E+09
        -0.17227E+09
        -0.15806E+09
        -0.13529E+09
        -0.58972E+08
         0.94814E+08
         0.13085E+09
        -0.20087E+08
         0.21087E+08
         0.13749E+09
         0.17251E+09
         0.19577E+09
         0.19307E+09
         0.16643E+09
         0.13824E+09
         0.97250E+08
         0.42023E+08
        -0.10914E+08
        -0.39218E+08
        -0.52504E+08
        -0.90704E+08
        -0.16419E+09
        -0.19611E+09
        -0.19558E+09
        -0.19486E+09
        -0.19708E+09
        -0.19064E+09
        -0.16817E+09
        -0.14687E+09
        -0.77438E+08
         0.19716E+08
         0.47698E+08
         0.50736E+08
         0.85035E+08
         0.15061E+09
         0.18785E+09
         0.18872E+09
        -0.56365E+08
         0.19047E+08
        -0.37753E+08
        -0.13723E+09
         0.12569E+09
         0.15237E+09
         0.72488E+08
        -0.70662E+08
        -0.51397E+08
        -0.70970E+08
        -0.25507E+08
         0.27119E+08
         0.11368E+09
        -0.16672E+09
        -0.66308E+08
         0.14900E+09
         0.13322E+09
        -0.77366E+08
        -0.48354E+08
        -0.92034E+08
        -0.17242E+09
        -0.17453E+09
        -0.17656E+09
        -0.12558E+09
         0.53734E+08
         0.48637E+08
        -0.17049E+09
         0.30841E+08
        -0.90818E+08
        -0.82999E+08
         0.13325E+09
         0.11737E+09
        -0.11461E+09
        -0.10175E+09
         0.17691E+09
         0.15797E+09
         0.14212E+09
        -0.89705E+08
        -0.20004E+08
        -0.60055E+08
        -0.15737E+09
        -0.17749E+09
        -0.17227E+09
        -0.15802E+09
        -0.13524E+09
        -0.58938E+08
         0.94773E+08
         0.13088E+09
        -0.19935E+08
         0.21059E+08
         0.13748E+09
         0.17250E+09
         0.19577E+09
         0.19306E+09
         0.16641E+09
         0.13824E+09
         0.97234E+08
         0.42023E+08
        -0.10930E+08
        -0.39252E+08
        -0.52471E+08
        -0.90693E+08
        -0.16418E+09
        -0.19610E+09
        -0.19558E+09
        -0.19485E+09
        -0.19709E+09
        -0.19064E+09
        -0.16815E+09
        -0.14686E+09
        -0.77420E+08
         0.19723E+08
         0.47666E+08
         0.50719E+08
         0.85001E+08
         0.15061E+09
         0.18785E+09
         0.18873E+09
        -0.56420E+08
         0.19143E+08
        -0.37776E+08
        -0.13731E+09
         0.12562E+09
         0.15232E+09
         0.72948E+08
        -0.70424E+08
        -0.51352E+08
        -0.70727E+08
        -0.24908E+08
         0.27184E+08
         0.11370E+09
        -0.16667E+09
        -0.66207E+08
         0.14905E+09
         0.13352E+09
        -0.77141E+08
        -0.48298E+08
        -0.91888E+08
        -0.17239E+09
        -0.17453E+09
        -0.17656E+09
        -0.12559E+09
         0.53688E+08
         0.48741E+08
        -0.17049E+09
         0.30225E+08
        -0.91449E+08
        -0.82960E+08
         0.13334E+09
         0.11737E+09
        -0.11409E+09
        -0.10177E+09
         0.17693E+09
         0.15794E+09
         0.14210E+09
        -0.89713E+08
        -0.20141E+08
        -0.60156E+08
        -0.15736E+09
        -0.17751E+09
        -0.17227E+09
        -0.15797E+09
        -0.13519E+09
        -0.58907E+08
         0.94726E+08
         0.13090E+09
        -0.19776E+08
         0.21039E+08
         0.13747E+09
         0.17250E+09
         0.19577E+09
         0.19305E+09
         0.16640E+09
         0.13824E+09
         0.97219E+08
         0.42023E+08
        -0.10946E+08
        -0.39285E+08
        -0.52439E+08
        -0.90683E+08
        -0.16418E+09
        -0.19610E+09
        -0.19558E+09
        -0.19485E+09
        -0.19709E+09
        -0.19064E+09
        -0.16814E+09
        -0.14686E+09
        -0.77402E+08
         0.19731E+08
         0.47632E+08
         0.50701E+08
         0.84967E+08
         0.15060E+09
         0.18785E+09
         0.18874E+09
        -0.56475E+08
         0.19240E+08
        -0.37797E+08
        -0.13739E+09
         0.12556E+09
         0.15226E+09
         0.73405E+08
        -0.70186E+08
        -0.51309E+08
        -0.70486E+08
        -0.24312E+08
         0.27249E+08
         0.11372E+09
        -0.16662E+09
        -0.66106E+08
         0.14909E+09
         0.13382E+09
        -0.76918E+08
        -0.48241E+08
        -0.91736E+08
        -0.17236E+09
        -0.17452E+09
        -0.17656E+09
        -0.12561E+09
         0.53642E+08
         0.48844E+08
        -0.17048E+09
         0.29610E+08
        -0.92078E+08
        -0.82922E+08
         0.13343E+09
         0.11736E+09
        -0.11357E+09
        -0.10179E+09
         0.17694E+09
         0.15791E+09
         0.14209E+09
        -0.89720E+08
        -0.20278E+08
        -0.60258E+08
        -0.15735E+09
        -0.17754E+09
        -0.17227E+09
        -0.15793E+09
        -0.13514E+09
        -0.58876E+08
         0.94681E+08
         0.13092E+09
        -0.19616E+08
         0.21020E+08
         0.13746E+09
         0.17250E+09
         0.19577E+09
         0.19304E+09
         0.16639E+09
         0.13824E+09
         0.97203E+08
         0.42023E+08
        -0.10963E+08
        -0.39319E+08
        -0.52407E+08
        -0.90672E+08
        -0.16418E+09
        -0.19610E+09
        -0.19558E+09
        -0.19485E+09
        -0.19709E+09
        -0.19064E+09
        -0.16812E+09
        -0.14685E+09
        -0.77384E+08
         0.19738E+08
         0.47599E+08
         0.50684E+08
         0.84933E+08
         0.15060E+09
         0.18785E+09
         0.18874E+09
        -0.56531E+08
         0.19339E+08
        -0.37820E+08
        -0.13748E+09
         0.12549E+09
         0.15220E+09
         0.73864E+08
        -0.69948E+08
        -0.51265E+08
        -0.70247E+08
        -0.23715E+08
         0.27315E+08
         0.11375E+09
        -0.16658E+09
        -0.66006E+08
         0.14914E+09
         0.13412E+09
        -0.76696E+08
        -0.48185E+08
        -0.91588E+08
        -0.17233E+09
        -0.17451E+09
        -0.17656E+09
        -0.12562E+09
         0.53596E+08
         0.48947E+08
        -0.17047E+09
         0.28998E+08
        -0.92705E+08
        -0.82882E+08
         0.13353E+09
         0.11735E+09
        -0.11306E+09
        -0.10182E+09
         0.17696E+09
         0.15788E+09
         0.14207E+09
        -0.89727E+08
        -0.20415E+08
        -0.60361E+08
        -0.15734E+09
        -0.17756E+09
        -0.17227E+09
        -0.15789E+09
        -0.13508E+09
        -0.58844E+08
         0.94634E+08
         0.13094E+09
        -0.19458E+08
         0.20997E+08
         0.13745E+09
         0.17249E+09
         0.19576E+09
         0.19303E+09
         0.16637E+09
         0.13824E+09
         0.97188E+08
         0.42023E+08
        -0.10979E+08
        -0.39352E+08
        -0.52374E+08
        -0.90662E+08
        -0.16418E+09
        -0.19609E+09
        -0.19558E+09
        -0.19484E+09
        -0.19710E+09
        -0.19064E+09
        -0.16811E+09
        -0.14685E+09
        -0.77366E+08
         0.19746E+08
         0.47565E+08
         0.50666E+08
         0.84899E+08
         0.15060E+09
         0.18786E+09
         0.18875E+09
        -0.56586E+08
         0.19437E+08
        -0.37843E+08
        -0.13756E+09
         0.12542E+09
         0.15214E+09
         0.74320E+08
        -0.69711E+08
        -0.51221E+08
        -0.70009E+08
        -0.23117E+08
         0.27381E+08
         0.11377E+09
        -0.16653E+09
        -0.65905E+08
         0.14918E+09
         0.13443E+09
        -0.76474E+08
        -0.48133E+08
        -0.91434E+08
        -0.17230E+09
        -0.17451E+09
        -0.17655E+09
        -0.12564E+09
         0.53550E+08
         0.49049E+08
        -0.17047E+09
         0.28386E+08
        -0.93332E+08
        -0.82842E+08
         0.13361E+09
         0.11734E+09
        -0.11254E+09
        -0.10184E+09
         0.17697E+09
         0.15785E+09
         0.14205E+09
        -0.89734E+08
        -0.20551E+08
        -0.60463E+08
        -0.15734E+09
        -0.17759E+09
        -0.17227E+09
        -0.15785E+09
        -0.13503E+09
        -0.58814E+08
         0.94587E+08
         0.13096E+09
        -0.19297E+08
         0.20976E+08
         0.13744E+09
         0.17249E+09
         0.19576E+09
         0.19303E+09
         0.16636E+09
         0.13824E+09
         0.97172E+08
         0.42024E+08
        -0.10995E+08
        -0.39385E+08
        -0.52342E+08
        -0.90651E+08
        -0.16417E+09
        -0.19609E+09
        -0.19558E+09
        -0.19484E+09
        -0.19710E+09
        -0.19064E+09
        -0.16809E+09
        -0.14684E+09
        -0.77348E+08
         0.19753E+08
         0.47531E+08
         0.50649E+08
         0.84866E+08
         0.15060E+09
         0.18786E+09
         0.18876E+09
        -0.56641E+08
         0.19534E+08
        -0.37864E+08
        -0.13764E+09
         0.12535E+09
         0.15208E+09
         0.74778E+08
        -0.69474E+08
        -0.51176E+08
        -0.69773E+08
        -0.22521E+08
         0.27446E+08
         0.11379E+09
        -0.16648E+09
        -0.65805E+08
         0.14923E+09
         0.13473E+09
        -0.76251E+08
        -0.48078E+08
        -0.91287E+08
        -0.17227E+09
        -0.17450E+09
        -0.17655E+09
        -0.12566E+09
         0.53504E+08
         0.49154E+08
        -0.17046E+09
         0.27777E+08
        -0.93952E+08
        -0.82805E+08
         0.13371E+09
         0.11733E+09
        -0.11202E+09
        -0.10187E+09
         0.17699E+09
         0.15782E+09
         0.14204E+09
        -0.89740E+08
        -0.20687E+08
        -0.60566E+08
        -0.15733E+09
        -0.17761E+09
        -0.17227E+09
        -0.15781E+09
        -0.13498E+09
        -0.58783E+08
         0.94542E+08
         0.13099E+09
        -0.19135E+08
         0.20957E+08
         0.13743E+09
         0.17248E+09
         0.19576E+09
         0.19302E+09
         0.16634E+09
         0.13824E+09
         0.97156E+08
         0.42024E+08
        -0.11011E+08
        -0.39419E+08
        -0.52310E+08
        -0.90641E+08
        -0.16417E+09
        -0.19608E+09
        -0.19558E+09
        -0.19484E+09
        -0.19711E+09
        -0.19064E+09
        -0.16808E+09
        -0.14683E+09
        -0.77331E+08
         0.19760E+08
         0.47498E+08
         0.50631E+08
         0.84832E+08
         0.15060E+09
         0.18786E+09
         0.18877E+09
        -0.56697E+08
         0.19632E+08
        -0.37884E+08
        -0.13772E+09
         0.12528E+09
         0.15202E+09
         0.75235E+08
        -0.69237E+08
        -0.51131E+08
        -0.69536E+08
        -0.21927E+08
         0.27512E+08
         0.11382E+09
        -0.16643E+09
        -0.65703E+08
         0.14927E+09
         0.13503E+09
        -0.76027E+08
        -0.48024E+08
        -0.91135E+08
        -0.17224E+09
        -0.17450E+09
        -0.17655E+09
        -0.12568E+09
         0.53457E+08
         0.49256E+08
        -0.17045E+09
         0.27167E+08
        -0.94578E+08
        -0.82767E+08
         0.13380E+09
         0.11733E+09
        -0.11150E+09
        -0.10189E+09
         0.17700E+09
         0.15779E+09
         0.14202E+09
        -0.89746E+08
        -0.20823E+08
        -0.60667E+08
        -0.15732E+09
        -0.17764E+09
        -0.17227E+09
        -0.15777E+09
        -0.13493E+09
        -0.58751E+08
         0.94494E+08
         0.13101E+09
        -0.18973E+08
         0.20935E+08
         0.13742E+09
         0.17248E+09
         0.19575E+09
         0.19301E+09
         0.16633E+09
         0.13824E+09
         0.97141E+08
         0.42024E+08
        -0.11027E+08
        -0.39452E+08
        -0.52277E+08
        -0.90631E+08
        -0.16417E+09
        -0.19608E+09
        -0.19558E+09
        -0.19483E+09
        -0.19711E+09
        -0.19064E+09
        -0.16807E+09
        -0.14683E+09
        -0.77313E+08
         0.19767E+08
         0.47464E+08
         0.50614E+08
         0.84798E+08
         0.15060E+09
         0.18786E+09
         0.18877E+09
        -0.56753E+08
         0.19729E+08
        -0.37905E+08
        -0.13780E+09
         0.12522E+09
         0.15196E+09
         0.75687E+08
        -0.69001E+08
        -0.51087E+08
        -0.69301E+08
        -0.21334E+08
         0.27577E+08
         0.11384E+09
        -0.16638E+09
        -0.65603E+08
         0.14932E+09
         0.13533E+09
        -0.75805E+08
        -0.47975E+08
        -0.90988E+08
        -0.17221E+09
        -0.17449E+09
        -0.17655E+09
        -0.12570E+09
         0.53411E+08
         0.49359E+08
        -0.17044E+09
         0.26560E+08
        -0.95203E+08
        -0.82727E+08
         0.13389E+09
         0.11732E+09
        -0.11098E+09
        -0.10192E+09
         0.17702E+09
         0.15776E+09
         0.14201E+09
        -0.89750E+08
        -0.20958E+08
        -0.60771E+08
        -0.15732E+09
        -0.17766E+09
        -0.17227E+09
        -0.15772E+09
        -0.13487E+09
        -0.58720E+08
         0.94447E+08
         0.13103E+09
        -0.18810E+08
         0.20914E+08
         0.13741E+09
         0.17247E+09
         0.19575E+09
         0.19300E+09
         0.16632E+09
         0.13824E+09
         0.97126E+08
         0.42024E+08
        -0.11043E+08
        -0.39485E+08
        -0.52245E+08
        -0.90621E+08
        -0.16417E+09
        -0.19608E+09
        -0.19557E+09
        -0.19483E+09
        -0.19712E+09
        -0.19064E+09
        -0.16805E+09
        -0.14682E+09
        -0.77295E+08
         0.19774E+08
         0.47431E+08
         0.50597E+08
         0.84765E+08
         0.15059E+09
         0.18787E+09
         0.18878E+09
        -0.56809E+08
         0.19825E+08
        -0.37926E+08
        -0.13788E+09
         0.12515E+09
         0.15190E+09
         0.76143E+08
        -0.68765E+08
        -0.51042E+08
        -0.69068E+08
        -0.20741E+08
         0.27643E+08
         0.11386E+09
        -0.16633E+09
        -0.65502E+08
         0.14936E+09
         0.13563E+09
        -0.75583E+08
        -0.47920E+08
        -0.90835E+08
        -0.17218E+09
        -0.17449E+09
        -0.17655E+09
        -0.12571E+09
         0.53363E+08
         0.49461E+08
        -0.17044E+09
         0.25954E+08
        -0.95827E+08
        -0.82688E+08
         0.13397E+09
         0.11731E+09
        -0.11046E+09
        -0.10194E+09
         0.17703E+09
         0.15773E+09
         0.14199E+09
        -0.89753E+08
        -0.21093E+08
        -0.60873E+08
        -0.15731E+09
        -0.17768E+09
        -0.17227E+09
        -0.15768E+09
        -0.13482E+09
        -0.58690E+08
         0.94401E+08
         0.13105E+09
        -0.18645E+08
         0.20894E+08
         0.13740E+09
         0.17247E+09
         0.19575E+09
         0.19300E+09
         0.16630E+09
         0.13824E+09
         0.97110E+08
         0.42024E+08
        -0.11059E+08
        -0.39517E+08
        -0.52212E+08
        -0.90611E+08
        -0.16416E+09
        -0.19607E+09
        -0.19557E+09
        -0.19483E+09
        -0.19712E+09
        -0.19064E+09
        -0.16804E+09
        -0.14682E+09
        -0.77277E+08
         0.19781E+08
         0.47397E+08
         0.50580E+08
         0.84731E+08
         0.15059E+09
         0.18787E+09
         0.18879E+09
        -0.56865E+08
         0.19924E+08
        -0.37947E+08
        -0.13796E+09
         0.12508E+09
         0.15185E+09
         0.76595E+08
        -0.68529E+08
        -0.50997E+08
        -0.68835E+08
        -0.20149E+08
         0.27709E+08
         0.11389E+09
        -0.16628E+09
        -0.65401E+08
         0.14941E+09
         0.13592E+09
        -0.75363E+08
        -0.47866E+08
        -0.90688E+08
        -0.17215E+09
        -0.17448E+09
        -0.17654E+09
        -0.12573E+09
         0.53314E+08
         0.49564E+08
        -0.17043E+09
         0.25348E+08
        -0.96451E+08
        -0.82648E+08
         0.13406E+09
         0.11730E+09
        -0.10994E+09
        -0.10197E+09
         0.17705E+09
         0.15770E+09
         0.14198E+09
        -0.89757E+08
        -0.21228E+08
        -0.60975E+08
        -0.15730E+09
        -0.17771E+09
        -0.17227E+09
        -0.15764E+09
        -0.13477E+09
        -0.58657E+08
         0.94354E+08
         0.13107E+09
        -0.18481E+08
         0.20872E+08
         0.13739E+09
         0.17246E+09
         0.19575E+09
         0.19299E+09
         0.16629E+09
         0.13824E+09
         0.97094E+08
         0.42024E+08
        -0.11075E+08
        -0.39550E+08
        -0.52180E+08
        -0.90601E+08
        -0.16416E+09
        -0.19607E+09
        -0.19557E+09
        -0.19483E+09
        -0.19713E+09
        -0.19064E+09
        -0.16802E+09
        -0.14681E+09
        -0.77259E+08
         0.19787E+08
         0.47363E+08
         0.50563E+08
         0.84697E+08
         0.15059E+09
         0.18787E+09
         0.18879E+09
        -0.56921E+08
         0.20021E+08
        -0.37969E+08
        -0.13804E+09
         0.12502E+09
         0.15179E+09
         0.77050E+08
        -0.68293E+08
        -0.50950E+08
        -0.68601E+08
        -0.19557E+08
         0.27775E+08
         0.11391E+09
        -0.16623E+09
        -0.65299E+08
         0.14945E+09
         0.13622E+09
        -0.75143E+08
        -0.47814E+08
        -0.90535E+08
        -0.17212E+09
        -0.17448E+09
        -0.17654E+09
        -0.12575E+09
         0.53264E+08
         0.49665E+08
        -0.17042E+09
         0.24736E+08
        -0.97068E+08
        -0.82610E+08
         0.13415E+09
         0.11729E+09
        -0.10942E+09
        -0.10199E+09
         0.17706E+09
         0.15767E+09
         0.14196E+09
        -0.89759E+08
        -0.21365E+08
        -0.61080E+08
        -0.15729E+09
        -0.17773E+09
        -0.17227E+09
        -0.15760E+09
        -0.13471E+09
        -0.58626E+08
         0.94307E+08
         0.13109E+09
        -0.18317E+08
         0.20850E+08
         0.13737E+09
         0.17246E+09
         0.19574E+09
         0.19298E+09
         0.16628E+09
         0.13823E+09
         0.97079E+08
         0.42025E+08
        -0.11091E+08
        -0.39583E+08
        -0.52148E+08
        -0.90591E+08
        -0.16416E+09
        -0.19607E+09
        -0.19557E+09
        -0.19482E+09
        -0.19713E+09
        -0.19064E+09
        -0.16801E+09
        -0.14681E+09
        -0.77241E+08
         0.19794E+08
         0.47330E+08
         0.50545E+08
         0.84664E+08
         0.15059E+09
         0.18787E+09
         0.18880E+09
        -0.56977E+08
         0.20118E+08
        -0.37988E+08
        -0.13812E+09
         0.12495E+09
         0.15173E+09
         0.77502E+08
        -0.68059E+08
        -0.50900E+08
        -0.68361E+08
        -0.18966E+08
         0.27841E+08
         0.11393E+09
        -0.16618E+09
        -0.65198E+08
         0.14950E+09
         0.13652E+09
        -0.74921E+08
        -0.47767E+08
        -0.90390E+08
        -0.17209E+09
        -0.17447E+09
        -0.17654E+09
        -0.12577E+09
         0.53206E+08
         0.49771E+08
        -0.17041E+09
         0.24109E+08
        -0.97690E+08
        -0.82581E+08
         0.13424E+09
         0.11728E+09
        -0.10890E+09
        -0.10202E+09
         0.17708E+09
         0.15764E+09
         0.14194E+09
        -0.89757E+08
        -0.21506E+08
        -0.61184E+08
        -0.15728E+09
        -0.17775E+09
        -0.17227E+09
        -0.15756E+09
        -0.13466E+09
        -0.58594E+08
         0.94262E+08
         0.13111E+09
        -0.18154E+08
         0.20828E+08
         0.13736E+09
         0.17245E+09
         0.19574E+09
         0.19297E+09
         0.16626E+09
         0.13823E+09
         0.97063E+08
         0.42025E+08
        -0.11106E+08
        -0.39615E+08
        -0.52116E+08
        -0.90581E+08
        -0.16415E+09
        -0.19606E+09
        -0.19557E+09
        -0.19482E+09
        -0.19713E+09
        -0.19064E+09
        -0.16799E+09
        -0.14680E+09
        -0.77223E+08
         0.19801E+08
         0.47296E+08
         0.50528E+08
         0.84630E+08
         0.15059E+09
         0.18787E+09
         0.18881E+09
        -0.57032E+08
         0.20215E+08
        -0.38008E+08
        -0.13820E+09
         0.12488E+09
         0.15167E+09
         0.77955E+08
        -0.67824E+08
        -0.50846E+08
        -0.68116E+08
        -0.18377E+08
         0.27906E+08
         0.11395E+09
        -0.16612E+09
        -0.65095E+08
         0.14954E+09
         0.13682E+09
        -0.74700E+08
        -0.47715E+08
        -0.90240E+08
        -0.17206E+09
        -0.17447E+09
        -0.17654E+09
        -0.12579E+09
         0.53140E+08
         0.49872E+08
        -0.17040E+09
         0.23464E+08
        -0.98311E+08
        -0.82555E+08
         0.13433E+09
         0.11727E+09
        -0.10838E+09
        -0.10204E+09
         0.17709E+09
         0.15761E+09
         0.14193E+09
        -0.89753E+08
        -0.21652E+08
        -0.61290E+08
        -0.15727E+09
        -0.17777E+09
        -0.17227E+09
        -0.15751E+09
        -0.13461E+09
        -0.58563E+08
         0.94214E+08
         0.13113E+09
        -0.17987E+08
         0.20808E+08
         0.13735E+09
         0.17245E+09
         0.19574E+09
         0.19297E+09
         0.16625E+09
         0.13823E+09
         0.97048E+08
         0.42025E+08
        -0.11122E+08
        -0.39648E+08
        -0.52085E+08
        -0.90572E+08
        -0.16415E+09
        -0.19606E+09
        -0.19557E+09
        -0.19482E+09
        -0.19714E+09
        -0.19064E+09
        -0.16798E+09
        -0.14679E+09
        -0.77205E+08
         0.19808E+08
         0.47263E+08
         0.50510E+08
         0.84597E+08
         0.15059E+09
         0.18788E+09
         0.18882E+09
        -0.57088E+08
         0.20312E+08
        -0.38028E+08
        -0.13828E+09
         0.12481E+09
         0.15161E+09
         0.78403E+08
        -0.67591E+08
        -0.50789E+08
        -0.67869E+08
        -0.17793E+08
         0.27971E+08
         0.11398E+09
        -0.16607E+09
        -0.64993E+08
         0.14958E+09
         0.13711E+09
        -0.74481E+08
        -0.47662E+08
        -0.90095E+08
        -0.17203E+09
        -0.17446E+09
        -0.17653E+09
        -0.12581E+09
         0.53071E+08
         0.49973E+08
        -0.17039E+09
         0.22815E+08
        -0.98927E+08
        -0.82529E+08
         0.13442E+09
         0.11726E+09
        -0.10786E+09
        -0.10207E+09
         0.17711E+09
         0.15758E+09
         0.14192E+09
        -0.89746E+08
        -0.21799E+08
        -0.61394E+08
        -0.15726E+09
        -0.17779E+09
        -0.17226E+09
        -0.15747E+09
        -0.13456E+09
        -0.58533E+08
         0.94169E+08
         0.13116E+09
        -0.17823E+08
         0.20784E+08
         0.13734E+09
         0.17244E+09
         0.19574E+09
         0.19296E+09
         0.16624E+09
         0.13823E+09
         0.97032E+08
         0.42025E+08
        -0.11137E+08
        -0.39679E+08
        -0.52054E+08
        -0.90562E+08
        -0.16414E+09
        -0.19606E+09
        -0.19557E+09
        -0.19481E+09
        -0.19714E+09
        -0.19065E+09
        -0.16796E+09
        -0.14679E+09
        -0.77186E+08
         0.19815E+08
         0.47230E+08
         0.50493E+08
         0.84564E+08
         0.15058E+09
         0.18788E+09
         0.18882E+09
        -0.54996E+08
         0.18280E+08
        -0.33826E+08
        -0.12790E+09
         0.11841E+09
         0.13824E+09
         0.75438E+08
        -0.64096E+08
        -0.46427E+08
        -0.64193E+08
        -0.13624E+08
         0.27413E+08
         0.11064E+09
        -0.14746E+09
        -0.63604E+08
         0.14035E+09
         0.12528E+09
        -0.74498E+08
        -0.40501E+08
        -0.90174E+08
        -0.16793E+09
        -0.16967E+09
        -0.17194E+09
        -0.11995E+09
         0.47321E+08
         0.50206E+08
        -0.15154E+09
         0.22269E+08
        -0.97833E+08
        -0.73639E+08
         0.12324E+09
         0.11757E+09
        -0.10096E+09
        -0.99961E+08
         0.17062E+09
         0.14510E+09
         0.13485E+09
        -0.87394E+08
        -0.21073E+08
        -0.58720E+08
        -0.15329E+09
        -0.17294E+09
        -0.16799E+09
        -0.15224E+09
        -0.12851E+09
        -0.56627E+08
         0.88628E+08
         0.12209E+09
        -0.15949E+08
         0.19122E+08
         0.13219E+09
         0.16109E+09
         0.19444E+09
         0.19178E+09
         0.16529E+09
         0.13749E+09
         0.96529E+08
         0.41816E+08
        -0.11096E+08
        -0.39443E+08
        -0.51657E+08
        -0.89963E+08
        -0.16311E+09
        -0.19494E+09
        -0.19426E+09
        -0.19351E+09
        -0.19604E+09
        -0.18968E+09
        -0.16715E+09
        -0.14608E+09
        -0.76707E+08
         0.19714E+08
         0.46923E+08
         0.50165E+08
         0.84039E+08
         0.14966E+09
         0.18682E+09
         0.18774E+09
        -0.27185E+08
         0.60814E+07
        -0.10902E+08
        -0.34498E+08
         0.52151E+08
         0.49019E+08
         0.16898E+08
        -0.28573E+08
        -0.16695E+08
        -0.28113E+08
        -0.33317E+07
         0.16326E+08
         0.59488E+08
        -0.47156E+08
        -0.38809E+08
         0.57086E+08
         0.31685E+08
        -0.19491E+08
        -0.11543E+08
        -0.19281E+08
        -0.97063E+08
        -0.93517E+08
        -0.96178E+08
        -0.29138E+08
         0.15441E+08
         0.12177E+08
        -0.48670E+08
         0.43050E+07
        -0.19585E+08
        -0.24040E+08
         0.44451E+08
         0.27411E+08
        -0.26561E+08
        -0.24436E+08
         0.84712E+08
         0.53570E+08
         0.59788E+08
        -0.48924E+08
        -0.10285E+08
        -0.27161E+08
        -0.87113E+08
        -0.95411E+08
        -0.95826E+08
        -0.78337E+08
        -0.59226E+08
        -0.29461E+08
         0.36837E+08
         0.47494E+08
        -0.53690E+07
         0.70713E+07
         0.65240E+08
         0.64118E+08
         0.15503E+09
         0.15571E+09
         0.13561E+09
         0.11386E+09
         0.80772E+08
         0.35244E+08
        -0.92367E+07
        -0.31627E+08
        -0.40846E+08
        -0.72195E+08
        -0.13151E+09
        -0.15989E+09
        -0.15501E+09
        -0.15484E+09
        -0.16141E+09
        -0.15857E+09
        -0.14082E+09
        -0.12314E+09
        -0.62275E+08
         0.16158E+08
         0.38171E+08
         0.40577E+08
         0.68542E+08
         0.12131E+09
         0.15346E+09
         0.15369E+09
  
SCALARS                      stress_xy  double 1
LOOKUP_TABLE default
        -0.61886E+00
        -0.14521E+01
        -0.12453E+02
         0.43987E+00
        -0.55377E-09
         0.54118E-10
         0.81367E-09
         0.12395E-09
        -0.13136E+03
         0.57718E+02
         0.36219E-08
         0.28721E-08
         0.49150E+01
        -0.10198E+01
         0.31969E-09
        -0.96015E-10
         0.14136E+01
         0.24663E+02
         0.15915E-10
         0.24253E-09
        -0.18761E+02
        -0.11901E+03
        -0.11712E+03
         0.24661E-08
         0.19639E-08
        -0.28679E-08
        -0.12391E+02
        -0.10352E+03
         0.33206E-08
         0.51100E-08
        -0.37801E+01
         0.73219E+01
         0.59477E+00
        -0.17526E-09
         0.69140E-09
        -0.88433E-11
        -0.33337E+02
        -0.15491E+02
         0.18504E-08
         0.15329E-08
        -0.65330E+02
        -0.58941E+02
         0.31545E-08
         0.21259E-08
        -0.63373E+02
        -0.11634E+02
        -0.11491E-09
         0.85554E-09
         0.16905E+02
         0.25284E-09
        -0.39641E+01
        -0.57005E-11
         0.10393E+01
         0.19111E-08
         0.51459E+01
         0.29408E-09
         0.73429E+02
        -0.35757E+01
         0.68343E-11
        -0.33529E-10
         0.48949E+00
        -0.49278E+02
         0.18624E-09
         0.47771E-09
         0.21176E+01
        -0.37814E-10
         0.30437E+02
         0.30300E-09
        -0.16270E+03
        -0.59058E+02
         0.23405E-09
        -0.22412E-08
        -0.13282E+03
        -0.35835E-08
         0.54323E+02
         0.24002E-08
         0.17157E+03
         0.35759E-09
         0.29960E+03
         0.46501E-09
         0.58131E+03
         0.31678E+03
         0.10932E-08
        -0.27720E-09
         0.39121E+02
        -0.33358E-10
        -0.12010E+03
        -0.30086E-08
        -0.17680E+03
        -0.33593E-08
        -0.38897E+03
        -0.17734E+03
        -0.21265E-08
         0.23604E-08
         0.28509E+02
         0.21492E-08
         0.70213E+02
         0.92324E-09
         0.16406E+03
         0.24513E-08
         0.40358E+03
         0.23017E+03
         0.52562E-08
         0.26281E-08
        -0.66327E+03
         0.27795E+03
        -0.34150E-08
         0.41822E-08
        -0.16150E+04
        -0.97057E-08
        -0.21067E+04
        -0.10610E-07
        -0.18508E+04
        -0.72006E-08
        -0.15777E+04
        -0.76377E-09
        -0.68937E+03
         0.21528E-08
         0.90806E+03
         0.13329E-08
         0.20405E+04
         0.12185E-08
         0.26979E+04
         0.26143E-08
         0.26461E+04
         0.31786E-08
         0.21707E+04
         0.12523E-08
         0.11571E+04
         0.76349E-09
        -0.79255E+02
         0.12479E-08
        -0.96320E+03
         0.83650E-09
        -0.15538E+04
        -0.29831E-08
        -0.21208E+04
        -0.78274E-08
        -0.18985E+04
        -0.99335E-08
        -0.12188E+04
        -0.61478E-08
        -0.13350E+03
         0.11729E-08
         0.90191E+03
         0.24859E-08
         0.13043E+04
         0.39617E-08
         0.15957E+04
         0.78016E-08
         0.14304E+04
         0.10123E-07
         0.13315E+04
         0.71922E-08
         0.10999E+04
         0.56880E-08
        -0.84145E+02
         0.22638E+02
         0.23187E+02
        -0.14518E+02
         0.18490E+03
         0.15234E+03
         0.24197E+01
        -0.54694E+02
        -0.24265E+02
        -0.63258E+02
        -0.18071E+02
        -0.33363E+03
        -0.47669E+03
         0.17688E+02
         0.27106E+03
        -0.36498E+02
         0.27127E+02
         0.81050E+01
         0.16419E+02
        -0.13357E+02
         0.66995E+02
         0.58845E+02
        -0.17842E+03
         0.46748E+01
         0.40216E+02
         0.44303E+01
         0.73582E+00
         0.14428E+01
         0.17892E+02
        -0.59490E+02
        -0.31801E+02
         0.67583E+01
         0.10898E+02
        -0.85729E+00
        -0.44527E+02
        -0.15406E+03
        -0.31291E+03
         0.47300E+03
         0.24616E+03
         0.44420E+03
         0.85951E+03
         0.19961E+03
        -0.16169E+03
        -0.32590E+03
        -0.38571E+03
        -0.49153E+03
         0.60718E+02
         0.18230E+03
         0.56239E+02
         0.18905E+03
         0.59118E+03
         0.22818E+03
        -0.20017E+04
         0.25322E+04
        -0.61269E+04
        -0.72054E+04
        -0.68377E+04
        -0.41297E+04
         0.24603E+03
         0.26732E+04
         0.38766E+04
         0.62890E+04
         0.66192E+04
         0.35490E+04
         0.14327E+04
         0.60609E+03
        -0.98128E+03
        -0.38804E+04
        -0.64782E+04
        -0.73941E+04
        -0.45172E+04
         0.81942E+03
         0.29706E+04
         0.31306E+04
         0.49308E+04
         0.54700E+04
         0.41519E+04
         0.38339E+04
        -0.25548E+06
         0.66311E+05
        -0.12515E+06
        -0.11090E+06
         0.42677E+06
         0.27818E+06
         0.11061E+06
        -0.31411E+06
        -0.17953E+06
        -0.30686E+06
         0.79980E+05
        -0.15348E+06
        -0.48082E+06
         0.15275E+06
         0.36420E+06
        -0.30000E+06
         0.88495E+05
         0.50603E+05
         0.14060E+06
         0.52116E+05
         0.25184E+06
         0.18974E+06
        -0.11346E+06
         0.10894E+06
         0.18297E+06
        -0.41656E+05
         0.34201E+05
        -0.13992E+05
        -0.56334E+05
        -0.27533E+06
        -0.30375E+06
        -0.74031E+05
         0.18207E+06
         0.13644E+06
         0.72960E+05
        -0.26905E+06
        -0.40380E+06
         0.43820E+06
         0.10046E+06
         0.28817E+06
         0.43350E+06
        -0.13033E+06
        -0.25946E+06
        -0.35758E+06
        -0.42364E+06
        -0.30518E+06
         0.37572E+06
         0.37079E+06
        -0.79750E+05
         0.90856E+05
         0.45788E+06
         0.54141E+05
        -0.22911E+06
         0.31641E+06
        -0.61002E+06
        -0.65885E+06
        -0.56516E+06
        -0.27464E+06
         0.71969E+05
         0.25189E+06
         0.33323E+06
         0.53444E+06
         0.61827E+06
         0.24643E+06
         0.11627E+06
         0.10390E+06
        -0.44706E+05
        -0.34484E+06
        -0.58958E+06
        -0.66174E+06
        -0.47078E+06
         0.12928E+06
         0.30360E+06
         0.31944E+06
         0.50392E+06
         0.64009E+06
         0.40410E+06
         0.38731E+06
        -0.25583E+06
         0.66552E+05
        -0.12536E+06
        -0.11179E+06
         0.42670E+06
         0.27836E+06
         0.11146E+06
        -0.31339E+06
        -0.17967E+06
        -0.30643E+06
         0.78409E+05
        -0.15385E+06
        -0.48091E+06
         0.15286E+06
         0.36380E+06
        -0.30001E+06
         0.89496E+05
         0.50388E+05
         0.14054E+06
         0.51734E+05
         0.25241E+06
         0.18993E+06
        -0.11349E+06
         0.10890E+06
         0.18327E+06
        -0.41650E+05
         0.34600E+05
        -0.13806E+05
        -0.56356E+05
        -0.27548E+06
        -0.30389E+06
        -0.73860E+05
         0.18172E+06
         0.13673E+06
         0.72259E+05
        -0.26921E+06
        -0.40380E+06
         0.43840E+06
         0.10127E+06
         0.28878E+06
         0.43361E+06
        -0.12994E+06
        -0.25969E+06
        -0.35772E+06
        -0.42364E+06
        -0.30505E+06
         0.37568E+06
         0.37073E+06
        -0.79206E+05
         0.90597E+05
         0.45781E+06
         0.53361E+05
        -0.22896E+06
         0.31649E+06
        -0.61009E+06
        -0.65885E+06
        -0.56509E+06
        -0.27463E+06
         0.72074E+05
         0.25209E+06
         0.33303E+06
         0.53438E+06
         0.61823E+06
         0.24654E+06
         0.11627E+06
         0.10412E+06
        -0.44338E+05
        -0.34494E+06
        -0.58968E+06
        -0.66177E+06
        -0.47069E+06
         0.12934E+06
         0.30342E+06
         0.31934E+06
         0.50373E+06
         0.64000E+06
         0.40386E+06
         0.38700E+06
        -0.25618E+06
         0.66788E+05
        -0.12558E+06
        -0.11269E+06
         0.42663E+06
         0.27854E+06
         0.11230E+06
        -0.31267E+06
        -0.17980E+06
        -0.30599E+06
         0.76840E+05
        -0.15422E+06
        -0.48101E+06
         0.15294E+06
         0.36341E+06
        -0.30002E+06
         0.90513E+05
         0.50170E+05
         0.14048E+06
         0.51351E+05
         0.25297E+06
         0.19010E+06
        -0.11353E+06
         0.10884E+06
         0.18359E+06
        -0.41638E+05
         0.35026E+05
        -0.13625E+05
        -0.56341E+05
        -0.27563E+06
        -0.30402E+06
        -0.73658E+05
         0.18135E+06
         0.13701E+06
         0.71553E+05
        -0.26938E+06
        -0.40379E+06
         0.43860E+06
         0.10207E+06
         0.28938E+06
         0.43373E+06
        -0.12951E+06
        -0.25989E+06
        -0.35789E+06
        -0.42365E+06
        -0.30492E+06
         0.37564E+06
         0.37066E+06
        -0.78647E+05
         0.90327E+05
         0.45774E+06
         0.52584E+05
        -0.22882E+06
         0.31656E+06
        -0.61015E+06
        -0.65886E+06
        -0.56501E+06
        -0.27462E+06
         0.72181E+05
         0.25229E+06
         0.33283E+06
         0.53431E+06
         0.61820E+06
         0.24665E+06
         0.11627E+06
         0.10433E+06
        -0.43968E+05
        -0.34505E+06
        -0.58978E+06
        -0.66180E+06
        -0.47060E+06
         0.12940E+06
         0.30324E+06
         0.31924E+06
         0.50355E+06
         0.63991E+06
         0.40363E+06
         0.38669E+06
        -0.25653E+06
         0.67033E+05
        -0.12579E+06
        -0.11359E+06
         0.42656E+06
         0.27872E+06
         0.11315E+06
        -0.31194E+06
        -0.17991E+06
        -0.30552E+06
         0.75271E+05
        -0.15459E+06
        -0.48110E+06
         0.15305E+06
         0.36301E+06
        -0.30004E+06
         0.91556E+05
         0.49951E+05
         0.14043E+06
         0.50948E+05
         0.25355E+06
         0.19026E+06
        -0.11363E+06
         0.10874E+06
         0.18399E+06
        -0.41616E+05
         0.35467E+05
        -0.13474E+05
        -0.56218E+05
        -0.27576E+06
        -0.30416E+06
        -0.73401E+05
         0.18098E+06
         0.13729E+06
         0.70852E+05
        -0.26954E+06
        -0.40377E+06
         0.43880E+06
         0.10287E+06
         0.28997E+06
         0.43388E+06
        -0.12898E+06
        -0.26005E+06
        -0.35814E+06
        -0.42368E+06
        -0.30478E+06
         0.37561E+06
         0.37059E+06
        -0.78086E+05
         0.90057E+05
         0.45766E+06
         0.51807E+05
        -0.22868E+06
         0.31663E+06
        -0.61021E+06
        -0.65886E+06
        -0.56494E+06
        -0.27461E+06
         0.72288E+05
         0.25249E+06
         0.33263E+06
         0.53424E+06
         0.61818E+06
         0.24678E+06
         0.11628E+06
         0.10454E+06
        -0.43594E+05
        -0.34517E+06
        -0.58990E+06
        -0.66183E+06
        -0.47051E+06
         0.12947E+06
         0.30305E+06
         0.31914E+06
         0.50336E+06
         0.63983E+06
         0.40340E+06
         0.38638E+06
        -0.25688E+06
         0.67277E+05
        -0.12600E+06
        -0.11449E+06
         0.42649E+06
         0.27889E+06
         0.11400E+06
        -0.31121E+06
        -0.17999E+06
        -0.30501E+06
         0.73695E+05
        -0.15496E+06
        -0.48119E+06
         0.15316E+06
         0.36261E+06
        -0.30005E+06
         0.92626E+05
         0.49731E+05
         0.14036E+06
         0.50528E+05
         0.25413E+06
         0.19040E+06
        -0.11377E+06
         0.10859E+06
         0.18445E+06
        -0.41577E+05
         0.35958E+05
        -0.13351E+05
        -0.55984E+05
        -0.27589E+06
        -0.30429E+06
        -0.73072E+05
         0.18060E+06
         0.13757E+06
         0.70145E+05
        -0.26970E+06
        -0.40377E+06
         0.43900E+06
         0.10366E+06
         0.29056E+06
         0.43405E+06
        -0.12833E+06
        -0.26016E+06
        -0.35848E+06
        -0.42375E+06
        -0.30462E+06
         0.37558E+06
         0.37053E+06
        -0.77528E+05
         0.89790E+05
         0.45759E+06
         0.51024E+05
        -0.22854E+06
         0.31671E+06
        -0.61028E+06
        -0.65886E+06
        -0.56487E+06
        -0.27461E+06
         0.72393E+05
         0.25269E+06
         0.33243E+06
         0.53417E+06
         0.61816E+06
         0.24693E+06
         0.11629E+06
         0.10475E+06
        -0.43220E+05
        -0.34529E+06
        -0.59004E+06
        -0.66187E+06
        -0.47041E+06
         0.12953E+06
         0.30287E+06
         0.31904E+06
         0.50317E+06
         0.63974E+06
         0.40316E+06
         0.38607E+06
        -0.25721E+06
         0.67543E+05
        -0.12619E+06
        -0.11540E+06
         0.42642E+06
         0.27907E+06
         0.11484E+06
        -0.31047E+06
        -0.18008E+06
        -0.30450E+06
         0.72117E+05
        -0.15533E+06
        -0.48128E+06
         0.15329E+06
         0.36222E+06
        -0.30008E+06
         0.93718E+05
         0.49513E+05
         0.14030E+06
         0.50107E+05
         0.25470E+06
         0.19053E+06
        -0.11393E+06
         0.10843E+06
         0.18492E+06
        -0.41531E+05
         0.36486E+05
        -0.13237E+05
        -0.55700E+05
        -0.27603E+06
        -0.30441E+06
        -0.72702E+05
         0.18022E+06
         0.13786E+06
         0.69433E+05
        -0.26987E+06
        -0.40377E+06
         0.43919E+06
         0.10445E+06
         0.29114E+06
         0.43424E+06
        -0.12765E+06
        -0.26025E+06
        -0.35884E+06
        -0.42384E+06
        -0.30447E+06
         0.37555E+06
         0.37049E+06
        -0.76950E+05
         0.89548E+05
         0.45752E+06
         0.50239E+05
        -0.22839E+06
         0.31678E+06
        -0.61034E+06
        -0.65886E+06
        -0.56479E+06
        -0.27460E+06
         0.72498E+05
         0.25289E+06
         0.33224E+06
         0.53410E+06
         0.61814E+06
         0.24709E+06
         0.11631E+06
         0.10496E+06
        -0.42846E+05
        -0.34541E+06
        -0.59018E+06
        -0.66190E+06
        -0.47032E+06
         0.12959E+06
         0.30268E+06
         0.31893E+06
         0.50299E+06
         0.63965E+06
         0.40293E+06
         0.38576E+06
        -0.25752E+06
         0.67864E+05
        -0.12634E+06
        -0.11633E+06
         0.42635E+06
         0.27925E+06
         0.11566E+06
        -0.30972E+06
        -0.18016E+06
        -0.30401E+06
         0.70529E+05
        -0.15570E+06
        -0.48138E+06
         0.15350E+06
         0.36181E+06
        -0.30011E+06
         0.94827E+05
         0.49294E+05
         0.14024E+06
         0.49688E+05
         0.25528E+06
         0.19067E+06
        -0.11410E+06
         0.10828E+06
         0.18532E+06
        -0.41471E+05
         0.37109E+05
        -0.13121E+05
        -0.55397E+05
        -0.27619E+06
        -0.30451E+06
        -0.72292E+05
         0.17983E+06
         0.13815E+06
         0.68720E+05
        -0.27005E+06
        -0.40378E+06
         0.43938E+06
         0.10524E+06
         0.29174E+06
         0.43444E+06
        -0.12696E+06
        -0.26032E+06
        -0.35921E+06
        -0.42394E+06
        -0.30433E+06
         0.37549E+06
         0.37049E+06
        -0.76317E+05
         0.89368E+05
         0.45745E+06
         0.49444E+05
        -0.22825E+06
         0.31685E+06
        -0.61040E+06
        -0.65886E+06
        -0.56472E+06
        -0.27459E+06
         0.72602E+05
         0.25310E+06
         0.33204E+06
         0.53404E+06
         0.61812E+06
         0.24726E+06
         0.11633E+06
         0.10517E+06
        -0.42472E+05
        -0.34553E+06
        -0.59032E+06
        -0.66194E+06
        -0.47023E+06
         0.12964E+06
         0.30248E+06
         0.31883E+06
         0.50281E+06
         0.63956E+06
         0.40270E+06
         0.38545E+06
        -0.25781E+06
         0.68203E+05
        -0.12646E+06
        -0.11726E+06
         0.42628E+06
         0.27942E+06
         0.11648E+06
        -0.30898E+06
        -0.18026E+06
        -0.30354E+06
         0.68934E+05
        -0.15607E+06
        -0.48148E+06
         0.15373E+06
         0.36141E+06
        -0.30014E+06
         0.95946E+05
         0.49072E+05
         0.14018E+06
         0.49276E+05
         0.25586E+06
         0.19080E+06
        -0.11426E+06
         0.10813E+06
         0.18569E+06
        -0.41405E+05
         0.37755E+05
        -0.13001E+05
        -0.55088E+05
        -0.27636E+06
        -0.30461E+06
        -0.71857E+05
         0.17943E+06
         0.13843E+06
         0.68000E+05
        -0.27024E+06
        -0.40379E+06
         0.43957E+06
         0.10603E+06
         0.29232E+06
         0.43463E+06
        -0.12627E+06
        -0.26040E+06
        -0.35957E+06
        -0.42404E+06
        -0.30420E+06
         0.37543E+06
         0.37050E+06
        -0.75661E+05
         0.89217E+05
         0.45738E+06
         0.48646E+05
        -0.22811E+06
         0.31692E+06
        -0.61046E+06
        -0.65886E+06
        -0.56464E+06
        -0.27458E+06
         0.72707E+05
         0.25330E+06
         0.33184E+06
         0.53397E+06
         0.61810E+06
         0.24742E+06
         0.11635E+06
         0.10538E+06
        -0.42096E+05
        -0.34566E+06
        -0.59046E+06
        -0.66197E+06
        -0.47013E+06
         0.12969E+06
         0.30228E+06
         0.31873E+06
         0.50264E+06
         0.63947E+06
         0.40246E+06
         0.38514E+06
        -0.25810E+06
         0.68545E+05
        -0.12658E+06
        -0.11820E+06
         0.42621E+06
         0.27959E+06
         0.11729E+06
        -0.30823E+06
        -0.18035E+06
        -0.30306E+06
         0.67342E+05
        -0.15643E+06
        -0.48157E+06
         0.15398E+06
         0.36101E+06
        -0.30018E+06
         0.97074E+05
         0.48852E+05
         0.14012E+06
         0.48858E+05
         0.25643E+06
         0.19094E+06
        -0.11442E+06
         0.10799E+06
         0.18605E+06
        -0.41338E+05
         0.38418E+05
        -0.12874E+05
        -0.54771E+05
        -0.27653E+06
        -0.30471E+06
        -0.71427E+05
         0.17903E+06
         0.13872E+06
         0.67276E+05
        -0.27041E+06
        -0.40380E+06
         0.43975E+06
         0.10682E+06
         0.29291E+06
         0.43482E+06
        -0.12558E+06
        -0.26047E+06
        -0.35993E+06
        -0.42414E+06
        -0.30407E+06
         0.37537E+06
         0.37051E+06
        -0.75003E+05
         0.89073E+05
         0.45731E+06
         0.47844E+05
        -0.22796E+06
         0.31700E+06
        -0.61052E+06
        -0.65886E+06
        -0.56457E+06
        -0.27457E+06
         0.72812E+05
         0.25350E+06
         0.33164E+06
         0.53390E+06
         0.61808E+06
         0.24758E+06
         0.11638E+06
         0.10559E+06
        -0.41722E+05
        -0.34578E+06
        -0.59060E+06
        -0.66201E+06
        -0.47004E+06
         0.12974E+06
         0.30208E+06
         0.31862E+06
         0.50246E+06
         0.63938E+06
         0.40223E+06
         0.38483E+06
        -0.25840E+06
         0.68891E+05
        -0.12670E+06
        -0.11914E+06
         0.42614E+06
         0.27977E+06
         0.11810E+06
        -0.30748E+06
        -0.18044E+06
        -0.30259E+06
         0.65747E+05
        -0.15680E+06
        -0.48167E+06
         0.15420E+06
         0.36060E+06
        -0.30021E+06
         0.98210E+05
         0.48633E+05
         0.14005E+06
         0.48443E+05
         0.25700E+06
         0.19107E+06
        -0.11457E+06
         0.10785E+06
         0.18642E+06
        -0.41271E+05
         0.39063E+05
        -0.12742E+05
        -0.54445E+05
        -0.27670E+06
        -0.30480E+06
        -0.70994E+05
         0.17862E+06
         0.13900E+06
         0.66555E+05
        -0.27060E+06
        -0.40382E+06
         0.43993E+06
         0.10760E+06
         0.29350E+06
         0.43501E+06
        -0.12489E+06
        -0.26055E+06
        -0.36029E+06
        -0.42424E+06
        -0.30394E+06
         0.37531E+06
         0.37053E+06
        -0.74351E+05
         0.88915E+05
         0.45724E+06
         0.47044E+05
        -0.22782E+06
         0.31707E+06
        -0.61058E+06
        -0.65886E+06
        -0.56449E+06
        -0.27456E+06
         0.72916E+05
         0.25369E+06
         0.33145E+06
         0.53384E+06
         0.61806E+06
         0.24774E+06
         0.11640E+06
         0.10580E+06
        -0.41349E+05
        -0.34590E+06
        -0.59075E+06
        -0.66204E+06
        -0.46995E+06
         0.12978E+06
         0.30187E+06
         0.31852E+06
         0.50228E+06
         0.63929E+06
         0.40200E+06
         0.38451E+06
        -0.25869E+06
         0.69234E+05
        -0.12683E+06
        -0.12008E+06
         0.42607E+06
         0.27994E+06
         0.11892E+06
        -0.30673E+06
        -0.18054E+06
        -0.30211E+06
         0.64147E+05
        -0.15717E+06
        -0.48176E+06
         0.15444E+06
         0.36020E+06
        -0.30024E+06
         0.99351E+05
         0.48415E+05
         0.14000E+06
         0.48023E+05
         0.25758E+06
         0.19120E+06
        -0.11473E+06
         0.10771E+06
         0.18678E+06
        -0.41202E+05
         0.39718E+05
        -0.12601E+05
        -0.54110E+05
        -0.27686E+06
        -0.30490E+06
        -0.70563E+05
         0.17821E+06
         0.13929E+06
         0.65830E+05
        -0.27079E+06
        -0.40384E+06
         0.44012E+06
         0.10839E+06
         0.29408E+06
         0.43520E+06
        -0.12420E+06
        -0.26062E+06
        -0.36064E+06
        -0.42434E+06
        -0.30381E+06
         0.37524E+06
         0.37054E+06
        -0.73691E+05
         0.88762E+05
         0.45717E+06
         0.46240E+05
        -0.22767E+06
         0.31714E+06
        -0.61064E+06
        -0.65886E+06
        -0.56442E+06
        -0.27455E+06
         0.73018E+05
         0.25389E+06
         0.33125E+06
         0.53377E+06
         0.61804E+06
         0.24790E+06
         0.11642E+06
         0.10601E+06
        -0.40975E+05
        -0.34602E+06
        -0.59089E+06
        -0.66208E+06
        -0.46986E+06
         0.12983E+06
         0.30167E+06
         0.31842E+06
         0.50211E+06
         0.63920E+06
         0.40177E+06
         0.38420E+06
        -0.25898E+06
         0.69576E+05
        -0.12694E+06
        -0.12102E+06
         0.42600E+06
         0.28011E+06
         0.11973E+06
        -0.30598E+06
        -0.18063E+06
        -0.30164E+06
         0.62549E+05
        -0.15754E+06
        -0.48186E+06
         0.15468E+06
         0.35979E+06
        -0.30028E+06
         0.10050E+06
         0.48195E+05
         0.13994E+06
         0.47611E+05
         0.25815E+06
         0.19133E+06
        -0.11489E+06
         0.10757E+06
         0.18713E+06
        -0.41137E+05
         0.40359E+05
        -0.12456E+05
        -0.53761E+05
        -0.27703E+06
        -0.30499E+06
        -0.70131E+05
         0.17779E+06
         0.13958E+06
         0.65101E+05
        -0.27097E+06
        -0.40385E+06
         0.44029E+06
         0.10917E+06
         0.29468E+06
         0.43539E+06
        -0.12352E+06
        -0.26070E+06
        -0.36100E+06
        -0.42444E+06
        -0.30369E+06
         0.37518E+06
         0.37056E+06
        -0.73029E+05
         0.88618E+05
         0.45710E+06
         0.45436E+05
        -0.22753E+06
         0.31720E+06
        -0.61070E+06
        -0.65886E+06
        -0.56434E+06
        -0.27455E+06
         0.73121E+05
         0.25409E+06
         0.33105E+06
         0.53371E+06
         0.61802E+06
         0.24806E+06
         0.11644E+06
         0.10622E+06
        -0.40599E+05
        -0.34614E+06
        -0.59103E+06
        -0.66211E+06
        -0.46976E+06
         0.12987E+06
         0.30147E+06
         0.31831E+06
         0.50193E+06
         0.63911E+06
         0.40154E+06
         0.38389E+06
        -0.25927E+06
         0.69922E+05
        -0.12706E+06
        -0.12197E+06
         0.42593E+06
         0.28028E+06
         0.12054E+06
        -0.30522E+06
        -0.18071E+06
        -0.30115E+06
         0.60953E+05
        -0.15790E+06
        -0.48195E+06
         0.15490E+06
         0.35938E+06
        -0.30031E+06
         0.10165E+06
         0.47974E+05
         0.13988E+06
         0.47199E+05
         0.25873E+06
         0.19146E+06
        -0.11505E+06
         0.10743E+06
         0.18748E+06
        -0.41067E+05
         0.41018E+05
        -0.12304E+05
        -0.53408E+05
        -0.27720E+06
        -0.30508E+06
        -0.69694E+05
         0.17737E+06
         0.13986E+06
         0.64373E+05
        -0.27116E+06
        -0.40387E+06
         0.44047E+06
         0.10995E+06
         0.29526E+06
         0.43559E+06
        -0.12283E+06
        -0.26077E+06
        -0.36136E+06
        -0.42454E+06
        -0.30355E+06
         0.37512E+06
         0.37058E+06
        -0.72363E+05
         0.88463E+05
         0.45703E+06
         0.44633E+05
        -0.22738E+06
         0.31727E+06
        -0.61076E+06
        -0.65886E+06
        -0.56427E+06
        -0.27454E+06
         0.73226E+05
         0.25429E+06
         0.33085E+06
         0.53364E+06
         0.61800E+06
         0.24822E+06
         0.11646E+06
         0.10643E+06
        -0.40225E+05
        -0.34626E+06
        -0.59117E+06
        -0.66215E+06
        -0.46967E+06
         0.12992E+06
         0.30126E+06
         0.31821E+06
         0.50176E+06
         0.63902E+06
         0.40131E+06
         0.38357E+06
        -0.25956E+06
         0.70261E+05
        -0.12718E+06
        -0.12291E+06
         0.42587E+06
         0.28045E+06
         0.12136E+06
        -0.30447E+06
        -0.18080E+06
        -0.30067E+06
         0.59357E+05
        -0.15827E+06
        -0.48205E+06
         0.15514E+06
         0.35898E+06
        -0.30034E+06
         0.10281E+06
         0.47756E+05
         0.13983E+06
         0.46790E+05
         0.25930E+06
         0.19159E+06
        -0.11520E+06
         0.10730E+06
         0.18782E+06
        -0.40996E+05
         0.41660E+05
        -0.12146E+05
        -0.53049E+05
        -0.27736E+06
        -0.30517E+06
        -0.69262E+05
         0.17694E+06
         0.14015E+06
         0.63642E+05
        -0.27134E+06
        -0.40388E+06
         0.44064E+06
         0.11073E+06
         0.29585E+06
         0.43578E+06
        -0.12215E+06
        -0.26084E+06
        -0.36171E+06
        -0.42464E+06
        -0.30342E+06
         0.37505E+06
         0.37059E+06
        -0.71700E+05
         0.88310E+05
         0.45696E+06
         0.43833E+05
        -0.22723E+06
         0.31734E+06
        -0.61082E+06
        -0.65886E+06
        -0.56420E+06
        -0.27453E+06
         0.73330E+05
         0.25449E+06
         0.33065E+06
         0.53358E+06
         0.61798E+06
         0.24838E+06
         0.11648E+06
         0.10664E+06
        -0.39852E+05
        -0.34638E+06
        -0.59131E+06
        -0.66218E+06
        -0.46958E+06
         0.12996E+06
         0.30106E+06
         0.31811E+06
         0.50158E+06
         0.63893E+06
         0.40108E+06
         0.38326E+06
        -0.25986E+06
         0.70599E+05
        -0.12729E+06
        -0.12386E+06
         0.42579E+06
         0.28062E+06
         0.12217E+06
        -0.30371E+06
        -0.18089E+06
        -0.30018E+06
         0.57759E+05
        -0.15864E+06
        -0.48214E+06
         0.15535E+06
         0.35856E+06
        -0.30038E+06
         0.10398E+06
         0.47539E+05
         0.13977E+06
         0.46377E+05
         0.25988E+06
         0.19172E+06
        -0.11536E+06
         0.10716E+06
         0.18816E+06
        -0.40925E+05
         0.42312E+05
        -0.11981E+05
        -0.52682E+05
        -0.27752E+06
        -0.30526E+06
        -0.68826E+05
         0.17651E+06
         0.14044E+06
         0.62912E+05
        -0.27153E+06
        -0.40389E+06
         0.44081E+06
         0.11151E+06
         0.29643E+06
         0.43597E+06
        -0.12146E+06
        -0.26092E+06
        -0.36207E+06
        -0.42474E+06
        -0.30330E+06
         0.37499E+06
         0.37061E+06
        -0.71024E+05
         0.88161E+05
         0.45690E+06
         0.43027E+05
        -0.22709E+06
         0.31741E+06
        -0.61088E+06
        -0.65886E+06
        -0.56412E+06
        -0.27452E+06
         0.73432E+05
         0.25468E+06
         0.33045E+06
         0.53351E+06
         0.61797E+06
         0.24854E+06
         0.11650E+06
         0.10685E+06
        -0.39478E+05
        -0.34650E+06
        -0.59145E+06
        -0.66222E+06
        -0.46948E+06
         0.13001E+06
         0.30086E+06
         0.31801E+06
         0.50141E+06
         0.63884E+06
         0.40086E+06
         0.38294E+06
        -0.26015E+06
         0.70945E+05
        -0.12741E+06
        -0.12480E+06
         0.42572E+06
         0.28079E+06
         0.12298E+06
        -0.30295E+06
        -0.18097E+06
        -0.29970E+06
         0.56159E+05
        -0.15901E+06
        -0.48224E+06
         0.15558E+06
         0.35816E+06
        -0.30041E+06
         0.10515E+06
         0.47323E+05
         0.13971E+06
         0.45968E+05
         0.26045E+06
         0.19184E+06
        -0.11551E+06
         0.10703E+06
         0.18849E+06
        -0.40853E+05
         0.42947E+05
        -0.11810E+05
        -0.52308E+05
        -0.27768E+06
        -0.30535E+06
        -0.68394E+05
         0.17608E+06
         0.14073E+06
         0.62176E+05
        -0.27171E+06
        -0.40391E+06
         0.44098E+06
         0.11229E+06
         0.29702E+06
         0.43616E+06
        -0.12078E+06
        -0.26100E+06
        -0.36242E+06
        -0.42484E+06
        -0.30316E+06
         0.37492E+06
         0.37062E+06
        -0.70356E+05
         0.88005E+05
         0.45683E+06
         0.42220E+05
        -0.22694E+06
         0.31748E+06
        -0.61094E+06
        -0.65886E+06
        -0.56405E+06
        -0.27451E+06
         0.73534E+05
         0.25488E+06
         0.33025E+06
         0.53345E+06
         0.61795E+06
         0.24870E+06
         0.11652E+06
         0.10706E+06
        -0.39104E+05
        -0.34662E+06
        -0.59159E+06
        -0.66225E+06
        -0.46939E+06
         0.13005E+06
         0.30065E+06
         0.31791E+06
         0.50123E+06
         0.63875E+06
         0.40063E+06
         0.38263E+06
        -0.26044E+06
         0.71286E+05
        -0.12753E+06
        -0.12575E+06
         0.42565E+06
         0.28096E+06
         0.12380E+06
        -0.30219E+06
        -0.18105E+06
        -0.29920E+06
         0.54558E+05
        -0.15938E+06
        -0.48233E+06
         0.15579E+06
         0.35774E+06
        -0.30044E+06
         0.10634E+06
         0.47106E+05
         0.13966E+06
         0.45563E+05
         0.26102E+06
         0.19196E+06
        -0.11567E+06
         0.10690E+06
         0.18881E+06
        -0.40779E+05
         0.43599E+05
        -0.11629E+05
        -0.51921E+05
        -0.27784E+06
        -0.30544E+06
        -0.67961E+05
         0.17564E+06
         0.14102E+06
         0.61439E+05
        -0.27190E+06
        -0.40392E+06
         0.44114E+06
         0.11308E+06
         0.29761E+06
         0.43635E+06
        -0.12010E+06
        -0.26108E+06
        -0.36277E+06
        -0.42494E+06
        -0.30304E+06
         0.37486E+06
         0.37064E+06
        -0.69689E+05
         0.87849E+05
         0.45676E+06
         0.41418E+05
        -0.22679E+06
         0.31755E+06
        -0.61100E+06
        -0.65886E+06
        -0.56397E+06
        -0.27450E+06
         0.73634E+05
         0.25507E+06
         0.33006E+06
         0.53338E+06
         0.61793E+06
         0.24886E+06
         0.11654E+06
         0.10727E+06
        -0.38732E+05
        -0.34674E+06
        -0.59173E+06
        -0.66229E+06
        -0.46929E+06
         0.13009E+06
         0.30045E+06
         0.31780E+06
         0.50105E+06
         0.63866E+06
         0.40040E+06
         0.38232E+06
        -0.26073E+06
         0.71625E+05
        -0.12764E+06
        -0.12671E+06
         0.42558E+06
         0.28113E+06
         0.12462E+06
        -0.30143E+06
        -0.18112E+06
        -0.29867E+06
         0.52956E+05
        -0.15975E+06
        -0.48242E+06
         0.15602E+06
         0.35733E+06
        -0.30047E+06
         0.10754E+06
         0.46887E+05
         0.13962E+06
         0.45177E+05
         0.26159E+06
         0.19208E+06
        -0.11583E+06
         0.10676E+06
         0.18911E+06
        -0.40710E+05
         0.44246E+05
        -0.11436E+05
        -0.51529E+05
        -0.27801E+06
        -0.30552E+06
        -0.67519E+05
         0.17519E+06
         0.14132E+06
         0.60703E+05
        -0.27209E+06
        -0.40393E+06
         0.44130E+06
         0.11389E+06
         0.29819E+06
         0.43654E+06
        -0.11942E+06
        -0.26116E+06
        -0.36312E+06
        -0.42504E+06
        -0.30290E+06
         0.37480E+06
         0.37066E+06
        -0.69024E+05
         0.87694E+05
         0.45669E+06
         0.40614E+05
        -0.22665E+06
         0.31761E+06
        -0.61106E+06
        -0.65886E+06
        -0.56390E+06
        -0.27449E+06
         0.73735E+05
         0.25527E+06
         0.32986E+06
         0.53332E+06
         0.61792E+06
         0.24902E+06
         0.11655E+06
         0.10748E+06
        -0.38360E+05
        -0.34686E+06
        -0.59187E+06
        -0.66232E+06
        -0.46920E+06
         0.13014E+06
         0.30025E+06
         0.31770E+06
         0.50088E+06
         0.63857E+06
         0.40018E+06
         0.38200E+06
        -0.26103E+06
         0.71963E+05
        -0.12776E+06
        -0.12766E+06
         0.42551E+06
         0.28129E+06
         0.12543E+06
        -0.30066E+06
        -0.18118E+06
        -0.29811E+06
         0.51357E+05
        -0.16011E+06
        -0.48252E+06
         0.15625E+06
         0.35691E+06
        -0.30050E+06
         0.10875E+06
         0.46669E+05
         0.13956E+06
         0.44803E+05
         0.26216E+06
         0.19219E+06
        -0.11598E+06
         0.10663E+06
         0.18937E+06
        -0.40634E+05
         0.44922E+05
        -0.11227E+05
        -0.51129E+05
        -0.27816E+06
        -0.30561E+06
        -0.67085E+05
         0.17473E+06
         0.14161E+06
         0.59961E+05
        -0.27227E+06
        -0.40395E+06
         0.44144E+06
         0.11473E+06
         0.29878E+06
         0.43674E+06
        -0.11875E+06
        -0.26126E+06
        -0.36347E+06
        -0.42514E+06
        -0.30278E+06
         0.37473E+06
         0.37067E+06
        -0.68349E+05
         0.87542E+05
         0.45662E+06
         0.39803E+05
        -0.22650E+06
         0.31768E+06
        -0.61112E+06
        -0.65886E+06
        -0.56382E+06
        -0.27449E+06
         0.73835E+05
         0.25546E+06
         0.32967E+06
         0.53326E+06
         0.61791E+06
         0.24917E+06
         0.11654E+06
         0.10768E+06
        -0.37987E+05
        -0.34698E+06
        -0.59201E+06
        -0.66236E+06
        -0.46911E+06
         0.13018E+06
         0.30005E+06
         0.31759E+06
         0.50070E+06
         0.63848E+06
         0.39996E+06
         0.38168E+06
        -0.26132E+06
         0.72303E+05
        -0.12788E+06
        -0.12861E+06
         0.42544E+06
         0.28146E+06
         0.12625E+06
        -0.29990E+06
        -0.18122E+06
        -0.29755E+06
         0.49768E+05
        -0.16048E+06
        -0.48261E+06
         0.15645E+06
         0.35649E+06
        -0.30054E+06
         0.10998E+06
         0.46454E+05
         0.13950E+06
         0.44440E+05
         0.26273E+06
         0.19231E+06
        -0.11613E+06
         0.10651E+06
         0.18962E+06
        -0.40564E+05
         0.45580E+05
        -0.11008E+05
        -0.50727E+05
        -0.27832E+06
        -0.30570E+06
        -0.66659E+05
         0.17428E+06
         0.14191E+06
         0.59226E+05
        -0.27245E+06
        -0.40395E+06
         0.44157E+06
         0.11558E+06
         0.29936E+06
         0.43693E+06
        -0.11809E+06
        -0.26137E+06
        -0.36382E+06
        -0.42524E+06
        -0.30265E+06
         0.37467E+06
         0.37069E+06
        -0.67682E+05
         0.87381E+05
         0.45655E+06
         0.38996E+05
        -0.22635E+06
         0.31775E+06
        -0.61117E+06
        -0.65886E+06
        -0.56375E+06
        -0.27447E+06
         0.73934E+05
         0.25565E+06
         0.32948E+06
         0.53319E+06
         0.61790E+06
         0.24932E+06
         0.11653E+06
         0.10789E+06
        -0.37613E+05
        -0.34710E+06
        -0.59215E+06
        -0.66239E+06
        -0.46901E+06
         0.13023E+06
         0.29985E+06
         0.31749E+06
         0.50053E+06
         0.63839E+06
         0.39974E+06
         0.38137E+06
        -0.24645E+06
         0.63210E+05
        -0.11072E+06
        -0.11994E+06
         0.39164E+06
         0.24808E+06
         0.12209E+06
        -0.27666E+06
        -0.16155E+06
        -0.27377E+06
         0.37175E+05
        -0.15442E+06
        -0.45806E+06
         0.13282E+06
         0.34305E+06
        -0.27511E+06
         0.10140E+06
         0.46615E+05
         0.11595E+06
         0.44447E+05
         0.25245E+06
         0.18338E+06
        -0.11105E+06
         0.10188E+06
         0.16342E+06
        -0.40852E+05
         0.39255E+05
        -0.10869E+05
        -0.49841E+05
        -0.23897E+06
        -0.27323E+06
        -0.66876E+05
         0.16396E+06
         0.13988E+06
         0.54918E+05
        -0.24173E+06
        -0.37243E+06
         0.42105E+06
         0.10863E+06
         0.27756E+06
         0.41748E+06
        -0.11195E+06
        -0.25023E+06
        -0.34438E+06
        -0.39525E+06
        -0.28575E+06
         0.34104E+06
         0.33368E+06
        -0.58506E+05
         0.77541E+05
         0.42792E+06
         0.34505E+05
        -0.22335E+06
         0.31426E+06
        -0.60476E+06
        -0.65225E+06
        -0.55838E+06
        -0.27197E+06
         0.73318E+05
         0.25263E+06
         0.32493E+06
         0.52663E+06
         0.61058E+06
         0.24674E+06
         0.11502E+06
         0.10673E+06
        -0.36869E+05
        -0.34390E+06
        -0.58695E+06
        -0.65654E+06
        -0.46366E+06
         0.12891E+06
         0.29634E+06
         0.31371E+06
         0.49487E+06
         0.63099E+06
         0.39530E+06
         0.37695E+06
        -0.70027E+05
         0.10016E+05
        -0.16939E+05
        -0.16036E+05
         0.87748E+05
         0.41289E+05
         0.11587E+05
        -0.64237E+05
        -0.29331E+05
        -0.61777E+05
         0.35824E+04
        -0.56546E+05
        -0.14096E+06
         0.17814E+05
         0.13140E+06
        -0.59619E+05
         0.11800E+05
         0.63013E+04
         0.14862E+05
         0.40219E+04
         0.89543E+05
         0.59695E+05
        -0.37355E+05
         0.11332E+05
         0.23996E+05
        -0.47510E+04
         0.53725E+04
        -0.82287E+03
        -0.38572E+04
        -0.34464E+05
        -0.50106E+05
        -0.71917E+04
         0.21184E+05
         0.16172E+05
         0.14446E+05
        -0.41352E+05
        -0.84329E+05
         0.13788E+06
         0.27947E+05
         0.65442E+05
         0.14095E+06
        -0.36011E+05
        -0.86287E+05
        -0.10126E+06
        -0.95969E+05
        -0.82564E+05
         0.69398E+05
         0.63023E+05
        -0.91403E+04
         0.13526E+05
         0.11394E+06
         0.65841E+04
        -0.14279E+06
         0.20853E+06
        -0.40956E+06
        -0.44993E+06
        -0.39321E+06
        -0.19429E+06
         0.51014E+05
         0.16343E+06
         0.20460E+06
         0.34132E+06
         0.39944E+06
         0.16701E+06
         0.73707E+05
         0.68897E+05
        -0.24991E+05
        -0.24180E+06
        -0.41907E+06
        -0.46915E+06
        -0.30751E+06
         0.87052E+05
         0.19736E+06
         0.20663E+06
         0.33130E+06
         0.41716E+06
         0.26828E+06
         0.25405E+06
  
SCALARS                      strain_xx  double 1
LOOKUP_TABLE default
        -0.96357E-07
        -0.49749E-05
        -0.52971E-04
        -0.23868E-06
        -0.19057E-19
        -0.23959E-20
        -0.26788E-19
        -0.10685E-20
        -0.42939E-03
        -0.18946E-03
        -0.23966E-18
        -0.19444E-18
        -0.81730E-06
        -0.13630E-04
        -0.36455E-20
        -0.80000E-19
        -0.51391E-06
        -0.12523E-04
        -0.41742E-19
        -0.92588E-19
        -0.27719E-04
        -0.80293E-04
        -0.69621E-04
        -0.41284E-19
        -0.87785E-20
        -0.26794E-19
        -0.89544E-04
        -0.60559E-04
        -0.14466E-18
        -0.91025E-19
        -0.28201E-05
        -0.14654E-04
        -0.12014E-06
        -0.14995E-20
        -0.22393E-19
        -0.84991E-20
        -0.25602E-04
        -0.63066E-05
        -0.49359E-19
        -0.55957E-19
        -0.10424E-03
        -0.21832E-03
        -0.25115E-18
        -0.13659E-18
        -0.11442E-03
        -0.31803E-04
        -0.30288E-18
        -0.70170E-19
        -0.10565E-04
        -0.27648E-19
        -0.52616E-04
        -0.21423E-20
        -0.11916E-04
        -0.10556E-18
        -0.67040E-05
        -0.73866E-20
        -0.12829E-03
        -0.93601E-05
        -0.54206E-20
        -0.31670E-19
        -0.32191E-07
        -0.25009E-04
        -0.21684E-19
        -0.10197E-19
        -0.16300E-05
        -0.21940E-21
        -0.18737E-04
        -0.94920E-20
        -0.85882E-03
        -0.40578E-03
        -0.37082E-18
        -0.19505E-18
        -0.16984E-03
        -0.10341E-18
        -0.10430E-04
        -0.49486E-19
        -0.10250E-03
        -0.19062E-20
        -0.45972E-03
        -0.45881E-20
        -0.79558E-03
        -0.39651E-03
        -0.61621E-19
        -0.80599E-19
        -0.30073E-03
        -0.93220E-19
        -0.16841E-03
        -0.19324E-18
        -0.66844E-04
        -0.78611E-19
        -0.16850E-03
        -0.92119E-04
        -0.14319E-19
        -0.26929E-19
        -0.47601E-05
        -0.37051E-19
        -0.35559E-04
        -0.65322E-20
        -0.20654E-03
        -0.39834E-19
        -0.45215E-03
        -0.21144E-03
        -0.21177E-18
        -0.23060E-18
        -0.28107E-02
        -0.33804E-02
        -0.72305E-18
        -0.70220E-18
        -0.27627E-02
        -0.52770E-18
        -0.22447E-02
        -0.29471E-18
        -0.11800E-02
        -0.89001E-19
        -0.64798E-03
        -0.10177E-20
        -0.91993E-04
        -0.12910E-19
        -0.15516E-03
        -0.82639E-20
        -0.88503E-03
        -0.79833E-20
        -0.19532E-02
        -0.40598E-19
        -0.34744E-02
        -0.14695E-18
        -0.49261E-02
        -0.20925E-18
        -0.52635E-02
        -0.18628E-18
        -0.45960E-02
        -0.22028E-18
        -0.36953E-02
        -0.37104E-18
        -0.28935E-02
        -0.51594E-18
        -0.22521E-02
        -0.44586E-18
        -0.15371E-02
        -0.29448E-18
        -0.55331E-03
        -0.65630E-19
        -0.41131E-05
        -0.23931E-20
        -0.17118E-03
        -0.14106E-19
        -0.41470E-03
        -0.37718E-19
        -0.95806E-03
        -0.14446E-18
        -0.16671E-02
        -0.38899E-18
        -0.28350E-02
        -0.56149E-18
        -0.36622E-02
        -0.58741E-18
        -0.21811E-05
        -0.59744E-06
        -0.82114E-06
        -0.32827E-05
        -0.50425E-04
        -0.29824E-04
        -0.68931E-06
        -0.14772E-05
        -0.38628E-06
        -0.12371E-05
        -0.38013E-06
        -0.71437E-05
        -0.31003E-04
        -0.31701E-05
        -0.46063E-05
        -0.58183E-05
        -0.41083E-05
        -0.87633E-06
        -0.21658E-05
        -0.24975E-05
        -0.75027E-04
        -0.84785E-04
        -0.69564E-04
        -0.67069E-05
        -0.10720E-05
        -0.59552E-06
        -0.62054E-05
        -0.77958E-07
        -0.82145E-05
        -0.38454E-05
        -0.46439E-05
        -0.18128E-06
        -0.10313E-05
        -0.10880E-06
        -0.11169E-03
        -0.45009E-04
        -0.36728E-04
        -0.18079E-04
        -0.58687E-05
        -0.27025E-04
        -0.11494E-03
        -0.98761E-04
        -0.95064E-04
        -0.51457E-04
        -0.26654E-04
        -0.16483E-04
        -0.57628E-06
        -0.99461E-05
        -0.83241E-06
        -0.84355E-05
        -0.60661E-04
        -0.42587E-04
        -0.96842E-03
        -0.10618E-02
        -0.84945E-03
        -0.61413E-03
        -0.34083E-03
        -0.88788E-04
        -0.31336E-06
        -0.45159E-04
        -0.10477E-03
        -0.30901E-03
        -0.82162E-03
        -0.12078E-02
        -0.10088E-02
        -0.92608E-03
        -0.10312E-02
        -0.10289E-02
        -0.84955E-03
        -0.65388E-03
        -0.16930E-03
        -0.42245E-05
        -0.62178E-04
        -0.77234E-04
        -0.22161E-03
        -0.56665E-03
        -0.94964E-03
        -0.10474E-02
        -0.79484E-05
        -0.33494E-06
        -0.12139E-05
        -0.10292E-04
        -0.43304E-04
        -0.31624E-04
        -0.26844E-05
        -0.12793E-04
        -0.27008E-05
        -0.11562E-04
        -0.47186E-06
        -0.62815E-05
        -0.67980E-04
        -0.39977E-04
        -0.42893E-04
        -0.30679E-04
        -0.95079E-05
        -0.34109E-05
        -0.15448E-05
        -0.47642E-05
        -0.16773E-03
        -0.15235E-03
        -0.14835E-03
        -0.86784E-05
        -0.27997E-05
        -0.12693E-05
        -0.37330E-04
        -0.65812E-06
        -0.41810E-05
        -0.77752E-05
        -0.18109E-04
        -0.75823E-05
        -0.76175E-05
        -0.56740E-05
        -0.13773E-03
        -0.41955E-04
        -0.55203E-04
        -0.52748E-04
        -0.14786E-05
        -0.12429E-04
        -0.16776E-03
        -0.17751E-03
        -0.16960E-03
        -0.88666E-04
        -0.52581E-04
        -0.18002E-04
        -0.21026E-04
        -0.29305E-04
        -0.51206E-06
        -0.74233E-06
        -0.77995E-04
        -0.60522E-04
        -0.24078E-02
        -0.24453E-02
        -0.19705E-02
        -0.13405E-02
        -0.74635E-03
        -0.15833E-03
        -0.97596E-05
        -0.10245E-03
        -0.17779E-03
        -0.59744E-03
        -0.18849E-02
        -0.26231E-02
        -0.18444E-02
        -0.16694E-02
        -0.20263E-02
        -0.21492E-02
        -0.17904E-02
        -0.16020E-02
        -0.41588E-03
        -0.28095E-04
        -0.13742E-03
        -0.14105E-03
        -0.44587E-03
        -0.13366E-02
        -0.21899E-02
        -0.21761E-02
        -0.79785E-05
        -0.33743E-06
        -0.12185E-05
        -0.10306E-04
        -0.43221E-04
        -0.31566E-04
        -0.27186E-05
        -0.12728E-04
        -0.27068E-05
        -0.11544E-04
        -0.45295E-06
        -0.63121E-05
        -0.68062E-04
        -0.39780E-04
        -0.42847E-04
        -0.30742E-04
        -0.95497E-05
        -0.33920E-05
        -0.15432E-05
        -0.47474E-05
        -0.16770E-03
        -0.15231E-03
        -0.14833E-03
        -0.86793E-05
        -0.28124E-05
        -0.12735E-05
        -0.37352E-04
        -0.63361E-06
        -0.42400E-05
        -0.77852E-05
        -0.18161E-04
        -0.75804E-05
        -0.75542E-05
        -0.56791E-05
        -0.13787E-03
        -0.41916E-04
        -0.55168E-04
        -0.52918E-04
        -0.15070E-05
        -0.12507E-04
        -0.16797E-03
        -0.17771E-03
        -0.16962E-03
        -0.88640E-04
        -0.52544E-04
        -0.17983E-04
        -0.21018E-04
        -0.29324E-04
        -0.50461E-06
        -0.73727E-06
        -0.77894E-04
        -0.60343E-04
        -0.24062E-02
        -0.24440E-02
        -0.19701E-02
        -0.13405E-02
        -0.74589E-03
        -0.15823E-03
        -0.97817E-05
        -0.10258E-03
        -0.17749E-03
        -0.59696E-03
        -0.18843E-02
        -0.26232E-02
        -0.18441E-02
        -0.16692E-02
        -0.20268E-02
        -0.21501E-02
        -0.17911E-02
        -0.16027E-02
        -0.41565E-03
        -0.28121E-04
        -0.13722E-03
        -0.14094E-03
        -0.44522E-03
        -0.13350E-02
        -0.21877E-02
        -0.21742E-02
        -0.80087E-05
        -0.33989E-06
        -0.12231E-05
        -0.10319E-04
        -0.43135E-04
        -0.31509E-04
        -0.27533E-05
        -0.12663E-04
        -0.27123E-05
        -0.11524E-04
        -0.43447E-06
        -0.63427E-05
        -0.68144E-04
        -0.39584E-04
        -0.42801E-04
        -0.30808E-04
        -0.95923E-05
        -0.33730E-05
        -0.15417E-05
        -0.47313E-05
        -0.16767E-03
        -0.15228E-03
        -0.14831E-03
        -0.86803E-05
        -0.28259E-05
        -0.12781E-05
        -0.37374E-04
        -0.60985E-06
        -0.42998E-05
        -0.77949E-05
        -0.18216E-04
        -0.75791E-05
        -0.74908E-05
        -0.56842E-05
        -0.13801E-03
        -0.41880E-04
        -0.55132E-04
        -0.53087E-04
        -0.15358E-05
        -0.12587E-04
        -0.16818E-03
        -0.17792E-03
        -0.16964E-03
        -0.88619E-04
        -0.52507E-04
        -0.17966E-04
        -0.21010E-04
        -0.29344E-04
        -0.49703E-06
        -0.73206E-06
        -0.77797E-04
        -0.60166E-04
        -0.24045E-02
        -0.24428E-02
        -0.19698E-02
        -0.13405E-02
        -0.74543E-03
        -0.15814E-03
        -0.98041E-05
        -0.10271E-03
        -0.17719E-03
        -0.59649E-03
        -0.18837E-02
        -0.26233E-02
        -0.18438E-02
        -0.16690E-02
        -0.20273E-02
        -0.21511E-02
        -0.17917E-02
        -0.16033E-02
        -0.41542E-03
        -0.28147E-04
        -0.13702E-03
        -0.14083E-03
        -0.44456E-03
        -0.13334E-02
        -0.21856E-02
        -0.21722E-02
        -0.80390E-05
        -0.34244E-06
        -0.12276E-05
        -0.10333E-04
        -0.43050E-04
        -0.31451E-04
        -0.27877E-05
        -0.12599E-04
        -0.27172E-05
        -0.11502E-04
        -0.41642E-06
        -0.63740E-05
        -0.68228E-04
        -0.39388E-04
        -0.42756E-04
        -0.30879E-04
        -0.96370E-05
        -0.33540E-05
        -0.15404E-05
        -0.47144E-05
        -0.16765E-03
        -0.15226E-03
        -0.14831E-03
        -0.86812E-05
        -0.28420E-05
        -0.12838E-05
        -0.37392E-04
        -0.58727E-06
        -0.43598E-05
        -0.78041E-05
        -0.18274E-04
        -0.75806E-05
        -0.74273E-05
        -0.56893E-05
        -0.13815E-03
        -0.41843E-04
        -0.55096E-04
        -0.53256E-04
        -0.15647E-05
        -0.12666E-04
        -0.16840E-03
        -0.17815E-03
        -0.16969E-03
        -0.88602E-04
        -0.52466E-04
        -0.17946E-04
        -0.21004E-04
        -0.29364E-04
        -0.48950E-06
        -0.72687E-06
        -0.77695E-04
        -0.59987E-04
        -0.24029E-02
        -0.24415E-02
        -0.19694E-02
        -0.13405E-02
        -0.74498E-03
        -0.15804E-03
        -0.98267E-05
        -0.10283E-03
        -0.17690E-03
        -0.59601E-03
        -0.18831E-02
        -0.26235E-02
        -0.18435E-02
        -0.16689E-02
        -0.20279E-02
        -0.21522E-02
        -0.17924E-02
        -0.16039E-02
        -0.41519E-03
        -0.28172E-04
        -0.13682E-03
        -0.14072E-03
        -0.44391E-03
        -0.13317E-02
        -0.21834E-02
        -0.21703E-02
        -0.80691E-05
        -0.34501E-06
        -0.12322E-05
        -0.10346E-04
        -0.42967E-04
        -0.31393E-04
        -0.28228E-05
        -0.12534E-04
        -0.27214E-05
        -0.11475E-04
        -0.39871E-06
        -0.64049E-05
        -0.68311E-04
        -0.39193E-04
        -0.42709E-04
        -0.30956E-04
        -0.96838E-05
        -0.33350E-05
        -0.15387E-05
        -0.46974E-05
        -0.16765E-03
        -0.15224E-03
        -0.14833E-03
        -0.86823E-05
        -0.28607E-05
        -0.12903E-05
        -0.37407E-04
        -0.56581E-06
        -0.44199E-05
        -0.78127E-05
        -0.18337E-04
        -0.75844E-05
        -0.73639E-05
        -0.56944E-05
        -0.13829E-03
        -0.41805E-04
        -0.55062E-04
        -0.53425E-04
        -0.15938E-05
        -0.12746E-04
        -0.16863E-03
        -0.17839E-03
        -0.16975E-03
        -0.88591E-04
        -0.52424E-04
        -0.17925E-04
        -0.21000E-04
        -0.29386E-04
        -0.48207E-06
        -0.72177E-06
        -0.77599E-04
        -0.59809E-04
        -0.24012E-02
        -0.24402E-02
        -0.19691E-02
        -0.13405E-02
        -0.74451E-03
        -0.15794E-03
        -0.98488E-05
        -0.10296E-03
        -0.17660E-03
        -0.59554E-03
        -0.18825E-02
        -0.26237E-02
        -0.18433E-02
        -0.16688E-02
        -0.20286E-02
        -0.21535E-02
        -0.17932E-02
        -0.16045E-02
        -0.41496E-03
        -0.28198E-04
        -0.13662E-03
        -0.14061E-03
        -0.44325E-03
        -0.13301E-02
        -0.21812E-02
        -0.21684E-02
        -0.80980E-05
        -0.34780E-06
        -0.12362E-05
        -0.10360E-04
        -0.42883E-04
        -0.31335E-04
        -0.28581E-05
        -0.12468E-04
        -0.27255E-05
        -0.11449E-04
        -0.38138E-06
        -0.64359E-05
        -0.68393E-04
        -0.38998E-04
        -0.42663E-04
        -0.31034E-04
        -0.97305E-05
        -0.33160E-05
        -0.15369E-05
        -0.46813E-05
        -0.16764E-03
        -0.15223E-03
        -0.14835E-03
        -0.86837E-05
        -0.28794E-05
        -0.12970E-05
        -0.37421E-04
        -0.54488E-06
        -0.44810E-05
        -0.78228E-05
        -0.18400E-04
        -0.75877E-05
        -0.73001E-05
        -0.56989E-05
        -0.13843E-03
        -0.41771E-04
        -0.55030E-04
        -0.53593E-04
        -0.16231E-05
        -0.12826E-04
        -0.16886E-03
        -0.17863E-03
        -0.16983E-03
        -0.88583E-04
        -0.52386E-04
        -0.17908E-04
        -0.20994E-04
        -0.29407E-04
        -0.47448E-06
        -0.71709E-06
        -0.77504E-04
        -0.59636E-04
        -0.23996E-02
        -0.24390E-02
        -0.19687E-02
        -0.13406E-02
        -0.74405E-03
        -0.15785E-03
        -0.98706E-05
        -0.10309E-03
        -0.17630E-03
        -0.59506E-03
        -0.18819E-02
        -0.26239E-02
        -0.18432E-02
        -0.16687E-02
        -0.20292E-02
        -0.21548E-02
        -0.17940E-02
        -0.16051E-02
        -0.41472E-03
        -0.28221E-04
        -0.13642E-03
        -0.14050E-03
        -0.44260E-03
        -0.13285E-02
        -0.21791E-02
        -0.21664E-02
        -0.81247E-05
        -0.35116E-06
        -0.12393E-05
        -0.10373E-04
        -0.42801E-04
        -0.31278E-04
        -0.28942E-05
        -0.12401E-04
        -0.27298E-05
        -0.11423E-04
        -0.36435E-06
        -0.64671E-05
        -0.68478E-04
        -0.38803E-04
        -0.42616E-04
        -0.31112E-04
        -0.97757E-05
        -0.32969E-05
        -0.15356E-05
        -0.46655E-05
        -0.16764E-03
        -0.15222E-03
        -0.14838E-03
        -0.86858E-05
        -0.28960E-05
        -0.13029E-05
        -0.37437E-04
        -0.52388E-06
        -0.45429E-05
        -0.78343E-05
        -0.18459E-04
        -0.75883E-05
        -0.72352E-05
        -0.57022E-05
        -0.13857E-03
        -0.41741E-04
        -0.55000E-04
        -0.53761E-04
        -0.16530E-05
        -0.12909E-04
        -0.16909E-03
        -0.17888E-03
        -0.16991E-03
        -0.88578E-04
        -0.52352E-04
        -0.17891E-04
        -0.20984E-04
        -0.29427E-04
        -0.46631E-06
        -0.71349E-06
        -0.77420E-04
        -0.59463E-04
        -0.23979E-02
        -0.24377E-02
        -0.19684E-02
        -0.13406E-02
        -0.74359E-03
        -0.15775E-03
        -0.98925E-05
        -0.10321E-03
        -0.17600E-03
        -0.59459E-03
        -0.18813E-02
        -0.26241E-02
        -0.18431E-02
        -0.16685E-02
        -0.20299E-02
        -0.21561E-02
        -0.17948E-02
        -0.16057E-02
        -0.41449E-03
        -0.28240E-04
        -0.13621E-03
        -0.14039E-03
        -0.44197E-03
        -0.13269E-02
        -0.21769E-02
        -0.21645E-02
        -0.81502E-05
        -0.35472E-06
        -0.12420E-05
        -0.10385E-04
        -0.42723E-04
        -0.31220E-04
        -0.29311E-05
        -0.12333E-04
        -0.27342E-05
        -0.11399E-04
        -0.34766E-06
        -0.64984E-05
        -0.68563E-04
        -0.38609E-04
        -0.42568E-04
        -0.31190E-04
        -0.98199E-05
        -0.32777E-05
        -0.15339E-05
        -0.46506E-05
        -0.16763E-03
        -0.15221E-03
        -0.14840E-03
        -0.86875E-05
        -0.29116E-05
        -0.13085E-05
        -0.37453E-04
        -0.50316E-06
        -0.46062E-05
        -0.78469E-05
        -0.18516E-04
        -0.75873E-05
        -0.71699E-05
        -0.57049E-05
        -0.13872E-03
        -0.41713E-04
        -0.54974E-04
        -0.53929E-04
        -0.16831E-05
        -0.12991E-04
        -0.16932E-03
        -0.17914E-03
        -0.16999E-03
        -0.88578E-04
        -0.52320E-04
        -0.17878E-04
        -0.20973E-04
        -0.29445E-04
        -0.45796E-06
        -0.71037E-06
        -0.77338E-04
        -0.59294E-04
        -0.23963E-02
        -0.24365E-02
        -0.19680E-02
        -0.13406E-02
        -0.74313E-03
        -0.15766E-03
        -0.99143E-05
        -0.10334E-03
        -0.17570E-03
        -0.59412E-03
        -0.18807E-02
        -0.26243E-02
        -0.18429E-02
        -0.16684E-02
        -0.20305E-02
        -0.21574E-02
        -0.17957E-02
        -0.16063E-02
        -0.41424E-03
        -0.28258E-04
        -0.13599E-03
        -0.14028E-03
        -0.44134E-03
        -0.13253E-02
        -0.21747E-02
        -0.21626E-02
        -0.81757E-05
        -0.35834E-06
        -0.12447E-05
        -0.10397E-04
        -0.42642E-04
        -0.31162E-04
        -0.29679E-05
        -0.12265E-04
        -0.27387E-05
        -0.11375E-04
        -0.33143E-06
        -0.65296E-05
        -0.68649E-04
        -0.38416E-04
        -0.42521E-04
        -0.31268E-04
        -0.98643E-05
        -0.32588E-05
        -0.15323E-05
        -0.46353E-05
        -0.16763E-03
        -0.15220E-03
        -0.14843E-03
        -0.86899E-05
        -0.29271E-05
        -0.13141E-05
        -0.37471E-04
        -0.48289E-06
        -0.46698E-05
        -0.78594E-05
        -0.18574E-04
        -0.75864E-05
        -0.71049E-05
        -0.57076E-05
        -0.13888E-03
        -0.41684E-04
        -0.54947E-04
        -0.54097E-04
        -0.17136E-05
        -0.13073E-04
        -0.16956E-03
        -0.17939E-03
        -0.17008E-03
        -0.88579E-04
        -0.52291E-04
        -0.17865E-04
        -0.20962E-04
        -0.29464E-04
        -0.44968E-06
        -0.70740E-06
        -0.77261E-04
        -0.59123E-04
        -0.23946E-02
        -0.24352E-02
        -0.19676E-02
        -0.13406E-02
        -0.74267E-03
        -0.15756E-03
        -0.99361E-05
        -0.10347E-03
        -0.17541E-03
        -0.59365E-03
        -0.18801E-02
        -0.26245E-02
        -0.18428E-02
        -0.16683E-02
        -0.20312E-02
        -0.21588E-02
        -0.17965E-02
        -0.16068E-02
        -0.41400E-03
        -0.28276E-04
        -0.13578E-03
        -0.14017E-03
        -0.44071E-03
        -0.13237E-02
        -0.21726E-02
        -0.21606E-02
        -0.82013E-05
        -0.36201E-06
        -0.12473E-05
        -0.10410E-04
        -0.42562E-04
        -0.31104E-04
        -0.30052E-05
        -0.12198E-04
        -0.27432E-05
        -0.11351E-04
        -0.31558E-06
        -0.65610E-05
        -0.68736E-04
        -0.38224E-04
        -0.42474E-04
        -0.31345E-04
        -0.99088E-05
        -0.32400E-05
        -0.15306E-05
        -0.46204E-05
        -0.16762E-03
        -0.15219E-03
        -0.14845E-03
        -0.86923E-05
        -0.29427E-05
        -0.13196E-05
        -0.37488E-04
        -0.46316E-06
        -0.47337E-05
        -0.78717E-05
        -0.18632E-04
        -0.75853E-05
        -0.70404E-05
        -0.57105E-05
        -0.13902E-03
        -0.41657E-04
        -0.54921E-04
        -0.54266E-04
        -0.17444E-05
        -0.13157E-04
        -0.16979E-03
        -0.17964E-03
        -0.17016E-03
        -0.88579E-04
        -0.52260E-04
        -0.17850E-04
        -0.20951E-04
        -0.29483E-04
        -0.44154E-06
        -0.70419E-06
        -0.77178E-04
        -0.58952E-04
        -0.23930E-02
        -0.24340E-02
        -0.19672E-02
        -0.13406E-02
        -0.74221E-03
        -0.15746E-03
        -0.99577E-05
        -0.10359E-03
        -0.17511E-03
        -0.59318E-03
        -0.18795E-02
        -0.26247E-02
        -0.18426E-02
        -0.16682E-02
        -0.20318E-02
        -0.21601E-02
        -0.17973E-02
        -0.16074E-02
        -0.41376E-03
        -0.28294E-04
        -0.13557E-03
        -0.14006E-03
        -0.44008E-03
        -0.13221E-02
        -0.21705E-02
        -0.21587E-02
        -0.82268E-05
        -0.36567E-06
        -0.12501E-05
        -0.10422E-04
        -0.42483E-04
        -0.31048E-04
        -0.30423E-05
        -0.12131E-04
        -0.27477E-05
        -0.11327E-04
        -0.30009E-06
        -0.65928E-05
        -0.68823E-04
        -0.38032E-04
        -0.42425E-04
        -0.31423E-04
        -0.99533E-05
        -0.32213E-05
        -0.15293E-05
        -0.46049E-05
        -0.16762E-03
        -0.15218E-03
        -0.14848E-03
        -0.86947E-05
        -0.29581E-05
        -0.13251E-05
        -0.37506E-04
        -0.44382E-06
        -0.47979E-05
        -0.78838E-05
        -0.18689E-04
        -0.75842E-05
        -0.69762E-05
        -0.57132E-05
        -0.13918E-03
        -0.41628E-04
        -0.54895E-04
        -0.54434E-04
        -0.17756E-05
        -0.13239E-04
        -0.17003E-03
        -0.17989E-03
        -0.17024E-03
        -0.88576E-04
        -0.52229E-04
        -0.17837E-04
        -0.20940E-04
        -0.29501E-04
        -0.43339E-06
        -0.70108E-06
        -0.77101E-04
        -0.58784E-04
        -0.23913E-02
        -0.24328E-02
        -0.19668E-02
        -0.13406E-02
        -0.74175E-03
        -0.15737E-03
        -0.99788E-05
        -0.10371E-03
        -0.17482E-03
        -0.59271E-03
        -0.18789E-02
        -0.26249E-02
        -0.18425E-02
        -0.16681E-02
        -0.20325E-02
        -0.21614E-02
        -0.17981E-02
        -0.16079E-02
        -0.41352E-03
        -0.28311E-04
        -0.13535E-03
        -0.13995E-03
        -0.43946E-03
        -0.13205E-02
        -0.21683E-02
        -0.21568E-02
        -0.82524E-05
        -0.36934E-06
        -0.12526E-05
        -0.10435E-04
        -0.42403E-04
        -0.30990E-04
        -0.30800E-05
        -0.12064E-04
        -0.27522E-05
        -0.11303E-04
        -0.28504E-06
        -0.66246E-05
        -0.68908E-04
        -0.37842E-04
        -0.42377E-04
        -0.31501E-04
        -0.99978E-05
        -0.32025E-05
        -0.15277E-05
        -0.45900E-05
        -0.16761E-03
        -0.15217E-03
        -0.14851E-03
        -0.86973E-05
        -0.29735E-05
        -0.13308E-05
        -0.37524E-04
        -0.42497E-06
        -0.48619E-05
        -0.78966E-05
        -0.18747E-04
        -0.75831E-05
        -0.69119E-05
        -0.57160E-05
        -0.13933E-03
        -0.41600E-04
        -0.54868E-04
        -0.54602E-04
        -0.18071E-05
        -0.13324E-04
        -0.17026E-03
        -0.18014E-03
        -0.17032E-03
        -0.88576E-04
        -0.52198E-04
        -0.17824E-04
        -0.20930E-04
        -0.29521E-04
        -0.42531E-06
        -0.69813E-06
        -0.77020E-04
        -0.58613E-04
        -0.23896E-02
        -0.24315E-02
        -0.19665E-02
        -0.13406E-02
        -0.74129E-03
        -0.15727E-03
        -0.10000E-04
        -0.10384E-03
        -0.17452E-03
        -0.59224E-03
        -0.18782E-02
        -0.26252E-02
        -0.18423E-02
        -0.16680E-02
        -0.20331E-02
        -0.21627E-02
        -0.17989E-02
        -0.16085E-02
        -0.41327E-03
        -0.28328E-04
        -0.13514E-03
        -0.13985E-03
        -0.43883E-03
        -0.13189E-02
        -0.21662E-02
        -0.21549E-02
        -0.82782E-05
        -0.37307E-06
        -0.12552E-05
        -0.10447E-04
        -0.42323E-04
        -0.30933E-04
        -0.31177E-05
        -0.11997E-04
        -0.27565E-05
        -0.11278E-04
        -0.27041E-06
        -0.66561E-05
        -0.68995E-04
        -0.37651E-04
        -0.42329E-04
        -0.31579E-04
        -0.10042E-04
        -0.31838E-05
        -0.15262E-05
        -0.45748E-05
        -0.16761E-03
        -0.15217E-03
        -0.14853E-03
        -0.86999E-05
        -0.29888E-05
        -0.13364E-05
        -0.37541E-04
        -0.40650E-06
        -0.49269E-05
        -0.79088E-05
        -0.18805E-04
        -0.75819E-05
        -0.68478E-05
        -0.57188E-05
        -0.13948E-03
        -0.41574E-04
        -0.54843E-04
        -0.54769E-04
        -0.18389E-05
        -0.13407E-04
        -0.17050E-03
        -0.18039E-03
        -0.17040E-03
        -0.88577E-04
        -0.52170E-04
        -0.17809E-04
        -0.20919E-04
        -0.29539E-04
        -0.41727E-06
        -0.69501E-06
        -0.76937E-04
        -0.58443E-04
        -0.23880E-02
        -0.24303E-02
        -0.19661E-02
        -0.13406E-02
        -0.74083E-03
        -0.15717E-03
        -0.10022E-04
        -0.10396E-03
        -0.17422E-03
        -0.59176E-03
        -0.18776E-02
        -0.26254E-02
        -0.18422E-02
        -0.16679E-02
        -0.20338E-02
        -0.21640E-02
        -0.17997E-02
        -0.16090E-02
        -0.41303E-03
        -0.28345E-04
        -0.13493E-03
        -0.13974E-03
        -0.43820E-03
        -0.13173E-02
        -0.21640E-02
        -0.21529E-02
        -0.83041E-05
        -0.37675E-06
        -0.12578E-05
        -0.10459E-04
        -0.42246E-04
        -0.30875E-04
        -0.31553E-05
        -0.11931E-04
        -0.27609E-05
        -0.11254E-04
        -0.25619E-06
        -0.66878E-05
        -0.69081E-04
        -0.37462E-04
        -0.42281E-04
        -0.31656E-04
        -0.10087E-04
        -0.31652E-05
        -0.15250E-05
        -0.45600E-05
        -0.16760E-03
        -0.15215E-03
        -0.14856E-03
        -0.87024E-05
        -0.30041E-05
        -0.13419E-05
        -0.37557E-04
        -0.38855E-06
        -0.49922E-05
        -0.79209E-05
        -0.18863E-04
        -0.75808E-05
        -0.67841E-05
        -0.57215E-05
        -0.13964E-03
        -0.41546E-04
        -0.54817E-04
        -0.54936E-04
        -0.18711E-05
        -0.13492E-04
        -0.17074E-03
        -0.18064E-03
        -0.17049E-03
        -0.88577E-04
        -0.52138E-04
        -0.17796E-04
        -0.20908E-04
        -0.29558E-04
        -0.40932E-06
        -0.69193E-06
        -0.76859E-04
        -0.58275E-04
        -0.23863E-02
        -0.24291E-02
        -0.19657E-02
        -0.13406E-02
        -0.74038E-03
        -0.15708E-03
        -0.10044E-04
        -0.10408E-03
        -0.17393E-03
        -0.59129E-03
        -0.18770E-02
        -0.26256E-02
        -0.18420E-02
        -0.16678E-02
        -0.20345E-02
        -0.21654E-02
        -0.18006E-02
        -0.16096E-02
        -0.41279E-03
        -0.28362E-04
        -0.13471E-03
        -0.13963E-03
        -0.43758E-03
        -0.13157E-02
        -0.21619E-02
        -0.21510E-02
        -0.83300E-05
        -0.38043E-06
        -0.12604E-05
        -0.10472E-04
        -0.42166E-04
        -0.30818E-04
        -0.31934E-05
        -0.11864E-04
        -0.27653E-05
        -0.11230E-04
        -0.24236E-06
        -0.67202E-05
        -0.69167E-04
        -0.37273E-04
        -0.42232E-04
        -0.31734E-04
        -0.10132E-04
        -0.31467E-05
        -0.15234E-05
        -0.45447E-05
        -0.16760E-03
        -0.15214E-03
        -0.14858E-03
        -0.87049E-05
        -0.30193E-05
        -0.13475E-05
        -0.37574E-04
        -0.37101E-06
        -0.50579E-05
        -0.79329E-05
        -0.18921E-04
        -0.75795E-05
        -0.67205E-05
        -0.57242E-05
        -0.13978E-03
        -0.41520E-04
        -0.54791E-04
        -0.55102E-04
        -0.19035E-05
        -0.13577E-04
        -0.17097E-03
        -0.18089E-03
        -0.17057E-03
        -0.88576E-04
        -0.52107E-04
        -0.17783E-04
        -0.20896E-04
        -0.29577E-04
        -0.40134E-06
        -0.68892E-06
        -0.76777E-04
        -0.58105E-04
        -0.23847E-02
        -0.24278E-02
        -0.19653E-02
        -0.13406E-02
        -0.73992E-03
        -0.15698E-03
        -0.10065E-04
        -0.10420E-03
        -0.17363E-03
        -0.59082E-03
        -0.18764E-02
        -0.26258E-02
        -0.18419E-02
        -0.16677E-02
        -0.20351E-02
        -0.21667E-02
        -0.18014E-02
        -0.16101E-02
        -0.41255E-03
        -0.28378E-04
        -0.13450E-03
        -0.13953E-03
        -0.43695E-03
        -0.13140E-02
        -0.21598E-02
        -0.21491E-02
        -0.83558E-05
        -0.38422E-06
        -0.12630E-05
        -0.10484E-04
        -0.42087E-04
        -0.30762E-04
        -0.32315E-05
        -0.11798E-04
        -0.27697E-05
        -0.11206E-04
        -0.22891E-06
        -0.67521E-05
        -0.69254E-04
        -0.37085E-04
        -0.42182E-04
        -0.31812E-04
        -0.10177E-04
        -0.31284E-05
        -0.15219E-05
        -0.45300E-05
        -0.16759E-03
        -0.15214E-03
        -0.14861E-03
        -0.87075E-05
        -0.30343E-05
        -0.13531E-05
        -0.37591E-04
        -0.35389E-06
        -0.51239E-05
        -0.79448E-05
        -0.18978E-04
        -0.75784E-05
        -0.66575E-05
        -0.57269E-05
        -0.13994E-03
        -0.41492E-04
        -0.54766E-04
        -0.55268E-04
        -0.19364E-05
        -0.13661E-04
        -0.17120E-03
        -0.18114E-03
        -0.17065E-03
        -0.88573E-04
        -0.52078E-04
        -0.17769E-04
        -0.20885E-04
        -0.29595E-04
        -0.39351E-06
        -0.68581E-06
        -0.76698E-04
        -0.57936E-04
        -0.23830E-02
        -0.24266E-02
        -0.19650E-02
        -0.13406E-02
        -0.73946E-03
        -0.15688E-03
        -0.10085E-04
        -0.10432E-03
        -0.17334E-03
        -0.59034E-03
        -0.18758E-02
        -0.26260E-02
        -0.18417E-02
        -0.16675E-02
        -0.20358E-02
        -0.21680E-02
        -0.18022E-02
        -0.16107E-02
        -0.41231E-03
        -0.28395E-04
        -0.13429E-03
        -0.13942E-03
        -0.43632E-03
        -0.13125E-02
        -0.21576E-02
        -0.21472E-02
        -0.83817E-05
        -0.38797E-06
        -0.12657E-05
        -0.10496E-04
        -0.42010E-04
        -0.30705E-04
        -0.32700E-05
        -0.11732E-04
        -0.27740E-05
        -0.11181E-04
        -0.21585E-06
        -0.67844E-05
        -0.69340E-04
        -0.36897E-04
        -0.42132E-04
        -0.31890E-04
        -0.10221E-04
        -0.31102E-05
        -0.15205E-05
        -0.45148E-05
        -0.16759E-03
        -0.15212E-03
        -0.14863E-03
        -0.87105E-05
        -0.30491E-05
        -0.13586E-05
        -0.37606E-04
        -0.33702E-06
        -0.51897E-05
        -0.79568E-05
        -0.19037E-04
        -0.75775E-05
        -0.65948E-05
        -0.57300E-05
        -0.14010E-03
        -0.41464E-04
        -0.54739E-04
        -0.55432E-04
        -0.19699E-05
        -0.13747E-04
        -0.17143E-03
        -0.18138E-03
        -0.17072E-03
        -0.88575E-04
        -0.52047E-04
        -0.17756E-04
        -0.20875E-04
        -0.29615E-04
        -0.38580E-06
        -0.68272E-06
        -0.76617E-04
        -0.57769E-04
        -0.23814E-02
        -0.24254E-02
        -0.19646E-02
        -0.13406E-02
        -0.73900E-03
        -0.15678E-03
        -0.10106E-04
        -0.10444E-03
        -0.17305E-03
        -0.58987E-03
        -0.18752E-02
        -0.26263E-02
        -0.18416E-02
        -0.16674E-02
        -0.20364E-02
        -0.21693E-02
        -0.18030E-02
        -0.16112E-02
        -0.41207E-03
        -0.28411E-04
        -0.13407E-03
        -0.13931E-03
        -0.43570E-03
        -0.13109E-02
        -0.21555E-02
        -0.21453E-02
        -0.84078E-05
        -0.39172E-06
        -0.12682E-05
        -0.10508E-04
        -0.41931E-04
        -0.30647E-04
        -0.33084E-05
        -0.11666E-04
        -0.27778E-05
        -0.11153E-04
        -0.20319E-06
        -0.68168E-05
        -0.69426E-04
        -0.36709E-04
        -0.42082E-04
        -0.31968E-04
        -0.10266E-04
        -0.30918E-05
        -0.15195E-05
        -0.45003E-05
        -0.16758E-03
        -0.15211E-03
        -0.14866E-03
        -0.87128E-05
        -0.30629E-05
        -0.13644E-05
        -0.37614E-04
        -0.32015E-06
        -0.52564E-05
        -0.79697E-05
        -0.19095E-04
        -0.75761E-05
        -0.65321E-05
        -0.57328E-05
        -0.14025E-03
        -0.41439E-04
        -0.54714E-04
        -0.55594E-04
        -0.20047E-05
        -0.13832E-04
        -0.17164E-03
        -0.18161E-03
        -0.17079E-03
        -0.88575E-04
        -0.52016E-04
        -0.17741E-04
        -0.20864E-04
        -0.29634E-04
        -0.37817E-06
        -0.67965E-06
        -0.76539E-04
        -0.57599E-04
        -0.23797E-02
        -0.24242E-02
        -0.19642E-02
        -0.13406E-02
        -0.73854E-03
        -0.15669E-03
        -0.10127E-04
        -0.10456E-03
        -0.17276E-03
        -0.58938E-03
        -0.18746E-02
        -0.26267E-02
        -0.18416E-02
        -0.16673E-02
        -0.20371E-02
        -0.21706E-02
        -0.18038E-02
        -0.16118E-02
        -0.41183E-03
        -0.28428E-04
        -0.13386E-03
        -0.13920E-03
        -0.43508E-03
        -0.13093E-02
        -0.21533E-02
        -0.21433E-02
        -0.84338E-05
        -0.39548E-06
        -0.12707E-05
        -0.10520E-04
        -0.41851E-04
        -0.30590E-04
        -0.33473E-05
        -0.11600E-04
        -0.27812E-05
        -0.11122E-04
        -0.19095E-06
        -0.68490E-05
        -0.69513E-04
        -0.36519E-04
        -0.42030E-04
        -0.32046E-04
        -0.10310E-04
        -0.30736E-05
        -0.15181E-05
        -0.44854E-05
        -0.16758E-03
        -0.15210E-03
        -0.14869E-03
        -0.87156E-05
        -0.30757E-05
        -0.13700E-05
        -0.37617E-04
        -0.30323E-06
        -0.53234E-05
        -0.79819E-05
        -0.19153E-04
        -0.75749E-05
        -0.64696E-05
        -0.57356E-05
        -0.14040E-03
        -0.41411E-04
        -0.54689E-04
        -0.55753E-04
        -0.20407E-05
        -0.13917E-04
        -0.17184E-03
        -0.18182E-03
        -0.17085E-03
        -0.88574E-04
        -0.51987E-04
        -0.17728E-04
        -0.20853E-04
        -0.29653E-04
        -0.37054E-06
        -0.67663E-06
        -0.76456E-04
        -0.57429E-04
        -0.23780E-02
        -0.24229E-02
        -0.19638E-02
        -0.13406E-02
        -0.73808E-03
        -0.15659E-03
        -0.10147E-04
        -0.10468E-03
        -0.17247E-03
        -0.58888E-03
        -0.18739E-02
        -0.26272E-02
        -0.18416E-02
        -0.16672E-02
        -0.20377E-02
        -0.21720E-02
        -0.18046E-02
        -0.16123E-02
        -0.41159E-03
        -0.28444E-04
        -0.13365E-03
        -0.13910E-03
        -0.43445E-03
        -0.13077E-02
        -0.21512E-02
        -0.21414E-02
        -0.84599E-05
        -0.39928E-06
        -0.12734E-05
        -0.10533E-04
        -0.41775E-04
        -0.30535E-04
        -0.33858E-05
        -0.11535E-04
        -0.27844E-05
        -0.11091E-04
        -0.17917E-06
        -0.68808E-05
        -0.69598E-04
        -0.36331E-04
        -0.41977E-04
        -0.32124E-04
        -0.10355E-04
        -0.30556E-05
        -0.15166E-05
        -0.44709E-05
        -0.16757E-03
        -0.15208E-03
        -0.14871E-03
        -0.87183E-05
        -0.30881E-05
        -0.13755E-05
        -0.37619E-04
        -0.28671E-06
        -0.53904E-05
        -0.79940E-05
        -0.19212E-04
        -0.75736E-05
        -0.64080E-05
        -0.57386E-05
        -0.14056E-03
        -0.41386E-04
        -0.54663E-04
        -0.55909E-04
        -0.20774E-05
        -0.14000E-04
        -0.17202E-03
        -0.18202E-03
        -0.17091E-03
        -0.88575E-04
        -0.51956E-04
        -0.17715E-04
        -0.20843E-04
        -0.29674E-04
        -0.36306E-06
        -0.67349E-06
        -0.76380E-04
        -0.57264E-04
        -0.23764E-02
        -0.24217E-02
        -0.19634E-02
        -0.13406E-02
        -0.73763E-03
        -0.15649E-03
        -0.10167E-04
        -0.10480E-03
        -0.17219E-03
        -0.58836E-03
        -0.18733E-02
        -0.26278E-02
        -0.18416E-02
        -0.16672E-02
        -0.20384E-02
        -0.21733E-02
        -0.18055E-02
        -0.16129E-02
        -0.41134E-03
        -0.28462E-04
        -0.13344E-03
        -0.13899E-03
        -0.43383E-03
        -0.13061E-02
        -0.21491E-02
        -0.21395E-02
        -0.85566E-05
        -0.40571E-06
        -0.12870E-05
        -0.10631E-04
        -0.42038E-04
        -0.30732E-04
        -0.34492E-05
        -0.11575E-04
        -0.28104E-05
        -0.11160E-04
        -0.17069E-06
        -0.69630E-05
        -0.70247E-04
        -0.36473E-04
        -0.42297E-04
        -0.32463E-04
        -0.10484E-04
        -0.30642E-05
        -0.15271E-05
        -0.44920E-05
        -0.16890E-03
        -0.15331E-03
        -0.14990E-03
        -0.87923E-05
        -0.31256E-05
        -0.13919E-05
        -0.37954E-04
        -0.27403E-06
        -0.54988E-05
        -0.80726E-05
        -0.19427E-04
        -0.76343E-05
        -0.64048E-05
        -0.57902E-05
        -0.14187E-03
        -0.41703E-04
        -0.55086E-04
        -0.56547E-04
        -0.21293E-05
        -0.14197E-04
        -0.17368E-03
        -0.18376E-03
        -0.17239E-03
        -0.89270E-04
        -0.52342E-04
        -0.17842E-04
        -0.21006E-04
        -0.29943E-04
        -0.35945E-06
        -0.67590E-06
        -0.76936E-04
        -0.57577E-04
        -0.23958E-02
        -0.24415E-02
        -0.19804E-02
        -0.13522E-02
        -0.74370E-03
        -0.15777E-03
        -0.10287E-04
        -0.10585E-03
        -0.17350E-03
        -0.59337E-03
        -0.18900E-02
        -0.26517E-02
        -0.18571E-02
        -0.16807E-02
        -0.20553E-02
        -0.21918E-02
        -0.18207E-02
        -0.16269E-02
        -0.41473E-03
        -0.28744E-04
        -0.13442E-03
        -0.14005E-03
        -0.43696E-03
        -0.13157E-02
        -0.21651E-02
        -0.21556E-02
        -0.19132E-04
        -0.91964E-06
        -0.28668E-05
        -0.23836E-04
        -0.87103E-04
        -0.64865E-04
        -0.77797E-05
        -0.25561E-04
        -0.62429E-05
        -0.24562E-04
        -0.35972E-06
        -0.13964E-04
        -0.14496E-03
        -0.78252E-04
        -0.85648E-04
        -0.72678E-04
        -0.23361E-04
        -0.68410E-05
        -0.33263E-05
        -0.98315E-05
        -0.34774E-03
        -0.32386E-03
        -0.31026E-03
        -0.19451E-04
        -0.70189E-05
        -0.31342E-05
        -0.82882E-04
        -0.59404E-06
        -0.12504E-04
        -0.18085E-04
        -0.43538E-04
        -0.17008E-04
        -0.14293E-04
        -0.12989E-04
        -0.28361E-03
        -0.87979E-04
        -0.11632E-03
        -0.11992E-03
        -0.46738E-05
        -0.31209E-04
        -0.37067E-03
        -0.39779E-03
        -0.37243E-03
        -0.18739E-03
        -0.10917E-03
        -0.35152E-04
        -0.43528E-04
        -0.63697E-04
        -0.76168E-06
        -0.14346E-05
        -0.15582E-03
        -0.12081E-03
        -0.37885E-02
        -0.38461E-02
        -0.31240E-02
        -0.21445E-02
        -0.11780E-02
        -0.25125E-03
        -0.16813E-04
        -0.17548E-03
        -0.28618E-03
        -0.96821E-03
        -0.30910E-02
        -0.43174E-02
        -0.30853E-02
        -0.28074E-02
        -0.33466E-02
        -0.34891E-02
        -0.28810E-02
        -0.25492E-02
        -0.64932E-03
        -0.45193E-04
        -0.21512E-03
        -0.22601E-03
        -0.70038E-03
        -0.21235E-02
        -0.34726E-02
        -0.34322E-02
  
SCALARS                      strain_yy  double 1
LOOKUP_TABLE default
        -0.35385E-05
        -0.40641E-06
        -0.26804E-05
        -0.67695E-06
        -0.17788E-19
        -0.13513E-20
        -0.27321E-19
        -0.15894E-19
        -0.38556E-04
        -0.16487E-04
        -0.60507E-19
        -0.46897E-19
        -0.31064E-04
        -0.80447E-07
        -0.30990E-19
        -0.12739E-21
        -0.32940E-05
        -0.50971E-04
        -0.67079E-23
        -0.70227E-21
        -0.14145E-04
        -0.20449E-03
        -0.21365E-03
        -0.16284E-18
        -0.48568E-18
        -0.33933E-18
        -0.19857E-05
        -0.21549E-03
        -0.84260E-19
        -0.31712E-18
        -0.43123E-05
        -0.34505E-05
        -0.22282E-05
        -0.22645E-19
        -0.23599E-19
        -0.10172E-22
        -0.39280E-04
        -0.38678E-04
        -0.76684E-19
        -0.46420E-19
        -0.38901E-04
        -0.16444E-04
        -0.43797E-19
        -0.36578E-19
        -0.30683E-04
        -0.35739E-05
        -0.48195E-22
        -0.11531E-19
        -0.29643E-04
        -0.25561E-20
        -0.25281E-06
        -0.16768E-22
        -0.10665E-06
        -0.38246E-19
        -0.47227E-05
        -0.12942E-19
        -0.50218E-04
        -0.15350E-05
        -0.95253E-23
        -0.39239E-22
        -0.63492E-05
        -0.86289E-04
        -0.17683E-20
        -0.24740E-19
        -0.22836E-05
        -0.72047E-20
        -0.43177E-04
        -0.10692E-19
        -0.30160E-04
        -0.85141E-05
        -0.16330E-21
        -0.28468E-19
        -0.10532E-03
        -0.13727E-18
        -0.34996E-03
        -0.12869E-18
        -0.35771E-03
        -0.74156E-19
        -0.24222E-03
        -0.52097E-19
        -0.51504E-03
        -0.29986E-03
        -0.21439E-19
        -0.10539E-20
        -0.57014E-05
        -0.13195E-22
        -0.74996E-04
        -0.51781E-19
        -0.42874E-03
        -0.15869E-18
        -0.85164E-03
        -0.33074E-03
        -0.34910E-18
        -0.22871E-18
        -0.16177E-03
        -0.13782E-18
        -0.12912E-03
        -0.14425E-18
        -0.12319E-03
        -0.16676E-18
        -0.34174E-03
        -0.23433E-03
        -0.14422E-18
        -0.33110E-19
        -0.15938E-03
        -0.22401E-04
        -0.17830E-19
        -0.27534E-19
        -0.96524E-03
        -0.19733E-18
        -0.19349E-02
        -0.42222E-18
        -0.29622E-02
        -0.64399E-18
        -0.42382E-02
        -0.63363E-18
        -0.60573E-02
        -0.39681E-18
        -0.64312E-02
        -0.23765E-18
        -0.57110E-02
        -0.20558E-18
        -0.45204E-02
        -0.18610E-18
        -0.23636E-02
        -0.76004E-19
        -0.10351E-02
        -0.82848E-20
        -0.24631E-03
        -0.34591E-20
        -0.12267E-05
        -0.78150E-20
        -0.20661E-03
        -0.20847E-20
        -0.64369E-03
        -0.19066E-19
        -0.15425E-02
        -0.15190E-18
        -0.21078E-02
        -0.37040E-18
        -0.26371E-02
        -0.63660E-18
        -0.43534E-02
        -0.63550E-18
        -0.45676E-02
        -0.48429E-18
        -0.38576E-02
        -0.45999E-18
        -0.26062E-02
        -0.46574E-18
        -0.12059E-02
        -0.29123E-18
        -0.59549E-03
        -0.10184E-18
        -0.30138E-03
        -0.60885E-19
        -0.22743E-04
        -0.61483E-05
        -0.46791E-05
        -0.44500E-06
        -0.49606E-05
        -0.55483E-05
        -0.62468E-07
        -0.14663E-04
        -0.10618E-04
        -0.23102E-04
        -0.64154E-05
        -0.11701E-03
        -0.54367E-04
        -0.73085E-06
        -0.11920E-03
        -0.15892E-05
        -0.12507E-05
        -0.51454E-06
        -0.89421E-06
        -0.50930E-06
        -0.43149E-06
        -0.29252E-06
        -0.33199E-05
        -0.23546E-07
        -0.10764E-04
        -0.23534E-06
        -0.63647E-09
        -0.19442E-06
        -0.28790E-06
        -0.66487E-05
        -0.15161E-05
        -0.18064E-05
        -0.80188E-06
        -0.47969E-07
        -0.13369E-06
        -0.39042E-05
        -0.19573E-04
        -0.91814E-04
        -0.76680E-04
        -0.55032E-04
        -0.48966E-04
        -0.29947E-05
        -0.19832E-05
        -0.14942E-04
        -0.41020E-04
        -0.11035E-03
        -0.47178E-04
        -0.24048E-04
        -0.27393E-04
        -0.31132E-04
        -0.43101E-04
        -0.89257E-05
        -0.32445E-04
        -0.46704E-04
        -0.34297E-03
        -0.65415E-03
        -0.10639E-02
        -0.15052E-02
        -0.15245E-02
        -0.12490E-02
        -0.11303E-02
        -0.10102E-02
        -0.42184E-03
        -0.80857E-04
        -0.15592E-04
        -0.30256E-05
        -0.70841E-05
        -0.11056E-03
        -0.37361E-03
        -0.63835E-03
        -0.94172E-03
        -0.12368E-02
        -0.10942E-02
        -0.97742E-03
        -0.84644E-03
        -0.41026E-03
        -0.13952E-03
        -0.10742E-03
        -0.68937E-04
        -0.27423E-04
        -0.23482E-04
        -0.13211E-05
        -0.39613E-04
        -0.80130E-05
        -0.50385E-05
        -0.61579E-04
        -0.26482E-04
        -0.54473E-04
        -0.15226E-04
        -0.28520E-03
        -0.10010E-03
        -0.20671E-05
        -0.27685E-03
        -0.99144E-05
        -0.91052E-06
        -0.82991E-06
        -0.16860E-04
        -0.63021E-06
        -0.12526E-04
        -0.63141E-05
        -0.21222E-05
        -0.15118E-05
        -0.24701E-04
        -0.15112E-05
        -0.95158E-07
        -0.32885E-06
        -0.83906E-06
        -0.24580E-04
        -0.11515E-04
        -0.79902E-06
        -0.48108E-05
        -0.36269E-05
        -0.82460E-06
        -0.76622E-05
        -0.27932E-04
        -0.15990E-03
        -0.12435E-03
        -0.96574E-04
        -0.52122E-04
        -0.31824E-05
        -0.13502E-04
        -0.21067E-04
        -0.34931E-04
        -0.14577E-03
        -0.49353E-04
        -0.21582E-04
        -0.34091E-04
        -0.47512E-04
        -0.51010E-04
        -0.28717E-06
        -0.79295E-04
        -0.16225E-03
        -0.87867E-03
        -0.14675E-02
        -0.24446E-02
        -0.35203E-02
        -0.33774E-02
        -0.25756E-02
        -0.23654E-02
        -0.23156E-02
        -0.91311E-03
        -0.99190E-04
        -0.15748E-04
        -0.11562E-04
        -0.24802E-05
        -0.17849E-03
        -0.71635E-03
        -0.13876E-02
        -0.23503E-02
        -0.28899E-02
        -0.22284E-02
        -0.19917E-02
        -0.19798E-02
        -0.98152E-03
        -0.26488E-03
        -0.23748E-03
        -0.69023E-04
        -0.27433E-04
        -0.23506E-04
        -0.13406E-05
        -0.39622E-04
        -0.80255E-05
        -0.50512E-05
        -0.61787E-04
        -0.26577E-04
        -0.54880E-04
        -0.15244E-04
        -0.28515E-03
        -0.10015E-03
        -0.20672E-05
        -0.27755E-03
        -0.99155E-05
        -0.92715E-06
        -0.82742E-06
        -0.16883E-04
        -0.62320E-06
        -0.12588E-04
        -0.63262E-05
        -0.21232E-05
        -0.15104E-05
        -0.24926E-04
        -0.15057E-05
        -0.97414E-07
        -0.33254E-06
        -0.82802E-06
        -0.24684E-04
        -0.11519E-04
        -0.79554E-06
        -0.48321E-05
        -0.36388E-05
        -0.80919E-06
        -0.76722E-05
        -0.27929E-04
        -0.16040E-03
        -0.12488E-03
        -0.96798E-04
        -0.52202E-04
        -0.31654E-05
        -0.13530E-04
        -0.21088E-04
        -0.34933E-04
        -0.14577E-03
        -0.49364E-04
        -0.21556E-04
        -0.34000E-04
        -0.47385E-04
        -0.50967E-04
        -0.27854E-06
        -0.79147E-04
        -0.16227E-03
        -0.87900E-03
        -0.14675E-02
        -0.24440E-02
        -0.35179E-02
        -0.33746E-02
        -0.25740E-02
        -0.23644E-02
        -0.23143E-02
        -0.91272E-03
        -0.99282E-04
        -0.15745E-04
        -0.11610E-04
        -0.24399E-05
        -0.17867E-03
        -0.71699E-03
        -0.13882E-02
        -0.23502E-02
        -0.28895E-02
        -0.22280E-02
        -0.19916E-02
        -0.19788E-02
        -0.98012E-03
        -0.26429E-03
        -0.23685E-03
        -0.69110E-04
        -0.27443E-04
        -0.23530E-04
        -0.13604E-05
        -0.39631E-04
        -0.80387E-05
        -0.50638E-05
        -0.61996E-04
        -0.26673E-04
        -0.55287E-04
        -0.15262E-04
        -0.28511E-03
        -0.10020E-03
        -0.20668E-05
        -0.27826E-03
        -0.99169E-05
        -0.94412E-06
        -0.82491E-06
        -0.16906E-04
        -0.61611E-06
        -0.12651E-04
        -0.63380E-05
        -0.21248E-05
        -0.15086E-05
        -0.25148E-04
        -0.14995E-05
        -0.99854E-07
        -0.33648E-06
        -0.81606E-06
        -0.24784E-04
        -0.11523E-04
        -0.79133E-06
        -0.48536E-05
        -0.36505E-05
        -0.79383E-06
        -0.76827E-05
        -0.27926E-04
        -0.16089E-03
        -0.12542E-03
        -0.97023E-04
        -0.52287E-04
        -0.31465E-05
        -0.13556E-04
        -0.21116E-04
        -0.34942E-04
        -0.14577E-03
        -0.49373E-04
        -0.21530E-04
        -0.33910E-04
        -0.47257E-04
        -0.50924E-04
        -0.27007E-06
        -0.78999E-04
        -0.16229E-03
        -0.87933E-03
        -0.14675E-02
        -0.24434E-02
        -0.35155E-02
        -0.33718E-02
        -0.25725E-02
        -0.23634E-02
        -0.23130E-02
        -0.91235E-03
        -0.99381E-04
        -0.15743E-04
        -0.11657E-04
        -0.23998E-05
        -0.17887E-03
        -0.71767E-03
        -0.13889E-02
        -0.23501E-02
        -0.28892E-02
        -0.22277E-02
        -0.19914E-02
        -0.19778E-02
        -0.97873E-03
        -0.26371E-03
        -0.23623E-03
        -0.69196E-04
        -0.27453E-04
        -0.23553E-04
        -0.13804E-05
        -0.39641E-04
        -0.80517E-05
        -0.50772E-05
        -0.62202E-04
        -0.26769E-04
        -0.55690E-04
        -0.15281E-04
        -0.28506E-03
        -0.10025E-03
        -0.20669E-05
        -0.27897E-03
        -0.99185E-05
        -0.96154E-06
        -0.82235E-06
        -0.16931E-04
        -0.60864E-06
        -0.12715E-04
        -0.63488E-05
        -0.21285E-05
        -0.15056E-05
        -0.25365E-04
        -0.14913E-05
        -0.10241E-06
        -0.34173E-06
        -0.80135E-06
        -0.24876E-04
        -0.11525E-04
        -0.78564E-06
        -0.48749E-05
        -0.36623E-05
        -0.77869E-06
        -0.76927E-05
        -0.27922E-04
        -0.16139E-03
        -0.12598E-03
        -0.97267E-04
        -0.52384E-04
        -0.31226E-05
        -0.13577E-04
        -0.21157E-04
        -0.34963E-04
        -0.14579E-03
        -0.49390E-04
        -0.21504E-04
        -0.33820E-04
        -0.47130E-04
        -0.50879E-04
        -0.26176E-06
        -0.78852E-04
        -0.16230E-03
        -0.87966E-03
        -0.14675E-02
        -0.24428E-02
        -0.35131E-02
        -0.33689E-02
        -0.25709E-02
        -0.23624E-02
        -0.23117E-02
        -0.91201E-03
        -0.99498E-04
        -0.15744E-04
        -0.11704E-04
        -0.23597E-05
        -0.17908E-03
        -0.71845E-03
        -0.13897E-02
        -0.23501E-02
        -0.28888E-02
        -0.22274E-02
        -0.19912E-02
        -0.19768E-02
        -0.97734E-03
        -0.26314E-03
        -0.23561E-03
        -0.69282E-04
        -0.27463E-04
        -0.23577E-04
        -0.14005E-05
        -0.39650E-04
        -0.80645E-05
        -0.50897E-05
        -0.62409E-04
        -0.26865E-04
        -0.56090E-04
        -0.15299E-04
        -0.28501E-03
        -0.10030E-03
        -0.20671E-05
        -0.27968E-03
        -0.99203E-05
        -0.97940E-06
        -0.81977E-06
        -0.16957E-04
        -0.60080E-06
        -0.12780E-04
        -0.63582E-05
        -0.21341E-05
        -0.15014E-05
        -0.25574E-04
        -0.14810E-05
        -0.10529E-06
        -0.34822E-06
        -0.78386E-06
        -0.24958E-04
        -0.11525E-04
        -0.77824E-06
        -0.48963E-05
        -0.36742E-05
        -0.76358E-06
        -0.77028E-05
        -0.27919E-04
        -0.16189E-03
        -0.12654E-03
        -0.97523E-04
        -0.52495E-04
        -0.30935E-05
        -0.13594E-04
        -0.21214E-04
        -0.34997E-04
        -0.14582E-03
        -0.49411E-04
        -0.21480E-04
        -0.33732E-04
        -0.47002E-04
        -0.50836E-04
        -0.25352E-06
        -0.78703E-04
        -0.16232E-03
        -0.87998E-03
        -0.14676E-02
        -0.24422E-02
        -0.35107E-02
        -0.33661E-02
        -0.25694E-02
        -0.23614E-02
        -0.23105E-02
        -0.91170E-03
        -0.99637E-04
        -0.15747E-04
        -0.11751E-04
        -0.23199E-05
        -0.17931E-03
        -0.71933E-03
        -0.13905E-02
        -0.23500E-02
        -0.28884E-02
        -0.22271E-02
        -0.19911E-02
        -0.19758E-02
        -0.97594E-03
        -0.26256E-03
        -0.23498E-03
        -0.69363E-04
        -0.27470E-04
        -0.23600E-04
        -0.14210E-05
        -0.39659E-04
        -0.80772E-05
        -0.51009E-05
        -0.62606E-04
        -0.26963E-04
        -0.56480E-04
        -0.15320E-04
        -0.28496E-03
        -0.10036E-03
        -0.20678E-05
        -0.28039E-03
        -0.99227E-05
        -0.99780E-06
        -0.81726E-06
        -0.16983E-04
        -0.59287E-06
        -0.12846E-04
        -0.63673E-05
        -0.21406E-05
        -0.14967E-05
        -0.25778E-04
        -0.14701E-05
        -0.10843E-06
        -0.35546E-06
        -0.76536E-06
        -0.25035E-04
        -0.11523E-04
        -0.77005E-06
        -0.49181E-05
        -0.36867E-05
        -0.74854E-06
        -0.77140E-05
        -0.27919E-04
        -0.16240E-03
        -0.12711E-03
        -0.97790E-04
        -0.52610E-04
        -0.30628E-05
        -0.13608E-04
        -0.21275E-04
        -0.35040E-04
        -0.14587E-03
        -0.49437E-04
        -0.21461E-04
        -0.33648E-04
        -0.46877E-04
        -0.50793E-04
        -0.24542E-06
        -0.78555E-04
        -0.16234E-03
        -0.88030E-03
        -0.14676E-02
        -0.24416E-02
        -0.35083E-02
        -0.33632E-02
        -0.25678E-02
        -0.23605E-02
        -0.23092E-02
        -0.91141E-03
        -0.99784E-04
        -0.15751E-04
        -0.11797E-04
        -0.22804E-05
        -0.17954E-03
        -0.72025E-03
        -0.13914E-02
        -0.23499E-02
        -0.28881E-02
        -0.22268E-02
        -0.19909E-02
        -0.19748E-02
        -0.97455E-03
        -0.26198E-03
        -0.23436E-03
        -0.69437E-04
        -0.27468E-04
        -0.23623E-04
        -0.14421E-05
        -0.39669E-04
        -0.80905E-05
        -0.51097E-05
        -0.62786E-04
        -0.27062E-04
        -0.56855E-04
        -0.15345E-04
        -0.28494E-03
        -0.10042E-03
        -0.20710E-05
        -0.28111E-03
        -0.99261E-05
        -0.10168E-05
        -0.81473E-06
        -0.17009E-04
        -0.58497E-06
        -0.12912E-04
        -0.63767E-05
        -0.21471E-05
        -0.14922E-05
        -0.25979E-04
        -0.14591E-05
        -0.11219E-06
        -0.36325E-06
        -0.74674E-06
        -0.25111E-04
        -0.11521E-04
        -0.76133E-06
        -0.49408E-05
        -0.36997E-05
        -0.73360E-06
        -0.77257E-05
        -0.27920E-04
        -0.16291E-03
        -0.12768E-03
        -0.98056E-04
        -0.52728E-04
        -0.30315E-05
        -0.13621E-04
        -0.21337E-04
        -0.35086E-04
        -0.14593E-03
        -0.49477E-04
        -0.21454E-04
        -0.33578E-04
        -0.46757E-04
        -0.50750E-04
        -0.23736E-06
        -0.78407E-04
        -0.16236E-03
        -0.88061E-03
        -0.14676E-02
        -0.24410E-02
        -0.35059E-02
        -0.33603E-02
        -0.25663E-02
        -0.23595E-02
        -0.23079E-02
        -0.91112E-03
        -0.99932E-04
        -0.15756E-04
        -0.11844E-04
        -0.22412E-05
        -0.17978E-03
        -0.72117E-03
        -0.13922E-02
        -0.23498E-02
        -0.28877E-02
        -0.22266E-02
        -0.19908E-02
        -0.19738E-02
        -0.97315E-03
        -0.26141E-03
        -0.23374E-03
        -0.69509E-04
        -0.27465E-04
        -0.23646E-04
        -0.14637E-05
        -0.39680E-04
        -0.81035E-05
        -0.51165E-05
        -0.62956E-04
        -0.27163E-04
        -0.57222E-04
        -0.15373E-04
        -0.28491E-03
        -0.10049E-03
        -0.20747E-05
        -0.28183E-03
        -0.99299E-05
        -0.10363E-05
        -0.81215E-06
        -0.17036E-04
        -0.57714E-06
        -0.12979E-04
        -0.63862E-05
        -0.21535E-05
        -0.14879E-05
        -0.26179E-04
        -0.14483E-05
        -0.11616E-06
        -0.37133E-06
        -0.72829E-06
        -0.25186E-04
        -0.11519E-04
        -0.75228E-06
        -0.49637E-05
        -0.37134E-05
        -0.71867E-06
        -0.77385E-05
        -0.27925E-04
        -0.16344E-03
        -0.12826E-03
        -0.98326E-04
        -0.52847E-04
        -0.30004E-05
        -0.13634E-04
        -0.21399E-04
        -0.35134E-04
        -0.14600E-03
        -0.49523E-04
        -0.21451E-04
        -0.33513E-04
        -0.46640E-04
        -0.50709E-04
        -0.22943E-06
        -0.78259E-04
        -0.16238E-03
        -0.88092E-03
        -0.14676E-02
        -0.24404E-02
        -0.35035E-02
        -0.33575E-02
        -0.25647E-02
        -0.23585E-02
        -0.23065E-02
        -0.91083E-03
        -0.10008E-03
        -0.15760E-04
        -0.11891E-04
        -0.22023E-05
        -0.18001E-03
        -0.72208E-03
        -0.13931E-02
        -0.23497E-02
        -0.28873E-02
        -0.22264E-02
        -0.19907E-02
        -0.19727E-02
        -0.97175E-03
        -0.26083E-03
        -0.23312E-03
        -0.69580E-04
        -0.27461E-04
        -0.23669E-04
        -0.14855E-05
        -0.39690E-04
        -0.81164E-05
        -0.51235E-05
        -0.63126E-04
        -0.27264E-04
        -0.57589E-04
        -0.15399E-04
        -0.28488E-03
        -0.10056E-03
        -0.20790E-05
        -0.28256E-03
        -0.99337E-05
        -0.10560E-05
        -0.80955E-06
        -0.17062E-04
        -0.56929E-06
        -0.13045E-04
        -0.63958E-05
        -0.21599E-05
        -0.14835E-05
        -0.26379E-04
        -0.14375E-05
        -0.12031E-06
        -0.37940E-06
        -0.71011E-06
        -0.25261E-04
        -0.11516E-04
        -0.74340E-06
        -0.49868E-05
        -0.37268E-05
        -0.70383E-06
        -0.77503E-05
        -0.27928E-04
        -0.16396E-03
        -0.12885E-03
        -0.98592E-04
        -0.52966E-04
        -0.29696E-05
        -0.13648E-04
        -0.21462E-04
        -0.35183E-04
        -0.14606E-03
        -0.49566E-04
        -0.21448E-04
        -0.33450E-04
        -0.46524E-04
        -0.50669E-04
        -0.22161E-06
        -0.78112E-04
        -0.16239E-03
        -0.88123E-03
        -0.14677E-02
        -0.24398E-02
        -0.35012E-02
        -0.33546E-02
        -0.25631E-02
        -0.23575E-02
        -0.23052E-02
        -0.91053E-03
        -0.10022E-03
        -0.15765E-04
        -0.11939E-04
        -0.21638E-05
        -0.18024E-03
        -0.72300E-03
        -0.13939E-02
        -0.23495E-02
        -0.28869E-02
        -0.22262E-02
        -0.19907E-02
        -0.19717E-02
        -0.97036E-03
        -0.26026E-03
        -0.23250E-03
        -0.69650E-04
        -0.27457E-04
        -0.23691E-04
        -0.15073E-05
        -0.39700E-04
        -0.81291E-05
        -0.51304E-05
        -0.63297E-04
        -0.27365E-04
        -0.57957E-04
        -0.15426E-04
        -0.28485E-03
        -0.10063E-03
        -0.20826E-05
        -0.28329E-03
        -0.99375E-05
        -0.10760E-05
        -0.80696E-06
        -0.17088E-04
        -0.56146E-06
        -0.13111E-04
        -0.64051E-05
        -0.21661E-05
        -0.14792E-05
        -0.26579E-04
        -0.14268E-05
        -0.12442E-06
        -0.38748E-06
        -0.69221E-06
        -0.25337E-04
        -0.11514E-04
        -0.73451E-06
        -0.50096E-05
        -0.37404E-05
        -0.68917E-06
        -0.77631E-05
        -0.27932E-04
        -0.16449E-03
        -0.12943E-03
        -0.98861E-04
        -0.53084E-04
        -0.29391E-05
        -0.13661E-04
        -0.21524E-04
        -0.35231E-04
        -0.14613E-03
        -0.49613E-04
        -0.21447E-04
        -0.33385E-04
        -0.46406E-04
        -0.50626E-04
        -0.21394E-06
        -0.77963E-04
        -0.16241E-03
        -0.88153E-03
        -0.14677E-02
        -0.24392E-02
        -0.34987E-02
        -0.33517E-02
        -0.25616E-02
        -0.23566E-02
        -0.23039E-02
        -0.91024E-03
        -0.10037E-03
        -0.15770E-04
        -0.11987E-04
        -0.21258E-05
        -0.18048E-03
        -0.72392E-03
        -0.13947E-02
        -0.23494E-02
        -0.28866E-02
        -0.22260E-02
        -0.19906E-02
        -0.19706E-02
        -0.96896E-03
        -0.25970E-03
        -0.23189E-03
        -0.69720E-04
        -0.27452E-04
        -0.23714E-04
        -0.15292E-05
        -0.39710E-04
        -0.81421E-05
        -0.51381E-05
        -0.63466E-04
        -0.27467E-04
        -0.58326E-04
        -0.15454E-04
        -0.28482E-03
        -0.10069E-03
        -0.20867E-05
        -0.28402E-03
        -0.99414E-05
        -0.10963E-05
        -0.80439E-06
        -0.17114E-04
        -0.55363E-06
        -0.13178E-04
        -0.64142E-05
        -0.21725E-05
        -0.14749E-05
        -0.26780E-04
        -0.14162E-05
        -0.12866E-06
        -0.39552E-06
        -0.67458E-06
        -0.25412E-04
        -0.11511E-04
        -0.72573E-06
        -0.50327E-05
        -0.37539E-05
        -0.67459E-06
        -0.77755E-05
        -0.27937E-04
        -0.16501E-03
        -0.13002E-03
        -0.99126E-04
        -0.53203E-04
        -0.29087E-05
        -0.13675E-04
        -0.21586E-04
        -0.35279E-04
        -0.14620E-03
        -0.49659E-04
        -0.21444E-04
        -0.33322E-04
        -0.46290E-04
        -0.50587E-04
        -0.20640E-06
        -0.77814E-04
        -0.16242E-03
        -0.88182E-03
        -0.14677E-02
        -0.24386E-02
        -0.34963E-02
        -0.33488E-02
        -0.25600E-02
        -0.23556E-02
        -0.23026E-02
        -0.90993E-03
        -0.10051E-03
        -0.15775E-04
        -0.12035E-04
        -0.20880E-05
        -0.18071E-03
        -0.72484E-03
        -0.13956E-02
        -0.23493E-02
        -0.28862E-02
        -0.22257E-02
        -0.19905E-02
        -0.19696E-02
        -0.96757E-03
        -0.25913E-03
        -0.23127E-03
        -0.69790E-04
        -0.27448E-04
        -0.23736E-04
        -0.15515E-05
        -0.39720E-04
        -0.81549E-05
        -0.51449E-05
        -0.63636E-04
        -0.27569E-04
        -0.58694E-04
        -0.15482E-04
        -0.28479E-03
        -0.10076E-03
        -0.20907E-05
        -0.28474E-03
        -0.99454E-05
        -0.11167E-05
        -0.80176E-06
        -0.17140E-04
        -0.54592E-06
        -0.13245E-04
        -0.64232E-05
        -0.21790E-05
        -0.14707E-05
        -0.26981E-04
        -0.14057E-05
        -0.13289E-06
        -0.40360E-06
        -0.65714E-06
        -0.25487E-04
        -0.11508E-04
        -0.71697E-06
        -0.50557E-05
        -0.37677E-05
        -0.66009E-06
        -0.77879E-05
        -0.27940E-04
        -0.16554E-03
        -0.13061E-03
        -0.99395E-04
        -0.53322E-04
        -0.28787E-05
        -0.13688E-04
        -0.21648E-04
        -0.35328E-04
        -0.14626E-03
        -0.49702E-04
        -0.21443E-04
        -0.33259E-04
        -0.46174E-04
        -0.50546E-04
        -0.19899E-06
        -0.77666E-04
        -0.16244E-03
        -0.88212E-03
        -0.14677E-02
        -0.24381E-02
        -0.34939E-02
        -0.33459E-02
        -0.25584E-02
        -0.23546E-02
        -0.23012E-02
        -0.90963E-03
        -0.10066E-03
        -0.15780E-04
        -0.12083E-04
        -0.20503E-05
        -0.18095E-03
        -0.72575E-03
        -0.13964E-02
        -0.23492E-02
        -0.28858E-02
        -0.22255E-02
        -0.19904E-02
        -0.19685E-02
        -0.96618E-03
        -0.25857E-03
        -0.23065E-03
        -0.69860E-04
        -0.27444E-04
        -0.23759E-04
        -0.15741E-05
        -0.39730E-04
        -0.81679E-05
        -0.51519E-05
        -0.63806E-04
        -0.27671E-04
        -0.59063E-04
        -0.15509E-04
        -0.28476E-03
        -0.10083E-03
        -0.20942E-05
        -0.28548E-03
        -0.99491E-05
        -0.11374E-05
        -0.79911E-06
        -0.17166E-04
        -0.53830E-06
        -0.13312E-04
        -0.64324E-05
        -0.21853E-05
        -0.14665E-05
        -0.27183E-04
        -0.13951E-05
        -0.13730E-06
        -0.41167E-06
        -0.64000E-06
        -0.25562E-04
        -0.11506E-04
        -0.70817E-06
        -0.50786E-05
        -0.37813E-05
        -0.64576E-06
        -0.78008E-05
        -0.27944E-04
        -0.16607E-03
        -0.13120E-03
        -0.99663E-04
        -0.53442E-04
        -0.28486E-05
        -0.13701E-04
        -0.21711E-04
        -0.35377E-04
        -0.14632E-03
        -0.49750E-04
        -0.21441E-04
        -0.33196E-04
        -0.46059E-04
        -0.50503E-04
        -0.19174E-06
        -0.77518E-04
        -0.16246E-03
        -0.88242E-03
        -0.14677E-02
        -0.24375E-02
        -0.34915E-02
        -0.33430E-02
        -0.25569E-02
        -0.23537E-02
        -0.22999E-02
        -0.90933E-03
        -0.10081E-03
        -0.15785E-04
        -0.12131E-04
        -0.20131E-05
        -0.18118E-03
        -0.72668E-03
        -0.13972E-02
        -0.23490E-02
        -0.28854E-02
        -0.22253E-02
        -0.19903E-02
        -0.19675E-02
        -0.96479E-03
        -0.25801E-03
        -0.23004E-03
        -0.69930E-04
        -0.27440E-04
        -0.23781E-04
        -0.15967E-05
        -0.39741E-04
        -0.81808E-05
        -0.51597E-05
        -0.63975E-04
        -0.27773E-04
        -0.59433E-04
        -0.15537E-04
        -0.28474E-03
        -0.10089E-03
        -0.20983E-05
        -0.28620E-03
        -0.99528E-05
        -0.11583E-05
        -0.79651E-06
        -0.17192E-04
        -0.53073E-06
        -0.13379E-04
        -0.64415E-05
        -0.21917E-05
        -0.14624E-05
        -0.27385E-04
        -0.13845E-05
        -0.14167E-06
        -0.41972E-06
        -0.62314E-06
        -0.25637E-04
        -0.11503E-04
        -0.69953E-06
        -0.51017E-05
        -0.37951E-05
        -0.63151E-06
        -0.78131E-05
        -0.27947E-04
        -0.16660E-03
        -0.13179E-03
        -0.99927E-04
        -0.53561E-04
        -0.28187E-05
        -0.13714E-04
        -0.21773E-04
        -0.35426E-04
        -0.14639E-03
        -0.49796E-04
        -0.21438E-04
        -0.33132E-04
        -0.45943E-04
        -0.50464E-04
        -0.18467E-06
        -0.77369E-04
        -0.16247E-03
        -0.88272E-03
        -0.14678E-02
        -0.24369E-02
        -0.34891E-02
        -0.33401E-02
        -0.25553E-02
        -0.23527E-02
        -0.22985E-02
        -0.90903E-03
        -0.10095E-03
        -0.15790E-04
        -0.12179E-04
        -0.19764E-05
        -0.18142E-03
        -0.72760E-03
        -0.13981E-02
        -0.23489E-02
        -0.28850E-02
        -0.22251E-02
        -0.19902E-02
        -0.19664E-02
        -0.96340E-03
        -0.25745E-03
        -0.22942E-03
        -0.69999E-04
        -0.27436E-04
        -0.23804E-04
        -0.16195E-05
        -0.39750E-04
        -0.81936E-05
        -0.51668E-05
        -0.64144E-04
        -0.27876E-04
        -0.59803E-04
        -0.15565E-04
        -0.28471E-03
        -0.10096E-03
        -0.21017E-05
        -0.28694E-03
        -0.99566E-05
        -0.11795E-05
        -0.79394E-06
        -0.17218E-04
        -0.52315E-06
        -0.13447E-04
        -0.64504E-05
        -0.21980E-05
        -0.14583E-05
        -0.27589E-04
        -0.13740E-05
        -0.14619E-06
        -0.42769E-06
        -0.60658E-06
        -0.25713E-04
        -0.11500E-04
        -0.69087E-06
        -0.51248E-05
        -0.38089E-05
        -0.61743E-06
        -0.78260E-05
        -0.27950E-04
        -0.16714E-03
        -0.13238E-03
        -0.10019E-03
        -0.53680E-04
        -0.27891E-05
        -0.13727E-04
        -0.21836E-04
        -0.35475E-04
        -0.14646E-03
        -0.49840E-04
        -0.21437E-04
        -0.33068E-04
        -0.45826E-04
        -0.50423E-04
        -0.17769E-06
        -0.77221E-04
        -0.16248E-03
        -0.88301E-03
        -0.14678E-02
        -0.24363E-02
        -0.34867E-02
        -0.33372E-02
        -0.25537E-02
        -0.23517E-02
        -0.22972E-02
        -0.90873E-03
        -0.10110E-03
        -0.15794E-04
        -0.12227E-04
        -0.19400E-05
        -0.18165E-03
        -0.72853E-03
        -0.13989E-02
        -0.23488E-02
        -0.28847E-02
        -0.22249E-02
        -0.19901E-02
        -0.19654E-02
        -0.96201E-03
        -0.25689E-03
        -0.22881E-03
        -0.70068E-04
        -0.27431E-04
        -0.23826E-04
        -0.16424E-05
        -0.39760E-04
        -0.82065E-05
        -0.51740E-05
        -0.64313E-04
        -0.27980E-04
        -0.60174E-04
        -0.15593E-04
        -0.28468E-03
        -0.10103E-03
        -0.21056E-05
        -0.28767E-03
        -0.99605E-05
        -0.12011E-05
        -0.79132E-06
        -0.17244E-04
        -0.51565E-06
        -0.13515E-04
        -0.64590E-05
        -0.22044E-05
        -0.14543E-05
        -0.27793E-04
        -0.13635E-05
        -0.15065E-06
        -0.43565E-06
        -0.59030E-06
        -0.25788E-04
        -0.11497E-04
        -0.68232E-06
        -0.51478E-05
        -0.38229E-05
        -0.60340E-06
        -0.78383E-05
        -0.27954E-04
        -0.16768E-03
        -0.13297E-03
        -0.10046E-03
        -0.53800E-04
        -0.27596E-05
        -0.13741E-04
        -0.21897E-04
        -0.35525E-04
        -0.14653E-03
        -0.49887E-04
        -0.21435E-04
        -0.33006E-04
        -0.45711E-04
        -0.50382E-04
        -0.17084E-06
        -0.77072E-04
        -0.16250E-03
        -0.88330E-03
        -0.14678E-02
        -0.24357E-02
        -0.34843E-02
        -0.33342E-02
        -0.25521E-02
        -0.23508E-02
        -0.22958E-02
        -0.90844E-03
        -0.10124E-03
        -0.15799E-04
        -0.12275E-04
        -0.19038E-05
        -0.18188E-03
        -0.72945E-03
        -0.13997E-02
        -0.23487E-02
        -0.28843E-02
        -0.22247E-02
        -0.19900E-02
        -0.19643E-02
        -0.96063E-03
        -0.25634E-03
        -0.22820E-03
        -0.70136E-04
        -0.27427E-04
        -0.23849E-04
        -0.16655E-05
        -0.39771E-04
        -0.82193E-05
        -0.51816E-05
        -0.64482E-04
        -0.28084E-04
        -0.60546E-04
        -0.15620E-04
        -0.28465E-03
        -0.10110E-03
        -0.21089E-05
        -0.28841E-03
        -0.99644E-05
        -0.12229E-05
        -0.78867E-06
        -0.17270E-04
        -0.50830E-06
        -0.13582E-04
        -0.64673E-05
        -0.22107E-05
        -0.14502E-05
        -0.27997E-04
        -0.13530E-05
        -0.15531E-06
        -0.44360E-06
        -0.57421E-06
        -0.25862E-04
        -0.11494E-04
        -0.67379E-06
        -0.51708E-05
        -0.38368E-05
        -0.58950E-06
        -0.78507E-05
        -0.27957E-04
        -0.16822E-03
        -0.13357E-03
        -0.10072E-03
        -0.53918E-04
        -0.27306E-05
        -0.13755E-04
        -0.21960E-04
        -0.35574E-04
        -0.14660E-03
        -0.49934E-04
        -0.21434E-04
        -0.32943E-04
        -0.45595E-04
        -0.50341E-04
        -0.16418E-06
        -0.76923E-04
        -0.16251E-03
        -0.88359E-03
        -0.14678E-02
        -0.24351E-02
        -0.34819E-02
        -0.33313E-02
        -0.25506E-02
        -0.23498E-02
        -0.22944E-02
        -0.90815E-03
        -0.10139E-03
        -0.15802E-04
        -0.12322E-04
        -0.18681E-05
        -0.18211E-03
        -0.73037E-03
        -0.14006E-02
        -0.23485E-02
        -0.28839E-02
        -0.22245E-02
        -0.19899E-02
        -0.19633E-02
        -0.95924E-03
        -0.25579E-03
        -0.22759E-03
        -0.70205E-04
        -0.27422E-04
        -0.23872E-04
        -0.16889E-05
        -0.39781E-04
        -0.82321E-05
        -0.51888E-05
        -0.64648E-04
        -0.28189E-04
        -0.60919E-04
        -0.15648E-04
        -0.28463E-03
        -0.10116E-03
        -0.21126E-05
        -0.28914E-03
        -0.99681E-05
        -0.12452E-05
        -0.78601E-06
        -0.17296E-04
        -0.50133E-06
        -0.13650E-04
        -0.64755E-05
        -0.22172E-05
        -0.14461E-05
        -0.28203E-04
        -0.13427E-05
        -0.15999E-06
        -0.45155E-06
        -0.55839E-06
        -0.25931E-04
        -0.11491E-04
        -0.66519E-06
        -0.51938E-05
        -0.38508E-05
        -0.57577E-06
        -0.78638E-05
        -0.27961E-04
        -0.16877E-03
        -0.13417E-03
        -0.10097E-03
        -0.54036E-04
        -0.27013E-05
        -0.13769E-04
        -0.22023E-04
        -0.35623E-04
        -0.14666E-03
        -0.49978E-04
        -0.21431E-04
        -0.32879E-04
        -0.45480E-04
        -0.50302E-04
        -0.15764E-06
        -0.76774E-04
        -0.16252E-03
        -0.88387E-03
        -0.14679E-02
        -0.24345E-02
        -0.34795E-02
        -0.33284E-02
        -0.25490E-02
        -0.23488E-02
        -0.22929E-02
        -0.90790E-03
        -0.10154E-03
        -0.15803E-04
        -0.12370E-04
        -0.18329E-05
        -0.18234E-03
        -0.73129E-03
        -0.14014E-02
        -0.23484E-02
        -0.28835E-02
        -0.22243E-02
        -0.19898E-02
        -0.19622E-02
        -0.95786E-03
        -0.25524E-03
        -0.22697E-03
        -0.70274E-04
        -0.27418E-04
        -0.23894E-04
        -0.17124E-05
        -0.39790E-04
        -0.82446E-05
        -0.51960E-05
        -0.64815E-04
        -0.28295E-04
        -0.61292E-04
        -0.15676E-04
        -0.28460E-03
        -0.10123E-03
        -0.21164E-05
        -0.28988E-03
        -0.99718E-05
        -0.12680E-05
        -0.78334E-06
        -0.17323E-04
        -0.49470E-06
        -0.13718E-04
        -0.64834E-05
        -0.22236E-05
        -0.14422E-05
        -0.28409E-04
        -0.13323E-05
        -0.16494E-06
        -0.45949E-06
        -0.54284E-06
        -0.25996E-04
        -0.11488E-04
        -0.65676E-06
        -0.52168E-05
        -0.38648E-05
        -0.56209E-06
        -0.78761E-05
        -0.27964E-04
        -0.16932E-03
        -0.13476E-03
        -0.10121E-03
        -0.54151E-04
        -0.26723E-05
        -0.13784E-04
        -0.22085E-04
        -0.35674E-04
        -0.14673E-03
        -0.50025E-04
        -0.21429E-04
        -0.32817E-04
        -0.45363E-04
        -0.50260E-04
        -0.15119E-06
        -0.76625E-04
        -0.16253E-03
        -0.88416E-03
        -0.14679E-02
        -0.24339E-02
        -0.34771E-02
        -0.33254E-02
        -0.25474E-02
        -0.23478E-02
        -0.22914E-02
        -0.90767E-03
        -0.10169E-03
        -0.15802E-04
        -0.12418E-04
        -0.17978E-05
        -0.18258E-03
        -0.73222E-03
        -0.14022E-02
        -0.23483E-02
        -0.28831E-02
        -0.22241E-02
        -0.19897E-02
        -0.19611E-02
        -0.95648E-03
        -0.25470E-03
        -0.22636E-03
        -0.70343E-04
        -0.27414E-04
        -0.23918E-04
        -0.17360E-05
        -0.39802E-04
        -0.82576E-05
        -0.52040E-05
        -0.64982E-04
        -0.28402E-04
        -0.61666E-04
        -0.15704E-04
        -0.28457E-03
        -0.10130E-03
        -0.21196E-05
        -0.29061E-03
        -0.99758E-05
        -0.12912E-05
        -0.78070E-06
        -0.17349E-04
        -0.48829E-06
        -0.13786E-04
        -0.64913E-05
        -0.22296E-05
        -0.14385E-05
        -0.28616E-04
        -0.13223E-05
        -0.16984E-06
        -0.46717E-06
        -0.52770E-06
        -0.26061E-04
        -0.11486E-04
        -0.64856E-06
        -0.52400E-05
        -0.38791E-05
        -0.54871E-06
        -0.78884E-05
        -0.27966E-04
        -0.16988E-03
        -0.13535E-03
        -0.10144E-03
        -0.54264E-04
        -0.26440E-05
        -0.13800E-04
        -0.22146E-04
        -0.35721E-04
        -0.14680E-03
        -0.50070E-04
        -0.21427E-04
        -0.32755E-04
        -0.45249E-04
        -0.50222E-04
        -0.14492E-06
        -0.76475E-04
        -0.16255E-03
        -0.88444E-03
        -0.14679E-02
        -0.24334E-02
        -0.34747E-02
        -0.33225E-02
        -0.25459E-02
        -0.23468E-02
        -0.22898E-02
        -0.90745E-03
        -0.10184E-03
        -0.15799E-04
        -0.12465E-04
        -0.17630E-05
        -0.18281E-03
        -0.73314E-03
        -0.14031E-02
        -0.23482E-02
        -0.28828E-02
        -0.22239E-02
        -0.19896E-02
        -0.19600E-02
        -0.95511E-03
        -0.25416E-03
        -0.22576E-03
        -0.71008E-04
        -0.27652E-04
        -0.24153E-04
        -0.17737E-05
        -0.40155E-04
        -0.83393E-05
        -0.52580E-05
        -0.65690E-04
        -0.28744E-04
        -0.62539E-04
        -0.15865E-04
        -0.28693E-03
        -0.10220E-03
        -0.21410E-05
        -0.29382E-03
        -0.10066E-04
        -0.13243E-05
        -0.78466E-06
        -0.17521E-04
        -0.48674E-06
        -0.13963E-04
        -0.65526E-05
        -0.22501E-05
        -0.14489E-05
        -0.29060E-04
        -0.13268E-05
        -0.17588E-06
        -0.47713E-06
        -0.52005E-06
        -0.26354E-04
        -0.11584E-04
        -0.64828E-06
        -0.53066E-05
        -0.39259E-05
        -0.54133E-06
        -0.79601E-05
        -0.28190E-04
        -0.17185E-03
        -0.13707E-03
        -0.10254E-03
        -0.54830E-04
        -0.26449E-05
        -0.13939E-04
        -0.22366E-04
        -0.36038E-04
        -0.14802E-03
        -0.50503E-04
        -0.21588E-04
        -0.32959E-04
        -0.45513E-04
        -0.50601E-04
        -0.14002E-06
        -0.76977E-04
        -0.16402E-03
        -0.89243E-03
        -0.14806E-02
        -0.24543E-02
        -0.35040E-02
        -0.33505E-02
        -0.25681E-02
        -0.23677E-02
        -0.23100E-02
        -0.91564E-03
        -0.10285E-03
        -0.15921E-04
        -0.12611E-04
        -0.17443E-05
        -0.18445E-03
        -0.73978E-03
        -0.14156E-02
        -0.23688E-02
        -0.29079E-02
        -0.22424E-02
        -0.20060E-02
        -0.19755E-02
        -0.96190E-03
        -0.25578E-03
        -0.22707E-03
        -0.15861E-03
        -0.62288E-04
        -0.53797E-04
        -0.40170E-05
        -0.83388E-04
        -0.17659E-04
        -0.11805E-04
        -0.14559E-03
        -0.63996E-04
        -0.13807E-03
        -0.34432E-04
        -0.57506E-03
        -0.21092E-03
        -0.46102E-05
        -0.59599E-03
        -0.22525E-04
        -0.29838E-05
        -0.17525E-05
        -0.38204E-04
        -0.10611E-05
        -0.28854E-04
        -0.13857E-04
        -0.46532E-05
        -0.32052E-05
        -0.65451E-04
        -0.29818E-05
        -0.39144E-06
        -0.10761E-05
        -0.11616E-05
        -0.59149E-04
        -0.25929E-04
        -0.14415E-05
        -0.11957E-04
        -0.88233E-05
        -0.10542E-05
        -0.16808E-04
        -0.59526E-04
        -0.36411E-03
        -0.29879E-03
        -0.22502E-03
        -0.11706E-03
        -0.57049E-05
        -0.30169E-04
        -0.46981E-04
        -0.75196E-04
        -0.29172E-03
        -0.10470E-03
        -0.45814E-04
        -0.70636E-04
        -0.96696E-04
        -0.10254E-03
        -0.28534E-06
        -0.12153E-03
        -0.25863E-03
        -0.14080E-02
        -0.23480E-02
        -0.38885E-02
        -0.55834E-02
        -0.54595E-02
        -0.42551E-02
        -0.39091E-02
        -0.37705E-02
        -0.14975E-02
        -0.16747E-03
        -0.26423E-04
        -0.21114E-04
        -0.28037E-05
        -0.29365E-03
        -0.11710E-02
        -0.22183E-02
        -0.37101E-02
        -0.45655E-02
        -0.35899E-02
        -0.32385E-02
        -0.31675E-02
        -0.15521E-02
        -0.40995E-03
        -0.36118E-03
  
SCALARS                      strain_zz  double 1
LOOKUP_TABLE default
         0.49115E+01
         0.48368E+01
         0.48842E+01
         0.49691E+01
        -0.24425E-08
        -0.27389E-08
        -0.26226E-08
        -0.23825E-08
         0.48346E+01
         0.48597E+01
        -0.24630E-08
        -0.23835E-08
         0.47286E+01
         0.47246E+01
        -0.29265E-08
        -0.27517E-08
         0.49566E+01
         0.47305E+01
        -0.21624E-08
        -0.23984E-08
         0.46473E+01
         0.45829E+01
         0.46857E+01
        -0.29005E-08
        -0.25330E-08
        -0.26157E-08
         0.45852E+01
         0.44911E+01
        -0.27826E-08
        -0.23467E-08
         0.49525E+01
         0.48542E+01
         0.50479E+01
        -0.23746E-08
        -0.22075E-08
        -0.21463E-08
         0.48957E+01
         0.47703E+01
        -0.25122E-08
        -0.22924E-08
         0.48461E+01
         0.47494E+01
        -0.21712E-08
        -0.19222E-08
         0.49280E+01
         0.49642E+01
        -0.23794E-08
        -0.26586E-08
         0.46716E+01
        -0.23245E-08
         0.49571E+01
        -0.27313E-08
         0.45580E+01
        -0.24547E-08
         0.45283E+01
        -0.23546E-08
         0.45289E+01
         0.46342E+01
        -0.23990E-08
        -0.23364E-08
         0.49505E+01
         0.49128E+01
        -0.24056E-08
        -0.27195E-08
         0.49742E+01
        -0.23212E-08
         0.49293E+01
        -0.25333E-08
         0.48118E+01
         0.47995E+01
        -0.24386E-08
        -0.25552E-08
         0.47726E+01
        -0.25767E-08
         0.44576E+01
        -0.20357E-08
         0.44412E+01
        -0.19760E-08
         0.44497E+01
        -0.20835E-08
         0.44959E+01
         0.45427E+01
        -0.19851E-08
        -0.20696E-08
         0.46379E+01
        -0.19275E-08
         0.49262E+01
        -0.25277E-08
         0.48815E+01
        -0.25870E-08
         0.48451E+01
         0.48242E+01
        -0.24844E-08
        -0.25134E-08
         0.48490E+01
        -0.22829E-08
         0.48667E+01
        -0.22503E-08
         0.48508E+01
        -0.24090E-08
         0.48456E+01
         0.48615E+01
        -0.23624E-08
        -0.24317E-08
         0.47587E+01
         0.48018E+01
        -0.18342E-08
        -0.17251E-08
         0.47514E+01
        -0.17514E-08
         0.48011E+01
        -0.16793E-08
         0.47524E+01
        -0.16559E-08
         0.46454E+01
        -0.15648E-08
         0.45421E+01
        -0.13902E-08
         0.44800E+01
        -0.12518E-08
         0.44736E+01
        -0.12431E-08
         0.44755E+01
        -0.13481E-08
         0.45427E+01
        -0.14168E-08
         0.46697E+01
        -0.12937E-08
         0.48085E+01
        -0.11661E-08
         0.48891E+01
        -0.11648E-08
         0.49689E+01
        -0.13019E-08
         0.50217E+01
        -0.14845E-08
         0.50200E+01
        -0.15948E-08
         0.48907E+01
        -0.17224E-08
         0.48002E+01
        -0.18453E-08
         0.47704E+01
        -0.16904E-08
         0.48190E+01
        -0.14829E-08
         0.48438E+01
        -0.14783E-08
         0.48008E+01
        -0.16175E-08
         0.48008E+01
        -0.17243E-08
         0.48332E+01
        -0.16364E-08
         0.48752E+01
        -0.15820E-08
        -0.47874E+00
        -0.48172E+00
        -0.48133E+00
        -0.47740E+00
        -0.48426E+00
        -0.48098E+00
        -0.48505E+00
        -0.48300E+00
        -0.47805E+00
        -0.48121E+00
        -0.48704E+00
        -0.48750E+00
        -0.48597E+00
        -0.48594E+00
        -0.48685E+00
        -0.47760E+00
        -0.47836E+00
        -0.47618E+00
        -0.48202E+00
        -0.48103E+00
        -0.48236E+00
        -0.48143E+00
        -0.48312E+00
        -0.48277E+00
        -0.48111E+00
        -0.48124E+00
        -0.48399E+00
        -0.48375E+00
        -0.48563E+00
        -0.48272E+00
        -0.47798E+00
        -0.48176E+00
        -0.47801E+00
        -0.48054E+00
        -0.48789E+00
        -0.48582E+00
        -0.48471E+00
        -0.48594E+00
        -0.48613E+00
        -0.48807E+00
        -0.48927E+00
        -0.48602E+00
        -0.48229E+00
        -0.48286E+00
        -0.48481E+00
        -0.48780E+00
        -0.48530E+00
        -0.48218E+00
        -0.48241E+00
        -0.48485E+00
        -0.48704E+00
        -0.48399E+00
        -0.49114E+00
        -0.48905E+00
        -0.48932E+00
        -0.48875E+00
        -0.48874E+00
        -0.48966E+00
        -0.49077E+00
        -0.49132E+00
        -0.49125E+00
        -0.49126E+00
        -0.49174E+00
        -0.48897E+00
        -0.48804E+00
        -0.48765E+00
        -0.48668E+00
        -0.48589E+00
        -0.48584E+00
        -0.48691E+00
        -0.49041E+00
        -0.48956E+00
        -0.48853E+00
        -0.48864E+00
        -0.48883E+00
        -0.48997E+00
        -0.48828E+00
        -0.48758E+00
         0.92131E-04
         0.34615E-04
         0.33794E-04
         0.28306E-04
         0.93856E-04
         0.57983E-04
         0.34541E-05
         0.65359E-04
         0.49067E-04
         0.55838E-04
         0.22121E-06
         0.29127E-03
         0.17243E-03
         0.92160E-05
         0.30923E-03
         0.45780E-04
         0.21137E-04
         0.18256E-04
         0.18932E-04
         0.75598E-05
         0.17826E-03
         0.16430E-03
         0.14288E-03
         0.70901E-05
         0.13982E-04
         0.13445E-05
        -0.75882E-05
        -0.35218E-04
        -0.13444E-04
         0.20832E-04
         0.34233E-04
         0.80496E-05
         0.26557E-04
         0.31100E-04
         0.13937E-03
         0.50648E-04
         0.87321E-04
         0.20014E-03
         0.11547E-03
         0.10380E-03
         0.22091E-03
         0.17757E-03
         0.18170E-03
         0.10309E-03
         0.82119E-04
         0.15976E-03
         0.71408E-04
         0.54503E-04
         0.42710E-04
         0.61245E-04
         0.14131E-03
         0.78879E-04
         0.24705E-02
         0.26161E-02
         0.28417E-02
         0.28201E-02
         0.32188E-02
         0.37173E-02
         0.34187E-02
         0.27129E-02
         0.25715E-02
         0.29308E-02
         0.28123E-02
         0.27327E-02
         0.18627E-02
         0.16937E-02
         0.20241E-02
         0.23107E-02
         0.24917E-02
         0.29752E-02
         0.27562E-02
         0.29249E-02
         0.23734E-02
         0.21344E-02
         0.24184E-02
         0.23109E-02
         0.24582E-02
         0.24271E-02
         0.91387E-04
         0.33735E-04
         0.32940E-04
         0.27547E-04
         0.92758E-04
         0.56982E-04
         0.25257E-05
         0.64512E-04
         0.48252E-04
         0.55146E-04
        -0.87499E-06
         0.28997E-03
         0.17144E-03
         0.79328E-05
         0.30862E-03
         0.44910E-04
         0.20170E-04
         0.17446E-04
         0.17908E-04
         0.64420E-05
         0.17718E-03
         0.16320E-03
         0.14171E-03
         0.60241E-05
         0.13033E-04
         0.32767E-06
        -0.86142E-05
        -0.36338E-04
        -0.14571E-04
         0.19722E-04
         0.33386E-04
         0.70823E-05
         0.25698E-04
         0.30309E-04
         0.13835E-03
         0.49612E-04
         0.86274E-04
         0.19951E-03
         0.11482E-03
         0.10290E-03
         0.21993E-03
         0.17651E-03
         0.18056E-03
         0.10198E-03
         0.81025E-04
         0.15859E-03
         0.70341E-04
         0.53484E-04
         0.41683E-04
         0.60184E-04
         0.14011E-03
         0.77714E-04
         0.24668E-02
         0.26129E-02
         0.28398E-02
         0.28183E-02
         0.32158E-02
         0.37126E-02
         0.34137E-02
         0.27093E-02
         0.25680E-02
         0.29268E-02
         0.28091E-02
         0.27309E-02
         0.18606E-02
         0.16919E-02
         0.20229E-02
         0.23099E-02
         0.24912E-02
         0.29745E-02
         0.27539E-02
         0.29225E-02
         0.23709E-02
         0.21324E-02
         0.24150E-02
         0.23060E-02
         0.24537E-02
         0.24227E-02
         0.91706E-04
         0.33924E-04
         0.33156E-04
         0.27794E-04
         0.92950E-04
         0.57196E-04
         0.27732E-05
         0.64879E-04
         0.48506E-04
         0.55576E-04
        -0.65305E-06
         0.29020E-03
         0.17179E-03
         0.80057E-05
         0.30959E-03
         0.44789E-04
         0.20176E-04
         0.17637E-04
         0.17673E-04
         0.62110E-05
         0.17703E-03
         0.16310E-03
         0.14094E-03
         0.52544E-05
         0.12759E-04
        -0.38545E-06
        -0.83822E-05
        -0.36503E-04
        -0.14995E-04
         0.18978E-04
         0.33445E-04
         0.68587E-05
         0.25876E-04
         0.30592E-04
         0.13877E-03
         0.49841E-04
         0.86458E-04
         0.20040E-03
         0.11558E-03
         0.10327E-03
         0.22019E-03
         0.17625E-03
         0.17997E-03
         0.10124E-03
         0.80815E-04
         0.15874E-03
         0.70536E-04
         0.53705E-04
         0.41840E-04
         0.60339E-04
         0.14027E-03
         0.77807E-04
         0.24655E-02
         0.26122E-02
         0.28404E-02
         0.28188E-02
         0.32151E-02
         0.37105E-02
         0.34113E-02
         0.27083E-02
         0.25672E-02
         0.29255E-02
         0.28085E-02
         0.27311E-02
         0.18603E-02
         0.16921E-02
         0.20236E-02
         0.23107E-02
         0.24921E-02
         0.29759E-02
         0.27542E-02
         0.29227E-02
         0.23709E-02
         0.21327E-02
         0.24139E-02
         0.23035E-02
         0.24513E-02
         0.24206E-02
         0.91701E-04
         0.33861E-04
         0.33111E-04
         0.27703E-04
         0.92779E-04
         0.57070E-04
         0.27375E-05
         0.64891E-04
         0.48343E-04
         0.55491E-04
        -0.76581E-06
         0.29005E-03
         0.17184E-03
         0.76835E-05
         0.31010E-03
         0.44118E-04
         0.19634E-04
         0.17474E-04
         0.16783E-04
         0.52658E-05
         0.17623E-03
         0.16234E-03
         0.13919E-03
         0.35331E-05
         0.11583E-04
        -0.20088E-05
        -0.86472E-05
        -0.37410E-04
        -0.16395E-04
         0.17029E-04
         0.33066E-04
         0.59880E-05
         0.25708E-04
         0.30479E-04
         0.13874E-03
         0.49713E-04
         0.86338E-04
         0.20083E-03
         0.11586E-03
         0.10305E-03
         0.21979E-03
         0.17504E-03
         0.17830E-03
         0.99501E-04
         0.79919E-04
         0.15827E-03
         0.70203E-04
         0.53511E-04
         0.41585E-04
         0.60032E-04
         0.13996E-03
         0.77514E-04
         0.24635E-02
         0.26108E-02
         0.28400E-02
         0.28186E-02
         0.32138E-02
         0.37078E-02
         0.34081E-02
         0.27065E-02
         0.25655E-02
         0.29233E-02
         0.28068E-02
         0.27302E-02
         0.18590E-02
         0.16915E-02
         0.20236E-02
         0.23105E-02
         0.24919E-02
         0.29765E-02
         0.27535E-02
         0.29221E-02
         0.23702E-02
         0.21321E-02
         0.24120E-02
         0.23003E-02
         0.24484E-02
         0.24178E-02
         0.91594E-04
         0.33720E-04
         0.33011E-04
         0.27608E-04
         0.92595E-04
         0.56912E-04
         0.26547E-05
         0.64817E-04
         0.48126E-04
         0.55380E-04
        -0.88561E-06
         0.28995E-03
         0.17187E-03
         0.73484E-05
         0.31069E-03
         0.43693E-04
         0.19221E-04
         0.17321E-04
         0.16206E-04
         0.45778E-05
         0.17574E-03
         0.16179E-03
         0.13814E-03
         0.24650E-05
         0.10797E-04
        -0.30498E-05
        -0.88778E-05
        -0.38065E-04
        -0.17348E-04
         0.15758E-04
         0.32670E-04
         0.53552E-05
         0.25420E-04
         0.30313E-04
         0.13871E-03
         0.49556E-04
         0.86181E-04
         0.20132E-03
         0.11620E-03
         0.10297E-03
         0.21962E-03
         0.17430E-03
         0.17725E-03
         0.98430E-04
         0.79333E-04
         0.15798E-03
         0.69915E-04
         0.53209E-04
         0.41215E-04
         0.59640E-04
         0.13958E-03
         0.77155E-04
         0.24614E-02
         0.26094E-02
         0.28398E-02
         0.28184E-02
         0.32127E-02
         0.37053E-02
         0.34052E-02
         0.27048E-02
         0.25639E-02
         0.29212E-02
         0.28055E-02
         0.27298E-02
         0.18581E-02
         0.16910E-02
         0.20238E-02
         0.23110E-02
         0.24925E-02
         0.29774E-02
         0.27531E-02
         0.29214E-02
         0.23693E-02
         0.21314E-02
         0.24099E-02
         0.22969E-02
         0.24455E-02
         0.24151E-02
         0.91165E-04
         0.33435E-04
         0.32911E-04
         0.27753E-04
         0.92660E-04
         0.57048E-04
         0.26105E-05
         0.64572E-04
         0.47783E-04
         0.55090E-04
        -0.78862E-06
         0.29022E-03
         0.17212E-03
         0.72007E-05
         0.31171E-03
         0.43864E-04
         0.19174E-04
         0.17517E-04
         0.16353E-04
         0.46505E-05
         0.17596E-03
         0.16198E-03
         0.13819E-03
         0.24412E-05
         0.10587E-04
        -0.31982E-05
        -0.89176E-05
        -0.38148E-04
        -0.17248E-04
         0.15796E-04
         0.32184E-04
         0.50193E-05
         0.24965E-04
         0.30286E-04
         0.13897E-03
         0.49547E-04
         0.86126E-04
         0.20222E-03
         0.11700E-03
         0.10354E-03
         0.22021E-03
         0.17466E-03
         0.17746E-03
         0.98412E-04
         0.79264E-04
         0.15796E-03
         0.69670E-04
         0.52603E-04
         0.40450E-04
         0.59158E-04
         0.13936E-03
         0.77057E-04
         0.24601E-02
         0.26087E-02
         0.28401E-02
         0.28187E-02
         0.32119E-02
         0.37032E-02
         0.34028E-02
         0.27038E-02
         0.25631E-02
         0.29201E-02
         0.28052E-02
         0.27305E-02
         0.18584E-02
         0.16913E-02
         0.20248E-02
         0.23129E-02
         0.24944E-02
         0.29791E-02
         0.27530E-02
         0.29212E-02
         0.23688E-02
         0.21309E-02
         0.24081E-02
         0.22939E-02
         0.24430E-02
         0.24129E-02
         0.90446E-04
         0.32917E-04
         0.32633E-04
         0.27709E-04
         0.92479E-04
         0.56995E-04
         0.22615E-05
         0.63953E-04
         0.47137E-04
         0.54477E-04
        -0.10432E-05
         0.29012E-03
         0.17209E-03
         0.66628E-05
         0.31230E-03
         0.43794E-04
         0.18845E-04
         0.17456E-04
         0.16272E-04
         0.44732E-05
         0.17595E-03
         0.16193E-03
         0.13814E-03
         0.23101E-05
         0.10191E-04
        -0.34640E-05
        -0.93226E-05
        -0.38488E-04
        -0.17310E-04
         0.15720E-04
         0.31475E-04
         0.44677E-05
         0.24293E-04
         0.30057E-04
         0.13892E-03
         0.49318E-04
         0.85860E-04
         0.20271E-03
         0.11743E-03
         0.10379E-03
         0.22052E-03
         0.17486E-03
         0.17754E-03
         0.98297E-04
         0.78956E-04
         0.15757E-03
         0.69092E-04
         0.51701E-04
         0.39410E-04
         0.58418E-04
         0.13890E-03
         0.76759E-04
         0.24581E-02
         0.26073E-02
         0.28399E-02
         0.28186E-02
         0.32107E-02
         0.37004E-02
         0.33997E-02
         0.27022E-02
         0.25617E-02
         0.29182E-02
         0.28042E-02
         0.27307E-02
         0.18582E-02
         0.16912E-02
         0.20253E-02
         0.23144E-02
         0.24961E-02
         0.29802E-02
         0.27522E-02
         0.29203E-02
         0.23677E-02
         0.21299E-02
         0.24057E-02
         0.22906E-02
         0.24400E-02
         0.24102E-02
         0.90304E-04
         0.32724E-04
         0.32534E-04
         0.27638E-04
         0.92293E-04
         0.56841E-04
         0.21047E-05
         0.63803E-04
         0.47021E-04
         0.54529E-04
        -0.12196E-05
         0.28996E-03
         0.17206E-03
         0.62824E-05
         0.31284E-03
         0.43738E-04
         0.18750E-04
         0.17332E-04
         0.16200E-04
         0.43305E-05
         0.17589E-03
         0.16180E-03
         0.13806E-03
         0.22092E-05
         0.10188E-04
        -0.36170E-05
        -0.94828E-05
        -0.38672E-04
        -0.17448E-04
         0.15653E-04
         0.31280E-04
         0.42432E-05
         0.24049E-04
         0.29937E-04
         0.13891E-03
         0.49190E-04
         0.85693E-04
         0.20317E-03
         0.11783E-03
         0.10393E-03
         0.22066E-03
         0.17491E-03
         0.17753E-03
         0.98206E-04
         0.78781E-04
         0.15742E-03
         0.68925E-04
         0.51489E-04
         0.39099E-04
         0.58084E-04
         0.13857E-03
         0.76436E-04
         0.24560E-02
         0.26058E-02
         0.28397E-02
         0.28184E-02
         0.32094E-02
         0.36978E-02
         0.33967E-02
         0.27005E-02
         0.25600E-02
         0.29160E-02
         0.28029E-02
         0.27309E-02
         0.18580E-02
         0.16909E-02
         0.20256E-02
         0.23157E-02
         0.24974E-02
         0.29812E-02
         0.27515E-02
         0.29197E-02
         0.23671E-02
         0.21295E-02
         0.24037E-02
         0.22872E-02
         0.24370E-02
         0.24074E-02
         0.90553E-04
         0.32855E-04
         0.32655E-04
         0.27708E-04
         0.92351E-04
         0.56831E-04
         0.22833E-05
         0.64091E-04
         0.47270E-04
         0.55051E-04
        -0.10782E-05
         0.29012E-03
         0.17233E-03
         0.62941E-05
         0.31377E-03
         0.43995E-04
         0.18964E-04
         0.17411E-04
         0.16405E-04
         0.44647E-05
         0.17611E-03
         0.16196E-03
         0.13826E-03
         0.23838E-05
         0.10558E-04
        -0.34559E-05
        -0.92001E-05
        -0.38476E-04
        -0.17252E-04
         0.15888E-04
         0.31480E-04
         0.43584E-05
         0.24109E-04
         0.30001E-04
         0.13921E-03
         0.49303E-04
         0.85783E-04
         0.20402E-03
         0.11858E-03
         0.10440E-03
         0.22116E-03
         0.17529E-03
         0.17779E-03
         0.98418E-04
         0.78924E-04
         0.15760E-03
         0.69088E-04
         0.51662E-04
         0.39185E-04
         0.58087E-04
         0.13854E-03
         0.76294E-04
         0.24546E-02
         0.26049E-02
         0.28399E-02
         0.28186E-02
         0.32085E-02
         0.36956E-02
         0.33942E-02
         0.26993E-02
         0.25589E-02
         0.29144E-02
         0.28023E-02
         0.27317E-02
         0.18582E-02
         0.16910E-02
         0.20264E-02
         0.23175E-02
         0.24994E-02
         0.29829E-02
         0.27514E-02
         0.29197E-02
         0.23670E-02
         0.21296E-02
         0.24023E-02
         0.22845E-02
         0.24345E-02
         0.24051E-02
         0.90609E-04
         0.32843E-04
         0.32655E-04
         0.27673E-04
         0.92257E-04
         0.56727E-04
         0.23017E-05
         0.64127E-04
         0.47266E-04
         0.55280E-04
        -0.11464E-05
         0.29003E-03
         0.17246E-03
         0.60122E-05
         0.31431E-03
         0.43991E-04
         0.18925E-04
         0.17280E-04
         0.16349E-04
         0.43486E-05
         0.17611E-03
         0.16188E-03
         0.13823E-03
         0.23175E-05
         0.10709E-04
        -0.35211E-05
        -0.92353E-05
        -0.38505E-04
        -0.17254E-04
         0.15903E-04
         0.31456E-04
         0.42836E-05
         0.23958E-04
         0.29917E-04
         0.13929E-03
         0.49239E-04
         0.85728E-04
         0.20451E-03
         0.11907E-03
         0.10465E-03
         0.22140E-03
         0.17544E-03
         0.17779E-03
         0.98436E-04
         0.78896E-04
         0.15759E-03
         0.69029E-04
         0.51576E-04
         0.39019E-04
         0.57884E-04
         0.13833E-03
         0.76032E-04
         0.24527E-02
         0.26036E-02
         0.28396E-02
         0.28184E-02
         0.32075E-02
         0.36930E-02
         0.33910E-02
         0.26976E-02
         0.25574E-02
         0.29123E-02
         0.28011E-02
         0.27319E-02
         0.18578E-02
         0.16909E-02
         0.20270E-02
         0.23189E-02
         0.25011E-02
         0.29842E-02
         0.27509E-02
         0.29191E-02
         0.23663E-02
         0.21292E-02
         0.24005E-02
         0.22814E-02
         0.24317E-02
         0.24024E-02
         0.90595E-04
         0.32743E-04
         0.32608E-04
         0.27669E-04
         0.92106E-04
         0.56648E-04
         0.22636E-05
         0.64129E-04
         0.47272E-04
         0.55510E-04
        -0.12242E-05
         0.28991E-03
         0.17253E-03
         0.57531E-05
         0.31485E-03
         0.43955E-04
         0.18907E-04
         0.17196E-04
         0.16276E-04
         0.42549E-05
         0.17609E-03
         0.16180E-03
         0.13817E-03
         0.22150E-05
         0.10862E-04
        -0.36413E-05
        -0.92536E-05
        -0.38557E-04
        -0.17262E-04
         0.15937E-04
         0.31399E-04
         0.41666E-05
         0.23855E-04
         0.29917E-04
         0.13930E-03
         0.49133E-04
         0.85628E-04
         0.20501E-03
         0.11956E-03
         0.10490E-03
         0.22170E-03
         0.17561E-03
         0.17780E-03
         0.98412E-04
         0.78834E-04
         0.15755E-03
         0.68976E-04
         0.51502E-04
         0.38859E-04
         0.57692E-04
         0.13814E-03
         0.75820E-04
         0.24507E-02
         0.26022E-02
         0.28394E-02
         0.28184E-02
         0.32063E-02
         0.36902E-02
         0.33878E-02
         0.26959E-02
         0.25560E-02
         0.29103E-02
         0.28000E-02
         0.27321E-02
         0.18575E-02
         0.16907E-02
         0.20274E-02
         0.23203E-02
         0.25027E-02
         0.29855E-02
         0.27504E-02
         0.29186E-02
         0.23657E-02
         0.21288E-02
         0.23986E-02
         0.22783E-02
         0.24288E-02
         0.23996E-02
         0.90763E-04
         0.32784E-04
         0.32669E-04
         0.27766E-04
         0.92123E-04
         0.56687E-04
         0.23944E-05
         0.64360E-04
         0.47445E-04
         0.55928E-04
        -0.10876E-05
         0.29002E-03
         0.17271E-03
         0.57508E-05
         0.31575E-03
         0.44134E-04
         0.19032E-04
         0.17274E-04
         0.16409E-04
         0.43585E-05
         0.17628E-03
         0.16193E-03
         0.13832E-03
         0.23221E-05
         0.11150E-04
        -0.35400E-05
        -0.90640E-05
        -0.38433E-04
        -0.17047E-04
         0.16186E-04
         0.31569E-04
         0.42423E-05
         0.23937E-04
         0.30050E-04
         0.13954E-03
         0.49201E-04
         0.85652E-04
         0.20584E-03
         0.12031E-03
         0.10543E-03
         0.22221E-03
         0.17595E-03
         0.17802E-03
         0.98565E-04
         0.78926E-04
         0.15768E-03
         0.69088E-04
         0.51615E-04
         0.38892E-04
         0.57678E-04
         0.13811E-03
         0.75743E-04
         0.24492E-02
         0.26013E-02
         0.28396E-02
         0.28186E-02
         0.32053E-02
         0.36877E-02
         0.33852E-02
         0.26947E-02
         0.25549E-02
         0.29088E-02
         0.27994E-02
         0.27326E-02
         0.18576E-02
         0.16908E-02
         0.20283E-02
         0.23220E-02
         0.25046E-02
         0.29870E-02
         0.27501E-02
         0.29184E-02
         0.23655E-02
         0.21288E-02
         0.23972E-02
         0.22755E-02
         0.24264E-02
         0.23974E-02
         0.90808E-04
         0.32705E-04
         0.32625E-04
         0.27723E-04
         0.91970E-04
         0.56559E-04
         0.23348E-05
         0.64373E-04
         0.47472E-04
         0.56133E-04
        -0.12037E-05
         0.28987E-03
         0.17271E-03
         0.54427E-05
         0.31633E-03
         0.44119E-04
         0.18991E-04
         0.17136E-04
         0.16313E-04
         0.42255E-05
         0.17620E-03
         0.16179E-03
         0.13820E-03
         0.22040E-05
         0.11237E-04
        -0.36458E-05
        -0.91969E-05
        -0.38608E-04
        -0.17136E-04
         0.16178E-04
         0.31519E-04
         0.41312E-05
         0.23763E-04
         0.29976E-04
         0.13955E-03
         0.49084E-04
         0.85502E-04
         0.20632E-03
         0.12072E-03
         0.10560E-03
         0.22237E-03
         0.17598E-03
         0.17798E-03
         0.98461E-04
         0.78801E-04
         0.15760E-03
         0.68999E-04
         0.51491E-04
         0.38705E-04
         0.57477E-04
         0.13788E-03
         0.75470E-04
         0.24471E-02
         0.25999E-02
         0.28393E-02
         0.28183E-02
         0.32039E-02
         0.36850E-02
         0.33821E-02
         0.26930E-02
         0.25533E-02
         0.29067E-02
         0.27981E-02
         0.27325E-02
         0.18572E-02
         0.16905E-02
         0.20287E-02
         0.23233E-02
         0.25059E-02
         0.29881E-02
         0.27496E-02
         0.29178E-02
         0.23648E-02
         0.21285E-02
         0.23954E-02
         0.22723E-02
         0.24234E-02
         0.23946E-02
         0.90894E-04
         0.32679E-04
         0.32629E-04
         0.27735E-04
         0.91893E-04
         0.56491E-04
         0.23611E-05
         0.64469E-04
         0.47584E-04
         0.56471E-04
        -0.12105E-05
         0.28985E-03
         0.17283E-03
         0.52726E-05
         0.31702E-03
         0.44181E-04
         0.19060E-04
         0.17091E-04
         0.16326E-04
         0.41945E-05
         0.17623E-03
         0.16176E-03
         0.13820E-03
         0.21811E-05
         0.11441E-04
        -0.36785E-05
        -0.91420E-05
        -0.38637E-04
        -0.17123E-04
         0.16244E-04
         0.31517E-04
         0.40823E-05
         0.23669E-04
         0.29975E-04
         0.13966E-03
         0.49035E-04
         0.85441E-04
         0.20692E-03
         0.12122E-03
         0.10588E-03
         0.22270E-03
         0.17619E-03
         0.17805E-03
         0.98494E-04
         0.78791E-04
         0.15762E-03
         0.68994E-04
         0.51451E-04
         0.38589E-04
         0.57343E-04
         0.13775E-03
         0.75273E-04
         0.24453E-02
         0.25987E-02
         0.28391E-02
         0.28183E-02
         0.32028E-02
         0.36824E-02
         0.33791E-02
         0.26913E-02
         0.25518E-02
         0.29047E-02
         0.27972E-02
         0.27329E-02
         0.18570E-02
         0.16904E-02
         0.20292E-02
         0.23248E-02
         0.25076E-02
         0.29894E-02
         0.27492E-02
         0.29174E-02
         0.23643E-02
         0.21282E-02
         0.23937E-02
         0.22693E-02
         0.24206E-02
         0.23919E-02
         0.91216E-04
         0.32927E-04
         0.32862E-04
         0.27931E-04
         0.92079E-04
         0.56639E-04
         0.26961E-05
         0.64842E-04
         0.47862E-04
         0.57023E-04
        -0.89903E-06
         0.29019E-03
         0.17328E-03
         0.53989E-05
         0.31804E-03
         0.44475E-04
         0.19332E-04
         0.17256E-04
         0.16588E-04
         0.44309E-05
         0.17657E-03
         0.16203E-03
         0.13850E-03
         0.24142E-05
         0.11916E-04
        -0.34496E-05
        -0.87911E-05
        -0.38294E-04
        -0.16743E-04
         0.16630E-04
         0.31804E-04
         0.43103E-05
         0.23819E-04
         0.30147E-04
         0.14007E-03
         0.49266E-04
         0.85667E-04
         0.20783E-03
         0.12212E-03
         0.10652E-03
         0.22333E-03
         0.17668E-03
         0.17839E-03
         0.98836E-04
         0.79091E-04
         0.15796E-03
         0.69281E-04
         0.51712E-04
         0.38727E-04
         0.57409E-04
         0.13782E-03
         0.75271E-04
         0.24441E-02
         0.25980E-02
         0.28395E-02
         0.28186E-02
         0.32022E-02
         0.36805E-02
         0.33767E-02
         0.26902E-02
         0.25509E-02
         0.29033E-02
         0.27966E-02
         0.27337E-02
         0.18572E-02
         0.16907E-02
         0.20302E-02
         0.23268E-02
         0.25099E-02
         0.29914E-02
         0.27493E-02
         0.29175E-02
         0.23643E-02
         0.21283E-02
         0.23924E-02
         0.22667E-02
         0.24183E-02
         0.23899E-02
         0.91216E-04
         0.32855E-04
         0.32823E-04
         0.27869E-04
         0.91903E-04
         0.56511E-04
         0.26483E-05
         0.64827E-04
         0.47856E-04
         0.57197E-04
        -0.10116E-05
         0.29008E-03
         0.17336E-03
         0.50858E-05
         0.31858E-03
         0.44434E-04
         0.19265E-04
         0.17140E-04
         0.16454E-04
         0.42733E-05
         0.17654E-03
         0.16190E-03
         0.13844E-03
         0.22720E-05
         0.11982E-04
        -0.35976E-05
        -0.89076E-05
        -0.38414E-04
        -0.16721E-04
         0.16650E-04
         0.31782E-04
         0.41857E-05
         0.23688E-04
         0.30053E-04
         0.14005E-03
         0.49156E-04
         0.85583E-04
         0.20829E-03
         0.12257E-03
         0.10678E-03
         0.22355E-03
         0.17675E-03
         0.17832E-03
         0.98769E-04
         0.78985E-04
         0.15789E-03
         0.69213E-04
         0.51648E-04
         0.38560E-04
         0.57167E-04
         0.13757E-03
         0.74996E-04
         0.24419E-02
         0.25965E-02
         0.28391E-02
         0.28185E-02
         0.32011E-02
         0.36778E-02
         0.33735E-02
         0.26884E-02
         0.25493E-02
         0.29011E-02
         0.27954E-02
         0.27336E-02
         0.18567E-02
         0.16905E-02
         0.20308E-02
         0.23283E-02
         0.25115E-02
         0.29925E-02
         0.27487E-02
         0.29169E-02
         0.23636E-02
         0.21279E-02
         0.23904E-02
         0.22636E-02
         0.24155E-02
         0.23871E-02
         0.91153E-04
         0.32673E-04
         0.32671E-04
         0.27773E-04
         0.91666E-04
         0.56303E-04
         0.25402E-05
         0.64790E-04
         0.47800E-04
         0.57240E-04
        -0.11509E-05
         0.28989E-03
         0.17335E-03
         0.47691E-05
         0.31908E-03
         0.44366E-04
         0.19131E-04
         0.17009E-04
         0.16349E-04
         0.41862E-05
         0.17648E-03
         0.16174E-03
         0.13836E-03
         0.21501E-05
         0.11930E-04
        -0.37430E-05
        -0.92085E-05
        -0.38606E-04
        -0.16282E-04
         0.16948E-04
         0.31699E-04
         0.40141E-05
         0.23558E-04
         0.29994E-04
         0.14001E-03
         0.48984E-04
         0.85409E-04
         0.20863E-03
         0.12303E-03
         0.10740E-03
         0.22389E-03
         0.17682E-03
         0.17818E-03
         0.98699E-04
         0.78841E-04
         0.15776E-03
         0.69068E-04
         0.51525E-04
         0.38378E-04
         0.56950E-04
         0.13734E-03
         0.74702E-04
         0.24399E-02
         0.25951E-02
         0.28389E-02
         0.28184E-02
         0.31998E-02
         0.36749E-02
         0.33701E-02
         0.26865E-02
         0.25477E-02
         0.28992E-02
         0.27938E-02
         0.27330E-02
         0.18562E-02
         0.16902E-02
         0.20312E-02
         0.23297E-02
         0.25130E-02
         0.29936E-02
         0.27481E-02
         0.29162E-02
         0.23630E-02
         0.21275E-02
         0.23885E-02
         0.22604E-02
         0.24125E-02
         0.23842E-02
         0.91463E-04
         0.32901E-04
         0.32923E-04
         0.28003E-04
         0.91868E-04
         0.56467E-04
         0.28399E-05
         0.65157E-04
         0.48027E-04
         0.57531E-04
        -0.86833E-06
         0.29015E-03
         0.17372E-03
         0.48794E-05
         0.32006E-03
         0.44662E-04
         0.19338E-04
         0.17162E-04
         0.16649E-04
         0.45903E-05
         0.17678E-03
         0.16197E-03
         0.13861E-03
         0.24014E-05
         0.12212E-04
        -0.34930E-05
        -0.92468E-05
        -0.38394E-04
        -0.15024E-04
         0.17950E-04
         0.31952E-04
         0.42461E-05
         0.23704E-04
         0.30216E-04
         0.14045E-03
         0.49243E-04
         0.85622E-04
         0.20936E-03
         0.12396E-03
         0.10874E-03
         0.22474E-03
         0.17729E-03
         0.17841E-03
         0.99002E-04
         0.79135E-04
         0.15813E-03
         0.69366E-04
         0.51764E-04
         0.38537E-04
         0.57085E-04
         0.13748E-03
         0.74733E-04
         0.24386E-02
         0.25944E-02
         0.28393E-02
         0.28188E-02
         0.31990E-02
         0.36727E-02
         0.33676E-02
         0.26855E-02
         0.25469E-02
         0.28981E-02
         0.27927E-02
         0.27328E-02
         0.18562E-02
         0.16904E-02
         0.20320E-02
         0.23315E-02
         0.25150E-02
         0.29954E-02
         0.27483E-02
         0.29164E-02
         0.23630E-02
         0.21277E-02
         0.23873E-02
         0.22579E-02
         0.24103E-02
         0.23821E-02
         0.90755E-04
         0.32061E-04
         0.32132E-04
         0.27260E-04
         0.90839E-04
         0.55512E-04
         0.19633E-05
         0.64318E-04
         0.47252E-04
         0.56703E-04
        -0.18878E-05
         0.28896E-03
         0.17276E-03
         0.36221E-05
         0.31954E-03
         0.43932E-04
         0.18459E-04
         0.16355E-04
         0.15749E-04
         0.36953E-05
         0.17580E-03
         0.16093E-03
         0.13763E-03
         0.15105E-05
         0.11319E-04
        -0.43408E-05
        -0.10513E-04
        -0.39459E-04
        -0.15449E-04
         0.17404E-04
         0.31199E-04
         0.33611E-05
         0.22842E-04
         0.29366E-04
         0.13948E-03
         0.48234E-04
         0.84567E-04
         0.20867E-03
         0.12347E-03
         0.10841E-03
         0.22402E-03
         0.17636E-03
         0.17737E-03
         0.98068E-04
         0.78112E-04
         0.15700E-03
         0.68367E-04
         0.50841E-04
         0.37544E-04
         0.55969E-04
         0.13622E-03
         0.73552E-04
         0.24348E-02
         0.25913E-02
         0.28372E-02
         0.28167E-02
         0.31959E-02
         0.36682E-02
         0.33627E-02
         0.26819E-02
         0.25436E-02
         0.28942E-02
         0.27893E-02
         0.27307E-02
         0.18542E-02
         0.16888E-02
         0.20309E-02
         0.23312E-02
         0.25149E-02
         0.29948E-02
         0.27458E-02
         0.29140E-02
         0.23607E-02
         0.21257E-02
         0.23838E-02
         0.22530E-02
         0.24058E-02
         0.23778E-02
         0.91311E-04
         0.32120E-04
         0.32311E-04
         0.27594E-04
         0.91097E-04
         0.55768E-04
         0.21410E-05
         0.64993E-04
         0.47939E-04
         0.57883E-04
        -0.15883E-05
         0.28899E-03
         0.17263E-03
         0.41326E-05
         0.32076E-03
         0.44643E-04
         0.19141E-04
         0.16761E-04
         0.16273E-04
         0.41939E-05
         0.17633E-03
         0.16128E-03
         0.13839E-03
         0.21774E-05
         0.12508E-04
        -0.37224E-05
        -0.94166E-05
        -0.38248E-04
        -0.14389E-04
         0.18410E-04
         0.31752E-04
         0.37390E-05
         0.23037E-04
         0.29258E-04
         0.13979E-03
         0.48147E-04
         0.84249E-04
         0.21003E-03
         0.12489E-03
         0.10942E-03
         0.22478E-03
         0.17716E-03
         0.17811E-03
         0.98806E-04
         0.78508E-04
         0.15723E-03
         0.68558E-04
         0.51262E-04
         0.37785E-04
         0.55870E-04
         0.13618E-03
         0.73401E-04
         0.24338E-02
         0.25911E-02
         0.28374E-02
         0.28163E-02
         0.31940E-02
         0.36652E-02
         0.33607E-02
         0.26814E-02
         0.25431E-02
         0.28926E-02
         0.27886E-02
         0.27318E-02
         0.18550E-02
         0.16891E-02
         0.20323E-02
         0.23339E-02
         0.25176E-02
         0.29969E-02
         0.27458E-02
         0.29136E-02
         0.23607E-02
         0.21261E-02
         0.23831E-02
         0.22512E-02
         0.24040E-02
         0.23762E-02
         0.32267E-02
         0.33022E-02
         0.32772E-02
         0.29885E-02
         0.38450E-02
         0.35593E-02
         0.35417E-02
         0.36497E-02
         0.31293E-02
         0.36533E-02
         0.39404E-02
         0.48453E-02
         0.42591E-02
         0.40744E-02
         0.50102E-02
         0.30570E-02
         0.32601E-02
         0.28484E-02
         0.33948E-02
         0.35383E-02
         0.39340E-02
         0.39486E-02
         0.37448E-02
         0.32348E-02
         0.36194E-02
         0.30929E-02
         0.40214E-02
         0.38693E-02
         0.38966E-02
         0.37493E-02
         0.30761E-02
         0.32067E-02
         0.30036E-02
         0.31407E-02
         0.43155E-02
         0.37908E-02
         0.38324E-02
         0.46611E-02
         0.44097E-02
         0.43271E-02
         0.45668E-02
         0.42809E-02
         0.40680E-02
         0.35999E-02
         0.37313E-02
         0.43584E-02
         0.38706E-02
         0.35917E-02
         0.34937E-02
         0.36471E-02
         0.41156E-02
         0.36948E-02
         0.97536E-02
         0.97357E-02
         0.10126E-01
         0.98564E-02
         0.10437E-01
         0.11248E-01
         0.10984E-01
         0.10227E-01
         0.10156E-01
         0.10720E-01
         0.10388E-01
         0.99047E-02
         0.82373E-02
         0.77081E-02
         0.81485E-02
         0.86004E-02
         0.88612E-02
         0.98972E-02
         0.10130E-01
         0.10313E-01
         0.91544E-02
         0.86887E-02
         0.91813E-02
         0.89792E-02
         0.90746E-02
         0.90513E-02
         0.33973E-01
         0.35478E-01
         0.34981E-01
         0.32017E-01
         0.39200E-01
         0.36852E-01
         0.38257E-01
         0.38624E-01
         0.33203E-01
         0.38600E-01
         0.41887E-01
         0.47155E-01
         0.42730E-01
         0.43092E-01
         0.48817E-01
         0.32568E-01
         0.34888E-01
         0.30597E-01
         0.35996E-01
         0.37792E-01
         0.39262E-01
         0.40066E-01
         0.37702E-01
         0.34660E-01
         0.38987E-01
         0.33483E-01
         0.42941E-01
         0.42193E-01
         0.42384E-01
         0.40322E-01
         0.32897E-01
         0.34513E-01
         0.32262E-01
         0.33682E-01
         0.42865E-01
         0.39339E-01
         0.39504E-01
         0.47176E-01
         0.45879E-01
         0.45315E-01
         0.46252E-01
         0.43939E-01
         0.41630E-01
         0.36790E-01
         0.38228E-01
         0.42876E-01
         0.39647E-01
         0.37337E-01
         0.36604E-01
         0.37918E-01
         0.41150E-01
         0.38038E-01
         0.70263E-01
         0.68761E-01
         0.70495E-01
         0.68414E-01
         0.70835E-01
         0.74899E-01
         0.75660E-01
         0.74524E-01
         0.74793E-01
         0.76898E-01
         0.74695E-01
         0.70450E-01
         0.62416E-01
         0.58942E-01
         0.59569E-01
         0.60681E-01
         0.61477E-01
         0.66939E-01
         0.70955E-01
         0.71457E-01
         0.65779E-01
         0.63569E-01
         0.65906E-01
         0.65291E-01
         0.64792E-01
         0.64541E-01
  
SCALARS                      strain_yz  double 1
LOOKUP_TABLE default
        -0.13624E-02
         0.40889E-03
         0.11353E-02
         0.65222E-03
        -0.18894E-09
        -0.52077E-10
        -0.23416E-09
        -0.17860E-09
         0.39735E-02
        -0.27063E-02
        -0.34848E-09
        -0.30679E-09
         0.29612E-02
         0.14959E-03
         0.24939E-09
        -0.15989E-10
        -0.14113E-02
        -0.38066E-02
         0.36691E-11
         0.37542E-10
         0.17116E-02
         0.56985E-02
         0.71741E-02
         0.57168E-09
         0.98729E-09
         0.82524E-09
         0.56403E-03
         0.47249E-02
         0.41122E-09
         0.79777E-09
        -0.16045E-02
        -0.12263E-02
         0.13342E-02
         0.21319E-09
         0.21763E-09
        -0.45182E-11
        -0.44271E-02
        -0.35603E-02
         0.39230E-09
         0.30522E-09
        -0.40646E-02
        -0.22385E-02
         0.29648E-09
         0.27094E-09
        -0.41200E-02
        -0.14875E-02
        -0.98348E-11
         0.15212E-09
        -0.25990E-02
         0.71624E-10
        -0.39133E-03
        -0.58010E-11
        -0.12307E-03
         0.27705E-09
         0.76500E-03
         0.16117E-09
         0.24996E-02
        -0.54915E-03
         0.43723E-11
        -0.88741E-11
        -0.19408E-02
        -0.67446E-02
        -0.59572E-10
        -0.22283E-09
        -0.12074E-02
        -0.12025E-09
        -0.48961E-02
        -0.14649E-09
         0.33856E-02
         0.17591E-02
        -0.18103E-10
         0.23903E-09
         0.59027E-02
         0.52487E-09
         0.55235E-02
         0.50820E-09
         0.53424E-02
         0.38578E-09
         0.45031E-02
         0.32335E-09
         0.74179E-02
         0.63170E-02
         0.20743E-09
        -0.45991E-10
         0.10672E-02
        -0.51461E-11
        -0.64247E-02
        -0.32237E-09
        -0.14312E-01
        -0.56435E-09
        -0.19032E-01
        -0.11435E-01
        -0.83703E-09
        -0.67750E-09
        -0.83282E-02
        -0.52592E-09
        -0.76606E-02
        -0.53805E-09
        -0.72935E-02
        -0.57851E-09
        -0.12059E-01
        -0.10241E-01
        -0.53799E-09
        -0.25778E-09
         0.71399E-02
        -0.28892E-02
         0.18917E-09
        -0.23507E-09
         0.17380E-01
         0.62931E-09
         0.26878E-01
         0.92053E-09
         0.30539E-01
         0.11369E-08
         0.29934E-01
         0.11277E-08
         0.28836E-01
         0.89240E-09
         0.25625E-01
         0.69061E-09
         0.23759E-01
         0.64233E-09
         0.21230E-01
         0.61113E-09
         0.18021E-01
         0.39056E-09
         0.15564E-01
         0.12895E-09
         0.97481E-02
         0.83321E-10
        -0.78425E-03
         0.12524E-09
        -0.11525E-01
         0.64683E-10
        -0.22038E-01
        -0.19561E-09
        -0.34055E-01
        -0.55215E-09
        -0.32503E-01
        -0.86219E-09
        -0.31239E-01
        -0.11303E-08
        -0.38240E-01
        -0.11293E-08
        -0.42643E-01
        -0.98587E-09
        -0.40794E-01
        -0.96082E-09
        -0.31123E-01
        -0.96680E-09
        -0.21128E-01
        -0.76452E-09
        -0.15710E-01
        -0.45209E-09
        -0.11998E-01
        -0.34956E-09
        -0.72793E-02
        -0.37865E-02
        -0.33031E-02
        -0.10180E-02
        -0.34025E-02
        -0.35966E-02
        -0.38187E-03
        -0.58488E-02
        -0.49733E-02
        -0.73394E-02
         0.38711E-02
         0.16533E-01
         0.11267E-01
         0.13063E-02
         0.16685E-01
         0.19239E-02
        -0.17070E-02
         0.10945E-02
         0.14441E-02
        -0.10897E-02
         0.10032E-02
         0.82589E-03
        -0.27830E-02
         0.23436E-03
        -0.50097E-02
         0.74078E-03
         0.38539E-04
         0.67355E-03
         0.81987E-03
        -0.39382E-02
         0.18793E-02
        -0.20525E-02
         0.13667E-02
        -0.33440E-03
         0.55889E-03
         0.30193E-02
         0.67591E-02
         0.14642E-01
         0.13381E-01
         0.11339E-01
         0.10698E-01
         0.26444E-02
        -0.21507E-02
        -0.59040E-02
        -0.97851E-02
        -0.16056E-01
        -0.10495E-01
        -0.74892E-02
        -0.79933E-02
        -0.85246E-02
        -0.10034E-01
        -0.45639E-02
         0.87104E-02
        -0.10447E-01
         0.28312E-01
         0.39096E-01
         0.49860E-01
         0.59312E-01
         0.59703E-01
         0.54045E-01
         0.51413E-01
         0.48604E-01
         0.31410E-01
         0.13746E-01
         0.60355E-02
         0.26585E-02
        -0.40673E-02
        -0.16066E-01
        -0.29533E-01
        -0.38610E-01
        -0.46922E-01
        -0.53765E-01
        -0.50562E-01
        -0.47790E-01
        -0.44474E-01
        -0.30968E-01
        -0.18055E-01
        -0.15840E-01
        -0.11762E-01
        -0.74186E-02
        -0.68649E-02
        -0.16283E-02
        -0.89162E-02
        -0.40101E-02
        -0.31799E-02
        -0.11117E-01
        -0.72901E-02
        -0.10456E-01
         0.55279E-02
         0.23923E-01
         0.14173E-01
         0.20368E-02
         0.23570E-01
         0.44606E-02
        -0.13518E-02
         0.12906E-02
         0.58169E-02
         0.11246E-02
         0.50136E-02
         0.35596E-02
        -0.20637E-02
         0.17419E-02
        -0.70408E-02
         0.17415E-02
         0.43701E-03
         0.81239E-03
        -0.12977E-02
        -0.70235E-02
         0.48073E-02
         0.12663E-02
         0.31072E-02
         0.26979E-02
        -0.12864E-02
         0.39214E-02
         0.74870E-02
         0.17913E-01
         0.15797E-01
         0.13921E-01
         0.10227E-01
        -0.25271E-02
        -0.52053E-02
        -0.65021E-02
        -0.83727E-02
        -0.17103E-01
        -0.99522E-02
        -0.65813E-02
        -0.82715E-02
        -0.97648E-02
        -0.10118E-01
        -0.75915E-03
         0.12607E-01
        -0.18033E-01
         0.41964E-01
         0.54231E-01
         0.69987E-01
         0.83976E-01
         0.82260E-01
         0.71848E-01
         0.68856E-01
         0.68121E-01
         0.42778E-01
         0.14100E-01
         0.56192E-02
         0.48150E-02
        -0.22299E-02
        -0.18916E-01
        -0.37893E-01
        -0.52732E-01
        -0.68632E-01
        -0.76101E-01
        -0.66835E-01
        -0.63190E-01
        -0.62997E-01
        -0.44357E-01
        -0.23042E-01
        -0.21818E-01
        -0.11769E-01
        -0.74199E-02
        -0.68684E-02
        -0.16403E-02
        -0.89172E-02
        -0.40133E-02
        -0.31839E-02
        -0.11135E-01
        -0.73032E-02
        -0.10495E-01
         0.55312E-02
         0.23921E-01
         0.14177E-01
         0.20368E-02
         0.23600E-01
         0.44609E-02
        -0.13641E-02
         0.12886E-02
         0.58209E-02
         0.11184E-02
         0.50260E-02
         0.35630E-02
        -0.20642E-02
         0.17411E-02
        -0.70728E-02
         0.17384E-02
         0.44216E-03
         0.81694E-03
        -0.12891E-02
        -0.70383E-02
         0.48081E-02
         0.12636E-02
         0.31141E-02
         0.27024E-02
        -0.12743E-02
         0.39239E-02
         0.74867E-02
         0.17941E-01
         0.15831E-01
         0.13938E-01
         0.10235E-01
        -0.25203E-02
        -0.52107E-02
        -0.65055E-02
        -0.83730E-02
        -0.17103E-01
        -0.99532E-02
        -0.65774E-02
        -0.82604E-02
        -0.97517E-02
        -0.10113E-01
        -0.74765E-03
         0.12596E-01
        -0.18034E-01
         0.41972E-01
         0.54231E-01
         0.69979E-01
         0.83947E-01
         0.82226E-01
         0.71826E-01
         0.68842E-01
         0.68102E-01
         0.42769E-01
         0.14106E-01
         0.56187E-02
         0.48249E-02
        -0.22118E-02
        -0.18926E-01
        -0.37910E-01
        -0.52745E-01
        -0.68631E-01
        -0.76096E-01
        -0.66830E-01
        -0.63188E-01
        -0.62981E-01
        -0.44326E-01
        -0.23017E-01
        -0.21789E-01
        -0.11777E-01
        -0.74213E-02
        -0.68718E-02
        -0.16523E-02
        -0.89182E-02
        -0.40166E-02
        -0.31879E-02
        -0.11154E-01
        -0.73164E-02
        -0.10533E-01
         0.55345E-02
         0.23919E-01
         0.14180E-01
         0.20366E-02
         0.23630E-01
         0.44612E-02
        -0.13765E-02
         0.12867E-02
         0.58249E-02
         0.11120E-02
         0.50385E-02
         0.35664E-02
        -0.20650E-02
         0.17400E-02
        -0.71043E-02
         0.17347E-02
         0.44766E-03
         0.82177E-03
        -0.12798E-02
        -0.70527E-02
         0.48089E-02
         0.12602E-02
         0.31210E-02
         0.27067E-02
        -0.12622E-02
         0.39266E-02
         0.74862E-02
         0.17968E-01
         0.15865E-01
         0.13954E-01
         0.10243E-01
        -0.25128E-02
        -0.52157E-02
        -0.65097E-02
        -0.83740E-02
        -0.17104E-01
        -0.99541E-02
        -0.65733E-02
        -0.82495E-02
        -0.97386E-02
        -0.10109E-01
        -0.73621E-03
         0.12584E-01
        -0.18035E-01
         0.41979E-01
         0.54232E-01
         0.69971E-01
         0.83919E-01
         0.82192E-01
         0.71805E-01
         0.68827E-01
         0.68083E-01
         0.42761E-01
         0.14113E-01
         0.56184E-02
         0.48348E-02
        -0.21935E-02
        -0.18936E-01
        -0.37928E-01
        -0.52757E-01
        -0.68630E-01
        -0.76092E-01
        -0.66825E-01
        -0.63185E-01
        -0.62965E-01
        -0.44294E-01
        -0.22992E-01
        -0.21761E-01
        -0.11784E-01
        -0.74227E-02
        -0.68753E-02
        -0.16645E-02
        -0.89192E-02
        -0.40198E-02
        -0.31921E-02
        -0.11173E-01
        -0.73296E-02
        -0.10572E-01
         0.55378E-02
         0.23917E-01
         0.14184E-01
         0.20367E-02
         0.23660E-01
         0.44615E-02
        -0.13892E-02
         0.12847E-02
         0.58292E-02
         0.11052E-02
         0.50513E-02
         0.35694E-02
        -0.20667E-02
         0.17383E-02
        -0.71348E-02
         0.17300E-02
         0.45335E-03
         0.82816E-03
        -0.12682E-02
        -0.70657E-02
         0.48092E-02
         0.12557E-02
         0.31279E-02
         0.27111E-02
        -0.12501E-02
         0.39292E-02
         0.74857E-02
         0.17996E-01
         0.15900E-01
         0.13971E-01
         0.10253E-01
        -0.25033E-02
        -0.52198E-02
        -0.65161E-02
        -0.83765E-02
        -0.17105E-01
        -0.99558E-02
        -0.65693E-02
        -0.82386E-02
        -0.97255E-02
        -0.10105E-01
        -0.72479E-03
         0.12572E-01
        -0.18036E-01
         0.41987E-01
         0.54232E-01
         0.69962E-01
         0.83891E-01
         0.82157E-01
         0.71783E-01
         0.68813E-01
         0.68065E-01
         0.42753E-01
         0.14121E-01
         0.56185E-02
         0.48446E-02
        -0.21751E-02
        -0.18947E-01
        -0.37949E-01
        -0.52771E-01
        -0.68629E-01
        -0.76087E-01
        -0.66821E-01
        -0.63182E-01
        -0.62949E-01
        -0.44263E-01
        -0.22966E-01
        -0.21732E-01
        -0.11791E-01
        -0.74240E-02
        -0.68787E-02
        -0.16765E-02
        -0.89203E-02
        -0.40230E-02
        -0.31960E-02
        -0.11191E-01
        -0.73428E-02
        -0.10610E-01
         0.55412E-02
         0.23915E-01
         0.14188E-01
         0.20368E-02
         0.23690E-01
         0.44620E-02
        -0.14020E-02
         0.12827E-02
         0.58337E-02
         0.10981E-02
         0.50643E-02
         0.35721E-02
        -0.20695E-02
         0.17358E-02
        -0.71641E-02
         0.17240E-02
         0.45968E-03
         0.83598E-03
        -0.12543E-02
        -0.70773E-02
         0.48093E-02
         0.12498E-02
         0.31347E-02
         0.27155E-02
        -0.12379E-02
         0.39318E-02
         0.74853E-02
         0.18024E-01
         0.15935E-01
         0.13990E-01
         0.10264E-01
        -0.24916E-02
        -0.52230E-02
        -0.65248E-02
        -0.83806E-02
        -0.17107E-01
        -0.99580E-02
        -0.65657E-02
        -0.82278E-02
        -0.97122E-02
        -0.10100E-01
        -0.71329E-03
         0.12560E-01
        -0.18037E-01
         0.41995E-01
         0.54233E-01
         0.69954E-01
         0.83862E-01
         0.82122E-01
         0.71761E-01
         0.68799E-01
         0.68046E-01
         0.42745E-01
         0.14131E-01
         0.56190E-02
         0.48542E-02
        -0.21566E-02
        -0.18959E-01
        -0.37972E-01
        -0.52787E-01
        -0.68628E-01
        -0.76082E-01
        -0.66816E-01
        -0.63180E-01
        -0.62933E-01
        -0.44231E-01
        -0.22941E-01
        -0.21703E-01
        -0.11798E-01
        -0.74249E-02
        -0.68821E-02
        -0.16887E-02
        -0.89213E-02
        -0.40262E-02
        -0.31996E-02
        -0.11209E-01
        -0.73561E-02
        -0.10647E-01
         0.55449E-02
         0.23913E-01
         0.14191E-01
         0.20371E-02
         0.23720E-01
         0.44625E-02
        -0.14151E-02
         0.12807E-02
         0.58381E-02
         0.10908E-02
         0.50773E-02
         0.35746E-02
        -0.20726E-02
         0.17332E-02
        -0.71927E-02
         0.17177E-02
         0.46648E-03
         0.84463E-03
        -0.12394E-02
        -0.70883E-02
         0.48090E-02
         0.12432E-02
         0.31417E-02
         0.27201E-02
        -0.12256E-02
         0.39346E-02
         0.74853E-02
         0.18052E-01
         0.15971E-01
         0.14009E-01
         0.10275E-01
        -0.24792E-02
        -0.52257E-02
        -0.65342E-02
        -0.83858E-02
        -0.17109E-01
        -0.99606E-02
        -0.65628E-02
        -0.82175E-02
        -0.96993E-02
        -0.10096E-01
        -0.70181E-03
         0.12548E-01
        -0.18038E-01
         0.42002E-01
         0.54233E-01
         0.69945E-01
         0.83834E-01
         0.82087E-01
         0.71739E-01
         0.68784E-01
         0.68027E-01
         0.42739E-01
         0.14142E-01
         0.56198E-02
         0.48637E-02
        -0.21382E-02
        -0.18971E-01
        -0.37996E-01
        -0.52804E-01
        -0.68627E-01
        -0.76077E-01
        -0.66812E-01
        -0.63178E-01
        -0.62917E-01
        -0.44200E-01
        -0.22916E-01
        -0.21675E-01
        -0.11805E-01
        -0.74247E-02
        -0.68855E-02
        -0.17012E-02
        -0.89225E-02
        -0.40295E-02
        -0.32023E-02
        -0.11225E-01
        -0.73696E-02
        -0.10682E-01
         0.55495E-02
         0.23912E-01
         0.14196E-01
         0.20387E-02
         0.23751E-01
         0.44633E-02
        -0.14285E-02
         0.12787E-02
         0.58427E-02
         0.10835E-02
         0.50904E-02
         0.35772E-02
        -0.20758E-02
         0.17305E-02
        -0.72207E-02
         0.17113E-02
         0.47450E-03
         0.85384E-03
        -0.12242E-02
        -0.70990E-02
         0.48086E-02
         0.12361E-02
         0.31489E-02
         0.27249E-02
        -0.12133E-02
         0.39376E-02
         0.74855E-02
         0.18081E-01
         0.16008E-01
         0.14028E-01
         0.10286E-01
        -0.24665E-02
        -0.52283E-02
        -0.65437E-02
        -0.83913E-02
        -0.17113E-01
        -0.99647E-02
        -0.65617E-02
        -0.82090E-02
        -0.96870E-02
        -0.10092E-01
        -0.69018E-03
         0.12537E-01
        -0.18039E-01
         0.42010E-01
         0.54234E-01
         0.69937E-01
         0.83805E-01
         0.82052E-01
         0.71718E-01
         0.68770E-01
         0.68008E-01
         0.42732E-01
         0.14152E-01
         0.56206E-02
         0.48733E-02
        -0.21198E-02
        -0.18984E-01
        -0.38020E-01
        -0.52820E-01
        -0.68626E-01
        -0.76072E-01
        -0.66808E-01
        -0.63176E-01
        -0.62901E-01
        -0.44168E-01
        -0.22891E-01
        -0.21646E-01
        -0.11811E-01
        -0.74243E-02
        -0.68888E-02
        -0.17139E-02
        -0.89237E-02
        -0.40327E-02
        -0.32045E-02
        -0.11240E-01
        -0.73833E-02
        -0.10716E-01
         0.55544E-02
         0.23910E-01
         0.14201E-01
         0.20405E-02
         0.23781E-01
         0.44641E-02
        -0.14421E-02
         0.12767E-02
         0.58472E-02
         0.10762E-02
         0.51034E-02
         0.35799E-02
        -0.20788E-02
         0.17280E-02
        -0.72484E-02
         0.17049E-02
         0.48284E-03
         0.86327E-03
        -0.12090E-02
        -0.71096E-02
         0.48081E-02
         0.12287E-02
         0.31562E-02
         0.27299E-02
        -0.12009E-02
         0.39409E-02
         0.74860E-02
         0.18110E-01
         0.16044E-01
         0.14047E-01
         0.10298E-01
        -0.24538E-02
        -0.52308E-02
        -0.65533E-02
        -0.83970E-02
        -0.17117E-01
        -0.99693E-02
        -0.65612E-02
        -0.82011E-02
        -0.96748E-02
        -0.10088E-01
        -0.67856E-03
         0.12525E-01
        -0.18040E-01
         0.42017E-01
         0.54234E-01
         0.69928E-01
         0.83776E-01
         0.82017E-01
         0.71696E-01
         0.68756E-01
         0.67988E-01
         0.42725E-01
         0.14163E-01
         0.56214E-02
         0.48831E-02
        -0.21013E-02
        -0.18996E-01
        -0.38044E-01
        -0.52836E-01
        -0.68624E-01
        -0.76067E-01
        -0.66805E-01
        -0.63175E-01
        -0.62884E-01
        -0.44136E-01
        -0.22866E-01
        -0.21617E-01
        -0.11817E-01
        -0.74238E-02
        -0.68921E-02
        -0.17266E-02
        -0.89248E-02
        -0.40359E-02
        -0.32067E-02
        -0.11256E-01
        -0.73970E-02
        -0.10751E-01
         0.55592E-02
         0.23909E-01
         0.14205E-01
         0.20426E-02
         0.23812E-01
         0.44650E-02
        -0.14558E-02
         0.12746E-02
         0.58517E-02
         0.10689E-02
         0.51165E-02
         0.35826E-02
        -0.20819E-02
         0.17255E-02
        -0.72760E-02
         0.16985E-02
         0.49138E-03
         0.87261E-03
        -0.11938E-02
        -0.71202E-02
         0.48075E-02
         0.12215E-02
         0.31636E-02
         0.27349E-02
        -0.11885E-02
         0.39439E-02
         0.74865E-02
         0.18139E-01
         0.16080E-01
         0.14066E-01
         0.10310E-01
        -0.24412E-02
        -0.52333E-02
        -0.65629E-02
        -0.84028E-02
        -0.17121E-01
        -0.99736E-02
        -0.65608E-02
        -0.81933E-02
        -0.96628E-02
        -0.10084E-01
        -0.66688E-03
         0.12513E-01
        -0.18041E-01
         0.42025E-01
         0.54234E-01
         0.69920E-01
         0.83748E-01
         0.81982E-01
         0.71674E-01
         0.68742E-01
         0.67969E-01
         0.42718E-01
         0.14173E-01
         0.56223E-02
         0.48930E-02
        -0.20829E-02
        -0.19008E-01
        -0.38068E-01
        -0.52852E-01
        -0.68622E-01
        -0.76062E-01
        -0.66802E-01
        -0.63173E-01
        -0.62868E-01
        -0.44105E-01
        -0.22841E-01
        -0.21589E-01
        -0.11823E-01
        -0.74232E-02
        -0.68953E-02
        -0.17393E-02
        -0.89259E-02
        -0.40391E-02
        -0.32088E-02
        -0.11271E-01
        -0.74107E-02
        -0.10785E-01
         0.55642E-02
         0.23908E-01
         0.14210E-01
         0.20444E-02
         0.23842E-01
         0.44658E-02
        -0.14695E-02
         0.12726E-02
         0.58561E-02
         0.10615E-02
         0.51295E-02
         0.35852E-02
        -0.20849E-02
         0.17230E-02
        -0.73036E-02
         0.16922E-02
         0.49970E-03
         0.88185E-03
        -0.11787E-02
        -0.71308E-02
         0.48070E-02
         0.12141E-02
         0.31708E-02
         0.27398E-02
        -0.11760E-02
         0.39471E-02
         0.74871E-02
         0.18168E-01
         0.16117E-01
         0.14085E-01
         0.10321E-01
        -0.24286E-02
        -0.52359E-02
        -0.65724E-02
        -0.84086E-02
        -0.17125E-01
        -0.99783E-02
        -0.65606E-02
        -0.81854E-02
        -0.96505E-02
        -0.10080E-01
        -0.65525E-03
         0.12501E-01
        -0.18042E-01
         0.42032E-01
         0.54235E-01
         0.69911E-01
         0.83719E-01
         0.81947E-01
         0.71652E-01
         0.68728E-01
         0.67949E-01
         0.42711E-01
         0.14183E-01
         0.56232E-02
         0.49028E-02
        -0.20645E-02
        -0.19021E-01
        -0.38093E-01
        -0.52867E-01
        -0.68620E-01
        -0.76057E-01
        -0.66799E-01
        -0.63172E-01
        -0.62851E-01
        -0.44073E-01
        -0.22816E-01
        -0.21560E-01
        -0.11829E-01
        -0.74225E-02
        -0.68986E-02
        -0.17519E-02
        -0.89270E-02
        -0.40423E-02
        -0.32112E-02
        -0.11286E-01
        -0.74245E-02
        -0.10819E-01
         0.55691E-02
         0.23907E-01
         0.14215E-01
         0.20464E-02
         0.23873E-01
         0.44667E-02
        -0.14833E-02
         0.12706E-02
         0.58606E-02
         0.10541E-02
         0.51425E-02
         0.35877E-02
        -0.20880E-02
         0.17205E-02
        -0.73311E-02
         0.16859E-02
         0.50816E-03
         0.89095E-03
        -0.11635E-02
        -0.71414E-02
         0.48064E-02
         0.12069E-02
         0.31781E-02
         0.27448E-02
        -0.11635E-02
         0.39503E-02
         0.74877E-02
         0.18197E-01
         0.16153E-01
         0.14104E-01
         0.10333E-01
        -0.24160E-02
        -0.52385E-02
        -0.65818E-02
        -0.84143E-02
        -0.17129E-01
        -0.99829E-02
        -0.65602E-02
        -0.81777E-02
        -0.96384E-02
        -0.10076E-01
        -0.64359E-03
         0.12489E-01
        -0.18043E-01
         0.42039E-01
         0.54235E-01
         0.69903E-01
         0.83690E-01
         0.81911E-01
         0.71630E-01
         0.68714E-01
         0.67930E-01
         0.42704E-01
         0.14193E-01
         0.56241E-02
         0.49125E-02
        -0.20460E-02
        -0.19033E-01
        -0.38117E-01
        -0.52883E-01
        -0.68618E-01
        -0.76052E-01
        -0.66796E-01
        -0.63171E-01
        -0.62834E-01
        -0.44041E-01
        -0.22791E-01
        -0.21531E-01
        -0.11835E-01
        -0.74220E-02
        -0.69019E-02
        -0.17646E-02
        -0.89282E-02
        -0.40455E-02
        -0.32133E-02
        -0.11301E-01
        -0.74383E-02
        -0.10853E-01
         0.55741E-02
         0.23906E-01
         0.14220E-01
         0.20484E-02
         0.23903E-01
         0.44676E-02
        -0.14971E-02
         0.12685E-02
         0.58650E-02
         0.10467E-02
         0.51555E-02
         0.35903E-02
        -0.20911E-02
         0.17180E-02
        -0.73586E-02
         0.16796E-02
         0.51643E-03
         0.90001E-03
        -0.11484E-02
        -0.71520E-02
         0.48059E-02
         0.11995E-02
         0.31853E-02
         0.27498E-02
        -0.11509E-02
         0.39534E-02
         0.74881E-02
         0.18226E-01
         0.16190E-01
         0.14123E-01
         0.10344E-01
        -0.24035E-02
        -0.52410E-02
        -0.65912E-02
        -0.84201E-02
        -0.17132E-01
        -0.99873E-02
        -0.65600E-02
        -0.81699E-02
        -0.96264E-02
        -0.10072E-01
        -0.63194E-03
         0.12477E-01
        -0.18044E-01
         0.42046E-01
         0.54236E-01
         0.69895E-01
         0.83662E-01
         0.81876E-01
         0.71609E-01
         0.68699E-01
         0.67910E-01
         0.42697E-01
         0.14204E-01
         0.56250E-02
         0.49222E-02
        -0.20275E-02
        -0.19046E-01
        -0.38141E-01
        -0.52899E-01
        -0.68616E-01
        -0.76047E-01
        -0.66793E-01
        -0.63169E-01
        -0.62817E-01
        -0.44010E-01
        -0.22766E-01
        -0.21502E-01
        -0.11841E-01
        -0.74214E-02
        -0.69052E-02
        -0.17774E-02
        -0.89293E-02
        -0.40487E-02
        -0.32155E-02
        -0.11316E-01
        -0.74520E-02
        -0.10887E-01
         0.55791E-02
         0.23904E-01
         0.14225E-01
         0.20501E-02
         0.23934E-01
         0.44684E-02
        -0.15108E-02
         0.12664E-02
         0.58695E-02
         0.10394E-02
         0.51686E-02
         0.35928E-02
        -0.20942E-02
         0.17156E-02
        -0.73861E-02
         0.16733E-02
         0.52494E-03
         0.90896E-03
        -0.11333E-02
        -0.71625E-02
         0.48053E-02
         0.11922E-02
         0.31925E-02
         0.27548E-02
        -0.11384E-02
         0.39567E-02
         0.74886E-02
         0.18255E-01
         0.16226E-01
         0.14142E-01
         0.10356E-01
        -0.23909E-02
        -0.52435E-02
        -0.66008E-02
        -0.84260E-02
        -0.17136E-01
        -0.99921E-02
        -0.65596E-02
        -0.81622E-02
        -0.96143E-02
        -0.10067E-01
        -0.62033E-03
         0.12465E-01
        -0.18045E-01
         0.42053E-01
         0.54236E-01
         0.69886E-01
         0.83633E-01
         0.81841E-01
         0.71587E-01
         0.68685E-01
         0.67890E-01
         0.42690E-01
         0.14214E-01
         0.56258E-02
         0.49320E-02
        -0.20090E-02
        -0.19058E-01
        -0.38165E-01
        -0.52915E-01
        -0.68614E-01
        -0.76043E-01
        -0.66790E-01
        -0.63168E-01
        -0.62801E-01
        -0.43978E-01
        -0.22742E-01
        -0.21474E-01
        -0.11846E-01
        -0.74209E-02
        -0.69085E-02
        -0.17901E-02
        -0.89305E-02
        -0.40519E-02
        -0.32180E-02
        -0.11331E-01
        -0.74658E-02
        -0.10921E-01
         0.55841E-02
         0.23903E-01
         0.14229E-01
         0.20521E-02
         0.23965E-01
         0.44693E-02
        -0.15247E-02
         0.12643E-02
         0.58739E-02
         0.10321E-02
         0.51816E-02
         0.35954E-02
        -0.20972E-02
         0.17132E-02
        -0.74135E-02
         0.16669E-02
         0.53322E-03
         0.91781E-03
        -0.11183E-02
        -0.71730E-02
         0.48047E-02
         0.11849E-02
         0.31998E-02
         0.27598E-02
        -0.11257E-02
         0.39598E-02
         0.74890E-02
         0.18285E-01
         0.16263E-01
         0.14161E-01
         0.10367E-01
        -0.23784E-02
        -0.52460E-02
        -0.66103E-02
        -0.84318E-02
        -0.17140E-01
        -0.99968E-02
        -0.65593E-02
        -0.81543E-02
        -0.96022E-02
        -0.10063E-01
        -0.60878E-03
         0.12453E-01
        -0.18046E-01
         0.42060E-01
         0.54236E-01
         0.69878E-01
         0.83604E-01
         0.81805E-01
         0.71565E-01
         0.68671E-01
         0.67870E-01
         0.42683E-01
         0.14224E-01
         0.56267E-02
         0.49418E-02
        -0.19906E-02
        -0.19070E-01
        -0.38189E-01
        -0.52931E-01
        -0.68612E-01
        -0.76038E-01
        -0.66786E-01
        -0.63166E-01
        -0.62784E-01
        -0.43947E-01
        -0.22717E-01
        -0.21445E-01
        -0.11852E-01
        -0.74204E-02
        -0.69118E-02
        -0.18028E-02
        -0.89316E-02
        -0.40551E-02
        -0.32202E-02
        -0.11346E-01
        -0.74796E-02
        -0.10955E-01
         0.55891E-02
         0.23902E-01
         0.14234E-01
         0.20538E-02
         0.23995E-01
         0.44701E-02
        -0.15386E-02
         0.12623E-02
         0.58784E-02
         0.10247E-02
         0.51947E-02
         0.35979E-02
        -0.21002E-02
         0.17108E-02
        -0.74410E-02
         0.16606E-02
         0.54166E-03
         0.92648E-03
        -0.11033E-02
        -0.71835E-02
         0.48041E-02
         0.11775E-02
         0.32070E-02
         0.27648E-02
        -0.11131E-02
         0.39631E-02
         0.74895E-02
         0.18314E-01
         0.16299E-01
         0.14180E-01
         0.10379E-01
        -0.23658E-02
        -0.52486E-02
        -0.66197E-02
        -0.84376E-02
        -0.17144E-01
        -0.10001E-01
        -0.65591E-02
        -0.81465E-02
        -0.95900E-02
        -0.10059E-01
        -0.59716E-03
         0.12441E-01
        -0.18046E-01
         0.42067E-01
         0.54237E-01
         0.69869E-01
         0.83576E-01
         0.81769E-01
         0.71542E-01
         0.68657E-01
         0.67850E-01
         0.42676E-01
         0.14234E-01
         0.56275E-02
         0.49516E-02
        -0.19722E-02
        -0.19082E-01
        -0.38214E-01
        -0.52947E-01
        -0.68611E-01
        -0.76033E-01
        -0.66783E-01
        -0.63165E-01
        -0.62767E-01
        -0.43915E-01
        -0.22692E-01
        -0.21416E-01
        -0.11858E-01
        -0.74197E-02
        -0.69150E-02
        -0.18155E-02
        -0.89327E-02
        -0.40583E-02
        -0.32224E-02
        -0.11361E-01
        -0.74935E-02
        -0.10989E-01
         0.55940E-02
         0.23901E-01
         0.14239E-01
         0.20557E-02
         0.24026E-01
         0.44710E-02
        -0.15526E-02
         0.12602E-02
         0.58828E-02
         0.10173E-02
         0.52078E-02
         0.36003E-02
        -0.21033E-02
         0.17084E-02
        -0.74685E-02
         0.16542E-02
         0.54986E-03
         0.93506E-03
        -0.10884E-02
        -0.71941E-02
         0.48036E-02
         0.11702E-02
         0.32142E-02
         0.27699E-02
        -0.11004E-02
         0.39662E-02
         0.74900E-02
         0.18343E-01
         0.16336E-01
         0.14199E-01
         0.10390E-01
        -0.23533E-02
        -0.52512E-02
        -0.66290E-02
        -0.84435E-02
        -0.17148E-01
        -0.10006E-01
        -0.65587E-02
        -0.81388E-02
        -0.95779E-02
        -0.10055E-01
        -0.58553E-03
         0.12429E-01
        -0.18047E-01
         0.42074E-01
         0.54237E-01
         0.69861E-01
         0.83547E-01
         0.81734E-01
         0.71520E-01
         0.68643E-01
         0.67830E-01
         0.42669E-01
         0.14245E-01
         0.56283E-02
         0.49612E-02
        -0.19537E-02
        -0.19094E-01
        -0.38238E-01
        -0.52962E-01
        -0.68609E-01
        -0.76028E-01
        -0.66780E-01
        -0.63163E-01
        -0.62750E-01
        -0.43883E-01
        -0.22668E-01
        -0.21388E-01
        -0.11864E-01
        -0.74191E-02
        -0.69183E-02
        -0.18282E-02
        -0.89339E-02
        -0.40614E-02
        -0.32248E-02
        -0.11376E-01
        -0.75075E-02
        -0.11023E-01
         0.55991E-02
         0.23900E-01
         0.14244E-01
         0.20573E-02
         0.24057E-01
         0.44719E-02
        -0.15666E-02
         0.12581E-02
         0.58873E-02
         0.10100E-02
         0.52208E-02
         0.36026E-02
        -0.21063E-02
         0.17060E-02
        -0.74959E-02
         0.16479E-02
         0.55829E-03
         0.94355E-03
        -0.10735E-02
        -0.72043E-02
         0.48029E-02
         0.11629E-02
         0.32214E-02
         0.27749E-02
        -0.10877E-02
         0.39693E-02
         0.74904E-02
         0.18373E-01
         0.16372E-01
         0.14217E-01
         0.10402E-01
        -0.23409E-02
        -0.52538E-02
        -0.66386E-02
        -0.84494E-02
        -0.17152E-01
        -0.10011E-01
        -0.65586E-02
        -0.81311E-02
        -0.95658E-02
        -0.10051E-01
        -0.57400E-03
         0.12417E-01
        -0.18048E-01
         0.42081E-01
         0.54238E-01
         0.69852E-01
         0.83518E-01
         0.81698E-01
         0.71498E-01
         0.68629E-01
         0.67809E-01
         0.42662E-01
         0.14255E-01
         0.56289E-02
         0.49708E-02
        -0.19353E-02
        -0.19107E-01
        -0.38262E-01
        -0.52978E-01
        -0.68607E-01
        -0.76023E-01
        -0.66777E-01
        -0.63162E-01
        -0.62733E-01
        -0.43852E-01
        -0.22644E-01
        -0.21359E-01
        -0.11870E-01
        -0.74185E-02
        -0.69216E-02
        -0.18411E-02
        -0.89350E-02
        -0.40646E-02
        -0.32270E-02
        -0.11390E-01
        -0.75215E-02
        -0.11057E-01
         0.56040E-02
         0.23899E-01
         0.14248E-01
         0.20591E-02
         0.24087E-01
         0.44727E-02
        -0.15808E-02
         0.12560E-02
         0.58917E-02
         0.10031E-02
         0.52337E-02
         0.36048E-02
        -0.21094E-02
         0.17036E-02
        -0.75233E-02
         0.16416E-02
         0.56664E-03
         0.95197E-03
        -0.10586E-02
        -0.72140E-02
         0.48023E-02
         0.11554E-02
         0.32286E-02
         0.27800E-02
        -0.10749E-02
         0.39726E-02
         0.74909E-02
         0.18403E-01
         0.16409E-01
         0.14235E-01
         0.10413E-01
        -0.23283E-02
        -0.52565E-02
        -0.66480E-02
        -0.84552E-02
        -0.17156E-01
        -0.10015E-01
        -0.65582E-02
        -0.81232E-02
        -0.95537E-02
        -0.10047E-01
        -0.56246E-03
         0.12405E-01
        -0.18049E-01
         0.42088E-01
         0.54238E-01
         0.69844E-01
         0.83489E-01
         0.81662E-01
         0.71476E-01
         0.68615E-01
         0.67788E-01
         0.42656E-01
         0.14266E-01
         0.56291E-02
         0.49804E-02
        -0.19170E-02
        -0.19119E-01
        -0.38286E-01
        -0.52994E-01
        -0.68605E-01
        -0.76018E-01
        -0.66774E-01
        -0.63161E-01
        -0.62716E-01
        -0.43820E-01
        -0.22619E-01
        -0.21330E-01
        -0.11876E-01
        -0.74180E-02
        -0.69248E-02
        -0.18538E-02
        -0.89361E-02
        -0.40677E-02
        -0.32293E-02
        -0.11405E-01
        -0.75356E-02
        -0.11091E-01
         0.56090E-02
         0.23897E-01
         0.14253E-01
         0.20609E-02
         0.24118E-01
         0.44735E-02
        -0.15952E-02
         0.12538E-02
         0.58962E-02
         0.99641E-03
         0.52468E-02
         0.36070E-02
        -0.21124E-02
         0.17013E-02
        -0.75508E-02
         0.16352E-02
         0.57535E-03
         0.96031E-03
        -0.10438E-02
        -0.72231E-02
         0.48017E-02
         0.11481E-02
         0.32357E-02
         0.27850E-02
        -0.10621E-02
         0.39758E-02
         0.74913E-02
         0.18433E-01
         0.16445E-01
         0.14252E-01
         0.10424E-01
        -0.23157E-02
        -0.52594E-02
        -0.66574E-02
        -0.84612E-02
        -0.17160E-01
        -0.10020E-01
        -0.65579E-02
        -0.81155E-02
        -0.95415E-02
        -0.10043E-01
        -0.55083E-03
         0.12393E-01
        -0.18049E-01
         0.42094E-01
         0.54238E-01
         0.69835E-01
         0.83460E-01
         0.81626E-01
         0.71454E-01
         0.68600E-01
         0.67765E-01
         0.42651E-01
         0.14276E-01
         0.56290E-02
         0.49900E-02
        -0.18985E-02
        -0.19131E-01
        -0.38310E-01
        -0.53010E-01
        -0.68603E-01
        -0.76012E-01
        -0.66771E-01
        -0.63159E-01
        -0.62699E-01
        -0.43789E-01
        -0.22595E-01
        -0.21302E-01
        -0.11881E-01
        -0.74174E-02
        -0.69283E-02
        -0.18665E-02
        -0.89374E-02
        -0.40709E-02
        -0.32317E-02
        -0.11420E-01
        -0.75499E-02
        -0.11125E-01
         0.56140E-02
         0.23896E-01
         0.14258E-01
         0.20625E-02
         0.24148E-01
         0.44744E-02
        -0.16097E-02
         0.12517E-02
         0.59007E-02
         0.98994E-03
         0.52599E-02
         0.36092E-02
        -0.21152E-02
         0.16991E-02
        -0.75782E-02
         0.16290E-02
         0.58383E-03
         0.96829E-03
        -0.10291E-02
        -0.72320E-02
         0.48011E-02
         0.11409E-02
         0.32429E-02
         0.27902E-02
        -0.10494E-02
         0.39788E-02
         0.74916E-02
         0.18463E-01
         0.16481E-01
         0.14268E-01
         0.10435E-01
        -0.23034E-02
        -0.52625E-02
        -0.66667E-02
        -0.84669E-02
        -0.17164E-01
        -0.10024E-01
        -0.65576E-02
        -0.81078E-02
        -0.95294E-02
        -0.10039E-01
        -0.53928E-03
         0.12381E-01
        -0.18050E-01
         0.42101E-01
         0.54239E-01
         0.69827E-01
         0.83431E-01
         0.81590E-01
         0.71433E-01
         0.68585E-01
         0.67742E-01
         0.42646E-01
         0.14287E-01
         0.56284E-02
         0.49996E-02
        -0.18801E-02
        -0.19143E-01
        -0.38334E-01
        -0.53025E-01
        -0.68602E-01
        -0.76008E-01
        -0.66768E-01
        -0.63157E-01
        -0.62682E-01
        -0.43757E-01
        -0.22571E-01
        -0.21273E-01
        -0.11931E-01
        -0.74455E-02
        -0.69586E-02
        -0.18858E-02
        -0.89714E-02
        -0.40886E-02
        -0.32465E-02
        -0.11475E-01
        -0.75912E-02
        -0.11196E-01
         0.56390E-02
         0.23977E-01
         0.14311E-01
         0.20715E-02
         0.24262E-01
         0.44923E-02
        -0.16294E-02
         0.12543E-02
         0.59266E-02
         0.98778E-03
         0.52902E-02
         0.36240E-02
        -0.21237E-02
         0.17043E-02
        -0.76322E-02
         0.16310E-02
         0.59373E-03
         0.97793E-03
        -0.10210E-02
        -0.72680E-02
         0.48193E-02
         0.11400E-02
         0.32618E-02
         0.28055E-02
        -0.10416E-02
         0.39944E-02
         0.75169E-02
         0.18557E-01
         0.16573E-01
         0.14335E-01
         0.10482E-01
        -0.23023E-02
        -0.52854E-02
        -0.66957E-02
        -0.84992E-02
        -0.17223E-01
        -0.10061E-01
        -0.65783E-02
        -0.81284E-02
        -0.95515E-02
        -0.10070E-01
        -0.52978E-03
         0.12407E-01
        -0.18110E-01
         0.42240E-01
         0.54409E-01
         0.70042E-01
         0.83677E-01
         0.81829E-01
         0.71653E-01
         0.68803E-01
         0.67951E-01
         0.42784E-01
         0.14340E-01
         0.56440E-02
         0.50237E-02
        -0.18682E-02
        -0.19209E-01
        -0.38467E-01
        -0.53200E-01
        -0.68818E-01
        -0.76244E-01
        -0.66970E-01
        -0.63348E-01
        -0.62858E-01
        -0.43863E-01
        -0.22618E-01
        -0.21311E-01
        -0.17740E-01
        -0.11115E-01
        -0.10330E-01
        -0.28242E-02
        -0.12852E-01
        -0.59166E-02
        -0.48365E-02
        -0.16984E-01
        -0.11270E-01
        -0.16539E-01
         0.82549E-02
         0.33704E-01
         0.20427E-01
         0.30199E-02
         0.34302E-01
         0.66871E-02
        -0.24329E-02
         0.18659E-02
         0.87039E-02
         0.14501E-02
         0.75599E-02
         0.52383E-02
        -0.30367E-02
         0.25216E-02
        -0.11387E-01
         0.24327E-02
         0.88000E-03
         0.14593E-02
        -0.15161E-02
        -0.10822E-01
         0.71742E-02
         0.16911E-02
         0.48724E-02
         0.41845E-02
        -0.14441E-02
         0.57699E-02
         0.10858E-01
         0.26819E-01
         0.24300E-01
         0.21090E-01
         0.15209E-01
        -0.33589E-02
        -0.77271E-02
        -0.96506E-02
        -0.12206E-01
        -0.24023E-01
        -0.14400E-01
        -0.95292E-02
        -0.11834E-01
        -0.13843E-01
        -0.14247E-01
        -0.75195E-03
         0.15430E-01
        -0.22514E-01
         0.52513E-01
         0.67838E-01
         0.87259E-01
         0.10448E+00
         0.10331E+00
         0.91228E-01
         0.87438E-01
         0.85839E-01
         0.54118E-01
         0.18111E-01
         0.72045E-02
         0.64441E-02
        -0.23479E-02
        -0.24023E-01
        -0.47964E-01
        -0.65953E-01
        -0.85238E-01
        -0.94545E-01
        -0.83923E-01
        -0.79742E-01
        -0.78830E-01
        -0.55188E-01
        -0.28365E-01
        -0.26625E-01
  
SCALARS                      strain_xz  double 1
LOOKUP_TABLE default
        -0.22483E-03
         0.14306E-02
         0.50468E-02
        -0.38728E-03
        -0.19557E-09
         0.69342E-10
         0.23187E-09
         0.46308E-10
         0.13260E-01
         0.91744E-02
         0.69353E-09
         0.62469E-09
        -0.48032E-03
         0.19470E-02
        -0.85536E-10
        -0.40069E-09
         0.55743E-03
         0.18868E-02
        -0.28944E-09
        -0.43107E-09
         0.23960E-02
         0.35708E-02
         0.40953E-02
        -0.28784E-09
        -0.13273E-09
         0.23189E-09
         0.37876E-02
         0.25048E-02
        -0.53881E-09
        -0.42741E-09
        -0.12975E-02
         0.25272E-02
        -0.30980E-03
         0.54858E-10
        -0.21199E-09
        -0.13060E-09
        -0.35741E-02
        -0.14377E-02
        -0.31474E-09
        -0.33512E-09
        -0.66533E-02
        -0.81562E-02
        -0.70996E-09
        -0.52356E-09
        -0.79563E-02
        -0.44373E-02
        -0.77966E-09
        -0.37527E-09
         0.15516E-02
        -0.23556E-09
        -0.56455E-02
        -0.65571E-10
         0.13009E-02
        -0.46028E-09
        -0.91144E-03
        -0.12176E-09
        -0.39952E-02
        -0.13560E-02
        -0.10430E-09
        -0.25211E-09
         0.13820E-03
        -0.36310E-02
         0.20861E-09
         0.14306E-09
         0.10201E-02
        -0.20984E-10
         0.32253E-02
         0.13802E-09
         0.18066E-01
         0.12144E-01
         0.86267E-09
         0.62567E-09
         0.74957E-02
         0.45557E-09
        -0.95356E-03
        -0.31514E-09
        -0.28598E-02
        -0.61851E-10
        -0.62037E-02
        -0.95959E-10
        -0.92193E-02
        -0.72640E-02
        -0.35167E-09
        -0.40219E-09
        -0.77505E-02
        -0.43254E-09
        -0.96276E-02
        -0.62275E-09
        -0.56511E-02
        -0.39720E-09
        -0.84658E-02
        -0.60351E-02
        -0.16952E-09
         0.23248E-09
         0.14286E-02
         0.27269E-09
         0.40201E-02
         0.11450E-09
         0.94438E-02
         0.28274E-09
         0.13871E-01
         0.97278E-02
         0.65193E-09
         0.68030E-09
         0.29983E-01
         0.35492E-01
         0.12046E-08
         0.11871E-08
         0.29403E-01
         0.10291E-08
         0.28950E-01
         0.76906E-09
         0.19275E-01
         0.42263E-09
         0.11705E-01
         0.45194E-10
         0.35537E-02
        -0.16097E-09
        -0.39802E-02
        -0.12878E-09
        -0.93529E-02
        -0.12658E-09
        -0.13955E-01
        -0.28544E-09
        -0.21848E-01
        -0.54306E-09
        -0.33954E-01
        -0.64804E-09
        -0.45063E-01
        -0.61144E-09
        -0.48004E-01
        -0.66490E-09
        -0.48740E-01
        -0.86294E-09
        -0.46724E-01
        -0.10176E-08
        -0.41148E-01
        -0.94595E-09
        -0.27756E-01
        -0.76877E-09
        -0.14309E-01
        -0.36293E-09
        -0.11754E-02
         0.69302E-10
         0.82552E-02
         0.16825E-09
         0.13375E-01
         0.27513E-09
         0.18870E-01
         0.53845E-09
         0.24843E-01
         0.88356E-09
         0.34278E-01
         0.10615E-08
         0.41823E-01
         0.10858E-08
        -0.22543E-02
         0.11804E-02
         0.13837E-02
        -0.27650E-02
         0.10848E-01
         0.83387E-02
         0.12685E-02
        -0.18564E-02
        -0.94858E-03
        -0.16984E-02
         0.94229E-03
         0.40851E-02
         0.85084E-02
        -0.27207E-02
        -0.32800E-02
         0.36812E-02
         0.30937E-02
        -0.14284E-02
        -0.22475E-02
        -0.24131E-02
        -0.13229E-01
        -0.14061E-01
        -0.12739E-01
        -0.39555E-02
         0.15810E-02
        -0.11784E-02
        -0.38054E-02
        -0.42651E-03
        -0.43794E-02
        -0.29950E-02
         0.32890E-02
         0.65019E-03
        -0.15499E-02
        -0.50362E-03
         0.16154E-01
         0.10251E-01
         0.92589E-02
        -0.64973E-02
        -0.37019E-02
        -0.79463E-02
        -0.16390E-01
        -0.15186E-01
        -0.14890E-01
        -0.10956E-01
        -0.78876E-02
        -0.62055E-02
         0.11599E-02
         0.48164E-02
         0.13934E-02
         0.44374E-02
         0.11903E-01
         0.99690E-02
         0.47588E-01
         0.49813E-01
         0.44556E-01
         0.37881E-01
         0.28220E-01
         0.14405E-01
        -0.85595E-03
        -0.10276E-01
        -0.15653E-01
        -0.26881E-01
        -0.43837E-01
        -0.53126E-01
        -0.48546E-01
        -0.46511E-01
        -0.49071E-01
        -0.49012E-01
        -0.44535E-01
        -0.39077E-01
        -0.19895E-01
         0.31422E-02
         0.12053E-01
         0.13434E-01
         0.22756E-01
         0.36395E-01
         0.47103E-01
         0.49462E-01
        -0.39939E-02
         0.81987E-03
        -0.15609E-02
        -0.45447E-02
         0.93223E-02
         0.79666E-02
         0.23211E-02
        -0.50669E-02
        -0.23282E-02
        -0.48171E-02
        -0.97314E-03
         0.35503E-02
         0.11680E-01
        -0.89571E-02
        -0.92774E-02
         0.78466E-02
         0.43683E-02
        -0.26164E-02
        -0.17607E-02
        -0.30921E-02
        -0.18347E-01
        -0.17485E-01
        -0.17254E-01
        -0.41734E-02
         0.23704E-02
         0.15961E-02
        -0.86555E-02
         0.11493E-02
        -0.28967E-02
        -0.39502E-02
         0.60285E-02
         0.39009E-02
        -0.39100E-02
        -0.33745E-02
         0.16625E-01
         0.91760E-02
         0.10525E-01
        -0.10288E-01
        -0.17226E-02
        -0.49943E-02
        -0.18348E-01
        -0.18874E-01
        -0.18449E-01
        -0.13339E-01
        -0.10272E-01
        -0.60104E-02
         0.64959E-02
         0.76689E-02
        -0.10137E-02
         0.12206E-02
         0.12511E-01
         0.11021E-01
         0.69472E-01
         0.70008E-01
         0.62842E-01
         0.51831E-01
         0.38672E-01
         0.17809E-01
        -0.44220E-02
        -0.14330E-01
        -0.18878E-01
        -0.34602E-01
        -0.61461E-01
        -0.72507E-01
        -0.60813E-01
        -0.57858E-01
        -0.63738E-01
        -0.65638E-01
        -0.59907E-01
        -0.56661E-01
        -0.28870E-01
         0.75036E-02
         0.16597E-01
         0.16816E-01
         0.29896E-01
         0.51764E-01
         0.66254E-01
         0.66046E-01
        -0.40015E-02
         0.82291E-03
        -0.15638E-02
        -0.45478E-02
         0.93133E-02
         0.79593E-02
         0.23358E-02
        -0.50541E-02
        -0.23307E-02
        -0.48133E-02
        -0.95344E-03
         0.35590E-02
         0.11687E-01
        -0.89351E-02
        -0.92724E-02
         0.78547E-02
         0.43778E-02
        -0.26091E-02
        -0.17599E-02
        -0.30867E-02
        -0.18345E-01
        -0.17483E-01
        -0.17253E-01
        -0.41736E-02
         0.23758E-02
         0.15987E-02
        -0.86581E-02
         0.11277E-02
        -0.29171E-02
        -0.39527E-02
         0.60372E-02
         0.39004E-02
        -0.38937E-02
        -0.33760E-02
         0.16634E-01
         0.91718E-02
         0.10522E-01
        -0.10305E-01
        -0.17391E-02
        -0.50100E-02
        -0.18359E-01
        -0.18885E-01
        -0.18449E-01
        -0.13337E-01
        -0.10269E-01
        -0.60073E-02
         0.64947E-02
         0.76714E-02
        -0.10063E-02
         0.12164E-02
         0.12503E-01
         0.11005E-01
         0.69448E-01
         0.69990E-01
         0.62836E-01
         0.51832E-01
         0.38660E-01
         0.17804E-01
        -0.44270E-02
        -0.14339E-01
        -0.18862E-01
        -0.34588E-01
        -0.61452E-01
        -0.72508E-01
        -0.60807E-01
        -0.57855E-01
        -0.63746E-01
        -0.65652E-01
        -0.59917E-01
        -0.56672E-01
        -0.28863E-01
         0.75070E-02
         0.16585E-01
         0.16809E-01
         0.29874E-01
         0.51732E-01
         0.66222E-01
         0.66017E-01
        -0.40090E-02
         0.82591E-03
        -0.15667E-02
        -0.45508E-02
         0.93041E-02
         0.79521E-02
         0.23507E-02
        -0.50412E-02
        -0.23331E-02
        -0.48092E-02
        -0.93379E-03
         0.35676E-02
         0.11694E-01
        -0.89130E-02
        -0.92675E-02
         0.78631E-02
         0.43876E-02
        -0.26018E-02
        -0.17590E-02
        -0.30815E-02
        -0.18343E-01
        -0.17481E-01
        -0.17252E-01
        -0.41738E-02
         0.23815E-02
         0.16016E-02
        -0.86606E-02
         0.11063E-02
        -0.29376E-02
        -0.39552E-02
         0.60463E-02
         0.39001E-02
        -0.38773E-02
        -0.33775E-02
         0.16642E-01
         0.91678E-02
         0.10519E-01
        -0.10321E-01
        -0.17556E-02
        -0.50259E-02
        -0.18371E-01
        -0.18896E-01
        -0.18451E-01
        -0.13336E-01
        -0.10265E-01
        -0.60044E-02
         0.64935E-02
         0.76740E-02
        -0.99875E-03
         0.12121E-02
         0.12495E-01
         0.10988E-01
         0.69425E-01
         0.69972E-01
         0.62830E-01
         0.51832E-01
         0.38648E-01
         0.17798E-01
        -0.44320E-02
        -0.14347E-01
        -0.18846E-01
        -0.34574E-01
        -0.61443E-01
        -0.72510E-01
        -0.60802E-01
        -0.57852E-01
        -0.63755E-01
        -0.65667E-01
        -0.59928E-01
        -0.56683E-01
        -0.28854E-01
         0.75104E-02
         0.16573E-01
         0.16803E-01
         0.29852E-01
         0.51700E-01
         0.66189E-01
         0.65987E-01
        -0.40166E-02
         0.82901E-03
        -0.15696E-02
        -0.45538E-02
         0.92949E-02
         0.79447E-02
         0.23653E-02
        -0.50284E-02
        -0.23352E-02
        -0.48045E-02
        -0.91418E-03
         0.35764E-02
         0.11701E-01
        -0.88910E-02
        -0.92625E-02
         0.78722E-02
         0.43978E-02
        -0.25945E-02
        -0.17582E-02
        -0.30760E-02
        -0.18342E-01
        -0.17480E-01
        -0.17252E-01
        -0.41740E-02
         0.23882E-02
         0.16051E-02
        -0.86627E-02
         0.10857E-02
        -0.29580E-02
        -0.39576E-02
         0.60560E-02
         0.39005E-02
        -0.38608E-02
        -0.33791E-02
         0.16650E-01
         0.91637E-02
         0.10515E-01
        -0.10338E-01
        -0.17720E-02
        -0.50416E-02
        -0.18383E-01
        -0.18908E-01
        -0.18453E-01
        -0.13335E-01
        -0.10261E-01
        -0.60012E-02
         0.64925E-02
         0.76766E-02
        -0.99115E-03
         0.12078E-02
         0.12487E-01
         0.10972E-01
         0.69401E-01
         0.69954E-01
         0.62825E-01
         0.51833E-01
         0.38636E-01
         0.17793E-01
        -0.44371E-02
        -0.14356E-01
        -0.18830E-01
        -0.34560E-01
        -0.61433E-01
        -0.72512E-01
        -0.60798E-01
        -0.57849E-01
        -0.63764E-01
        -0.65684E-01
        -0.59940E-01
        -0.56694E-01
        -0.28846E-01
         0.75139E-02
         0.16561E-01
         0.16796E-01
         0.29830E-01
         0.51669E-01
         0.66156E-01
         0.65958E-01
        -0.40241E-02
         0.83211E-03
        -0.15725E-02
        -0.45568E-02
         0.92860E-02
         0.79374E-02
         0.23802E-02
        -0.50153E-02
        -0.23370E-02
        -0.47990E-02
        -0.89453E-03
         0.35850E-02
         0.11708E-01
        -0.88689E-02
        -0.92575E-02
         0.78819E-02
         0.44085E-02
        -0.25871E-02
        -0.17573E-02
        -0.30704E-02
        -0.18342E-01
        -0.17479E-01
        -0.17253E-01
        -0.41743E-02
         0.23961E-02
         0.16092E-02
        -0.86645E-02
         0.10656E-02
        -0.29784E-02
        -0.39597E-02
         0.60664E-02
         0.39015E-02
        -0.38443E-02
        -0.33806E-02
         0.16659E-01
         0.91596E-02
         0.10512E-01
        -0.10354E-01
        -0.17884E-02
        -0.50576E-02
        -0.18395E-01
        -0.18920E-01
        -0.18457E-01
        -0.13334E-01
        -0.10257E-01
        -0.59977E-02
         0.64918E-02
         0.76795E-02
        -0.98360E-03
         0.12035E-02
         0.12479E-01
         0.10956E-01
         0.69377E-01
         0.69936E-01
         0.62819E-01
         0.51833E-01
         0.38624E-01
         0.17788E-01
        -0.44421E-02
        -0.14365E-01
        -0.18814E-01
        -0.34547E-01
        -0.61424E-01
        -0.72515E-01
        -0.60795E-01
        -0.57847E-01
        -0.63774E-01
        -0.65703E-01
        -0.59953E-01
        -0.56705E-01
        -0.28838E-01
         0.75173E-02
         0.16549E-01
         0.16790E-01
         0.29808E-01
         0.51637E-01
         0.66123E-01
         0.65928E-01
        -0.40313E-02
         0.83546E-03
        -0.15751E-02
        -0.45597E-02
         0.92769E-02
         0.79300E-02
         0.23950E-02
        -0.50021E-02
        -0.23387E-02
        -0.47933E-02
        -0.87487E-03
         0.35937E-02
         0.11715E-01
        -0.88468E-02
        -0.92525E-02
         0.78919E-02
         0.44191E-02
        -0.25797E-02
        -0.17563E-02
        -0.30651E-02
        -0.18342E-01
        -0.17478E-01
        -0.17254E-01
        -0.41747E-02
         0.24039E-02
         0.16134E-02
        -0.86661E-02
         0.10457E-02
        -0.29988E-02
        -0.39623E-02
         0.60767E-02
         0.39023E-02
        -0.38276E-02
        -0.33819E-02
         0.16667E-01
         0.91559E-02
         0.10509E-01
        -0.10370E-01
        -0.18048E-02
        -0.50735E-02
        -0.18408E-01
        -0.18933E-01
        -0.18461E-01
        -0.13333E-01
        -0.10253E-01
        -0.59947E-02
         0.64909E-02
         0.76822E-02
        -0.97582E-03
         0.11996E-02
         0.12471E-01
         0.10940E-01
         0.69353E-01
         0.69918E-01
         0.62813E-01
         0.51833E-01
         0.38612E-01
         0.17782E-01
        -0.44470E-02
        -0.14374E-01
        -0.18798E-01
        -0.34533E-01
        -0.61414E-01
        -0.72518E-01
        -0.60793E-01
        -0.57845E-01
        -0.63784E-01
        -0.65723E-01
        -0.59967E-01
        -0.56715E-01
        -0.28830E-01
         0.75203E-02
         0.16537E-01
         0.16783E-01
         0.29786E-01
         0.51605E-01
         0.66090E-01
         0.65899E-01
        -0.40380E-02
         0.83950E-03
        -0.15771E-02
        -0.45625E-02
         0.92680E-02
         0.79229E-02
         0.24101E-02
        -0.49886E-02
        -0.23406E-02
        -0.47880E-02
        -0.85511E-03
         0.36024E-02
         0.11723E-01
        -0.88247E-02
        -0.92474E-02
         0.79018E-02
         0.44293E-02
        -0.25723E-02
        -0.17555E-02
        -0.30599E-02
        -0.18341E-01
        -0.17478E-01
        -0.17256E-01
        -0.41751E-02
         0.24108E-02
         0.16171E-02
        -0.86680E-02
         0.10254E-02
        -0.30195E-02
        -0.39652E-02
         0.60865E-02
         0.39025E-02
        -0.38106E-02
        -0.33829E-02
         0.16676E-01
         0.91525E-02
         0.10506E-01
        -0.10387E-01
        -0.18213E-02
        -0.50898E-02
        -0.18421E-01
        -0.18946E-01
        -0.18465E-01
        -0.13333E-01
        -0.10250E-01
        -0.59920E-02
         0.64894E-02
         0.76848E-02
        -0.96739E-03
         0.11966E-02
         0.12465E-01
         0.10924E-01
         0.69330E-01
         0.69900E-01
         0.62808E-01
         0.51833E-01
         0.38600E-01
         0.17777E-01
        -0.44520E-02
        -0.14383E-01
        -0.18782E-01
        -0.34519E-01
        -0.61404E-01
        -0.72521E-01
        -0.60791E-01
        -0.57843E-01
        -0.63794E-01
        -0.65743E-01
        -0.59980E-01
        -0.56725E-01
        -0.28822E-01
         0.75229E-02
         0.16524E-01
         0.16777E-01
         0.29765E-01
         0.51574E-01
         0.66057E-01
         0.65870E-01
        -0.40443E-02
         0.84374E-03
        -0.15788E-02
        -0.45653E-02
         0.92595E-02
         0.79155E-02
         0.24254E-02
        -0.49750E-02
        -0.23425E-02
        -0.47829E-02
        -0.83531E-03
         0.36111E-02
         0.11730E-01
        -0.88025E-02
        -0.92422E-02
         0.79117E-02
         0.44394E-02
        -0.25648E-02
        -0.17546E-02
        -0.30551E-02
        -0.18341E-01
        -0.17477E-01
        -0.17257E-01
        -0.41756E-02
         0.24173E-02
         0.16205E-02
        -0.86699E-02
         0.10049E-02
        -0.30405E-02
        -0.39684E-02
         0.60960E-02
         0.39022E-02
        -0.37933E-02
        -0.33837E-02
         0.16685E-01
         0.91496E-02
         0.10504E-01
        -0.10403E-01
        -0.18378E-02
        -0.51059E-02
        -0.18433E-01
        -0.18960E-01
        -0.18470E-01
        -0.13333E-01
        -0.10247E-01
        -0.59898E-02
         0.64877E-02
         0.76872E-02
        -0.95869E-03
         0.11940E-02
         0.12458E-01
         0.10909E-01
         0.69306E-01
         0.69882E-01
         0.62802E-01
         0.51833E-01
         0.38588E-01
         0.17771E-01
        -0.44569E-02
        -0.14392E-01
        -0.18766E-01
        -0.34506E-01
        -0.61394E-01
        -0.72524E-01
        -0.60788E-01
        -0.57841E-01
        -0.63805E-01
        -0.65763E-01
        -0.59994E-01
        -0.56735E-01
        -0.28813E-01
         0.75253E-02
         0.16511E-01
         0.16770E-01
         0.29744E-01
         0.51543E-01
         0.66025E-01
         0.65840E-01
        -0.40506E-02
         0.84803E-03
        -0.15805E-02
        -0.45680E-02
         0.92507E-02
         0.79082E-02
         0.24406E-02
        -0.49614E-02
        -0.23444E-02
        -0.47778E-02
        -0.81557E-03
         0.36198E-02
         0.11737E-01
        -0.87805E-02
        -0.92371E-02
         0.79216E-02
         0.44494E-02
        -0.25574E-02
        -0.17536E-02
        -0.30500E-02
        -0.18341E-01
        -0.17477E-01
        -0.17259E-01
        -0.41761E-02
         0.24237E-02
         0.16240E-02
        -0.86719E-02
         0.98446E-03
        -0.30614E-02
        -0.39715E-02
         0.61055E-02
         0.39020E-02
        -0.37761E-02
        -0.33845E-02
         0.16694E-01
         0.91463E-02
         0.10501E-01
        -0.10419E-01
        -0.18544E-02
        -0.51220E-02
        -0.18446E-01
        -0.18973E-01
        -0.18474E-01
        -0.13333E-01
        -0.10244E-01
        -0.59875E-02
         0.64861E-02
         0.76896E-02
        -0.94998E-03
         0.11915E-02
         0.12452E-01
         0.10893E-01
         0.69282E-01
         0.69865E-01
         0.62795E-01
         0.51833E-01
         0.38576E-01
         0.17766E-01
        -0.44618E-02
        -0.14400E-01
        -0.18751E-01
        -0.34492E-01
        -0.61384E-01
        -0.72527E-01
        -0.60786E-01
        -0.57840E-01
        -0.63815E-01
        -0.65784E-01
        -0.60008E-01
        -0.56745E-01
        -0.28805E-01
         0.75277E-02
         0.16498E-01
         0.16764E-01
         0.29722E-01
         0.51512E-01
         0.65992E-01
         0.65811E-01
        -0.40570E-02
         0.85237E-03
        -0.15822E-02
        -0.45708E-02
         0.92420E-02
         0.79008E-02
         0.24558E-02
        -0.49478E-02
        -0.23464E-02
        -0.47728E-02
        -0.79583E-03
         0.36284E-02
         0.11745E-01
        -0.87585E-02
        -0.92319E-02
         0.79314E-02
         0.44594E-02
        -0.25500E-02
        -0.17527E-02
        -0.30451E-02
        -0.18341E-01
        -0.17476E-01
        -0.17260E-01
        -0.41767E-02
         0.24302E-02
         0.16274E-02
        -0.86739E-02
         0.96413E-03
        -0.30823E-02
        -0.39746E-02
         0.61149E-02
         0.39017E-02
        -0.37589E-02
        -0.33853E-02
         0.16703E-01
         0.91434E-02
         0.10499E-01
        -0.10435E-01
        -0.18710E-02
        -0.51384E-02
        -0.18459E-01
        -0.18987E-01
        -0.18479E-01
        -0.13333E-01
        -0.10241E-01
        -0.59851E-02
         0.64844E-02
         0.76921E-02
        -0.94134E-03
         0.11888E-02
         0.12445E-01
         0.10877E-01
         0.69258E-01
         0.69847E-01
         0.62790E-01
         0.51833E-01
         0.38564E-01
         0.17760E-01
        -0.44666E-02
        -0.14409E-01
        -0.18735E-01
        -0.34478E-01
        -0.61374E-01
        -0.72530E-01
        -0.60783E-01
        -0.57838E-01
        -0.63825E-01
        -0.65804E-01
        -0.60021E-01
        -0.56755E-01
        -0.28797E-01
         0.75300E-02
         0.16485E-01
         0.16757E-01
         0.29701E-01
         0.51481E-01
         0.65960E-01
         0.65782E-01
        -0.40633E-02
         0.85666E-03
        -0.15839E-02
        -0.45735E-02
         0.92335E-02
         0.78937E-02
         0.24710E-02
        -0.49341E-02
        -0.23483E-02
        -0.47677E-02
        -0.77606E-03
         0.36372E-02
         0.11752E-01
        -0.87366E-02
        -0.92267E-02
         0.79412E-02
         0.44694E-02
        -0.25426E-02
        -0.17519E-02
        -0.30400E-02
        -0.18340E-01
        -0.17476E-01
        -0.17262E-01
        -0.41773E-02
         0.24365E-02
         0.16308E-02
        -0.86760E-02
         0.94378E-03
        -0.31031E-02
        -0.39777E-02
         0.61243E-02
         0.39014E-02
        -0.37417E-02
        -0.33861E-02
         0.16712E-01
         0.91402E-02
         0.10496E-01
        -0.10452E-01
        -0.18877E-02
        -0.51545E-02
        -0.18472E-01
        -0.19000E-01
        -0.18483E-01
        -0.13333E-01
        -0.10238E-01
        -0.59829E-02
         0.64827E-02
         0.76945E-02
        -0.93262E-03
         0.11862E-02
         0.12439E-01
         0.10861E-01
         0.69234E-01
         0.69829E-01
         0.62783E-01
         0.51833E-01
         0.38552E-01
         0.17755E-01
        -0.44714E-02
        -0.14418E-01
        -0.18719E-01
        -0.34465E-01
        -0.61364E-01
        -0.72532E-01
        -0.60781E-01
        -0.57836E-01
        -0.63835E-01
        -0.65824E-01
        -0.60035E-01
        -0.56764E-01
        -0.28788E-01
         0.75323E-02
         0.16472E-01
         0.16751E-01
         0.29680E-01
         0.51450E-01
         0.65927E-01
         0.65752E-01
        -0.40696E-02
         0.86095E-03
        -0.15855E-02
        -0.45762E-02
         0.92248E-02
         0.78864E-02
         0.24862E-02
        -0.49205E-02
        -0.23502E-02
        -0.47627E-02
        -0.75634E-03
         0.36460E-02
         0.11759E-01
        -0.87147E-02
        -0.92215E-02
         0.79510E-02
         0.44794E-02
        -0.25352E-02
        -0.17510E-02
        -0.30351E-02
        -0.18340E-01
        -0.17475E-01
        -0.17263E-01
        -0.41779E-02
         0.24429E-02
         0.16343E-02
        -0.86780E-02
         0.92353E-03
        -0.31237E-02
        -0.39809E-02
         0.61338E-02
         0.39011E-02
        -0.37245E-02
        -0.33870E-02
         0.16722E-01
         0.91371E-02
         0.10493E-01
        -0.10468E-01
        -0.19043E-02
        -0.51709E-02
        -0.18484E-01
        -0.19013E-01
        -0.18488E-01
        -0.13333E-01
        -0.10235E-01
        -0.59808E-02
         0.64810E-02
         0.76971E-02
        -0.92388E-03
         0.11837E-02
         0.12432E-01
         0.10846E-01
         0.69210E-01
         0.69811E-01
         0.62777E-01
         0.51833E-01
         0.38540E-01
         0.17750E-01
        -0.44762E-02
        -0.14426E-01
        -0.18703E-01
        -0.34451E-01
        -0.61354E-01
        -0.72535E-01
        -0.60778E-01
        -0.57834E-01
        -0.63846E-01
        -0.65844E-01
        -0.60048E-01
        -0.56774E-01
        -0.28780E-01
         0.75346E-02
         0.16459E-01
         0.16744E-01
         0.29659E-01
         0.51418E-01
         0.65895E-01
         0.65723E-01
        -0.40759E-02
         0.86528E-03
        -0.15872E-02
        -0.45789E-02
         0.92161E-02
         0.78790E-02
         0.25014E-02
        -0.49068E-02
        -0.23520E-02
        -0.47575E-02
        -0.73668E-03
         0.36547E-02
         0.11767E-01
        -0.86927E-02
        -0.92162E-02
         0.79608E-02
         0.44893E-02
        -0.25278E-02
        -0.17501E-02
        -0.30301E-02
        -0.18340E-01
        -0.17475E-01
        -0.17265E-01
        -0.41785E-02
         0.24491E-02
         0.16377E-02
        -0.86800E-02
         0.90324E-03
        -0.31445E-02
        -0.39840E-02
         0.61433E-02
         0.39008E-02
        -0.37072E-02
        -0.33878E-02
         0.16731E-01
         0.91343E-02
         0.10491E-01
        -0.10484E-01
        -0.19210E-02
        -0.51871E-02
        -0.18497E-01
        -0.19026E-01
        -0.18492E-01
        -0.13333E-01
        -0.10232E-01
        -0.59782E-02
         0.64793E-02
         0.76995E-02
        -0.91510E-03
         0.11810E-02
         0.12426E-01
         0.10830E-01
         0.69186E-01
         0.69794E-01
         0.62771E-01
         0.51833E-01
         0.38528E-01
         0.17744E-01
        -0.44811E-02
        -0.14435E-01
        -0.18687E-01
        -0.34437E-01
        -0.61344E-01
        -0.72538E-01
        -0.60776E-01
        -0.57832E-01
        -0.63856E-01
        -0.65864E-01
        -0.60062E-01
        -0.56784E-01
        -0.28771E-01
         0.75369E-02
         0.16446E-01
         0.16738E-01
         0.29638E-01
         0.51387E-01
         0.65862E-01
         0.65694E-01
        -0.40823E-02
         0.86954E-03
        -0.15888E-02
        -0.45816E-02
         0.92077E-02
         0.78717E-02
         0.25164E-02
        -0.48932E-02
        -0.23539E-02
        -0.47524E-02
        -0.71705E-03
         0.36633E-02
         0.11774E-01
        -0.86708E-02
        -0.92109E-02
         0.79706E-02
         0.44993E-02
        -0.25204E-02
        -0.17494E-02
        -0.30252E-02
        -0.18339E-01
        -0.17474E-01
        -0.17266E-01
        -0.41791E-02
         0.24554E-02
         0.16411E-02
        -0.86819E-02
         0.88307E-03
        -0.31653E-02
        -0.39871E-02
         0.61527E-02
         0.39006E-02
        -0.36899E-02
        -0.33886E-02
         0.16740E-01
         0.91312E-02
         0.10489E-01
        -0.10500E-01
        -0.19378E-02
        -0.52035E-02
        -0.18510E-01
        -0.19039E-01
        -0.18497E-01
        -0.13333E-01
        -0.10229E-01
        -0.59760E-02
         0.64776E-02
         0.77019E-02
        -0.90635E-03
         0.11784E-02
         0.12419E-01
         0.10814E-01
         0.69162E-01
         0.69776E-01
         0.62765E-01
         0.51834E-01
         0.38517E-01
         0.17739E-01
        -0.44859E-02
        -0.14443E-01
        -0.18671E-01
        -0.34423E-01
        -0.61334E-01
        -0.72541E-01
        -0.60774E-01
        -0.57830E-01
        -0.63866E-01
        -0.65884E-01
        -0.60076E-01
        -0.56794E-01
        -0.28763E-01
         0.75391E-02
         0.16433E-01
         0.16731E-01
         0.29617E-01
         0.51356E-01
         0.65830E-01
         0.65665E-01
        -0.40886E-02
         0.87378E-03
        -0.15905E-02
        -0.45843E-02
         0.91990E-02
         0.78643E-02
         0.25316E-02
        -0.48796E-02
        -0.23558E-02
        -0.47473E-02
        -0.69743E-03
         0.36722E-02
         0.11781E-01
        -0.86489E-02
        -0.92056E-02
         0.79804E-02
         0.45093E-02
        -0.25130E-02
        -0.17485E-02
        -0.30201E-02
        -0.18339E-01
        -0.17473E-01
        -0.17268E-01
        -0.41797E-02
         0.24616E-02
         0.16445E-02
        -0.86838E-02
         0.86291E-03
        -0.31861E-02
        -0.39901E-02
         0.61621E-02
         0.39002E-02
        -0.36725E-02
        -0.33894E-02
         0.16749E-01
         0.91283E-02
         0.10486E-01
        -0.10515E-01
        -0.19545E-02
        -0.52198E-02
        -0.18523E-01
        -0.19053E-01
        -0.18501E-01
        -0.13333E-01
        -0.10226E-01
        -0.59739E-02
         0.64758E-02
         0.77044E-02
        -0.89747E-03
         0.11758E-02
         0.12413E-01
         0.10799E-01
         0.69138E-01
         0.69758E-01
         0.62759E-01
         0.51834E-01
         0.38505E-01
         0.17733E-01
        -0.44906E-02
        -0.14452E-01
        -0.18656E-01
        -0.34410E-01
        -0.61324E-01
        -0.72544E-01
        -0.60771E-01
        -0.57828E-01
        -0.63877E-01
        -0.65904E-01
        -0.60089E-01
        -0.56804E-01
        -0.28755E-01
         0.75412E-02
         0.16420E-01
         0.16725E-01
         0.29595E-01
         0.51325E-01
         0.65797E-01
         0.65635E-01
        -0.40950E-02
         0.87812E-03
        -0.15921E-02
        -0.45870E-02
         0.91903E-02
         0.78572E-02
         0.25466E-02
        -0.48659E-02
        -0.23577E-02
        -0.47422E-02
        -0.67780E-03
         0.36809E-02
         0.11789E-01
        -0.86271E-02
        -0.92002E-02
         0.79902E-02
         0.45192E-02
        -0.25057E-02
        -0.17477E-02
        -0.30152E-02
        -0.18339E-01
        -0.17473E-01
        -0.17269E-01
        -0.41804E-02
         0.24677E-02
         0.16479E-02
        -0.86857E-02
         0.84276E-03
        -0.32068E-02
        -0.39931E-02
         0.61715E-02
         0.38999E-02
        -0.36553E-02
        -0.33902E-02
         0.16758E-01
         0.91253E-02
         0.10484E-01
        -0.10531E-01
        -0.19713E-02
        -0.52360E-02
        -0.18535E-01
        -0.19066E-01
        -0.18505E-01
        -0.13332E-01
        -0.10223E-01
        -0.59714E-02
         0.64741E-02
         0.77068E-02
        -0.88868E-03
         0.11732E-02
         0.12406E-01
         0.10783E-01
         0.69114E-01
         0.69741E-01
         0.62753E-01
         0.51834E-01
         0.38493E-01
         0.17728E-01
        -0.44952E-02
        -0.14460E-01
        -0.18640E-01
        -0.34396E-01
        -0.61314E-01
        -0.72547E-01
        -0.60769E-01
        -0.57826E-01
        -0.63887E-01
        -0.65924E-01
        -0.60103E-01
        -0.56813E-01
        -0.28746E-01
         0.75434E-02
         0.16407E-01
         0.16719E-01
         0.29574E-01
         0.51294E-01
         0.65765E-01
         0.65606E-01
        -0.41013E-02
         0.88239E-03
        -0.15938E-02
        -0.45897E-02
         0.91819E-02
         0.78499E-02
         0.25618E-02
        -0.48522E-02
        -0.23595E-02
        -0.47369E-02
        -0.65818E-03
         0.36897E-02
         0.11796E-01
        -0.86052E-02
        -0.91948E-02
         0.80000E-02
         0.45292E-02
        -0.24984E-02
        -0.17469E-02
        -0.30101E-02
        -0.18339E-01
        -0.17472E-01
        -0.17271E-01
        -0.41811E-02
         0.24737E-02
         0.16513E-02
        -0.86875E-02
         0.82243E-03
        -0.32273E-02
        -0.39961E-02
         0.61810E-02
         0.38997E-02
        -0.36380E-02
        -0.33911E-02
         0.16767E-01
         0.91222E-02
         0.10481E-01
        -0.10547E-01
        -0.19883E-02
        -0.52525E-02
        -0.18548E-01
        -0.19079E-01
        -0.18510E-01
        -0.13332E-01
        -0.10220E-01
        -0.59692E-02
         0.64725E-02
         0.77093E-02
        -0.87992E-03
         0.11705E-02
         0.12400E-01
         0.10767E-01
         0.69090E-01
         0.69723E-01
         0.62747E-01
         0.51833E-01
         0.38481E-01
         0.17722E-01
        -0.44998E-02
        -0.14468E-01
        -0.18624E-01
        -0.34382E-01
        -0.61304E-01
        -0.72551E-01
        -0.60767E-01
        -0.57824E-01
        -0.63897E-01
        -0.65944E-01
        -0.60117E-01
        -0.56823E-01
        -0.28738E-01
         0.75456E-02
         0.16394E-01
         0.16712E-01
         0.29553E-01
         0.51263E-01
         0.65732E-01
         0.65577E-01
        -0.41077E-02
         0.88666E-03
        -0.15953E-02
        -0.45923E-02
         0.91733E-02
         0.78426E-02
         0.25768E-02
        -0.48386E-02
        -0.23611E-02
        -0.47310E-02
        -0.63859E-03
         0.36985E-02
         0.11803E-01
        -0.85832E-02
        -0.91892E-02
         0.80098E-02
         0.45391E-02
        -0.24910E-02
        -0.17463E-02
        -0.30053E-02
        -0.18338E-01
        -0.17472E-01
        -0.17272E-01
        -0.41816E-02
         0.24793E-02
         0.16548E-02
        -0.86884E-02
         0.80159E-03
        -0.32480E-02
        -0.39993E-02
         0.61905E-02
         0.38993E-02
        -0.36207E-02
        -0.33919E-02
         0.16776E-01
         0.91194E-02
         0.10479E-01
        -0.10562E-01
        -0.20058E-02
        -0.52686E-02
        -0.18559E-01
        -0.19091E-01
        -0.18513E-01
        -0.13332E-01
        -0.10217E-01
        -0.59668E-02
         0.64708E-02
         0.77118E-02
        -0.87118E-03
         0.11679E-02
         0.12394E-01
         0.10752E-01
         0.69066E-01
         0.69705E-01
         0.62741E-01
         0.51833E-01
         0.38469E-01
         0.17717E-01
        -0.45044E-02
        -0.14477E-01
        -0.18608E-01
        -0.34368E-01
        -0.61294E-01
        -0.72556E-01
        -0.60766E-01
        -0.57822E-01
        -0.63907E-01
        -0.65964E-01
        -0.60130E-01
        -0.56832E-01
        -0.28729E-01
         0.75478E-02
         0.16381E-01
         0.16706E-01
         0.29532E-01
         0.51231E-01
         0.65700E-01
         0.65548E-01
        -0.41140E-02
         0.89090E-03
        -0.15969E-02
        -0.45949E-02
         0.91646E-02
         0.78352E-02
         0.25919E-02
        -0.48249E-02
        -0.23625E-02
        -0.47245E-02
        -0.61906E-03
         0.37072E-02
         0.11811E-01
        -0.85611E-02
        -0.91835E-02
         0.80196E-02
         0.45489E-02
        -0.24836E-02
        -0.17455E-02
        -0.30003E-02
        -0.18338E-01
        -0.17471E-01
        -0.17274E-01
        -0.41823E-02
         0.24845E-02
         0.16582E-02
        -0.86888E-02
         0.78011E-03
        -0.32686E-02
        -0.40024E-02
         0.61999E-02
         0.38990E-02
        -0.36033E-02
        -0.33928E-02
         0.16786E-01
         0.91164E-02
         0.10476E-01
        -0.10577E-01
        -0.20237E-02
        -0.52848E-02
        -0.18570E-01
        -0.19101E-01
        -0.18517E-01
        -0.13332E-01
        -0.10214E-01
        -0.59647E-02
         0.64691E-02
         0.77143E-02
        -0.86234E-03
         0.11653E-02
         0.12387E-01
         0.10736E-01
         0.69042E-01
         0.69688E-01
         0.62735E-01
         0.51833E-01
         0.38457E-01
         0.17712E-01
        -0.45089E-02
        -0.14485E-01
        -0.18593E-01
        -0.34353E-01
        -0.61283E-01
        -0.72564E-01
        -0.60766E-01
        -0.57821E-01
        -0.63917E-01
        -0.65984E-01
        -0.60144E-01
        -0.56842E-01
        -0.28721E-01
         0.75500E-02
         0.16368E-01
         0.16699E-01
         0.29511E-01
         0.51200E-01
         0.65667E-01
         0.65518E-01
        -0.41204E-02
         0.89517E-03
        -0.15986E-02
        -0.45976E-02
         0.91562E-02
         0.78282E-02
         0.26068E-02
        -0.48113E-02
        -0.23639E-02
        -0.47180E-02
        -0.59966E-03
         0.37158E-02
         0.11818E-01
        -0.85389E-02
        -0.91778E-02
         0.80293E-02
         0.45587E-02
        -0.24764E-02
        -0.17446E-02
        -0.29955E-02
        -0.18338E-01
        -0.17470E-01
        -0.17275E-01
        -0.41829E-02
         0.24895E-02
         0.16615E-02
        -0.86890E-02
         0.75856E-03
        -0.32891E-02
        -0.40054E-02
         0.62094E-02
         0.38987E-02
        -0.35861E-02
        -0.33937E-02
         0.16795E-01
         0.91136E-02
         0.10474E-01
        -0.10592E-01
        -0.20418E-02
        -0.53006E-02
        -0.18580E-01
        -0.19112E-01
        -0.18520E-01
        -0.13332E-01
        -0.10211E-01
        -0.59624E-02
         0.64675E-02
         0.77170E-02
        -0.85360E-03
         0.11626E-02
         0.12381E-01
         0.10720E-01
         0.69018E-01
         0.69670E-01
         0.62729E-01
         0.51834E-01
         0.38445E-01
         0.17706E-01
        -0.45134E-02
        -0.14493E-01
        -0.18578E-01
        -0.34338E-01
        -0.61272E-01
        -0.72572E-01
        -0.60767E-01
        -0.57819E-01
        -0.63927E-01
        -0.66004E-01
        -0.60157E-01
        -0.56851E-01
        -0.28713E-01
         0.75524E-02
         0.16355E-01
         0.16693E-01
         0.29490E-01
         0.51169E-01
         0.65635E-01
         0.65489E-01
        -0.41417E-02
         0.90186E-03
        -0.16063E-02
        -0.46168E-02
         0.91793E-02
         0.78488E-02
         0.26295E-02
        -0.48169E-02
        -0.23737E-02
        -0.47298E-02
        -0.58490E-03
         0.37351E-02
         0.11865E-01
        -0.85498E-02
        -0.92055E-02
         0.80675E-02
         0.45846E-02
        -0.24787E-02
        -0.17497E-02
        -0.30008E-02
        -0.18399E-01
        -0.17529E-01
        -0.17334E-01
        -0.41984E-02
         0.25030E-02
         0.16705E-02
        -0.87217E-02
         0.74112E-03
        -0.33199E-02
        -0.40226E-02
         0.62409E-02
         0.39122E-02
        -0.35835E-02
        -0.34071E-02
         0.16861E-01
         0.91428E-02
         0.10508E-01
        -0.10645E-01
        -0.20657E-02
        -0.53339E-02
        -0.18655E-01
        -0.19190E-01
        -0.18588E-01
        -0.13377E-01
        -0.10243E-01
        -0.59796E-02
         0.64887E-02
         0.77474E-02
        -0.84886E-03
         0.11640E-02
         0.12417E-01
         0.10743E-01
         0.69215E-01
         0.69871E-01
         0.62923E-01
         0.51997E-01
         0.38556E-01
         0.17756E-01
        -0.45342E-02
        -0.14547E-01
        -0.18625E-01
        -0.34439E-01
        -0.61468E-01
        -0.72814E-01
        -0.60957E-01
        -0.57995E-01
        -0.64128E-01
        -0.66216E-01
        -0.60346E-01
        -0.57032E-01
        -0.28795E-01
         0.75804E-02
         0.16396E-01
         0.16738E-01
         0.29562E-01
         0.51300E-01
         0.65806E-01
         0.65661E-01
        -0.61614E-02
         0.13505E-02
        -0.23847E-02
        -0.68796E-02
         0.13135E-01
         0.11340E-01
         0.39262E-02
        -0.71162E-02
        -0.35201E-02
        -0.69758E-02
        -0.84374E-03
         0.52521E-02
         0.16935E-01
        -0.12442E-01
        -0.13003E-01
         0.12012E-01
         0.68075E-02
        -0.36865E-02
        -0.25683E-02
        -0.44141E-02
        -0.26244E-01
        -0.25324E-01
        -0.24796E-01
        -0.62120E-02
         0.37289E-02
         0.24940E-02
        -0.12805E-01
         0.10842E-02
        -0.49741E-02
        -0.59841E-02
         0.92964E-02
         0.58088E-02
        -0.53270E-02
        -0.50770E-02
         0.23687E-01
         0.13201E-01
         0.15179E-01
        -0.15391E-01
        -0.30392E-02
        -0.78543E-02
        -0.27064E-01
        -0.28048E-01
        -0.27149E-01
        -0.19274E-01
        -0.14708E-01
        -0.83391E-02
         0.92848E-02
         0.11236E-01
        -0.12288E-02
         0.16861E-02
         0.17563E-01
         0.15473E-01
         0.86147E-01
         0.86820E-01
         0.78221E-01
         0.64832E-01
         0.48028E-01
         0.22164E-01
        -0.57329E-02
        -0.18526E-01
        -0.23658E-01
        -0.43498E-01
        -0.77751E-01
        -0.91957E-01
        -0.77850E-01
        -0.74308E-01
        -0.81118E-01
        -0.82808E-01
        -0.75234E-01
        -0.70700E-01
        -0.35659E-01
         0.94065E-02
         0.20544E-01
         0.21066E-01
         0.37068E-01
         0.64552E-01
         0.82553E-01
         0.82077E-01
  
SCALARS                      strain_xy  double 1
LOOKUP_TABLE default
        -0.58392E-06
        -0.14219E-05
        -0.11916E-04
         0.40196E-06
        -0.18412E-19
         0.17993E-20
         0.27053E-19
         0.41210E-20
        -0.12867E-03
         0.55890E-04
         0.12042E-18
         0.95493E-19
         0.50387E-05
        -0.10471E-05
         0.10629E-19
        -0.31923E-20
         0.13011E-05
         0.25264E-04
         0.52915E-21
         0.80636E-20
        -0.19801E-04
        -0.12814E-03
        -0.12196E-03
         0.81993E-19
         0.65296E-19
        -0.95352E-19
        -0.13334E-04
        -0.11423E-03
         0.11040E-18
         0.16990E-18
        -0.34873E-05
         0.71108E-05
         0.51740E-06
        -0.58272E-20
         0.22988E-19
        -0.29402E-21
        -0.31712E-04
        -0.15618E-04
         0.61523E-19
         0.50966E-19
        -0.63678E-04
        -0.59917E-04
         0.10488E-18
         0.70682E-19
        -0.59252E-04
        -0.10661E-04
        -0.38207E-20
         0.28445E-19
         0.17697E-04
         0.84066E-20
        -0.36472E-05
        -0.18953E-21
         0.11273E-05
         0.63540E-19
         0.56268E-05
         0.97775E-20
         0.80264E-04
        -0.37905E-05
         0.22723E-21
        -0.11148E-20
         0.45209E-06
        -0.46454E-04
         0.61922E-20
         0.15883E-19
         0.19293E-05
        -0.12573E-20
         0.28443E-04
         0.10074E-19
        -0.16094E-03
        -0.58778E-04
         0.77816E-20
        -0.74517E-19
        -0.13374E-03
        -0.11914E-18
         0.60415E-04
         0.79802E-19
         0.19148E-03
         0.11889E-19
         0.33369E-03
         0.15461E-19
         0.64012E-03
         0.34481E-03
         0.36347E-19
        -0.92165E-20
         0.41407E-04
        -0.11091E-20
        -0.11238E-03
        -0.10003E-18
        -0.16929E-03
        -0.11169E-18
        -0.37881E-03
        -0.17455E-03
        -0.70702E-19
         0.78479E-19
         0.27750E-04
         0.71458E-19
         0.67760E-04
         0.30696E-19
         0.15951E-03
         0.81502E-19
         0.39309E-03
         0.22259E-03
         0.17476E-18
         0.87379E-19
        -0.66931E-03
         0.27518E-03
        -0.11354E-18
         0.13905E-18
        -0.16330E-02
        -0.32270E-18
        -0.20841E-02
        -0.35275E-18
        -0.18696E-02
        -0.23941E-18
        -0.16572E-02
        -0.25394E-19
        -0.74648E-03
         0.71575E-19
         0.99893E-03
         0.44316E-19
         0.22482E-02
         0.40512E-19
         0.29714E-02
         0.86920E-19
         0.28657E-02
         0.10568E-18
         0.22581E-02
         0.41637E-19
         0.11386E-02
         0.25385E-19
        -0.75085E-04
         0.41491E-19
        -0.87377E-03
         0.27812E-19
        -0.13647E-02
        -0.99182E-19
        -0.18638E-02
        -0.26025E-18
        -0.18000E-02
        -0.33027E-18
        -0.12079E-02
        -0.20440E-18
        -0.13381E-03
         0.38997E-19
         0.88424E-03
         0.82651E-19
         0.12648E-02
         0.13172E-18
         0.15801E-02
         0.25939E-18
         0.14179E-02
         0.33658E-18
         0.12993E-02
         0.23913E-18
         0.10506E-02
         0.18911E-18
        -0.70429E-05
         0.19166E-05
         0.19601E-05
        -0.12086E-05
         0.15816E-04
         0.12864E-04
         0.20751E-06
        -0.46541E-05
        -0.20252E-05
        -0.53460E-05
        -0.15616E-05
        -0.28912E-04
        -0.41056E-04
         0.15221E-05
         0.23432E-04
        -0.30408E-05
         0.22668E-05
         0.67149E-06
         0.13917E-05
        -0.11278E-05
         0.56898E-05
         0.49801E-05
        -0.15197E-04
         0.39739E-06
         0.33970E-05
         0.37437E-06
         0.62846E-07
         0.12311E-06
         0.15378E-05
        -0.50564E-05
        -0.26534E-05
         0.57224E-06
         0.90936E-06
        -0.72244E-07
        -0.38642E-05
        -0.13256E-04
        -0.26812E-04
         0.40742E-04
         0.21214E-04
         0.38564E-04
         0.75019E-04
         0.17198E-04
        -0.13731E-04
        -0.27729E-04
        -0.33066E-04
        -0.42648E-04
         0.52142E-05
         0.15466E-04
         0.47751E-05
         0.16205E-04
         0.51133E-04
         0.19496E-04
        -0.17726E-03
         0.22269E-03
        -0.53976E-03
        -0.63382E-03
        -0.60218E-03
        -0.36557E-03
         0.21857E-04
         0.23750E-03
         0.34413E-03
         0.55872E-03
         0.58872E-03
         0.31251E-03
         0.12542E-03
         0.52934E-04
        -0.85469E-04
        -0.33728E-03
        -0.56338E-03
        -0.64607E-03
        -0.39930E-03
         0.72283E-04
         0.26083E-03
         0.27475E-03
         0.43310E-03
         0.48216E-03
         0.36400E-03
         0.33543E-03
        -0.23408E-04
         0.30307E-05
        -0.53391E-05
        -0.36874E-05
         0.41418E-04
         0.15919E-04
         0.36777E-05
        -0.28067E-04
        -0.84571E-05
        -0.25096E-04
         0.26804E-05
        -0.42326E-04
        -0.82491E-04
         0.90904E-05
         0.10897E-03
        -0.17440E-04
         0.29423E-05
         0.16825E-05
         0.51034E-05
         0.17327E-05
         0.45837E-04
         0.31015E-04
        -0.17743E-04
         0.36222E-05
         0.83160E-05
        -0.13850E-05
         0.18847E-05
        -0.46521E-06
        -0.18730E-05
        -0.13824E-04
        -0.14440E-04
        -0.24614E-05
         0.60536E-05
         0.45364E-05
         0.10657E-04
        -0.17929E-04
        -0.39267E-04
         0.91840E-04
         0.13559E-04
         0.34645E-04
         0.93508E-04
        -0.23768E-04
        -0.47853E-04
        -0.43219E-04
        -0.42857E-04
        -0.51225E-04
         0.32214E-04
         0.25149E-04
        -0.41781E-05
         0.59388E-05
         0.63076E-04
         0.41689E-05
        -0.43695E-03
         0.62988E-03
        -0.13158E-02
        -0.14025E-02
        -0.13507E-02
        -0.74656E-03
         0.18156E-03
         0.51369E-03
         0.64850E-03
         0.11762E-02
         0.13119E-02
         0.51008E-03
         0.17043E-03
         0.13893E-03
        -0.70892E-04
        -0.61936E-03
        -0.11325E-02
        -0.14910E-02
        -0.98865E-03
         0.28494E-03
         0.55338E-03
         0.53003E-03
         0.93955E-03
         0.11454E-02
         0.76162E-03
         0.71887E-03
        -0.23467E-04
         0.30424E-05
        -0.53518E-05
        -0.37169E-05
         0.41383E-04
         0.15916E-04
         0.37057E-05
        -0.28043E-04
        -0.84815E-05
        -0.25170E-04
         0.26277E-05
        -0.42425E-04
        -0.82561E-04
         0.90682E-05
         0.10905E-03
        -0.17459E-04
         0.29756E-05
         0.16753E-05
         0.51043E-05
         0.17201E-05
         0.45946E-04
         0.31041E-04
        -0.17746E-04
         0.36207E-05
         0.83726E-05
        -0.13848E-05
         0.19075E-05
        -0.45902E-06
        -0.18737E-05
        -0.13862E-04
        -0.14464E-04
        -0.24557E-05
         0.60417E-05
         0.45459E-05
         0.10562E-04
        -0.17933E-04
        -0.39253E-04
         0.92129E-04
         0.13719E-04
         0.34795E-04
         0.93639E-04
        -0.23718E-04
        -0.47905E-04
        -0.43235E-04
        -0.42843E-04
        -0.51199E-04
         0.32211E-04
         0.25142E-04
        -0.41421E-05
         0.59106E-05
         0.63008E-04
         0.40997E-05
        -0.43639E-03
         0.62975E-03
        -0.13160E-02
        -0.14026E-02
        -0.13502E-02
        -0.74608E-03
         0.18168E-03
         0.51385E-03
         0.64782E-03
         0.11754E-02
         0.13114E-02
         0.51033E-03
         0.17040E-03
         0.13921E-03
        -0.70323E-04
        -0.61982E-03
        -0.11332E-02
        -0.14916E-02
        -0.98836E-03
         0.28506E-03
         0.55294E-03
         0.52980E-03
         0.93862E-03
         0.11439E-02
         0.76040E-03
         0.71761E-03
        -0.23526E-04
         0.30541E-05
        -0.53646E-05
        -0.37468E-05
         0.41346E-04
         0.15915E-04
         0.37339E-05
        -0.28019E-04
        -0.85056E-05
        -0.25242E-04
         0.25751E-05
        -0.42524E-04
        -0.82632E-04
         0.90450E-05
         0.10913E-03
        -0.17479E-04
         0.30094E-05
         0.16681E-05
         0.51053E-05
         0.17073E-05
         0.46056E-04
         0.31067E-04
        -0.17752E-04
         0.36187E-05
         0.84301E-05
        -0.13844E-05
         0.19318E-05
        -0.45299E-06
        -0.18732E-05
        -0.13899E-04
        -0.14488E-04
        -0.24490E-05
         0.60297E-05
         0.45552E-05
         0.10467E-04
        -0.17937E-04
        -0.39238E-04
         0.92418E-04
         0.13879E-04
         0.34946E-04
         0.93774E-04
        -0.23661E-04
        -0.47955E-04
        -0.43258E-04
        -0.42833E-04
        -0.51175E-04
         0.32208E-04
         0.25135E-04
        -0.41054E-05
         0.58818E-05
         0.62943E-04
         0.40310E-05
        -0.43584E-03
         0.62962E-03
        -0.13161E-02
        -0.14026E-02
        -0.13496E-02
        -0.74560E-03
         0.18182E-03
         0.51402E-03
         0.64714E-03
         0.11746E-02
         0.13110E-02
         0.51059E-03
         0.17037E-03
         0.13949E-03
        -0.69751E-04
        -0.62029E-03
        -0.11340E-02
        -0.14923E-02
        -0.98807E-03
         0.28517E-03
         0.55249E-03
         0.52957E-03
         0.93769E-03
         0.11424E-02
         0.75918E-03
         0.71634E-03
        -0.23585E-04
         0.30661E-05
        -0.53772E-05
        -0.37767E-05
         0.41310E-04
         0.15913E-04
         0.37622E-05
        -0.27994E-04
        -0.85286E-05
        -0.25309E-04
         0.25225E-05
        -0.42626E-04
        -0.82705E-04
         0.90228E-05
         0.10921E-03
        -0.17501E-04
         0.30441E-05
         0.16608E-05
         0.51069E-05
         0.16939E-05
         0.46171E-04
         0.31091E-04
        -0.17767E-04
         0.36153E-05
         0.84903E-05
        -0.13837E-05
         0.19568E-05
        -0.44798E-06
        -0.18691E-05
        -0.13933E-04
        -0.14512E-04
        -0.24404E-05
         0.60173E-05
         0.45647E-05
         0.10372E-04
        -0.17941E-04
        -0.39222E-04
         0.92709E-04
         0.14040E-04
         0.35099E-04
         0.93923E-04
        -0.23586E-04
        -0.47999E-04
        -0.43296E-04
        -0.42829E-04
        -0.51150E-04
         0.32209E-04
         0.25128E-04
        -0.40688E-05
         0.58530E-05
         0.62873E-04
         0.39626E-05
        -0.43528E-03
         0.62950E-03
        -0.13162E-02
        -0.14026E-02
        -0.13490E-02
        -0.74512E-03
         0.18195E-03
         0.51418E-03
         0.64645E-03
         0.11738E-02
         0.13105E-02
         0.51091E-03
         0.17036E-03
         0.13976E-03
        -0.69176E-04
        -0.62082E-03
        -0.11348E-02
        -0.14930E-02
        -0.98778E-03
         0.28528E-03
         0.55205E-03
         0.52934E-03
         0.93676E-03
         0.11409E-02
         0.75798E-03
         0.71508E-03
        -0.23644E-04
         0.30782E-05
        -0.53899E-05
        -0.38066E-05
         0.41275E-04
         0.15911E-04
         0.37904E-05
        -0.27968E-04
        -0.85506E-05
        -0.25370E-04
         0.24698E-05
        -0.42725E-04
        -0.82776E-04
         0.90009E-05
         0.10929E-03
        -0.17524E-04
         0.30797E-05
         0.16535E-05
         0.51080E-05
         0.16800E-05
         0.46288E-04
         0.31112E-04
        -0.17791E-04
         0.36104E-05
         0.85533E-05
        -0.13824E-05
         0.19845E-05
        -0.44388E-06
        -0.18614E-05
        -0.13964E-04
        -0.14537E-04
        -0.24295E-05
         0.60046E-05
         0.45741E-05
         0.10276E-04
        -0.17945E-04
        -0.39208E-04
         0.93000E-04
         0.14201E-04
         0.35256E-04
         0.94086E-04
        -0.23491E-04
        -0.48037E-04
        -0.43351E-04
        -0.42833E-04
        -0.51127E-04
         0.32212E-04
         0.25124E-04
        -0.40325E-05
         0.58244E-05
         0.62808E-04
         0.38940E-05
        -0.43472E-03
         0.62937E-03
        -0.13163E-02
        -0.14026E-02
        -0.13484E-02
        -0.74465E-03
         0.18208E-03
         0.51434E-03
         0.64577E-03
         0.11730E-02
         0.13101E-02
         0.51129E-03
         0.17037E-03
         0.14003E-03
        -0.68600E-04
        -0.62140E-03
        -0.11357E-02
        -0.14937E-02
        -0.98750E-03
         0.28539E-03
         0.55161E-03
         0.52911E-03
         0.93583E-03
         0.11393E-02
         0.75677E-03
         0.71382E-03
        -0.23700E-04
         0.30909E-05
        -0.54013E-05
        -0.38368E-05
         0.41240E-04
         0.15909E-04
         0.38182E-05
        -0.27938E-04
        -0.85724E-05
        -0.25429E-04
         0.24172E-05
        -0.42825E-04
        -0.82847E-04
         0.89801E-05
         0.10937E-03
        -0.17548E-04
         0.31159E-05
         0.16462E-05
         0.51090E-05
         0.16659E-05
         0.46406E-04
         0.31133E-04
        -0.17820E-04
         0.36052E-05
         0.86155E-05
        -0.13808E-05
         0.20143E-05
        -0.44010E-06
        -0.18519E-05
        -0.13994E-04
        -0.14561E-04
        -0.24172E-05
         0.59919E-05
         0.45837E-05
         0.10179E-04
        -0.17951E-04
        -0.39197E-04
         0.93292E-04
         0.14364E-04
         0.35416E-04
         0.94253E-04
        -0.23390E-04
        -0.48073E-04
        -0.43412E-04
        -0.42844E-04
        -0.51110E-04
         0.32216E-04
         0.25122E-04
        -0.39956E-05
         0.57979E-05
         0.62743E-04
         0.38257E-05
        -0.43416E-03
         0.62924E-03
        -0.13165E-02
        -0.14026E-02
        -0.13478E-02
        -0.74417E-03
         0.18220E-03
         0.51450E-03
         0.64509E-03
         0.11722E-02
         0.13097E-02
         0.51169E-03
         0.17039E-03
         0.14030E-03
        -0.68025E-04
        -0.62199E-03
        -0.11367E-02
        -0.14944E-02
        -0.98721E-03
         0.28549E-03
         0.55116E-03
         0.52889E-03
         0.93491E-03
         0.11378E-02
         0.75556E-03
         0.71255E-03
        -0.23752E-04
         0.31058E-05
        -0.54108E-05
        -0.38676E-05
         0.41206E-04
         0.15908E-04
         0.38456E-05
        -0.27903E-04
        -0.85949E-05
        -0.25484E-04
         0.23645E-05
        -0.42927E-04
        -0.82926E-04
         0.89645E-05
         0.10945E-03
        -0.17573E-04
         0.31528E-05
         0.16389E-05
         0.51107E-05
         0.16520E-05
         0.46525E-04
         0.31156E-04
        -0.17849E-04
         0.36002E-05
         0.86739E-05
        -0.13788E-05
         0.20494E-05
        -0.43623E-06
        -0.18418E-05
        -0.14026E-04
        -0.14583E-04
        -0.24036E-05
         0.59789E-05
         0.45931E-05
         0.10082E-04
        -0.17958E-04
        -0.39187E-04
         0.93587E-04
         0.14528E-04
         0.35578E-04
         0.94424E-04
        -0.23287E-04
        -0.48108E-04
        -0.43474E-04
        -0.42858E-04
        -0.51097E-04
         0.32222E-04
         0.25126E-04
        -0.39570E-05
         0.57759E-05
         0.62682E-04
         0.37569E-05
        -0.43361E-03
         0.62912E-03
        -0.13166E-02
        -0.14027E-02
        -0.13473E-02
        -0.74369E-03
         0.18232E-03
         0.51466E-03
         0.64442E-03
         0.11714E-02
         0.13092E-02
         0.51209E-03
         0.17041E-03
         0.14058E-03
        -0.67449E-04
        -0.62259E-03
        -0.11377E-02
        -0.14952E-02
        -0.98690E-03
         0.28557E-03
         0.55071E-03
         0.52867E-03
         0.93400E-03
         0.11363E-02
         0.75436E-03
         0.71129E-03
        -0.23802E-04
         0.31213E-05
        -0.54193E-05
        -0.38988E-05
         0.41173E-04
         0.15906E-04
         0.38726E-05
        -0.27864E-04
        -0.86179E-05
        -0.25539E-04
         0.23118E-05
        -0.43028E-04
        -0.83005E-04
         0.89500E-05
         0.10953E-03
        -0.17599E-04
         0.31900E-05
         0.16316E-05
         0.51119E-05
         0.16383E-05
         0.46644E-04
         0.31178E-04
        -0.17877E-04
         0.35952E-05
         0.87305E-05
        -0.13766E-05
         0.20858E-05
        -0.43225E-06
        -0.18316E-05
        -0.14058E-04
        -0.14604E-04
        -0.23891E-05
         0.59657E-05
         0.46026E-05
         0.99849E-05
        -0.17967E-04
        -0.39181E-04
         0.93883E-04
         0.14693E-04
         0.35740E-04
         0.94596E-04
        -0.23183E-04
        -0.48143E-04
        -0.43537E-04
        -0.42874E-04
        -0.51090E-04
         0.32228E-04
         0.25132E-04
        -0.39176E-05
         0.57560E-05
         0.62624E-04
         0.36884E-05
        -0.43305E-03
         0.62899E-03
        -0.13167E-02
        -0.14027E-02
        -0.13467E-02
        -0.74321E-03
         0.18245E-03
         0.51482E-03
         0.64374E-03
         0.11706E-02
         0.13088E-02
         0.51248E-03
         0.17042E-03
         0.14085E-03
        -0.66871E-04
        -0.62319E-03
        -0.11387E-02
        -0.14959E-02
        -0.98658E-03
         0.28564E-03
         0.55025E-03
         0.52846E-03
         0.93309E-03
         0.11348E-02
         0.75316E-03
         0.71003E-03
        -0.23851E-04
         0.31369E-05
        -0.54276E-05
        -0.39300E-05
         0.41140E-04
         0.15904E-04
         0.38995E-05
        -0.27826E-04
        -0.86411E-05
        -0.25594E-04
         0.22591E-05
        -0.43129E-04
        -0.83085E-04
         0.89368E-05
         0.10961E-03
        -0.17624E-04
         0.32275E-05
         0.16242E-05
         0.51131E-05
         0.16244E-05
         0.46762E-04
         0.31200E-04
        -0.17905E-04
         0.35905E-05
         0.87871E-05
        -0.13744E-05
         0.21232E-05
        -0.42803E-06
        -0.18210E-05
        -0.14090E-04
        -0.14625E-04
        -0.23748E-05
         0.59524E-05
         0.46121E-05
         0.98867E-05
        -0.17974E-04
        -0.39173E-04
         0.94180E-04
         0.14859E-04
         0.35901E-04
         0.94767E-04
        -0.23080E-04
        -0.48179E-04
        -0.43602E-04
        -0.42892E-04
        -0.51082E-04
         0.32234E-04
         0.25138E-04
        -0.38784E-05
         0.57368E-05
         0.62568E-04
         0.36197E-05
        -0.43249E-03
         0.62886E-03
        -0.13168E-02
        -0.14027E-02
        -0.13461E-02
        -0.74272E-03
         0.18257E-03
         0.51497E-03
         0.64306E-03
         0.11698E-02
         0.13084E-02
         0.51287E-03
         0.17045E-03
         0.14113E-03
        -0.66296E-04
        -0.62378E-03
        -0.11397E-02
        -0.14966E-02
        -0.98626E-03
         0.28571E-03
         0.54979E-03
         0.52824E-03
         0.93217E-03
         0.11333E-02
         0.75196E-03
         0.70877E-03
        -0.23900E-04
         0.31527E-05
        -0.54360E-05
        -0.39612E-05
         0.41106E-04
         0.15901E-04
         0.39266E-05
        -0.27787E-04
        -0.86642E-05
        -0.25648E-04
         0.22064E-05
        -0.43231E-04
        -0.83167E-04
         0.89222E-05
         0.10969E-03
        -0.17649E-04
         0.32653E-05
         0.16170E-05
         0.51142E-05
         0.16106E-05
         0.46881E-04
         0.31222E-04
        -0.17932E-04
         0.35857E-05
         0.88439E-05
        -0.13722E-05
         0.21597E-05
        -0.42363E-06
        -0.18102E-05
        -0.14122E-04
        -0.14646E-04
        -0.23604E-05
         0.59388E-05
         0.46216E-05
         0.97883E-05
        -0.17983E-04
        -0.39167E-04
         0.94477E-04
         0.15026E-04
         0.36065E-04
         0.94939E-04
        -0.22978E-04
        -0.48214E-04
        -0.43665E-04
        -0.42909E-04
        -0.51073E-04
         0.32241E-04
         0.25146E-04
        -0.38394E-05
         0.57165E-05
         0.62508E-04
         0.35514E-05
        -0.43193E-03
         0.62873E-03
        -0.13169E-02
        -0.14027E-02
        -0.13455E-02
        -0.74224E-03
         0.18269E-03
         0.51512E-03
         0.64239E-03
         0.11690E-02
         0.13080E-02
         0.51327E-03
         0.17047E-03
         0.14141E-03
        -0.65721E-04
        -0.62438E-03
        -0.11407E-02
        -0.14973E-02
        -0.98594E-03
         0.28578E-03
         0.54933E-03
         0.52802E-03
         0.93126E-03
         0.11318E-02
         0.75077E-03
         0.70751E-03
        -0.23949E-04
         0.31684E-05
        -0.54446E-05
        -0.39923E-05
         0.41073E-04
         0.15900E-04
         0.39537E-05
        -0.27747E-04
        -0.86874E-05
        -0.25703E-04
         0.21535E-05
        -0.43333E-04
        -0.83246E-04
         0.89085E-05
         0.10977E-03
        -0.17675E-04
         0.33032E-05
         0.16097E-05
         0.51159E-05
         0.15967E-05
         0.46999E-04
         0.31243E-04
        -0.17960E-04
         0.35811E-05
         0.89005E-05
        -0.13699E-05
         0.21968E-05
        -0.41897E-06
        -0.17990E-05
        -0.14154E-04
        -0.14667E-04
        -0.23461E-05
         0.59253E-05
         0.46311E-05
         0.96896E-05
        -0.17991E-04
        -0.39161E-04
         0.94775E-04
         0.15194E-04
         0.36226E-04
         0.95110E-04
        -0.22874E-04
        -0.48249E-04
        -0.43726E-04
        -0.42925E-04
        -0.51066E-04
         0.32247E-04
         0.25152E-04
        -0.38002E-05
         0.56968E-05
         0.62452E-04
         0.34832E-05
        -0.43137E-03
         0.62860E-03
        -0.13170E-02
        -0.14027E-02
        -0.13449E-02
        -0.74176E-03
         0.18280E-03
         0.51528E-03
         0.64171E-03
         0.11682E-02
         0.13075E-02
         0.51366E-03
         0.17049E-03
         0.14169E-03
        -0.65144E-04
        -0.62498E-03
        -0.11416E-02
        -0.14980E-02
        -0.98563E-03
         0.28585E-03
         0.54887E-03
         0.52780E-03
         0.93035E-03
         0.11303E-02
         0.74958E-03
         0.70626E-03
        -0.23999E-04
         0.31840E-05
        -0.54528E-05
        -0.40237E-05
         0.41040E-04
         0.15897E-04
         0.39807E-05
        -0.27708E-04
        -0.87106E-05
        -0.25757E-04
         0.21007E-05
        -0.43435E-04
        -0.83325E-04
         0.88947E-05
         0.10985E-03
        -0.17700E-04
         0.33414E-05
         0.16024E-05
         0.51171E-05
         0.15830E-05
         0.47117E-04
         0.31264E-04
        -0.17989E-04
         0.35765E-05
         0.89571E-05
        -0.13677E-05
         0.22330E-05
        -0.41415E-06
        -0.17874E-05
        -0.14187E-04
        -0.14688E-04
        -0.23317E-05
         0.59113E-05
         0.46407E-05
         0.95902E-05
        -0.17999E-04
        -0.39154E-04
         0.95073E-04
         0.15363E-04
         0.36391E-04
         0.95282E-04
        -0.22772E-04
        -0.48284E-04
        -0.43789E-04
        -0.42942E-04
        -0.51060E-04
         0.32253E-04
         0.25160E-04
        -0.37610E-05
         0.56776E-05
         0.62394E-04
         0.34152E-05
        -0.43081E-03
         0.62847E-03
        -0.13171E-02
        -0.14027E-02
        -0.13444E-02
        -0.74128E-03
         0.18292E-03
         0.51543E-03
         0.64104E-03
         0.11674E-02
         0.13071E-02
         0.51405E-03
         0.17051E-03
         0.14196E-03
        -0.64564E-04
        -0.62557E-03
        -0.11426E-02
        -0.14987E-02
        -0.98531E-03
         0.28592E-03
         0.54841E-03
         0.52759E-03
         0.92944E-03
         0.11288E-02
         0.74840E-03
         0.70500E-03
        -0.24048E-04
         0.31997E-05
        -0.54610E-05
        -0.40552E-05
         0.41006E-04
         0.15895E-04
         0.40078E-05
        -0.27668E-04
        -0.87336E-05
        -0.25809E-04
         0.20479E-05
        -0.43536E-04
        -0.83406E-04
         0.88798E-05
         0.10993E-03
        -0.17725E-04
         0.33796E-05
         0.15951E-05
         0.51185E-05
         0.15693E-05
         0.47236E-04
         0.31286E-04
        -0.18016E-04
         0.35719E-05
         0.90135E-05
        -0.13654E-05
         0.22704E-05
        -0.40908E-06
        -0.17757E-05
        -0.14218E-04
        -0.14709E-04
        -0.23172E-05
         0.58972E-05
         0.46502E-05
         0.94905E-05
        -0.18009E-04
        -0.39147E-04
         0.95370E-04
         0.15533E-04
         0.36554E-04
         0.95456E-04
        -0.22669E-04
        -0.48318E-04
        -0.43853E-04
        -0.42961E-04
        -0.51048E-04
         0.32260E-04
         0.25166E-04
        -0.37218E-05
         0.56579E-05
         0.62334E-04
         0.33476E-05
        -0.43025E-03
         0.62834E-03
        -0.13172E-02
        -0.14027E-02
        -0.13438E-02
        -0.74080E-03
         0.18304E-03
         0.51558E-03
         0.64036E-03
         0.11666E-02
         0.13067E-02
         0.51444E-03
         0.17052E-03
         0.14224E-03
        -0.63986E-04
        -0.62617E-03
        -0.11436E-02
        -0.14994E-02
        -0.98500E-03
         0.28599E-03
         0.54795E-03
         0.52737E-03
         0.92853E-03
         0.11273E-02
         0.74722E-03
         0.70375E-03
        -0.24098E-04
         0.32153E-05
        -0.54692E-05
        -0.40866E-05
         0.40974E-04
         0.15893E-04
         0.40349E-05
        -0.27627E-04
        -0.87567E-05
        -0.25862E-04
         0.19951E-05
        -0.43638E-04
        -0.83486E-04
         0.88659E-05
         0.11000E-03
        -0.17750E-04
         0.34182E-05
         0.15878E-05
         0.51203E-05
         0.15557E-05
         0.47354E-04
         0.31306E-04
        -0.18044E-04
         0.35674E-05
         0.90702E-05
        -0.13630E-05
         0.23067E-05
        -0.40384E-06
        -0.17638E-05
        -0.14250E-04
        -0.14730E-04
        -0.23028E-05
         0.58830E-05
         0.46598E-05
         0.93904E-05
        -0.18017E-04
        -0.39140E-04
         0.95669E-04
         0.15703E-04
         0.36718E-04
         0.95628E-04
        -0.22565E-04
        -0.48353E-04
        -0.43916E-04
        -0.42977E-04
        -0.51041E-04
         0.32266E-04
         0.25173E-04
        -0.36826E-05
         0.56382E-05
         0.62278E-04
         0.32805E-05
        -0.42968E-03
         0.62821E-03
        -0.13173E-02
        -0.14027E-02
        -0.13432E-02
        -0.74031E-03
         0.18316E-03
         0.51571E-03
         0.63968E-03
         0.11658E-02
         0.13062E-02
         0.51484E-03
         0.17054E-03
         0.14252E-03
        -0.63411E-04
        -0.62676E-03
        -0.11446E-02
        -0.15001E-02
        -0.98469E-03
         0.28605E-03
         0.54750E-03
         0.52716E-03
         0.92761E-03
         0.11258E-02
         0.74604E-03
         0.70249E-03
        -0.24147E-04
         0.32307E-05
        -0.54775E-05
        -0.41181E-05
         0.40941E-04
         0.15890E-04
         0.40620E-05
        -0.27587E-04
        -0.87800E-05
        -0.25915E-04
         0.19422E-05
        -0.43741E-04
        -0.83565E-04
         0.88508E-05
         0.11008E-03
        -0.17775E-04
         0.34570E-05
         0.15806E-05
         0.51216E-05
         0.15419E-05
         0.47473E-04
         0.31327E-04
        -0.18072E-04
         0.35629E-05
         0.91269E-05
        -0.13607E-05
         0.23437E-05
        -0.39835E-06
        -0.17516E-05
        -0.14282E-04
        -0.14751E-04
        -0.22883E-05
         0.58687E-05
         0.46693E-05
         0.92902E-05
        -0.18026E-04
        -0.39134E-04
         0.95967E-04
         0.15874E-04
         0.36882E-04
         0.95801E-04
        -0.22461E-04
        -0.48389E-04
        -0.43979E-04
        -0.42994E-04
        -0.51035E-04
         0.32272E-04
         0.25180E-04
        -0.36430E-05
         0.56188E-05
         0.62220E-04
         0.32132E-05
        -0.42912E-03
         0.62808E-03
        -0.13173E-02
        -0.14028E-02
        -0.13426E-02
        -0.73983E-03
         0.18327E-03
         0.51585E-03
         0.63901E-03
         0.11650E-02
         0.13058E-02
         0.51523E-03
         0.17056E-03
         0.14280E-03
        -0.62833E-04
        -0.62736E-03
        -0.11456E-02
        -0.15008E-02
        -0.98438E-03
         0.28611E-03
         0.54704E-03
         0.52695E-03
         0.92670E-03
         0.11243E-02
         0.74486E-03
         0.70124E-03
        -0.24197E-04
         0.32465E-05
        -0.54857E-05
        -0.41495E-05
         0.40907E-04
         0.15889E-04
         0.40890E-05
        -0.27546E-04
        -0.88033E-05
        -0.25967E-04
         0.18893E-05
        -0.43843E-04
        -0.83647E-04
         0.88366E-05
         0.11016E-03
        -0.17801E-04
         0.34961E-05
         0.15734E-05
         0.51229E-05
         0.15284E-05
         0.47591E-04
         0.31347E-04
        -0.18099E-04
         0.35585E-05
         0.91833E-05
        -0.13583E-05
         0.23797E-05
        -0.39265E-06
        -0.17391E-05
        -0.14314E-04
        -0.14772E-04
        -0.22740E-05
         0.58542E-05
         0.46791E-05
         0.91891E-05
        -0.18034E-04
        -0.39127E-04
         0.96266E-04
         0.16047E-04
         0.37045E-04
         0.95972E-04
        -0.22358E-04
        -0.48424E-04
        -0.44040E-04
        -0.43012E-04
        -0.51025E-04
         0.32279E-04
         0.25187E-04
        -0.36039E-05
         0.55990E-05
         0.62162E-04
         0.31460E-05
        -0.42856E-03
         0.62794E-03
        -0.13174E-02
        -0.14028E-02
        -0.13421E-02
        -0.73934E-03
         0.18338E-03
         0.51599E-03
         0.63834E-03
         0.11642E-02
         0.13054E-02
         0.51562E-03
         0.17058E-03
         0.14307E-03
        -0.62255E-04
        -0.62795E-03
        -0.11466E-02
        -0.15015E-02
        -0.98406E-03
         0.28618E-03
         0.54658E-03
         0.52674E-03
         0.92579E-03
         0.11228E-02
         0.74369E-03
         0.69999E-03
        -0.24246E-04
         0.32620E-05
        -0.54941E-05
        -0.41810E-05
         0.40875E-04
         0.15886E-04
         0.41163E-05
        -0.27504E-04
        -0.88264E-05
        -0.26018E-04
         0.18362E-05
        -0.43945E-04
        -0.83727E-04
         0.88211E-05
         0.11023E-03
        -0.17826E-04
         0.35355E-05
         0.15662E-05
         0.51244E-05
         0.15149E-05
         0.47709E-04
         0.31366E-04
        -0.18127E-04
         0.35542E-05
         0.92394E-05
        -0.13558E-05
         0.24167E-05
        -0.38665E-06
        -0.17263E-05
        -0.14345E-04
        -0.14792E-04
        -0.22596E-05
         0.58396E-05
         0.46888E-05
         0.90877E-05
        -0.18042E-04
        -0.39119E-04
         0.96565E-04
         0.16221E-04
         0.37210E-04
         0.96142E-04
        -0.22255E-04
        -0.48459E-04
        -0.44104E-04
        -0.43029E-04
        -0.51018E-04
         0.32285E-04
         0.25194E-04
        -0.35650E-05
         0.55793E-05
         0.62105E-04
         0.30797E-05
        -0.42800E-03
         0.62781E-03
        -0.13175E-02
        -0.14028E-02
        -0.13415E-02
        -0.73886E-03
         0.18348E-03
         0.51613E-03
         0.63767E-03
         0.11634E-02
         0.13050E-02
         0.51603E-03
         0.17059E-03
         0.14334E-03
        -0.61679E-04
        -0.62854E-03
        -0.11475E-02
        -0.15022E-02
        -0.98375E-03
         0.28624E-03
         0.54612E-03
         0.52652E-03
         0.92487E-03
         0.11214E-02
         0.74252E-03
         0.69873E-03
        -0.24295E-04
         0.32775E-05
        -0.55021E-05
        -0.42127E-05
         0.40842E-04
         0.15884E-04
         0.41433E-05
        -0.27462E-04
        -0.88489E-05
        -0.26066E-04
         0.17832E-05
        -0.44048E-04
        -0.83806E-04
         0.88064E-05
         0.11031E-03
        -0.17851E-04
         0.35753E-05
         0.15589E-05
         0.51265E-05
         0.15020E-05
         0.47827E-04
         0.31385E-04
        -0.18155E-04
         0.35496E-05
         0.92942E-05
        -0.13535E-05
         0.24531E-05
        -0.38022E-06
        -0.17132E-05
        -0.14376E-04
        -0.14813E-04
        -0.22449E-05
         0.58246E-05
         0.46985E-05
         0.89860E-05
        -0.18052E-04
        -0.39113E-04
         0.96863E-04
         0.16400E-04
         0.37370E-04
         0.96306E-04
        -0.22149E-04
        -0.48494E-04
        -0.44166E-04
        -0.43046E-04
        -0.51010E-04
         0.32291E-04
         0.25201E-04
        -0.35262E-05
         0.55597E-05
         0.62049E-04
         0.30133E-05
        -0.42743E-03
         0.62768E-03
        -0.13176E-02
        -0.14028E-02
        -0.13409E-02
        -0.73838E-03
         0.18359E-03
         0.51627E-03
         0.63700E-03
         0.11625E-02
         0.13046E-02
         0.51645E-03
         0.17060E-03
         0.14361E-03
        -0.61104E-04
        -0.62913E-03
        -0.11485E-02
        -0.15029E-02
        -0.98344E-03
         0.28631E-03
         0.54567E-03
         0.52630E-03
         0.92396E-03
         0.11199E-02
         0.74136E-03
         0.69748E-03
        -0.24345E-04
         0.32929E-05
        -0.55102E-05
        -0.42444E-05
         0.40808E-04
         0.15881E-04
         0.41704E-05
        -0.27420E-04
        -0.88710E-05
        -0.26110E-04
         0.17301E-05
        -0.44150E-04
        -0.83887E-04
         0.87914E-05
         0.11038E-03
        -0.17876E-04
         0.36158E-05
         0.15517E-05
         0.51281E-05
         0.14896E-05
         0.47946E-04
         0.31402E-04
        -0.18183E-04
         0.35454E-05
         0.93475E-05
        -0.13510E-05
         0.24909E-05
        -0.37327E-06
        -0.16999E-05
        -0.14405E-04
        -0.14834E-04
        -0.22304E-05
         0.58095E-05
         0.47082E-05
         0.88836E-05
        -0.18060E-04
        -0.39107E-04
         0.97160E-04
         0.16583E-04
         0.37531E-04
         0.96464E-04
        -0.22042E-04
        -0.48529E-04
        -0.44228E-04
        -0.43065E-04
        -0.51003E-04
         0.32298E-04
         0.25208E-04
        -0.34871E-05
         0.55403E-05
         0.61989E-04
         0.29466E-05
        -0.42687E-03
         0.62754E-03
        -0.13177E-02
        -0.14028E-02
        -0.13403E-02
        -0.73790E-03
         0.18369E-03
         0.51640E-03
         0.63634E-03
         0.11616E-02
         0.13042E-02
         0.51688E-03
         0.17059E-03
         0.14389E-03
        -0.60525E-04
        -0.62972E-03
        -0.11495E-02
        -0.15036E-02
        -0.98312E-03
         0.28637E-03
         0.54521E-03
         0.52609E-03
         0.92305E-03
         0.11184E-02
         0.74021E-03
         0.69623E-03
        -0.24395E-04
         0.33085E-05
        -0.55187E-05
        -0.42760E-05
         0.40776E-04
         0.15879E-04
         0.41976E-05
        -0.27378E-04
        -0.88929E-05
        -0.26153E-04
         0.16774E-05
        -0.44250E-04
        -0.83966E-04
         0.87754E-05
         0.11045E-03
        -0.17902E-04
         0.36565E-05
         0.15445E-05
         0.51296E-05
         0.14775E-05
         0.48064E-04
         0.31420E-04
        -0.18209E-04
         0.35414E-05
         0.94004E-05
        -0.13487E-05
         0.25277E-05
        -0.36598E-06
        -0.16866E-05
        -0.14434E-04
        -0.14855E-04
        -0.22163E-05
         0.57946E-05
         0.47181E-05
         0.87821E-05
        -0.18068E-04
        -0.39099E-04
         0.97456E-04
         0.16768E-04
         0.37686E-04
         0.96617E-04
        -0.21937E-04
        -0.48565E-04
        -0.44290E-04
        -0.43081E-04
        -0.50996E-04
         0.32305E-04
         0.25216E-04
        -0.34485E-05
         0.55204E-05
         0.61935E-04
         0.28807E-05
        -0.42630E-03
         0.62741E-03
        -0.13178E-02
        -0.14028E-02
        -0.13397E-02
        -0.73740E-03
         0.18379E-03
         0.51653E-03
         0.63568E-03
         0.11607E-02
         0.13038E-02
         0.51731E-03
         0.17058E-03
         0.14416E-03
        -0.59947E-04
        -0.63031E-03
        -0.11505E-02
        -0.15043E-02
        -0.98281E-03
         0.28644E-03
         0.54476E-03
         0.52587E-03
         0.92214E-03
         0.11169E-02
         0.73906E-03
         0.69499E-03
        -0.24649E-04
         0.33495E-05
        -0.55754E-05
        -0.43424E-05
         0.41086E-04
         0.16009E-04
         0.42586E-05
        -0.27575E-04
        -0.89878E-05
        -0.26419E-04
         0.16456E-05
        -0.44698E-04
        -0.84731E-04
         0.88368E-05
         0.11148E-03
        -0.18077E-04
         0.37261E-05
         0.15506E-05
         0.51727E-05
         0.14787E-05
         0.48563E-04
         0.31695E-04
        -0.18366E-04
         0.35692E-05
         0.95304E-05
        -0.13590E-05
         0.25837E-05
        -0.36159E-06
        -0.16911E-05
        -0.14586E-04
        -0.15002E-04
        -0.22247E-05
         0.58299E-05
         0.47678E-05
         0.87633E-05
        -0.18220E-04
        -0.39407E-04
         0.98578E-04
         0.17084E-04
         0.38155E-04
         0.97584E-04
        -0.22046E-04
        -0.49020E-04
        -0.44683E-04
        -0.43432E-04
        -0.51390E-04
         0.32571E-04
         0.25425E-04
        -0.34420E-05
         0.55464E-05
         0.62394E-04
         0.28394E-05
        -0.42945E-03
         0.63281E-03
        -0.13294E-02
        -0.14150E-02
        -0.13510E-02
        -0.74353E-03
         0.18565E-03
         0.52137E-03
         0.64095E-03
         0.11708E-02
         0.13155E-02
         0.52222E-03
         0.17195E-03
         0.14558E-03
        -0.59877E-04
        -0.63582E-03
        -0.11606E-02
        -0.15176E-02
        -0.99117E-03
         0.28911E-03
         0.54902E-03
         0.53003E-03
         0.92910E-03
         0.11250E-02
         0.74418E-03
         0.69962E-03
        -0.55086E-04
         0.75685E-05
        -0.12419E-04
        -0.97852E-05
         0.85225E-04
         0.33844E-04
         0.95833E-05
        -0.61004E-04
        -0.19988E-04
        -0.58236E-04
         0.35193E-05
        -0.89612E-04
        -0.17486E-03
         0.18994E-04
         0.22593E-03
        -0.40461E-04
         0.83489E-05
         0.34625E-05
         0.11273E-04
         0.32298E-05
         0.10017E-03
         0.66992E-04
        -0.37996E-04
         0.78959E-05
         0.21434E-04
        -0.30570E-05
         0.56959E-05
        -0.79953E-06
        -0.38111E-05
        -0.32706E-04
        -0.33599E-04
        -0.49513E-05
         0.13073E-04
         0.10705E-04
         0.17291E-04
        -0.38454E-04
        -0.83212E-04
         0.20896E-03
         0.37369E-04
         0.83801E-04
         0.20831E-03
        -0.47638E-04
        -0.10600E-03
        -0.93829E-04
        -0.90604E-04
        -0.10126E-03
         0.67508E-04
         0.54020E-04
        -0.73350E-05
         0.11778E-04
         0.12640E-03
         0.58714E-05
        -0.67855E-03
         0.99735E-03
        -0.20973E-02
        -0.22440E-02
        -0.21402E-02
        -0.11844E-02
         0.30297E-03
         0.86410E-03
         0.10577E-02
         0.19107E-02
         0.21515E-02
         0.85031E-03
         0.28552E-03
         0.24347E-03
        -0.96865E-04
        -0.10122E-02
        -0.18367E-02
        -0.23780E-02
        -0.15521E-02
         0.45424E-03
         0.87878E-03
         0.85553E-03
         0.14895E-02
         0.18155E-02
         0.11931E-02
         0.11134E-02
  
SCALARS                      strain_eq  double 1
LOOKUP_TABLE default
         0.40102E+01
         0.39492E+01
         0.39880E+01
         0.40572E+01
         0.20189E-08
         0.22385E-08
         0.21749E-08
         0.19569E-08
         0.39475E+01
         0.39679E+01
         0.22017E-08
         0.21055E-08
         0.38609E+01
         0.38576E+01
         0.24088E-08
         0.22939E-08
         0.40471E+01
         0.38624E+01
         0.17969E-08
         0.20210E-08
         0.37945E+01
         0.37420E+01
         0.38259E+01
         0.24809E-08
         0.23666E-08
         0.23539E-08
         0.37438E+01
         0.36670E+01
         0.24030E-08
         0.21825E-08
         0.40437E+01
         0.39634E+01
         0.41216E+01
         0.19554E-08
         0.18363E-08
         0.17589E-08
         0.39973E+01
         0.38949E+01
         0.21318E-08
         0.19435E-08
         0.39568E+01
         0.38779E+01
         0.19830E-08
         0.17107E-08
         0.40237E+01
         0.40533E+01
         0.21413E-08
         0.22205E-08
         0.38143E+01
         0.19191E-08
         0.40475E+01
         0.22314E-08
         0.37216E+01
         0.20981E-08
         0.36973E+01
         0.19366E-08
         0.36979E+01
         0.37838E+01
         0.19625E-08
         0.19298E-08
         0.40421E+01
         0.40113E+01
         0.19801E-08
         0.22414E-08
         0.40614E+01
         0.19005E-08
         0.40247E+01
         0.20815E-08
         0.39288E+01
         0.39188E+01
         0.22265E-08
         0.22251E-08
         0.38968E+01
         0.22517E-08
         0.36396E+01
         0.17999E-08
         0.36262E+01
         0.16753E-08
         0.36331E+01
         0.17452E-08
         0.36709E+01
         0.37091E+01
         0.16880E-08
         0.17533E-08
         0.37868E+01
         0.16512E-08
         0.40222E+01
         0.22170E-08
         0.39857E+01
         0.22576E-08
         0.39561E+01
         0.39390E+01
         0.22555E-08
         0.22126E-08
         0.39592E+01
         0.19855E-08
         0.39737E+01
         0.19441E-08
         0.39607E+01
         0.21028E-08
         0.39565E+01
         0.39694E+01
         0.21617E-08
         0.21559E-08
         0.38856E+01
         0.39209E+01
         0.20556E-08
         0.19841E-08
         0.38797E+01
         0.19963E-08
         0.39204E+01
         0.19490E-08
         0.38806E+01
         0.19466E-08
         0.37931E+01
         0.18250E-08
         0.37088E+01
         0.15443E-08
         0.36580E+01
         0.13049E-08
         0.36528E+01
         0.12656E-08
         0.36543E+01
         0.13484E-08
         0.37093E+01
         0.13909E-08
         0.38130E+01
         0.13030E-08
         0.39265E+01
         0.11892E-08
         0.39923E+01
         0.12308E-08
         0.40575E+01
         0.14589E-08
         0.41007E+01
         0.17032E-08
         0.40993E+01
         0.18153E-08
         0.39935E+01
         0.19383E-08
         0.39195E+01
         0.20369E-08
         0.38952E+01
         0.19005E-08
         0.39350E+01
         0.16732E-08
         0.39552E+01
         0.16700E-08
         0.39201E+01
         0.18377E-08
         0.39200E+01
         0.19500E-08
         0.39465E+01
         0.18869E-08
         0.39809E+01
         0.18448E-08
         0.39099E+00
         0.39335E+00
         0.39303E+00
         0.38981E+00
         0.39562E+00
         0.39286E+00
         0.39605E+00
         0.39443E+00
         0.39037E+00
         0.39301E+00
         0.39770E+00
         0.39852E+00
         0.39713E+00
         0.39678E+00
         0.39800E+00
         0.38998E+00
         0.39060E+00
         0.38881E+00
         0.39358E+00
         0.39277E+00
         0.39415E+00
         0.39343E+00
         0.39476E+00
         0.39420E+00
         0.39287E+00
         0.39294E+00
         0.39520E+00
         0.39498E+00
         0.39655E+00
         0.39418E+00
         0.39029E+00
         0.39336E+00
         0.39030E+00
         0.39236E+00
         0.39880E+00
         0.39686E+00
         0.39598E+00
         0.39720E+00
         0.39725E+00
         0.39883E+00
         0.40013E+00
         0.39723E+00
         0.39417E+00
         0.39451E+00
         0.39611E+00
         0.39879E+00
         0.39644E+00
         0.39383E+00
         0.39400E+00
         0.39603E+00
         0.39807E+00
         0.39538E+00
         0.40489E+00
         0.40361E+00
         0.40415E+00
         0.40398E+00
         0.40450E+00
         0.40597E+00
         0.40660E+00
         0.40616E+00
         0.40587E+00
         0.40621E+00
         0.40630E+00
         0.40424E+00
         0.40246E+00
         0.40178E+00
         0.40142E+00
         0.40118E+00
         0.40146E+00
         0.40259E+00
         0.40472E+00
         0.40453E+00
         0.40337E+00
         0.40307E+00
         0.40327E+00
         0.40385E+00
         0.40291E+00
         0.40260E+00
         0.14344E-01
         0.86185E-02
         0.81293E-02
         0.55745E-02
         0.14896E-01
         0.10299E-01
         0.45460E-02
         0.14107E-01
         0.88369E-02
         0.13293E-01
         0.64813E-02
         0.27928E-01
         0.21208E-01
         0.10607E-01
         0.29251E-01
         0.10422E-01
         0.52801E-02
         0.33687E-02
         0.70178E-02
         0.37993E-02
         0.21963E-01
         0.20605E-01
         0.20066E-01
         0.52219E-02
         0.85785E-02
         0.27277E-02
         0.10007E-01
         0.16254E-02
         0.36652E-02
         0.93048E-02
         0.89034E-02
         0.47358E-02
         0.57669E-02
         0.49889E-02
         0.19255E-01
         0.11523E-01
         0.14915E-01
         0.23854E-01
         0.18349E-01
         0.17079E-01
         0.24256E-01
         0.21989E-01
         0.22135E-01
         0.17136E-01
         0.15303E-01
         0.20934E-01
         0.13723E-01
         0.11669E-01
         0.96227E-02
         0.11363E-01
         0.18580E-01
         0.12756E-01
         0.81580E-01
         0.83532E-01
         0.87316E-01
         0.86683E-01
         0.92405E-01
         0.99215E-01
         0.95205E-01
         0.84654E-01
         0.82495E-01
         0.88289E-01
         0.86528E-01
         0.85350E-01
         0.70553E-01
         0.67068E-01
         0.73681E-01
         0.78922E-01
         0.81902E-01
         0.89443E-01
         0.86035E-01
         0.88365E-01
         0.79565E-01
         0.75545E-01
         0.80567E-01
         0.78761E-01
         0.81048E-01
         0.80366E-01
         0.14354E-01
         0.86204E-02
         0.81339E-02
         0.55825E-02
         0.14889E-01
         0.10293E-01
         0.45598E-02
         0.14121E-01
         0.88522E-02
         0.13332E-01
         0.64811E-02
         0.27927E-01
         0.21216E-01
         0.10582E-01
         0.29281E-01
         0.10431E-01
         0.52948E-02
         0.33602E-02
         0.70219E-02
         0.37910E-02
         0.21965E-01
         0.20604E-01
         0.20065E-01
         0.52218E-02
         0.86154E-02
         0.27271E-02
         0.10011E-01
         0.16082E-02
         0.36827E-02
         0.93212E-02
         0.89120E-02
         0.47343E-02
         0.57572E-02
         0.49934E-02
         0.19264E-01
         0.11519E-01
         0.14912E-01
         0.23892E-01
         0.18391E-01
         0.17102E-01
         0.24273E-01
         0.22000E-01
         0.22138E-01
         0.17136E-01
         0.15300E-01
         0.20933E-01
         0.13724E-01
         0.11668E-01
         0.96090E-02
         0.11348E-01
         0.18569E-01
         0.12737E-01
         0.81551E-01
         0.83512E-01
         0.87316E-01
         0.86683E-01
         0.92390E-01
         0.99182E-01
         0.95165E-01
         0.84631E-01
         0.82474E-01
         0.88263E-01
         0.86514E-01
         0.85353E-01
         0.70546E-01
         0.67066E-01
         0.73689E-01
         0.78941E-01
         0.81923E-01
         0.89462E-01
         0.86030E-01
         0.88359E-01
         0.79557E-01
         0.75541E-01
         0.80539E-01
         0.78709E-01
         0.81003E-01
         0.80323E-01
         0.14365E-01
         0.86224E-02
         0.81386E-02
         0.55905E-02
         0.14882E-01
         0.10287E-01
         0.45736E-02
         0.14134E-01
         0.88675E-02
         0.13371E-01
         0.64810E-02
         0.27927E-01
         0.21224E-01
         0.10557E-01
         0.29311E-01
         0.10439E-01
         0.53099E-02
         0.33516E-02
         0.70261E-02
         0.37827E-02
         0.21967E-01
         0.20602E-01
         0.20064E-01
         0.52215E-02
         0.86520E-02
         0.27263E-02
         0.10014E-01
         0.15916E-02
         0.37000E-02
         0.93370E-02
         0.89207E-02
         0.47327E-02
         0.57474E-02
         0.49979E-02
         0.19273E-01
         0.11516E-01
         0.14908E-01
         0.23929E-01
         0.18432E-01
         0.17126E-01
         0.24289E-01
         0.22012E-01
         0.22141E-01
         0.17136E-01
         0.15297E-01
         0.20932E-01
         0.13724E-01
         0.11668E-01
         0.95954E-02
         0.11332E-01
         0.18559E-01
         0.12717E-01
         0.81521E-01
         0.83492E-01
         0.87316E-01
         0.86684E-01
         0.92375E-01
         0.99148E-01
         0.95125E-01
         0.84609E-01
         0.82453E-01
         0.88236E-01
         0.86499E-01
         0.85356E-01
         0.70540E-01
         0.67063E-01
         0.73698E-01
         0.78961E-01
         0.81944E-01
         0.89481E-01
         0.86025E-01
         0.88354E-01
         0.79548E-01
         0.75536E-01
         0.80511E-01
         0.78657E-01
         0.80957E-01
         0.80280E-01
         0.14376E-01
         0.86244E-02
         0.81432E-02
         0.55986E-02
         0.14875E-01
         0.10281E-01
         0.45876E-02
         0.14148E-01
         0.88828E-02
         0.13409E-01
         0.64811E-02
         0.27926E-01
         0.21233E-01
         0.10532E-01
         0.29341E-01
         0.10449E-01
         0.53255E-02
         0.33430E-02
         0.70306E-02
         0.37741E-02
         0.21969E-01
         0.20601E-01
         0.20064E-01
         0.52210E-02
         0.86878E-02
         0.27250E-02
         0.10017E-01
         0.15770E-02
         0.37163E-02
         0.93514E-02
         0.89297E-02
         0.47316E-02
         0.57376E-02
         0.50025E-02
         0.19281E-01
         0.11513E-01
         0.14905E-01
         0.23966E-01
         0.18474E-01
         0.17151E-01
         0.24306E-01
         0.22024E-01
         0.22145E-01
         0.17138E-01
         0.15296E-01
         0.20932E-01
         0.13725E-01
         0.11667E-01
         0.95818E-02
         0.11316E-01
         0.18549E-01
         0.12697E-01
         0.81492E-01
         0.83472E-01
         0.87315E-01
         0.86685E-01
         0.92359E-01
         0.99115E-01
         0.95086E-01
         0.84586E-01
         0.82432E-01
         0.88210E-01
         0.86485E-01
         0.85361E-01
         0.70535E-01
         0.67061E-01
         0.73708E-01
         0.78983E-01
         0.81969E-01
         0.89502E-01
         0.86021E-01
         0.88349E-01
         0.79539E-01
         0.75531E-01
         0.80484E-01
         0.78606E-01
         0.80912E-01
         0.80237E-01
         0.14387E-01
         0.86263E-02
         0.81479E-02
         0.56066E-02
         0.14869E-01
         0.10275E-01
         0.46014E-02
         0.14161E-01
         0.88979E-02
         0.13446E-01
         0.64812E-02
         0.27925E-01
         0.21241E-01
         0.10508E-01
         0.29372E-01
         0.10459E-01
         0.53417E-02
         0.33344E-02
         0.70351E-02
         0.37653E-02
         0.21973E-01
         0.20601E-01
         0.20065E-01
         0.52202E-02
         0.87229E-02
         0.27232E-02
         0.10019E-01
         0.15643E-02
         0.37317E-02
         0.93643E-02
         0.89391E-02
         0.47305E-02
         0.57278E-02
         0.50070E-02
         0.19289E-01
         0.11510E-01
         0.14901E-01
         0.24004E-01
         0.18517E-01
         0.17178E-01
         0.24325E-01
         0.22037E-01
         0.22150E-01
         0.17141E-01
         0.15295E-01
         0.20933E-01
         0.13726E-01
         0.11667E-01
         0.95684E-02
         0.11301E-01
         0.18539E-01
         0.12678E-01
         0.81462E-01
         0.83452E-01
         0.87315E-01
         0.86685E-01
         0.92344E-01
         0.99081E-01
         0.95046E-01
         0.84564E-01
         0.82411E-01
         0.88183E-01
         0.86471E-01
         0.85366E-01
         0.70532E-01
         0.67059E-01
         0.73719E-01
         0.79008E-01
         0.81996E-01
         0.89524E-01
         0.86016E-01
         0.88344E-01
         0.79531E-01
         0.75526E-01
         0.80456E-01
         0.78554E-01
         0.80866E-01
         0.80195E-01
         0.14397E-01
         0.86277E-02
         0.81523E-02
         0.56146E-02
         0.14862E-01
         0.10270E-01
         0.46149E-02
         0.14174E-01
         0.89131E-02
         0.13482E-01
         0.64819E-02
         0.27924E-01
         0.21250E-01
         0.10483E-01
         0.29402E-01
         0.10469E-01
         0.53580E-02
         0.33257E-02
         0.70398E-02
         0.37568E-02
         0.21977E-01
         0.20601E-01
         0.20067E-01
         0.52194E-02
         0.87571E-02
         0.27211E-02
         0.10021E-01
         0.15525E-02
         0.37469E-02
         0.93768E-02
         0.89483E-02
         0.47291E-02
         0.57180E-02
         0.50115E-02
         0.19298E-01
         0.11507E-01
         0.14898E-01
         0.24041E-01
         0.18560E-01
         0.17205E-01
         0.24344E-01
         0.22050E-01
         0.22156E-01
         0.17146E-01
         0.15295E-01
         0.20935E-01
         0.13728E-01
         0.11667E-01
         0.95556E-02
         0.11285E-01
         0.18529E-01
         0.12659E-01
         0.81432E-01
         0.83432E-01
         0.87314E-01
         0.86686E-01
         0.92329E-01
         0.99048E-01
         0.95006E-01
         0.84541E-01
         0.82391E-01
         0.88156E-01
         0.86457E-01
         0.85372E-01
         0.70530E-01
         0.67058E-01
         0.73730E-01
         0.79035E-01
         0.82024E-01
         0.89545E-01
         0.86012E-01
         0.88339E-01
         0.79523E-01
         0.75522E-01
         0.80429E-01
         0.78503E-01
         0.80821E-01
         0.80152E-01
         0.14407E-01
         0.86280E-02
         0.81566E-02
         0.56228E-02
         0.14856E-01
         0.10264E-01
         0.46280E-02
         0.14184E-01
         0.89287E-02
         0.13517E-01
         0.64836E-02
         0.27925E-01
         0.21260E-01
         0.10458E-01
         0.29432E-01
         0.10479E-01
         0.53740E-02
         0.33170E-02
         0.70445E-02
         0.37483E-02
         0.21980E-01
         0.20601E-01
         0.20070E-01
         0.52188E-02
         0.87903E-02
         0.27187E-02
         0.10024E-01
         0.15411E-02
         0.37623E-02
         0.93893E-02
         0.89568E-02
         0.47268E-02
         0.57081E-02
         0.50159E-02
         0.19307E-01
         0.11505E-01
         0.14896E-01
         0.24079E-01
         0.18604E-01
         0.17232E-01
         0.24363E-01
         0.22063E-01
         0.22161E-01
         0.17150E-01
         0.15296E-01
         0.20937E-01
         0.13731E-01
         0.11668E-01
         0.95446E-02
         0.11271E-01
         0.18520E-01
         0.12639E-01
         0.81403E-01
         0.83413E-01
         0.87313E-01
         0.86686E-01
         0.92313E-01
         0.99014E-01
         0.94966E-01
         0.84518E-01
         0.82370E-01
         0.88129E-01
         0.86443E-01
         0.85378E-01
         0.70527E-01
         0.67057E-01
         0.73741E-01
         0.79061E-01
         0.82053E-01
         0.89567E-01
         0.86006E-01
         0.88334E-01
         0.79515E-01
         0.75518E-01
         0.80401E-01
         0.78452E-01
         0.80776E-01
         0.80109E-01
         0.14416E-01
         0.86280E-02
         0.81608E-02
         0.56308E-02
         0.14849E-01
         0.10258E-01
         0.46406E-02
         0.14194E-01
         0.89444E-02
         0.13551E-01
         0.64858E-02
         0.27925E-01
         0.21269E-01
         0.10434E-01
         0.29463E-01
         0.10490E-01
         0.53899E-02
         0.33082E-02
         0.70492E-02
         0.37402E-02
         0.21984E-01
         0.20601E-01
         0.20072E-01
         0.52181E-02
         0.88229E-02
         0.27161E-02
         0.10027E-01
         0.15301E-02
         0.37782E-02
         0.94018E-02
         0.89651E-02
         0.47240E-02
         0.56981E-02
         0.50202E-02
         0.19317E-01
         0.11503E-01
         0.14894E-01
         0.24117E-01
         0.18647E-01
         0.17259E-01
         0.24383E-01
         0.22077E-01
         0.22167E-01
         0.17155E-01
         0.15298E-01
         0.20941E-01
         0.13735E-01
         0.11670E-01
         0.95344E-02
         0.11256E-01
         0.18511E-01
         0.12621E-01
         0.81373E-01
         0.83393E-01
         0.87312E-01
         0.86687E-01
         0.92298E-01
         0.98981E-01
         0.94926E-01
         0.84496E-01
         0.82349E-01
         0.88102E-01
         0.86429E-01
         0.85383E-01
         0.70524E-01
         0.67055E-01
         0.73752E-01
         0.79087E-01
         0.82081E-01
         0.89587E-01
         0.86000E-01
         0.88328E-01
         0.79508E-01
         0.75515E-01
         0.80373E-01
         0.78400E-01
         0.80730E-01
         0.80067E-01
         0.14425E-01
         0.86280E-02
         0.81649E-02
         0.56390E-02
         0.14843E-01
         0.10252E-01
         0.46532E-02
         0.14204E-01
         0.89602E-02
         0.13585E-01
         0.64879E-02
         0.27925E-01
         0.21279E-01
         0.10410E-01
         0.29494E-01
         0.10500E-01
         0.54057E-02
         0.32995E-02
         0.70538E-02
         0.37319E-02
         0.21988E-01
         0.20601E-01
         0.20074E-01
         0.52176E-02
         0.88555E-02
         0.27135E-02
         0.10030E-01
         0.15194E-02
         0.37943E-02
         0.94142E-02
         0.89733E-02
         0.47212E-02
         0.56883E-02
         0.50246E-02
         0.19326E-01
         0.11501E-01
         0.14892E-01
         0.24156E-01
         0.18692E-01
         0.17286E-01
         0.24402E-01
         0.22090E-01
         0.22173E-01
         0.17160E-01
         0.15299E-01
         0.20944E-01
         0.13738E-01
         0.11672E-01
         0.95243E-02
         0.11242E-01
         0.18502E-01
         0.12602E-01
         0.81344E-01
         0.83373E-01
         0.87311E-01
         0.86687E-01
         0.92283E-01
         0.98947E-01
         0.94885E-01
         0.84473E-01
         0.82329E-01
         0.88075E-01
         0.86414E-01
         0.85389E-01
         0.70522E-01
         0.67054E-01
         0.73764E-01
         0.79114E-01
         0.82109E-01
         0.89608E-01
         0.85994E-01
         0.88323E-01
         0.79501E-01
         0.75511E-01
         0.80345E-01
         0.78349E-01
         0.80685E-01
         0.80024E-01
         0.14433E-01
         0.86279E-02
         0.81690E-02
         0.56472E-02
         0.14837E-01
         0.10246E-01
         0.46659E-02
         0.14213E-01
         0.89760E-02
         0.13618E-01
         0.64903E-02
         0.27925E-01
         0.21289E-01
         0.10385E-01
         0.29525E-01
         0.10510E-01
         0.54217E-02
         0.32908E-02
         0.70584E-02
         0.37237E-02
         0.21992E-01
         0.20601E-01
         0.20076E-01
         0.52171E-02
         0.88881E-02
         0.27110E-02
         0.10032E-01
         0.15091E-02
         0.38105E-02
         0.94267E-02
         0.89814E-02
         0.47184E-02
         0.56785E-02
         0.50289E-02
         0.19336E-01
         0.11500E-01
         0.14890E-01
         0.24194E-01
         0.18735E-01
         0.17313E-01
         0.24421E-01
         0.22103E-01
         0.22178E-01
         0.17165E-01
         0.15301E-01
         0.20948E-01
         0.13741E-01
         0.11674E-01
         0.95141E-02
         0.11228E-01
         0.18493E-01
         0.12583E-01
         0.81314E-01
         0.83354E-01
         0.87310E-01
         0.86687E-01
         0.92268E-01
         0.98913E-01
         0.94845E-01
         0.84450E-01
         0.82308E-01
         0.88048E-01
         0.86400E-01
         0.85394E-01
         0.70519E-01
         0.67053E-01
         0.73775E-01
         0.79140E-01
         0.82137E-01
         0.89629E-01
         0.85988E-01
         0.88317E-01
         0.79494E-01
         0.75508E-01
         0.80318E-01
         0.78298E-01
         0.80640E-01
         0.79982E-01
         0.14442E-01
         0.86278E-02
         0.81732E-02
         0.56553E-02
         0.14831E-01
         0.10241E-01
         0.46787E-02
         0.14223E-01
         0.89918E-02
         0.13652E-01
         0.64928E-02
         0.27925E-01
         0.21298E-01
         0.10361E-01
         0.29556E-01
         0.10521E-01
         0.54376E-02
         0.32822E-02
         0.70631E-02
         0.37153E-02
         0.21995E-01
         0.20601E-01
         0.20078E-01
         0.52166E-02
         0.89206E-02
         0.27084E-02
         0.10035E-01
         0.14990E-02
         0.38268E-02
         0.94391E-02
         0.89896E-02
         0.47156E-02
         0.56688E-02
         0.50333E-02
         0.19345E-01
         0.11498E-01
         0.14888E-01
         0.24233E-01
         0.18779E-01
         0.17340E-01
         0.24441E-01
         0.22117E-01
         0.22184E-01
         0.17169E-01
         0.15302E-01
         0.20951E-01
         0.13745E-01
         0.11676E-01
         0.95041E-02
         0.11214E-01
         0.18485E-01
         0.12564E-01
         0.81284E-01
         0.83334E-01
         0.87309E-01
         0.86688E-01
         0.92252E-01
         0.98879E-01
         0.94804E-01
         0.84427E-01
         0.82287E-01
         0.88020E-01
         0.86386E-01
         0.85400E-01
         0.70516E-01
         0.67052E-01
         0.73786E-01
         0.79166E-01
         0.82166E-01
         0.89650E-01
         0.85983E-01
         0.88312E-01
         0.79487E-01
         0.75504E-01
         0.80290E-01
         0.78247E-01
         0.80595E-01
         0.79939E-01
         0.14451E-01
         0.86277E-02
         0.81773E-02
         0.56635E-02
         0.14824E-01
         0.10235E-01
         0.46914E-02
         0.14233E-01
         0.90076E-02
         0.13686E-01
         0.64954E-02
         0.27925E-01
         0.21308E-01
         0.10337E-01
         0.29586E-01
         0.10531E-01
         0.54536E-02
         0.32734E-02
         0.70678E-02
         0.37072E-02
         0.21999E-01
         0.20601E-01
         0.20080E-01
         0.52162E-02
         0.89530E-02
         0.27060E-02
         0.10038E-01
         0.14894E-02
         0.38430E-02
         0.94516E-02
         0.89979E-02
         0.47128E-02
         0.56590E-02
         0.50377E-02
         0.19355E-01
         0.11496E-01
         0.14886E-01
         0.24271E-01
         0.18824E-01
         0.17367E-01
         0.24460E-01
         0.22130E-01
         0.22190E-01
         0.17174E-01
         0.15304E-01
         0.20954E-01
         0.13748E-01
         0.11678E-01
         0.94940E-02
         0.11199E-01
         0.18476E-01
         0.12545E-01
         0.81254E-01
         0.83314E-01
         0.87308E-01
         0.86688E-01
         0.92237E-01
         0.98845E-01
         0.94764E-01
         0.84404E-01
         0.82267E-01
         0.87993E-01
         0.86372E-01
         0.85405E-01
         0.70513E-01
         0.67050E-01
         0.73797E-01
         0.79192E-01
         0.82194E-01
         0.89670E-01
         0.85977E-01
         0.88306E-01
         0.79479E-01
         0.75501E-01
         0.80262E-01
         0.78196E-01
         0.80551E-01
         0.79897E-01
         0.14460E-01
         0.86276E-02
         0.81814E-02
         0.56717E-02
         0.14818E-01
         0.10229E-01
         0.47041E-02
         0.14242E-01
         0.90234E-02
         0.13720E-01
         0.64981E-02
         0.27925E-01
         0.21317E-01
         0.10313E-01
         0.29617E-01
         0.10542E-01
         0.54696E-02
         0.32647E-02
         0.70724E-02
         0.36990E-02
         0.22003E-01
         0.20601E-01
         0.20082E-01
         0.52158E-02
         0.89854E-02
         0.27035E-02
         0.10041E-01
         0.14800E-02
         0.38596E-02
         0.94639E-02
         0.90061E-02
         0.47100E-02
         0.56493E-02
         0.50420E-02
         0.19364E-01
         0.11495E-01
         0.14884E-01
         0.24309E-01
         0.18868E-01
         0.17394E-01
         0.24480E-01
         0.22143E-01
         0.22196E-01
         0.17179E-01
         0.15306E-01
         0.20957E-01
         0.13751E-01
         0.11680E-01
         0.94840E-02
         0.11185E-01
         0.18467E-01
         0.12526E-01
         0.81225E-01
         0.83295E-01
         0.87306E-01
         0.86688E-01
         0.92222E-01
         0.98812E-01
         0.94723E-01
         0.84381E-01
         0.82246E-01
         0.87965E-01
         0.86358E-01
         0.85411E-01
         0.70511E-01
         0.67049E-01
         0.73808E-01
         0.79219E-01
         0.82222E-01
         0.89691E-01
         0.85971E-01
         0.88301E-01
         0.79472E-01
         0.75497E-01
         0.80234E-01
         0.78145E-01
         0.80506E-01
         0.79854E-01
         0.14469E-01
         0.86276E-02
         0.81856E-02
         0.56799E-02
         0.14812E-01
         0.10223E-01
         0.47170E-02
         0.14252E-01
         0.90392E-02
         0.13753E-01
         0.65009E-02
         0.27925E-01
         0.21327E-01
         0.10289E-01
         0.29648E-01
         0.10552E-01
         0.54856E-02
         0.32560E-02
         0.70771E-02
         0.36909E-02
         0.22007E-01
         0.20601E-01
         0.20085E-01
         0.52154E-02
         0.90178E-02
         0.27011E-02
         0.10044E-01
         0.14710E-02
         0.38764E-02
         0.94762E-02
         0.90142E-02
         0.47072E-02
         0.56396E-02
         0.50464E-02
         0.19374E-01
         0.11493E-01
         0.14882E-01
         0.24348E-01
         0.18912E-01
         0.17421E-01
         0.24499E-01
         0.22157E-01
         0.22201E-01
         0.17184E-01
         0.15307E-01
         0.20961E-01
         0.13755E-01
         0.11682E-01
         0.94738E-02
         0.11171E-01
         0.18458E-01
         0.12507E-01
         0.81195E-01
         0.83275E-01
         0.87305E-01
         0.86689E-01
         0.92207E-01
         0.98778E-01
         0.94682E-01
         0.84358E-01
         0.82226E-01
         0.87937E-01
         0.86344E-01
         0.85417E-01
         0.70508E-01
         0.67048E-01
         0.73820E-01
         0.79245E-01
         0.82250E-01
         0.89712E-01
         0.85966E-01
         0.88295E-01
         0.79465E-01
         0.75494E-01
         0.80206E-01
         0.78093E-01
         0.80461E-01
         0.79812E-01
         0.14478E-01
         0.86276E-02
         0.81897E-02
         0.56882E-02
         0.14806E-01
         0.10217E-01
         0.47298E-02
         0.14262E-01
         0.90551E-02
         0.13787E-01
         0.65038E-02
         0.27926E-01
         0.21337E-01
         0.10265E-01
         0.29679E-01
         0.10562E-01
         0.55017E-02
         0.32473E-02
         0.70817E-02
         0.36826E-02
         0.22010E-01
         0.20601E-01
         0.20087E-01
         0.52150E-02
         0.90501E-02
         0.26986E-02
         0.10047E-01
         0.14623E-02
         0.38933E-02
         0.94886E-02
         0.90224E-02
         0.47043E-02
         0.56300E-02
         0.50508E-02
         0.19383E-01
         0.11491E-01
         0.14880E-01
         0.24386E-01
         0.18956E-01
         0.17448E-01
         0.24518E-01
         0.22170E-01
         0.22207E-01
         0.17189E-01
         0.15309E-01
         0.20964E-01
         0.13758E-01
         0.11684E-01
         0.94637E-02
         0.11157E-01
         0.18449E-01
         0.12488E-01
         0.81165E-01
         0.83256E-01
         0.87304E-01
         0.86689E-01
         0.92192E-01
         0.98744E-01
         0.94641E-01
         0.84335E-01
         0.82205E-01
         0.87909E-01
         0.86330E-01
         0.85422E-01
         0.70505E-01
         0.67047E-01
         0.73831E-01
         0.79272E-01
         0.82279E-01
         0.89733E-01
         0.85960E-01
         0.88290E-01
         0.79458E-01
         0.75490E-01
         0.80178E-01
         0.78042E-01
         0.80416E-01
         0.79769E-01
         0.14486E-01
         0.86274E-02
         0.81937E-02
         0.56964E-02
         0.14799E-01
         0.10212E-01
         0.47426E-02
         0.14271E-01
         0.90711E-02
         0.13821E-01
         0.65067E-02
         0.27926E-01
         0.21346E-01
         0.10241E-01
         0.29710E-01
         0.10573E-01
         0.55178E-02
         0.32387E-02
         0.70864E-02
         0.36745E-02
         0.22014E-01
         0.20601E-01
         0.20089E-01
         0.52146E-02
         0.90824E-02
         0.26962E-02
         0.10050E-01
         0.14539E-02
         0.39104E-02
         0.95009E-02
         0.90305E-02
         0.47016E-02
         0.56205E-02
         0.50552E-02
         0.19393E-01
         0.11489E-01
         0.14878E-01
         0.24425E-01
         0.19000E-01
         0.17475E-01
         0.24538E-01
         0.22183E-01
         0.22213E-01
         0.17193E-01
         0.15311E-01
         0.20968E-01
         0.13762E-01
         0.11686E-01
         0.94538E-02
         0.11142E-01
         0.18441E-01
         0.12470E-01
         0.81136E-01
         0.83236E-01
         0.87302E-01
         0.86690E-01
         0.92177E-01
         0.98710E-01
         0.94600E-01
         0.84312E-01
         0.82185E-01
         0.87881E-01
         0.86316E-01
         0.85428E-01
         0.70503E-01
         0.67045E-01
         0.73842E-01
         0.79298E-01
         0.82307E-01
         0.89753E-01
         0.85954E-01
         0.88284E-01
         0.79451E-01
         0.75487E-01
         0.80149E-01
         0.77991E-01
         0.80371E-01
         0.79727E-01
         0.14495E-01
         0.86273E-02
         0.81979E-02
         0.57047E-02
         0.14793E-01
         0.10206E-01
         0.47556E-02
         0.14281E-01
         0.90870E-02
         0.13854E-01
         0.65098E-02
         0.27926E-01
         0.21356E-01
         0.10217E-01
         0.29740E-01
         0.10583E-01
         0.55339E-02
         0.32300E-02
         0.70910E-02
         0.36662E-02
         0.22018E-01
         0.20600E-01
         0.20091E-01
         0.52143E-02
         0.91147E-02
         0.26937E-02
         0.10052E-01
         0.14456E-02
         0.39274E-02
         0.95129E-02
         0.90387E-02
         0.46989E-02
         0.56111E-02
         0.50597E-02
         0.19403E-01
         0.11488E-01
         0.14876E-01
         0.24464E-01
         0.19045E-01
         0.17502E-01
         0.24556E-01
         0.22196E-01
         0.22218E-01
         0.17198E-01
         0.15312E-01
         0.20971E-01
         0.13765E-01
         0.11688E-01
         0.94438E-02
         0.11128E-01
         0.18432E-01
         0.12451E-01
         0.81106E-01
         0.83216E-01
         0.87301E-01
         0.86690E-01
         0.92161E-01
         0.98676E-01
         0.94559E-01
         0.84289E-01
         0.82164E-01
         0.87853E-01
         0.86302E-01
         0.85435E-01
         0.70500E-01
         0.67044E-01
         0.73853E-01
         0.79324E-01
         0.82335E-01
         0.89774E-01
         0.85949E-01
         0.88279E-01
         0.79444E-01
         0.75483E-01
         0.80121E-01
         0.77940E-01
         0.80327E-01
         0.79684E-01
         0.14504E-01
         0.86272E-02
         0.82020E-02
         0.57130E-02
         0.14787E-01
         0.10200E-01
         0.47684E-02
         0.14290E-01
         0.91031E-02
         0.13887E-01
         0.65129E-02
         0.27926E-01
         0.21366E-01
         0.10192E-01
         0.29771E-01
         0.10593E-01
         0.55501E-02
         0.32213E-02
         0.70958E-02
         0.36584E-02
         0.22022E-01
         0.20600E-01
         0.20093E-01
         0.52139E-02
         0.91468E-02
         0.26915E-02
         0.10054E-01
         0.14374E-02
         0.39446E-02
         0.95245E-02
         0.90469E-02
         0.46961E-02
         0.56016E-02
         0.50641E-02
         0.19412E-01
         0.11486E-01
         0.14874E-01
         0.24502E-01
         0.19089E-01
         0.17527E-01
         0.24574E-01
         0.22208E-01
         0.22223E-01
         0.17203E-01
         0.15314E-01
         0.20975E-01
         0.13768E-01
         0.11690E-01
         0.94337E-02
         0.11114E-01
         0.18423E-01
         0.12432E-01
         0.81076E-01
         0.83197E-01
         0.87299E-01
         0.86690E-01
         0.92146E-01
         0.98642E-01
         0.94518E-01
         0.84266E-01
         0.82144E-01
         0.87823E-01
         0.86288E-01
         0.85443E-01
         0.70499E-01
         0.67043E-01
         0.73864E-01
         0.79350E-01
         0.82364E-01
         0.89795E-01
         0.85943E-01
         0.88273E-01
         0.79437E-01
         0.75480E-01
         0.80093E-01
         0.77889E-01
         0.80282E-01
         0.79642E-01
         0.14513E-01
         0.86272E-02
         0.82061E-02
         0.57214E-02
         0.14781E-01
         0.10194E-01
         0.47813E-02
         0.14300E-01
         0.91191E-02
         0.13920E-01
         0.65160E-02
         0.27926E-01
         0.21375E-01
         0.10168E-01
         0.29802E-01
         0.10604E-01
         0.55662E-02
         0.32126E-02
         0.71004E-02
         0.36505E-02
         0.22026E-01
         0.20600E-01
         0.20096E-01
         0.52136E-02
         0.91788E-02
         0.26891E-02
         0.10055E-01
         0.14290E-02
         0.39621E-02
         0.95354E-02
         0.90551E-02
         0.46933E-02
         0.55922E-02
         0.50686E-02
         0.19422E-01
         0.11484E-01
         0.14872E-01
         0.24541E-01
         0.19133E-01
         0.17552E-01
         0.24591E-01
         0.22219E-01
         0.22228E-01
         0.17208E-01
         0.15316E-01
         0.20978E-01
         0.13772E-01
         0.11692E-01
         0.94238E-02
         0.11100E-01
         0.18414E-01
         0.12413E-01
         0.81046E-01
         0.83178E-01
         0.87298E-01
         0.86690E-01
         0.92131E-01
         0.98608E-01
         0.94476E-01
         0.84243E-01
         0.82123E-01
         0.87792E-01
         0.86275E-01
         0.85454E-01
         0.70500E-01
         0.67042E-01
         0.73875E-01
         0.79376E-01
         0.82392E-01
         0.89815E-01
         0.85937E-01
         0.88268E-01
         0.79430E-01
         0.75476E-01
         0.80065E-01
         0.77838E-01
         0.80237E-01
         0.79599E-01
         0.14521E-01
         0.86271E-02
         0.82104E-02
         0.57297E-02
         0.14775E-01
         0.10189E-01
         0.47943E-02
         0.14309E-01
         0.91353E-02
         0.13953E-01
         0.65194E-02
         0.27927E-01
         0.21385E-01
         0.10144E-01
         0.29832E-01
         0.10614E-01
         0.55825E-02
         0.32040E-02
         0.71052E-02
         0.36429E-02
         0.22029E-01
         0.20599E-01
         0.20097E-01
         0.52133E-02
         0.92107E-02
         0.26869E-02
         0.10056E-01
         0.14207E-02
         0.39795E-02
         0.95461E-02
         0.90634E-02
         0.46906E-02
         0.55829E-02
         0.50731E-02
         0.19432E-01
         0.11483E-01
         0.14870E-01
         0.24580E-01
         0.19176E-01
         0.17576E-01
         0.24608E-01
         0.22229E-01
         0.22232E-01
         0.17213E-01
         0.15317E-01
         0.20982E-01
         0.13775E-01
         0.11694E-01
         0.94139E-02
         0.11085E-01
         0.18406E-01
         0.12394E-01
         0.81017E-01
         0.83158E-01
         0.87297E-01
         0.86691E-01
         0.92116E-01
         0.98574E-01
         0.94435E-01
         0.84220E-01
         0.82102E-01
         0.87760E-01
         0.86261E-01
         0.85465E-01
         0.70500E-01
         0.67041E-01
         0.73886E-01
         0.79402E-01
         0.82420E-01
         0.89836E-01
         0.85932E-01
         0.88262E-01
         0.79423E-01
         0.75472E-01
         0.80036E-01
         0.77787E-01
         0.80193E-01
         0.79557E-01
         0.14820E-01
         0.90702E-02
         0.86697E-02
         0.62543E-02
         0.15150E-01
         0.10624E-01
         0.56245E-02
         0.14676E-01
         0.95330E-02
         0.14348E-01
         0.72942E-02
         0.28299E-01
         0.21746E-01
         0.10689E-01
         0.30244E-01
         0.10951E-01
         0.62169E-02
         0.39621E-02
         0.76549E-02
         0.46533E-02
         0.22338E-01
         0.20919E-01
         0.20396E-01
         0.58610E-02
         0.97342E-02
         0.36939E-02
         0.10615E-01
         0.34625E-02
         0.51193E-02
         0.10069E-01
         0.94450E-02
         0.53847E-02
         0.61092E-02
         0.57052E-02
         0.19823E-01
         0.11929E-01
         0.15243E-01
         0.24995E-01
         0.19619E-01
         0.18012E-01
         0.24989E-01
         0.22590E-01
         0.22560E-01
         0.17522E-01
         0.15668E-01
         0.21351E-01
         0.14181E-01
         0.12097E-01
         0.98586E-02
         0.11503E-01
         0.18765E-01
         0.12781E-01
         0.81611E-01
         0.83752E-01
         0.87931E-01
         0.87305E-01
         0.92751E-01
         0.99244E-01
         0.95096E-01
         0.84866E-01
         0.82749E-01
         0.88431E-01
         0.86922E-01
         0.86103E-01
         0.71024E-01
         0.67526E-01
         0.74397E-01
         0.79944E-01
         0.82977E-01
         0.90454E-01
         0.86565E-01
         0.88905E-01
         0.79988E-01
         0.76010E-01
         0.80582E-01
         0.78304E-01
         0.80715E-01
         0.80078E-01
         0.35210E-01
         0.31722E-01
         0.31075E-01
         0.27516E-01
         0.38402E-01
         0.33519E-01
         0.32054E-01
         0.38035E-01
         0.30346E-01
         0.37722E-01
         0.35518E-01
         0.55082E-01
         0.46433E-01
         0.38164E-01
         0.58166E-01
         0.30970E-01
         0.29684E-01
         0.25434E-01
         0.31202E-01
         0.31320E-01
         0.44970E-01
         0.44294E-01
         0.42188E-01
         0.29340E-01
         0.34709E-01
         0.27633E-01
         0.38065E-01
         0.34514E-01
         0.35123E-01
         0.35886E-01
         0.30089E-01
         0.29033E-01
         0.27629E-01
         0.28532E-01
         0.44451E-01
         0.36172E-01
         0.38791E-01
         0.52523E-01
         0.46936E-01
         0.45214E-01
         0.52071E-01
         0.48489E-01
         0.47094E-01
         0.39011E-01
         0.38228E-01
         0.45693E-01
         0.37939E-01
         0.34911E-01
         0.32893E-01
         0.34897E-01
         0.42554E-01
         0.35841E-01
         0.11625E+00
         0.11785E+00
         0.12313E+00
         0.12196E+00
         0.12880E+00
         0.13774E+00
         0.13457E+00
         0.12357E+00
         0.12117E+00
         0.12769E+00
         0.12529E+00
         0.12261E+00
         0.10370E+00
         0.98686E-01
         0.10561E+00
         0.11125E+00
         0.11465E+00
         0.12437E+00
         0.12146E+00
         0.12432E+00
         0.11335E+00
         0.10850E+00
         0.11412E+00
         0.11166E+00
         0.11388E+00
         0.11276E+00
  
SCALARS                     nodal_mass  double 1
LOOKUP_TABLE default
         0.24608E-05
         0.19551E-05
         0.20945E-05
         0.35953E-05
         0.12304E-05
         0.97770E-06
         0.10472E-05
         0.17973E-05
         0.19315E-05
         0.24627E-05
         0.96570E-06
         0.12312E-05
         0.13823E-05
         0.16614E-05
         0.69133E-06
         0.83095E-06
         0.27274E-05
         0.20125E-05
         0.13635E-05
         0.10066E-05
         0.81737E-06
         0.15393E-05
         0.16929E-05
         0.40889E-06
         0.76975E-06
         0.84649E-06
         0.13859E-05
         0.17532E-05
         0.69345E-06
         0.87672E-06
         0.32470E-05
         0.25355E-05
         0.32225E-05
         0.16233E-05
         0.12675E-05
         0.16109E-05
         0.18980E-05
         0.21673E-05
         0.94902E-06
         0.10836E-05
         0.20482E-05
         0.22683E-05
         0.10242E-05
         0.11342E-05
         0.17426E-05
         0.10823E-05
         0.87140E-06
         0.54121E-06
         0.20598E-05
         0.10301E-05
         0.17103E-05
         0.85523E-06
         0.17977E-05
         0.89958E-06
         0.18362E-05
         0.91859E-06
         0.15911E-05
         0.19369E-05
         0.79575E-06
         0.96860E-06
         0.24553E-05
         0.17361E-05
         0.12277E-05
         0.86816E-06
         0.27409E-05
         0.13702E-05
         0.23792E-05
         0.11891E-05
         0.10821E-05
         0.16705E-05
         0.54106E-06
         0.83538E-06
         0.18955E-05
         0.94787E-06
         0.20026E-05
         0.10014E-05
         0.19316E-05
         0.96578E-06
         0.15181E-05
         0.75906E-06
         0.95443E-06
         0.15782E-05
         0.47723E-06
         0.78918E-06
         0.20886E-05
         0.10443E-05
         0.16867E-05
         0.84342E-06
         0.14838E-05
         0.74203E-06
         0.97224E-06
         0.16569E-05
         0.48620E-06
         0.82849E-06
         0.22482E-05
         0.11241E-05
         0.23568E-05
         0.11783E-05
         0.19018E-05
         0.95085E-06
         0.11709E-05
         0.20091E-05
         0.58544E-06
         0.10044E-05
         0.74681E-06
         0.94889E-06
         0.37348E-06
         0.47447E-06
         0.88885E-06
         0.44455E-06
         0.10466E-05
         0.52333E-06
         0.10205E-05
         0.51021E-06
         0.99108E-06
         0.49550E-06
         0.10560E-05
         0.52791E-06
         0.11142E-05
         0.55694E-06
         0.10497E-05
         0.52469E-06
         0.82085E-06
         0.41039E-06
         0.66950E-06
         0.33475E-06
         0.86397E-06
         0.43199E-06
         0.11504E-05
         0.57519E-06
         0.12637E-05
         0.63182E-06
         0.12132E-05
         0.60658E-06
         0.10948E-05
         0.54745E-06
         0.99429E-06
         0.49718E-06
         0.80759E-06
         0.40382E-06
         0.67982E-06
         0.33995E-06
         0.88797E-06
         0.44401E-06
         0.11753E-05
         0.58766E-06
         0.12140E-05
         0.60702E-06
         0.98236E-06
         0.49125E-06
         0.79766E-06
         0.39889E-06
         0.97540E-06
         0.48769E-06
         0.11548E-05
         0.57743E-06
         0.24609E-05
         0.19547E-05
         0.20946E-05
         0.35969E-05
         0.19318E-05
         0.24634E-05
         0.13815E-05
         0.16603E-05
         0.27283E-05
         0.20111E-05
         0.81658E-06
         0.15390E-05
         0.16927E-05
         0.13839E-05
         0.17528E-05
         0.32479E-05
         0.25367E-05
         0.32241E-05
         0.18980E-05
         0.21675E-05
         0.20481E-05
         0.22684E-05
         0.17424E-05
         0.10822E-05
         0.20589E-05
         0.17102E-05
         0.17950E-05
         0.18344E-05
         0.15904E-05
         0.19365E-05
         0.24555E-05
         0.17359E-05
         0.27423E-05
         0.23814E-05
         0.10820E-05
         0.16702E-05
         0.18953E-05
         0.20025E-05
         0.19317E-05
         0.15181E-05
         0.95442E-06
         0.15780E-05
         0.20884E-05
         0.16864E-05
         0.14835E-05
         0.97197E-06
         0.16567E-05
         0.22482E-05
         0.23571E-05
         0.19022E-05
         0.11709E-05
         0.20101E-05
         0.74658E-06
         0.94886E-06
         0.88841E-06
         0.10467E-05
         0.10207E-05
         0.99128E-06
         0.10565E-05
         0.11150E-05
         0.10503E-05
         0.82102E-06
         0.66954E-06
         0.86398E-06
         0.11506E-05
         0.12640E-05
         0.12133E-05
         0.10948E-05
         0.99421E-06
         0.80751E-06
         0.67970E-06
         0.88789E-06
         0.11752E-05
         0.12140E-05
         0.98215E-06
         0.79747E-06
         0.97551E-06
         0.11548E-05
         0.24611E-05
         0.19543E-05
         0.20949E-05
         0.35987E-05
         0.19321E-05
         0.24642E-05
         0.13808E-05
         0.16594E-05
         0.27293E-05
         0.20098E-05
         0.81582E-06
         0.15388E-05
         0.16927E-05
         0.13821E-05
         0.17525E-05
         0.32489E-05
         0.25379E-05
         0.32257E-05
         0.18982E-05
         0.21678E-05
         0.20480E-05
         0.22685E-05
         0.17423E-05
         0.10821E-05
         0.20580E-05
         0.17101E-05
         0.17924E-05
         0.18326E-05
         0.15898E-05
         0.19361E-05
         0.24558E-05
         0.17357E-05
         0.27438E-05
         0.23836E-05
         0.10821E-05
         0.16699E-05
         0.18951E-05
         0.20024E-05
         0.19318E-05
         0.15183E-05
         0.95445E-06
         0.15778E-05
         0.20884E-05
         0.16862E-05
         0.14831E-05
         0.97174E-06
         0.16566E-05
         0.22483E-05
         0.23575E-05
         0.19026E-05
         0.11709E-05
         0.20112E-05
         0.74636E-06
         0.94886E-06
         0.88800E-06
         0.10467E-05
         0.10210E-05
         0.99152E-06
         0.10570E-05
         0.11159E-05
         0.10509E-05
         0.82122E-06
         0.66961E-06
         0.86402E-06
         0.11507E-05
         0.12643E-05
         0.12135E-05
         0.10948E-05
         0.99417E-06
         0.80747E-06
         0.67961E-06
         0.88784E-06
         0.11752E-05
         0.12140E-05
         0.98197E-06
         0.79731E-06
         0.97565E-06
         0.11548E-05
         0.24612E-05
         0.19539E-05
         0.20950E-05
         0.36004E-05
         0.19324E-05
         0.24650E-05
         0.13801E-05
         0.16584E-05
         0.27303E-05
         0.20085E-05
         0.81504E-06
         0.15385E-05
         0.16925E-05
         0.13801E-05
         0.17521E-05
         0.32498E-05
         0.25390E-05
         0.32274E-05
         0.18982E-05
         0.21681E-05
         0.20479E-05
         0.22686E-05
         0.17421E-05
         0.10820E-05
         0.20571E-05
         0.17099E-05
         0.17897E-05
         0.18308E-05
         0.15891E-05
         0.19356E-05
         0.24561E-05
         0.17355E-05
         0.27453E-05
         0.23857E-05
         0.10820E-05
         0.16696E-05
         0.18948E-05
         0.20022E-05
         0.19320E-05
         0.15183E-05
         0.95445E-06
         0.15776E-05
         0.20883E-05
         0.16859E-05
         0.14828E-05
         0.97149E-06
         0.16564E-05
         0.22483E-05
         0.23578E-05
         0.19030E-05
         0.11710E-05
         0.20122E-05
         0.74613E-06
         0.94884E-06
         0.88756E-06
         0.10467E-05
         0.10212E-05
         0.99173E-06
         0.10574E-05
         0.11167E-05
         0.10515E-05
         0.82140E-06
         0.66966E-06
         0.86404E-06
         0.11509E-05
         0.12646E-05
         0.12136E-05
         0.10947E-05
         0.99410E-06
         0.80740E-06
         0.67950E-06
         0.88777E-06
         0.11752E-05
         0.12140E-05
         0.98177E-06
         0.79713E-06
         0.97576E-06
         0.11547E-05
         0.24613E-05
         0.19535E-05
         0.20952E-05
         0.36022E-05
         0.19327E-05
         0.24657E-05
         0.13794E-05
         0.16574E-05
         0.27313E-05
         0.20072E-05
         0.81426E-06
         0.15382E-05
         0.16924E-05
         0.13782E-05
         0.17517E-05
         0.32508E-05
         0.25402E-05
         0.32290E-05
         0.18983E-05
         0.21684E-05
         0.20479E-05
         0.22687E-05
         0.17420E-05
         0.10819E-05
         0.20563E-05
         0.17098E-05
         0.17870E-05
         0.18290E-05
         0.15884E-05
         0.19352E-05
         0.24563E-05
         0.17353E-05
         0.27467E-05
         0.23879E-05
         0.10820E-05
         0.16693E-05
         0.18946E-05
         0.20021E-05
         0.19321E-05
         0.15184E-05
         0.95445E-06
         0.15773E-05
         0.20882E-05
         0.16857E-05
         0.14824E-05
         0.97124E-06
         0.16563E-05
         0.22484E-05
         0.23582E-05
         0.19034E-05
         0.11710E-05
         0.20132E-05
         0.74590E-06
         0.94883E-06
         0.88713E-06
         0.10468E-05
         0.10215E-05
         0.99194E-06
         0.10579E-05
         0.11175E-05
         0.10521E-05
         0.82159E-06
         0.66972E-06
         0.86406E-06
         0.11510E-05
         0.12649E-05
         0.12138E-05
         0.10947E-05
         0.99404E-06
         0.80734E-06
         0.67940E-06
         0.88771E-06
         0.11752E-05
         0.12140E-05
         0.98157E-06
         0.79696E-06
         0.97588E-06
         0.11547E-05
         0.24615E-05
         0.19531E-05
         0.20954E-05
         0.36039E-05
         0.19331E-05
         0.24665E-05
         0.13787E-05
         0.16564E-05
         0.27322E-05
         0.20059E-05
         0.81349E-06
         0.15380E-05
         0.16923E-05
         0.13763E-05
         0.17514E-05
         0.32518E-05
         0.25414E-05
         0.32306E-05
         0.18984E-05
         0.21687E-05
         0.20478E-05
         0.22688E-05
         0.17418E-05
         0.10818E-05
         0.20554E-05
         0.17096E-05
         0.17843E-05
         0.18272E-05
         0.15878E-05
         0.19347E-05
         0.24566E-05
         0.17351E-05
         0.27482E-05
         0.23901E-05
         0.10820E-05
         0.16690E-05
         0.18943E-05
         0.20019E-05
         0.19322E-05
         0.15185E-05
         0.95446E-06
         0.15771E-05
         0.20881E-05
         0.16855E-05
         0.14821E-05
         0.97100E-06
         0.16562E-05
         0.22484E-05
         0.23586E-05
         0.19038E-05
         0.11710E-05
         0.20142E-05
         0.74568E-06
         0.94882E-06
         0.88671E-06
         0.10468E-05
         0.10217E-05
         0.99216E-06
         0.10583E-05
         0.11183E-05
         0.10528E-05
         0.82178E-06
         0.66977E-06
         0.86408E-06
         0.11512E-05
         0.12652E-05
         0.12139E-05
         0.10947E-05
         0.99398E-06
         0.80728E-06
         0.67930E-06
         0.88766E-06
         0.11752E-05
         0.12140E-05
         0.98138E-06
         0.79679E-06
         0.97601E-06
         0.11547E-05
         0.24616E-05
         0.19527E-05
         0.20956E-05
         0.36056E-05
         0.19334E-05
         0.24672E-05
         0.13779E-05
         0.16554E-05
         0.27332E-05
         0.20046E-05
         0.81271E-06
         0.15377E-05
         0.16922E-05
         0.13744E-05
         0.17510E-05
         0.32527E-05
         0.25425E-05
         0.32322E-05
         0.18984E-05
         0.21689E-05
         0.20477E-05
         0.22689E-05
         0.17416E-05
         0.10816E-05
         0.20545E-05
         0.17095E-05
         0.17817E-05
         0.18254E-05
         0.15871E-05
         0.19343E-05
         0.24568E-05
         0.17349E-05
         0.27496E-05
         0.23922E-05
         0.10820E-05
         0.16686E-05
         0.18941E-05
         0.20018E-05
         0.19324E-05
         0.15186E-05
         0.95446E-06
         0.15769E-05
         0.20880E-05
         0.16852E-05
         0.14817E-05
         0.97074E-06
         0.16560E-05
         0.22484E-05
         0.23589E-05
         0.19042E-05
         0.11710E-05
         0.20152E-05
         0.74544E-06
         0.94880E-06
         0.88627E-06
         0.10469E-05
         0.10219E-05
         0.99237E-06
         0.10588E-05
         0.11191E-05
         0.10534E-05
         0.82196E-06
         0.66982E-06
         0.86410E-06
         0.11513E-05
         0.12654E-05
         0.12140E-05
         0.10947E-05
         0.99391E-06
         0.80721E-06
         0.67919E-06
         0.88759E-06
         0.11751E-05
         0.12140E-05
         0.98118E-06
         0.79661E-06
         0.97612E-06
         0.11546E-05
         0.24618E-05
         0.19523E-05
         0.20957E-05
         0.36073E-05
         0.19337E-05
         0.24680E-05
         0.13772E-05
         0.16545E-05
         0.27341E-05
         0.20033E-05
         0.81194E-06
         0.15374E-05
         0.16921E-05
         0.13725E-05
         0.17506E-05
         0.32537E-05
         0.25437E-05
         0.32339E-05
         0.18985E-05
         0.21692E-05
         0.20476E-05
         0.22690E-05
         0.17414E-05
         0.10815E-05
         0.20536E-05
         0.17093E-05
         0.17790E-05
         0.18236E-05
         0.15864E-05
         0.19339E-05
         0.24571E-05
         0.17347E-05
         0.27511E-05
         0.23944E-05
         0.10820E-05
         0.16683E-05
         0.18938E-05
         0.20016E-05
         0.19325E-05
         0.15186E-05
         0.95446E-06
         0.15767E-05
         0.20878E-05
         0.16850E-05
         0.14814E-05
         0.97050E-06
         0.16559E-05
         0.22484E-05
         0.23593E-05
         0.19046E-05
         0.11711E-05
         0.20162E-05
         0.74522E-06
         0.94878E-06
         0.88584E-06
         0.10469E-05
         0.10222E-05
         0.99258E-06
         0.10593E-05
         0.11199E-05
         0.10540E-05
         0.82215E-06
         0.66988E-06
         0.86413E-06
         0.11515E-05
         0.12657E-05
         0.12142E-05
         0.10946E-05
         0.99385E-06
         0.80715E-06
         0.67909E-06
         0.88752E-06
         0.11751E-05
         0.12140E-05
         0.98098E-06
         0.79643E-06
         0.97624E-06
         0.11546E-05
         0.24619E-05
         0.19519E-05
         0.20959E-05
         0.36091E-05
         0.19340E-05
         0.24688E-05
         0.13765E-05
         0.16535E-05
         0.27351E-05
         0.20020E-05
         0.81117E-06
         0.15372E-05
         0.16920E-05
         0.13706E-05
         0.17503E-05
         0.32546E-05
         0.25448E-05
         0.32355E-05
         0.18986E-05
         0.21695E-05
         0.20475E-05
         0.22691E-05
         0.17413E-05
         0.10814E-05
         0.20527E-05
         0.17092E-05
         0.17763E-05
         0.18219E-05
         0.15858E-05
         0.19334E-05
         0.24573E-05
         0.17345E-05
         0.27525E-05
         0.23966E-05
         0.10820E-05
         0.16680E-05
         0.18936E-05
         0.20015E-05
         0.19326E-05
         0.15187E-05
         0.95447E-06
         0.15765E-05
         0.20878E-05
         0.16848E-05
         0.14810E-05
         0.97025E-06
         0.16557E-05
         0.22485E-05
         0.23597E-05
         0.19050E-05
         0.11711E-05
         0.20172E-05
         0.74499E-06
         0.94877E-06
         0.88541E-06
         0.10469E-05
         0.10224E-05
         0.99280E-06
         0.10597E-05
         0.11207E-05
         0.10546E-05
         0.82234E-06
         0.66994E-06
         0.86415E-06
         0.11517E-05
         0.12660E-05
         0.12143E-05
         0.10946E-05
         0.99379E-06
         0.80709E-06
         0.67898E-06
         0.88746E-06
         0.11751E-05
         0.12140E-05
         0.98079E-06
         0.79626E-06
         0.97636E-06
         0.11546E-05
         0.24621E-05
         0.19515E-05
         0.20961E-05
         0.36108E-05
         0.19343E-05
         0.24695E-05
         0.13758E-05
         0.16525E-05
         0.27361E-05
         0.20006E-05
         0.81039E-06
         0.15369E-05
         0.16919E-05
         0.13686E-05
         0.17499E-05
         0.32556E-05
         0.25460E-05
         0.32371E-05
         0.18986E-05
         0.21697E-05
         0.20474E-05
         0.22692E-05
         0.17411E-05
         0.10813E-05
         0.20519E-05
         0.17091E-05
         0.17736E-05
         0.18201E-05
         0.15851E-05
         0.19330E-05
         0.24575E-05
         0.17342E-05
         0.27540E-05
         0.23987E-05
         0.10820E-05
         0.16677E-05
         0.18933E-05
         0.20014E-05
         0.19328E-05
         0.15188E-05
         0.95448E-06
         0.15763E-05
         0.20876E-05
         0.16845E-05
         0.14807E-05
         0.97000E-06
         0.16556E-05
         0.22485E-05
         0.23600E-05
         0.19053E-05
         0.11711E-05
         0.20182E-05
         0.74476E-06
         0.94875E-06
         0.88498E-06
         0.10470E-05
         0.10227E-05
         0.99301E-06
         0.10602E-05
         0.11215E-05
         0.10553E-05
         0.82252E-06
         0.66999E-06
         0.86417E-06
         0.11518E-05
         0.12663E-05
         0.12145E-05
         0.10946E-05
         0.99373E-06
         0.80702E-06
         0.67888E-06
         0.88740E-06
         0.11751E-05
         0.12140E-05
         0.98058E-06
         0.79608E-06
         0.97648E-06
         0.11546E-05
         0.24622E-05
         0.19511E-05
         0.20963E-05
         0.36125E-05
         0.19346E-05
         0.24703E-05
         0.13751E-05
         0.16515E-05
         0.27370E-05
         0.19993E-05
         0.80962E-06
         0.15366E-05
         0.16917E-05
         0.13667E-05
         0.17495E-05
         0.32565E-05
         0.25471E-05
         0.32388E-05
         0.18987E-05
         0.21700E-05
         0.20473E-05
         0.22693E-05
         0.17409E-05
         0.10812E-05
         0.20510E-05
         0.17089E-05
         0.17710E-05
         0.18183E-05
         0.15844E-05
         0.19325E-05
         0.24578E-05
         0.17340E-05
         0.27554E-05
         0.24009E-05
         0.10820E-05
         0.16674E-05
         0.18931E-05
         0.20012E-05
         0.19329E-05
         0.15189E-05
         0.95448E-06
         0.15760E-05
         0.20875E-05
         0.16843E-05
         0.14803E-05
         0.96975E-06
         0.16555E-05
         0.22485E-05
         0.23604E-05
         0.19057E-05
         0.11712E-05
         0.20192E-05
         0.74453E-06
         0.94874E-06
         0.88455E-06
         0.10470E-05
         0.10229E-05
         0.99322E-06
         0.10606E-05
         0.11223E-05
         0.10559E-05
         0.82270E-06
         0.67004E-06
         0.86419E-06
         0.11520E-05
         0.12666E-05
         0.12146E-05
         0.10945E-05
         0.99366E-06
         0.80696E-06
         0.67877E-06
         0.88733E-06
         0.11751E-05
         0.12140E-05
         0.98038E-06
         0.79590E-06
         0.97660E-06
         0.11545E-05
         0.24623E-05
         0.19507E-05
         0.20964E-05
         0.36142E-05
         0.19349E-05
         0.24710E-05
         0.13743E-05
         0.16505E-05
         0.27380E-05
         0.19980E-05
         0.80885E-06
         0.15364E-05
         0.16916E-05
         0.13648E-05
         0.17492E-05
         0.32575E-05
         0.25483E-05
         0.32404E-05
         0.18988E-05
         0.21703E-05
         0.20473E-05
         0.22694E-05
         0.17407E-05
         0.10811E-05
         0.20501E-05
         0.17088E-05
         0.17683E-05
         0.18165E-05
         0.15837E-05
         0.19321E-05
         0.24580E-05
         0.17338E-05
         0.27569E-05
         0.24031E-05
         0.10820E-05
         0.16670E-05
         0.18928E-05
         0.20011E-05
         0.19330E-05
         0.15189E-05
         0.95448E-06
         0.15758E-05
         0.20874E-05
         0.16840E-05
         0.14800E-05
         0.96950E-06
         0.16553E-05
         0.22485E-05
         0.23608E-05
         0.19061E-05
         0.11712E-05
         0.20202E-05
         0.74430E-06
         0.94872E-06
         0.88412E-06
         0.10470E-05
         0.10231E-05
         0.99344E-06
         0.10611E-05
         0.11231E-05
         0.10565E-05
         0.82289E-06
         0.67009E-06
         0.86422E-06
         0.11521E-05
         0.12669E-05
         0.12147E-05
         0.10945E-05
         0.99360E-06
         0.80690E-06
         0.67867E-06
         0.88727E-06
         0.11750E-05
         0.12140E-05
         0.98019E-06
         0.79573E-06
         0.97672E-06
         0.11545E-05
         0.24625E-05
         0.19503E-05
         0.20966E-05
         0.36160E-05
         0.19352E-05
         0.24718E-05
         0.13736E-05
         0.16496E-05
         0.27389E-05
         0.19967E-05
         0.80807E-06
         0.15361E-05
         0.16915E-05
         0.13629E-05
         0.17488E-05
         0.32584E-05
         0.25495E-05
         0.32420E-05
         0.18988E-05
         0.21705E-05
         0.20472E-05
         0.22695E-05
         0.17406E-05
         0.10810E-05
         0.20492E-05
         0.17086E-05
         0.17656E-05
         0.18147E-05
         0.15831E-05
         0.19317E-05
         0.24583E-05
         0.17336E-05
         0.27583E-05
         0.24053E-05
         0.10820E-05
         0.16667E-05
         0.18926E-05
         0.20009E-05
         0.19331E-05
         0.15190E-05
         0.95449E-06
         0.15756E-05
         0.20873E-05
         0.16838E-05
         0.14796E-05
         0.96925E-06
         0.16552E-05
         0.22486E-05
         0.23611E-05
         0.19065E-05
         0.11712E-05
         0.20212E-05
         0.74407E-06
         0.94870E-06
         0.88368E-06
         0.10471E-05
         0.10234E-05
         0.99365E-06
         0.10616E-05
         0.11239E-05
         0.10571E-05
         0.82307E-06
         0.67014E-06
         0.86424E-06
         0.11523E-05
         0.12672E-05
         0.12149E-05
         0.10945E-05
         0.99354E-06
         0.80683E-06
         0.67856E-06
         0.88721E-06
         0.11750E-05
         0.12140E-05
         0.97999E-06
         0.79555E-06
         0.97684E-06
         0.11545E-05
         0.24626E-05
         0.19499E-05
         0.20968E-05
         0.36177E-05
         0.19355E-05
         0.24725E-05
         0.13729E-05
         0.16486E-05
         0.27399E-05
         0.19954E-05
         0.80730E-06
         0.15358E-05
         0.16914E-05
         0.13610E-05
         0.17484E-05
         0.32594E-05
         0.25506E-05
         0.32437E-05
         0.18989E-05
         0.21708E-05
         0.20471E-05
         0.22696E-05
         0.17404E-05
         0.10808E-05
         0.20483E-05
         0.17085E-05
         0.17629E-05
         0.18129E-05
         0.15824E-05
         0.19312E-05
         0.24585E-05
         0.17334E-05
         0.27598E-05
         0.24074E-05
         0.10820E-05
         0.16664E-05
         0.18923E-05
         0.20008E-05
         0.19333E-05
         0.15191E-05
         0.95449E-06
         0.15754E-05
         0.20872E-05
         0.16835E-05
         0.14793E-05
         0.96901E-06
         0.16550E-05
         0.22486E-05
         0.23615E-05
         0.19069E-05
         0.11713E-05
         0.20222E-05
         0.74384E-06
         0.94869E-06
         0.88325E-06
         0.10471E-05
         0.10236E-05
         0.99386E-06
         0.10620E-05
         0.11247E-05
         0.10577E-05
         0.82326E-06
         0.67020E-06
         0.86426E-06
         0.11524E-05
         0.12674E-05
         0.12150E-05
         0.10944E-05
         0.99348E-06
         0.80677E-06
         0.67846E-06
         0.88714E-06
         0.11750E-05
         0.12140E-05
         0.97979E-06
         0.79538E-06
         0.97696E-06
         0.11544E-05
         0.24628E-05
         0.19495E-05
         0.20970E-05
         0.36194E-05
         0.19358E-05
         0.24733E-05
         0.13722E-05
         0.16476E-05
         0.27409E-05
         0.19941E-05
         0.80652E-06
         0.15355E-05
         0.16913E-05
         0.13591E-05
         0.17481E-05
         0.32604E-05
         0.25518E-05
         0.32453E-05
         0.18990E-05
         0.21711E-05
         0.20470E-05
         0.22697E-05
         0.17402E-05
         0.10807E-05
         0.20474E-05
         0.17084E-05
         0.17603E-05
         0.18111E-05
         0.15817E-05
         0.19308E-05
         0.24588E-05
         0.17332E-05
         0.27613E-05
         0.24096E-05
         0.10819E-05
         0.16661E-05
         0.18921E-05
         0.20006E-05
         0.19334E-05
         0.15192E-05
         0.95450E-06
         0.15752E-05
         0.20871E-05
         0.16833E-05
         0.14789E-05
         0.96876E-06
         0.16549E-05
         0.22486E-05
         0.23619E-05
         0.19073E-05
         0.11713E-05
         0.20232E-05
         0.74362E-06
         0.94868E-06
         0.88282E-06
         0.10472E-05
         0.10238E-05
         0.99408E-06
         0.10625E-05
         0.11255E-05
         0.10584E-05
         0.82345E-06
         0.67025E-06
         0.86428E-06
         0.11526E-05
         0.12677E-05
         0.12152E-05
         0.10944E-05
         0.99342E-06
         0.80671E-06
         0.67836E-06
         0.88709E-06
         0.11750E-05
         0.12140E-05
         0.97959E-06
         0.79521E-06
         0.97708E-06
         0.11544E-05
         0.24629E-05
         0.19491E-05
         0.20972E-05
         0.36212E-05
         0.19361E-05
         0.24741E-05
         0.13715E-05
         0.16466E-05
         0.27418E-05
         0.19928E-05
         0.80575E-06
         0.15353E-05
         0.16912E-05
         0.13572E-05
         0.17477E-05
         0.32613E-05
         0.25529E-05
         0.32469E-05
         0.18990E-05
         0.21714E-05
         0.20469E-05
         0.22698E-05
         0.17400E-05
         0.10806E-05
         0.20466E-05
         0.17082E-05
         0.17576E-05
         0.18093E-05
         0.15810E-05
         0.19303E-05
         0.24590E-05
         0.17330E-05
         0.27627E-05
         0.24118E-05
         0.10819E-05
         0.16658E-05
         0.18919E-05
         0.20005E-05
         0.19335E-05
         0.15192E-05
         0.95450E-06
         0.15750E-05
         0.20870E-05
         0.16831E-05
         0.14786E-05
         0.96851E-06
         0.16548E-05
         0.22487E-05
         0.23622E-05
         0.19077E-05
         0.11713E-05
         0.20242E-05
         0.74339E-06
         0.94866E-06
         0.88239E-06
         0.10472E-05
         0.10241E-05
         0.99429E-06
         0.10630E-05
         0.11263E-05
         0.10590E-05
         0.82363E-06
         0.67030E-06
         0.86430E-06
         0.11527E-05
         0.12680E-05
         0.12153E-05
         0.10944E-05
         0.99335E-06
         0.80665E-06
         0.67825E-06
         0.88702E-06
         0.11749E-05
         0.12140E-05
         0.97939E-06
         0.79503E-06
         0.97720E-06
         0.11544E-05
         0.24631E-05
         0.19487E-05
         0.20973E-05
         0.36229E-05
         0.19364E-05
         0.24748E-05
         0.13707E-05
         0.16456E-05
         0.27428E-05
         0.19915E-05
         0.80498E-06
         0.15350E-05
         0.16911E-05
         0.13553E-05
         0.17473E-05
         0.32623E-05
         0.25541E-05
         0.32486E-05
         0.18991E-05
         0.21716E-05
         0.20468E-05
         0.22699E-05
         0.17399E-05
         0.10805E-05
         0.20457E-05
         0.17081E-05
         0.17549E-05
         0.18075E-05
         0.15804E-05
         0.19299E-05
         0.24592E-05
         0.17328E-05
         0.27642E-05
         0.24140E-05
         0.10819E-05
         0.16654E-05
         0.18916E-05
         0.20003E-05
         0.19337E-05
         0.15193E-05
         0.95450E-06
         0.15748E-05
         0.20869E-05
         0.16828E-05
         0.14782E-05
         0.96826E-06
         0.16546E-05
         0.22487E-05
         0.23626E-05
         0.19081E-05
         0.11714E-05
         0.20253E-05
         0.74316E-06
         0.94864E-06
         0.88196E-06
         0.10472E-05
         0.10243E-05
         0.99450E-06
         0.10634E-05
         0.11271E-05
         0.10596E-05
         0.82381E-06
         0.67036E-06
         0.86432E-06
         0.11529E-05
         0.12683E-05
         0.12154E-05
         0.10943E-05
         0.99329E-06
         0.80658E-06
         0.67815E-06
         0.88696E-06
         0.11749E-05
         0.12140E-05
         0.97919E-06
         0.79485E-06
         0.97732E-06
         0.11544E-05
         0.24632E-05
         0.19483E-05
         0.20975E-05
         0.36246E-05
         0.19368E-05
         0.24756E-05
         0.13700E-05
         0.16447E-05
         0.27437E-05
         0.19902E-05
         0.80421E-06
         0.15347E-05
         0.16910E-05
         0.13534E-05
         0.17470E-05
         0.32632E-05
         0.25552E-05
         0.32502E-05
         0.18992E-05
         0.21719E-05
         0.20467E-05
         0.22700E-05
         0.17397E-05
         0.10804E-05
         0.20448E-05
         0.17079E-05
         0.17523E-05
         0.18057E-05
         0.15797E-05
         0.19295E-05
         0.24595E-05
         0.17326E-05
         0.27656E-05
         0.24161E-05
         0.10819E-05
         0.16651E-05
         0.18914E-05
         0.20002E-05
         0.19338E-05
         0.15194E-05
         0.95451E-06
         0.15745E-05
         0.20868E-05
         0.16826E-05
         0.14779E-05
         0.96801E-06
         0.16545E-05
         0.22487E-05
         0.23630E-05
         0.19085E-05
         0.11714E-05
         0.20263E-05
         0.74293E-06
         0.94863E-06
         0.88153E-06
         0.10473E-05
         0.10245E-05
         0.99472E-06
         0.10639E-05
         0.11279E-05
         0.10602E-05
         0.82400E-06
         0.67041E-06
         0.86435E-06
         0.11530E-05
         0.12686E-05
         0.12156E-05
         0.10943E-05
         0.99323E-06
         0.80652E-06
         0.67804E-06
         0.88690E-06
         0.11749E-05
         0.12140E-05
         0.97900E-06
         0.79468E-06
         0.97744E-06
         0.11543E-05
         0.24633E-05
         0.19479E-05
         0.20977E-05
         0.36264E-05
         0.19371E-05
         0.24763E-05
         0.13693E-05
         0.16437E-05
         0.27447E-05
         0.19888E-05
         0.80343E-06
         0.15345E-05
         0.16908E-05
         0.13515E-05
         0.17466E-05
         0.32642E-05
         0.25564E-05
         0.32518E-05
         0.18992E-05
         0.21722E-05
         0.20466E-05
         0.22701E-05
         0.17395E-05
         0.10803E-05
         0.20439E-05
         0.17078E-05
         0.17496E-05
         0.18039E-05
         0.15790E-05
         0.19290E-05
         0.24597E-05
         0.17323E-05
         0.27671E-05
         0.24183E-05
         0.10819E-05
         0.16648E-05
         0.18911E-05
         0.20001E-05
         0.19339E-05
         0.15195E-05
         0.95452E-06
         0.15743E-05
         0.20867E-05
         0.16823E-05
         0.14775E-05
         0.96776E-06
         0.16543E-05
         0.22487E-05
         0.23633E-05
         0.19089E-05
         0.11714E-05
         0.20273E-05
         0.74270E-06
         0.94861E-06
         0.88109E-06
         0.10473E-05
         0.10248E-05
         0.99493E-06
         0.10643E-05
         0.11287E-05
         0.10609E-05
         0.82418E-06
         0.67046E-06
         0.86437E-06
         0.11532E-05
         0.12689E-05
         0.12157E-05
         0.10943E-05
         0.99316E-06
         0.80646E-06
         0.67794E-06
         0.88683E-06
         0.11749E-05
         0.12140E-05
         0.97879E-06
         0.79450E-06
         0.97755E-06
         0.11543E-05
         0.24635E-05
         0.19475E-05
         0.20979E-05
         0.36281E-05
         0.19374E-05
         0.24771E-05
         0.13686E-05
         0.16427E-05
         0.27456E-05
         0.19875E-05
         0.80266E-06
         0.15342E-05
         0.16907E-05
         0.13496E-05
         0.17463E-05
         0.32651E-05
         0.25575E-05
         0.32534E-05
         0.18993E-05
         0.21724E-05
         0.20466E-05
         0.22702E-05
         0.17393E-05
         0.10802E-05
         0.20430E-05
         0.17076E-05
         0.17469E-05
         0.18021E-05
         0.15784E-05
         0.19286E-05
         0.24600E-05
         0.17321E-05
         0.27685E-05
         0.24205E-05
         0.10819E-05
         0.16645E-05
         0.18909E-05
         0.19999E-05
         0.19341E-05
         0.15195E-05
         0.95452E-06
         0.15741E-05
         0.20866E-05
         0.16821E-05
         0.14772E-05
         0.96751E-06
         0.16542E-05
         0.22488E-05
         0.23637E-05
         0.19092E-05
         0.11715E-05
         0.20283E-05
         0.74247E-06
         0.94860E-06
         0.88066E-06
         0.10473E-05
         0.10250E-05
         0.99514E-06
         0.10648E-05
         0.11295E-05
         0.10615E-05
         0.82437E-06
         0.67052E-06
         0.86439E-06
         0.11533E-05
         0.12691E-05
         0.12159E-05
         0.10942E-05
         0.99310E-06
         0.80639E-06
         0.67783E-06
         0.88676E-06
         0.11748E-05
         0.12140E-05
         0.97859E-06
         0.79433E-06
         0.97767E-06
         0.11543E-05
         0.24636E-05
         0.19471E-05
         0.20980E-05
         0.36298E-05
         0.19377E-05
         0.24779E-05
         0.13679E-05
         0.16417E-05
         0.27466E-05
         0.19862E-05
         0.80189E-06
         0.15339E-05
         0.16906E-05
         0.13477E-05
         0.17459E-05
         0.32661E-05
         0.25587E-05
         0.32551E-05
         0.18994E-05
         0.21727E-05
         0.20465E-05
         0.22703E-05
         0.17392E-05
         0.10800E-05
         0.20421E-05
         0.17075E-05
         0.17443E-05
         0.18003E-05
         0.15777E-05
         0.19281E-05
         0.24602E-05
         0.17319E-05
         0.27700E-05
         0.24227E-05
         0.10819E-05
         0.16642E-05
         0.18906E-05
         0.19998E-05
         0.19342E-05
         0.15196E-05
         0.95453E-06
         0.15739E-05
         0.20865E-05
         0.16819E-05
         0.14768E-05
         0.96727E-06
         0.16541E-05
         0.22488E-05
         0.23640E-05
         0.19096E-05
         0.11715E-05
         0.20293E-05
         0.74225E-06
         0.94859E-06
         0.88023E-06
         0.10474E-05
         0.10253E-05
         0.99535E-06
         0.10653E-05
         0.11303E-05
         0.10621E-05
         0.82456E-06
         0.67057E-06
         0.86441E-06
         0.11535E-05
         0.12694E-05
         0.12160E-05
         0.10942E-05
         0.99304E-06
         0.80633E-06
         0.67773E-06
         0.88671E-06
         0.11748E-05
         0.12140E-05
         0.97840E-06
         0.79415E-06
         0.97780E-06
         0.11542E-05
         0.24637E-05
         0.19466E-05
         0.20982E-05
         0.36315E-05
         0.19380E-05
         0.24786E-05
         0.13671E-05
         0.16407E-05
         0.27475E-05
         0.19849E-05
         0.80110E-06
         0.15336E-05
         0.16905E-05
         0.13457E-05
         0.17455E-05
         0.32669E-05
         0.25598E-05
         0.32567E-05
         0.18994E-05
         0.21729E-05
         0.20464E-05
         0.22703E-05
         0.17390E-05
         0.10799E-05
         0.20412E-05
         0.17073E-05
         0.17416E-05
         0.17985E-05
         0.15770E-05
         0.19277E-05
         0.24604E-05
         0.17317E-05
         0.27714E-05
         0.24248E-05
         0.10819E-05
         0.16638E-05
         0.18903E-05
         0.19996E-05
         0.19343E-05
         0.15196E-05
         0.95451E-06
         0.15737E-05
         0.20864E-05
         0.16816E-05
         0.14765E-05
         0.96700E-06
         0.16539E-05
         0.22488E-05
         0.23644E-05
         0.19100E-05
         0.11715E-05
         0.20303E-05
         0.74200E-06
         0.94855E-06
         0.87978E-06
         0.10474E-05
         0.10255E-05
         0.99555E-06
         0.10657E-05
         0.11311E-05
         0.10627E-05
         0.82472E-06
         0.67061E-06
         0.86442E-06
         0.11536E-05
         0.12697E-05
         0.12161E-05
         0.10941E-05
         0.99295E-06
         0.80625E-06
         0.67761E-06
         0.88662E-06
         0.11748E-05
         0.12140E-05
         0.97818E-06
         0.79396E-06
         0.97790E-06
         0.11542E-05
         0.24639E-05
         0.19463E-05
         0.20984E-05
         0.36333E-05
         0.19383E-05
         0.24794E-05
         0.13664E-05
         0.16398E-05
         0.27485E-05
         0.19836E-05
         0.80034E-06
         0.15334E-05
         0.16904E-05
         0.13439E-05
         0.17452E-05
         0.32679E-05
         0.25610E-05
         0.32583E-05
         0.18995E-05
         0.21732E-05
         0.20463E-05
         0.22704E-05
         0.17388E-05
         0.10798E-05
         0.20404E-05
         0.17072E-05
         0.17389E-05
         0.17967E-05
         0.15763E-05
         0.19272E-05
         0.24607E-05
         0.17315E-05
         0.27729E-05
         0.24270E-05
         0.10819E-05
         0.16635E-05
         0.18901E-05
         0.19995E-05
         0.19345E-05
         0.15197E-05
         0.95453E-06
         0.15735E-05
         0.20863E-05
         0.16814E-05
         0.14761E-05
         0.96677E-06
         0.16538E-05
         0.22488E-05
         0.23647E-05
         0.19104E-05
         0.11716E-05
         0.20313E-05
         0.74179E-06
         0.94855E-06
         0.87936E-06
         0.10475E-05
         0.10257E-05
         0.99577E-06
         0.10662E-05
         0.11319E-05
         0.10633E-05
         0.82492E-06
         0.67068E-06
         0.86446E-06
         0.11538E-05
         0.12700E-05
         0.12163E-05
         0.10941E-05
         0.99291E-06
         0.80620E-06
         0.67752E-06
         0.88657E-06
         0.11748E-05
         0.12140E-05
         0.97800E-06
         0.79380E-06
         0.97803E-06
         0.11542E-05
         0.12320E-05
         0.97306E-06
         0.10493E-05
         0.18171E-05
         0.96926E-06
         0.12399E-05
         0.68306E-06
         0.81967E-06
         0.13745E-05
         0.99152E-06
         0.39999E-06
         0.76665E-06
         0.84519E-06
         0.67148E-06
         0.87252E-06
         0.16343E-05
         0.12808E-05
         0.16296E-05
         0.94981E-06
         0.10867E-05
         0.10232E-05
         0.11353E-05
         0.86940E-06
         0.53990E-06
         0.10200E-05
         0.85360E-06
         0.86884E-06
         0.89793E-06
         0.78802E-06
         0.96354E-06
         0.12305E-05
         0.86572E-06
         0.13869E-05
         0.12141E-05
         0.54095E-06
         0.83170E-06
         0.94503E-06
         0.99975E-06
         0.96729E-06
         0.75992E-06
         0.47728E-06
         0.78670E-06
         0.10432E-05
         0.84065E-06
         0.73800E-06
         0.48334E-06
         0.82688E-06
         0.11245E-05
         0.11825E-05
         0.95534E-06
         0.58581E-06
         0.10159E-05
         0.37085E-06
         0.47429E-06
         0.43959E-06
         0.52375E-06
         0.51294E-06
         0.49796E-06
         0.53322E-06
         0.56619E-06
         0.53185E-06
         0.41252E-06
         0.33536E-06
         0.43225E-06
         0.57696E-06
         0.63509E-06
         0.60820E-06
         0.54708E-06
         0.49646E-06
         0.40310E-06
         0.33875E-06
         0.44329E-06
         0.58740E-06
         0.60700E-06
         0.48897E-06
         0.39687E-06
         0.48906E-06
         0.57710E-06
  
SCALARS                 Poissons_ratio  double 1
LOOKUP_TABLE default
         0.30000E+00
         0.30000E+00
         0.30000E+00
         0.30000E+00
         0.30000E+00
         0.30000E+00
         0.30000E+00
         0.30000E+00
         0.30000E+00
         0.30000E+00
         0.30000E+00
         0.30000E+00
         0.30000E+00
         0.30000E+00
         0.30000E+00
         0.30000E+00
         0.30000E+00
         0.30000E+00
         0.30000E+00
         0.30000E+00
         0.30000E+00
         0.30000E+00
         0.30000E+00
         0.30000E+00
         0.30000E+00
         0.30000E+00
         0.30000E+00
         0.30000E+00
         0.30000E+00
         0.30000E+00
         0.30000E+00
         0.30000E+00
         0.30000E+00
         0.30000E+00
         0.30000E+00
         0.30000E+00
         0.30000E+00
         0.30000E+00
         0.30000E+00
         0.30000E+00
         0.30000E+00
         0.30000E+00
         0.30000E+00
         0.30000E+00
         0.30000E+00
         0.30000E+00
         0.30000E+00
         0.30000E+00
         0.30000E+00
         0.30000E+00
         0.30000E+00
         0.30000E+00
         0.30000E+00
         0.30000E+00
         0.30000E+00
         0.30000E+00
         0.30000E+00
         0.30000E+00
         0.30000E+00
         0.30000E+00
         0.30000E+00
         0.30000E+00
         0.30000E+00
         0.30000E+00
         0.30000E+00
         0.30000E+00
         0.30000E+00
         0.30000E+00
         0.30000E+00
         0.30000E+00
         0.30000E+00
         0.30000E+00
         0.30000E+00
         0.30000E+00
         0.30000E+00
         0.30000E+00
         0.30000E+00
         0.30000E+00
         0.30000E+00
         0.30000E+00
         0.30000E+00
         0.30000E+00
         0.30000E+00
         0.30000E+00
         0.30000E+00
         0.30000E+00
         0.30000E+00
         0.30000E+00
         0.30000E+00
         0.30000E+00
         0.30000E+00
         0.30000E+00
         0.30000E+00
         0.30000E+00
         0.30000E+00
         0.30000E+00
         0.30000E+00
         0.30000E+00
         0.30000E+00
         0.30000E+00
         0.30000E+00
         0.30000E+00
         0.30000E+00
         0.30000E+00
         0.30000E+00
         0.30000E+00
         0.30000E+00
         0.30000E+00
         0.30000E+00
         0.30000E+00
         0.30000E+00
         0.30000E+00
         0.30000E+00
         0.30000E+00
         0.30000E+00
         0.30000E+00
         0.30000E+00
         0.30000E+00
         0.30000E+00
         0.30000E+00
         0.30000E+00
         0.30000E+00
         0.30000E+00
         0.30000E+00
         0.30000E+00
         0.30000E+00
         0.30000E+00
         0.30000E+00
         0.30000E+00
         0.30000E+00
         0.30000E+00
         0.30000E+00
         0.30000E+00
         0.30000E+00
         0.30000E+00
         0.30000E+00
         0.30000E+00
         0.30000E+00
         0.30000E+00
         0.30000E+00
         0.30000E+00
         0.30000E+00
         0.30000E+00
         0.30000E+00
         0.30000E+00
         0.30000E+00
         0.30000E+00
         0.30000E+00
         0.30000E+00
         0.30000E+00
         0.30000E+00
         0.30000E+00
         0.30000E+00
         0.30000E+00
         0.30000E+00
         0.30000E+00
         0.30000E+00
         0.30000E+00
         0.30000E+00
         0.30000E+00
         0.30000E+00
         0.30000E+00
         0.30000E+00
         0.30000E+00
         0.30000E+00
         0.30000E+00
         0.30000E+00
         0.30000E+00
         0.30000E+00
         0.30000E+00
         0.30000E+00
         0.30000E+00
         0.30000E+00
         0.30000E+00
         0.30000E+00
         0.30000E+00
         0.30000E+00
         0.30000E+00
         0.30000E+00
         0.30000E+00
         0.30000E+00
         0.30000E+00
         0.30000E+00
         0.30000E+00
         0.30000E+00
         0.30000E+00
         0.30000E+00
         0.30000E+00
         0.30000E+00
         0.30000E+00
         0.30000E+00
         0.30000E+00
         0.30000E+00
         0.30000E+00
         0.30000E+00
         0.30000E+00
         0.30000E+00
         0.30000E+00
         0.30000E+00
         0.30000E+00
         0.30000E+00
         0.30000E+00
         0.30000E+00
         0.30000E+00
         0.30000E+00
         0.30000E+00
         0.30000E+00
         0.30000E+00
         0.30000E+00
         0.30000E+00
         0.30000E+00
         0.30000E+00
         0.30000E+00
         0.30000E+00
         0.30000E+00
         0.30000E+00
         0.30000E+00
         0.30000E+00
         0.30000E+00
         0.30000E+00
         0.30000E+00
         0.30000E+00
         0.30000E+00
         0.30000E+00
         0.30000E+00
         0.30000E+00
         0.30000E+00
         0.30000E+00
         0.30000E+00
         0.30000E+00
         0.30000E+00
         0.30000E+00
         0.30000E+00
         0.30000E+00
         0.30000E+00
         0.30000E+00
         0.30000E+00
         0.30000E+00
         0.30000E+00
         0.30000E+00
         0.30000E+00
         0.30000E+00
         0.30000E+00
         0.30000E+00
         0.30000E+00
         0.30000E+00
         0.30000E+00
         0.30000E+00
         0.30000E+00
         0.30000E+00
         0.30000E+00
         0.30000E+00
         0.30000E+00
         0.30000E+00
         0.30000E+00
         0.30000E+00
         0.30000E+00
         0.30000E+00
         0.30000E+00
         0.30000E+00
         0.30000E+00
         0.30000E+00
         0.30000E+00
         0.30000E+00
         0.30000E+00
         0.30000E+00
         0.30000E+00
         0.30000E+00
         0.30000E+00
         0.30000E+00
         0.30000E+00
         0.30000E+00
         0.30000E+00
         0.30000E+00
         0.30000E+00
         0.30000E+00
         0.30000E+00
         0.30000E+00
         0.30000E+00
         0.30000E+00
         0.30000E+00
         0.30000E+00
         0.30000E+00
         0.30000E+00
         0.30000E+00
         0.30000E+00
         0.30000E+00
         0.30000E+00
         0.30000E+00
         0.30000E+00
         0.30000E+00
         0.30000E+00
         0.30000E+00
         0.30000E+00
         0.30000E+00
         0.30000E+00
         0.30000E+00
         0.30000E+00
         0.30000E+00
         0.30000E+00
         0.30000E+00
         0.30000E+00
         0.30000E+00
         0.30000E+00
         0.30000E+00
         0.30000E+00
         0.30000E+00
         0.30000E+00
         0.30000E+00
         0.30000E+00
         0.30000E+00
         0.30000E+00
         0.30000E+00
         0.30000E+00
         0.30000E+00
         0.30000E+00
         0.30000E+00
         0.30000E+00
         0.30000E+00
         0.30000E+00
         0.30000E+00
         0.30000E+00
         0.30000E+00
         0.30000E+00
         0.30000E+00
         0.30000E+00
         0.30000E+00
         0.30000E+00
         0.30000E+00
         0.30000E+00
         0.30000E+00
         0.30000E+00
         0.30000E+00
         0.30000E+00
         0.30000E+00
         0.30000E+00
         0.30000E+00
         0.30000E+00
         0.30000E+00
         0.30000E+00
         0.30000E+00
         0.30000E+00
         0.30000E+00
         0.30000E+00
         0.30000E+00
         0.30000E+00
         0.30000E+00
         0.30000E+00
         0.30000E+00
         0.30000E+00
         0.30000E+00
         0.30000E+00
         0.30000E+00
         0.30000E+00
         0.30000E+00
         0.30000E+00
         0.30000E+00
         0.30000E+00
         0.30000E+00
         0.30000E+00
         0.30000E+00
         0.30000E+00
         0.30000E+00
         0.30000E+00
         0.30000E+00
         0.30000E+00
         0.30000E+00
         0.30000E+00
         0.30000E+00
         0.30000E+00
         0.30000E+00
         0.30000E+00
         0.30000E+00
         0.30000E+00
         0.30000E+00
         0.30000E+00
         0.30000E+00
         0.30000E+00
         0.30000E+00
         0.30000E+00
         0.30000E+00
         0.30000E+00
         0.30000E+00
         0.30000E+00
         0.30000E+00
         0.30000E+00
         0.30000E+00
         0.30000E+00
         0.30000E+00
         0.30000E+00
         0.30000E+00
         0.30000E+00
         0.30000E+00
         0.30000E+00
         0.30000E+00
         0.30000E+00
         0.30000E+00
         0.30000E+00
         0.30000E+00
         0.30000E+00
         0.30000E+00
         0.30000E+00
         0.30000E+00
         0.30000E+00
         0.30000E+00
         0.30000E+00
         0.30000E+00
         0.30000E+00
         0.30000E+00
         0.30000E+00
         0.30000E+00
         0.30000E+00
         0.30000E+00
         0.30000E+00
         0.30000E+00
         0.30000E+00
         0.30000E+00
         0.30000E+00
         0.30000E+00
         0.30000E+00
         0.30000E+00
         0.30000E+00
         0.30000E+00
         0.30000E+00
         0.30000E+00
         0.30000E+00
         0.30000E+00
         0.30000E+00
         0.30000E+00
         0.30000E+00
         0.30000E+00
         0.30000E+00
         0.30000E+00
         0.30000E+00
         0.30000E+00
         0.30000E+00
         0.30000E+00
         0.30000E+00
         0.30000E+00
         0.30000E+00
         0.30000E+00
         0.30000E+00
         0.30000E+00
         0.30000E+00
         0.30000E+00
         0.30000E+00
         0.30000E+00
         0.30000E+00
         0.30000E+00
         0.30000E+00
         0.30000E+00
         0.30000E+00
         0.30000E+00
         0.30000E+00
         0.30000E+00
         0.30000E+00
         0.30000E+00
         0.30000E+00
         0.30000E+00
         0.30000E+00
         0.30000E+00
         0.30000E+00
         0.30000E+00
         0.30000E+00
         0.30000E+00
         0.30000E+00
         0.30000E+00
         0.30000E+00
         0.30000E+00
         0.30000E+00
         0.30000E+00
         0.30000E+00
         0.30000E+00
         0.30000E+00
         0.30000E+00
         0.30000E+00
         0.30000E+00
         0.30000E+00
         0.30000E+00
         0.30000E+00
         0.30000E+00
         0.30000E+00
         0.30000E+00
         0.30000E+00
         0.30000E+00
         0.30000E+00
         0.30000E+00
         0.30000E+00
         0.30000E+00
         0.30000E+00
         0.30000E+00
         0.30000E+00
         0.30000E+00
         0.30000E+00
         0.30000E+00
         0.30000E+00
         0.30000E+00
         0.30000E+00
         0.30000E+00
         0.30000E+00
         0.30000E+00
         0.30000E+00
         0.30000E+00
         0.30000E+00
         0.30000E+00
         0.30000E+00
         0.30000E+00
         0.30000E+00
         0.30000E+00
         0.30000E+00
         0.30000E+00
         0.30000E+00
         0.30000E+00
         0.30000E+00
         0.30000E+00
         0.30000E+00
         0.30000E+00
         0.30000E+00
         0.30000E+00
         0.30000E+00
         0.30000E+00
         0.30000E+00
         0.30000E+00
         0.30000E+00
         0.30000E+00
         0.30000E+00
         0.30000E+00
         0.30000E+00
         0.30000E+00
         0.30000E+00
         0.30000E+00
         0.30000E+00
         0.30000E+00
         0.30000E+00
         0.30000E+00
         0.30000E+00
         0.30000E+00
         0.30000E+00
         0.30000E+00
         0.30000E+00
         0.30000E+00
         0.30000E+00
         0.30000E+00
         0.30000E+00
         0.30000E+00
         0.30000E+00
         0.30000E+00
         0.30000E+00
         0.30000E+00
         0.30000E+00
         0.30000E+00
         0.30000E+00
         0.30000E+00
         0.30000E+00
         0.30000E+00
         0.30000E+00
         0.30000E+00
         0.30000E+00
         0.30000E+00
         0.30000E+00
         0.30000E+00
         0.30000E+00
         0.30000E+00
         0.30000E+00
         0.30000E+00
         0.30000E+00
         0.30000E+00
         0.30000E+00
         0.30000E+00
         0.30000E+00
         0.30000E+00
         0.30000E+00
         0.30000E+00
         0.30000E+00
         0.30000E+00
         0.30000E+00
         0.30000E+00
         0.30000E+00
         0.30000E+00
         0.30000E+00
         0.30000E+00
         0.30000E+00
         0.30000E+00
         0.30000E+00
         0.30000E+00
         0.30000E+00
         0.30000E+00
         0.30000E+00
         0.30000E+00
         0.30000E+00
         0.30000E+00
         0.30000E+00
         0.30000E+00
         0.30000E+00
         0.30000E+00
         0.30000E+00
         0.30000E+00
         0.30000E+00
         0.30000E+00
         0.30000E+00
         0.30000E+00
         0.30000E+00
         0.30000E+00
         0.30000E+00
         0.30000E+00
         0.30000E+00
         0.30000E+00
         0.30000E+00
         0.30000E+00
         0.30000E+00
         0.30000E+00
         0.30000E+00
         0.30000E+00
         0.30000E+00
         0.30000E+00
         0.30000E+00
         0.30000E+00
         0.30000E+00
         0.30000E+00
         0.30000E+00
         0.30000E+00
         0.30000E+00
         0.30000E+00
         0.30000E+00
         0.30000E+00
         0.30000E+00
         0.30000E+00
         0.30000E+00
         0.30000E+00
         0.30000E+00
         0.30000E+00
         0.30000E+00
         0.30000E+00
         0.30000E+00
         0.30000E+00
         0.30000E+00
         0.30000E+00
         0.30000E+00
         0.30000E+00
         0.30000E+00
         0.30000E+00
         0.30000E+00
         0.30000E+00
         0.30000E+00
         0.30000E+00
         0.30000E+00
         0.30000E+00
         0.30000E+00
         0.30000E+00
         0.30000E+00
         0.30000E+00
         0.30000E+00
         0.30000E+00
         0.30000E+00
         0.30000E+00
         0.30000E+00
         0.30000E+00
         0.30000E+00
         0.30000E+00
         0.30000E+00
         0.30000E+00
         0.30000E+00
         0.30000E+00
         0.30000E+00
         0.30000E+00
         0.30000E+00
         0.30000E+00
         0.30000E+00
         0.30000E+00
         0.30000E+00
         0.30000E+00
         0.30000E+00
         0.30000E+00
         0.30000E+00
         0.30000E+00
         0.30000E+00
         0.30000E+00
         0.30000E+00
         0.30000E+00
         0.30000E+00
         0.30000E+00
         0.30000E+00
         0.30000E+00
         0.30000E+00
         0.30000E+00
         0.30000E+00
         0.30000E+00
         0.30000E+00
         0.30000E+00
         0.30000E+00
         0.30000E+00
         0.30000E+00
         0.30000E+00
         0.30000E+00
         0.30000E+00
         0.30000E+00
         0.30000E+00
         0.30000E+00
         0.30000E+00
         0.30000E+00
         0.30000E+00
         0.30000E+00
         0.30000E+00
         0.30000E+00
         0.30000E+00
         0.30000E+00
         0.30000E+00
         0.30000E+00
         0.30000E+00
         0.30000E+00
         0.30000E+00
         0.30000E+00
         0.30000E+00
         0.30000E+00
         0.30000E+00
         0.30000E+00
         0.30000E+00
         0.30000E+00
         0.30000E+00
         0.30000E+00
         0.30000E+00
         0.30000E+00
         0.30000E+00
         0.30000E+00
         0.30000E+00
         0.30000E+00
         0.30000E+00
         0.30000E+00
         0.30000E+00
         0.30000E+00
         0.30000E+00
         0.30000E+00
         0.30000E+00
         0.30000E+00
         0.30000E+00
         0.30000E+00
         0.30000E+00
         0.30000E+00
         0.30000E+00
         0.30000E+00
         0.30000E+00
         0.30000E+00
         0.30000E+00
         0.30000E+00
         0.30000E+00
         0.30000E+00
         0.30000E+00
         0.30000E+00
         0.30000E+00
         0.30000E+00
         0.30000E+00
         0.30000E+00
         0.30000E+00
         0.30000E+00
         0.30000E+00
         0.30000E+00
         0.30000E+00
         0.30000E+00
         0.30000E+00
         0.30000E+00
         0.30000E+00
         0.30000E+00
         0.30000E+00
         0.30000E+00
         0.30000E+00
         0.30000E+00
         0.30000E+00
         0.30000E+00
         0.30000E+00
         0.30000E+00
         0.30000E+00
         0.30000E+00
         0.30000E+00
         0.30000E+00
         0.30000E+00
         0.30000E+00
         0.30000E+00
         0.30000E+00
         0.30000E+00
         0.30000E+00
         0.30000E+00
         0.30000E+00
         0.30000E+00
         0.30000E+00
         0.30000E+00
         0.30000E+00
         0.30000E+00
         0.30000E+00
         0.30000E+00
         0.30000E+00
         0.30000E+00
         0.30000E+00
         0.30000E+00
         0.30000E+00
         0.30000E+00
         0.30000E+00
         0.30000E+00
         0.30000E+00
         0.30000E+00
         0.30000E+00
         0.30000E+00
         0.30000E+00
         0.30000E+00
         0.30000E+00
         0.30000E+00
         0.30000E+00
         0.30000E+00
         0.30000E+00
         0.30000E+00
         0.30000E+00
         0.30000E+00
         0.30000E+00
         0.30000E+00
         0.30000E+00
         0.30000E+00
         0.30000E+00
         0.30000E+00
         0.30000E+00
         0.30000E+00
         0.30000E+00
         0.30000E+00
         0.30000E+00
         0.30000E+00
         0.30000E+00
         0.30000E+00
         0.30000E+00
         0.30000E+00
         0.30000E+00
         0.30000E+00
         0.30000E+00
         0.30000E+00
         0.30000E+00
         0.30000E+00
         0.30000E+00
         0.30000E+00
         0.30000E+00
         0.30000E+00
         0.30000E+00
         0.30000E+00
         0.30000E+00
         0.30000E+00
         0.30000E+00
         0.30000E+00
         0.30000E+00
         0.30000E+00
         0.30000E+00
         0.30000E+00
         0.30000E+00
         0.30000E+00
         0.30000E+00
         0.30000E+00
         0.30000E+00
         0.30000E+00
         0.30000E+00
         0.30000E+00
         0.30000E+00
         0.30000E+00
         0.30000E+00
         0.30000E+00
         0.30000E+00
         0.30000E+00
         0.30000E+00
         0.30000E+00
         0.30000E+00
         0.30000E+00
         0.30000E+00
         0.30000E+00
         0.30000E+00
         0.30000E+00
         0.30000E+00
         0.30000E+00
         0.30000E+00
         0.30000E+00
         0.30000E+00
         0.30000E+00
         0.30000E+00
         0.30000E+00
         0.30000E+00
         0.30000E+00
         0.30000E+00
         0.30000E+00
         0.30000E+00
         0.30000E+00
         0.30000E+00
         0.30000E+00
         0.30000E+00
         0.30000E+00
         0.30000E+00
         0.30000E+00
         0.30000E+00
         0.30000E+00
         0.30000E+00
         0.30000E+00
         0.30000E+00
         0.30000E+00
         0.30000E+00
         0.30000E+00
         0.30000E+00
         0.30000E+00
         0.30000E+00
         0.30000E+00
         0.30000E+00
         0.30000E+00
         0.30000E+00
         0.30000E+00
         0.30000E+00
         0.30000E+00
         0.30000E+00
         0.30000E+00
         0.30000E+00
         0.30000E+00
         0.30000E+00
         0.30000E+00
         0.30000E+00
         0.30000E+00
         0.30000E+00
         0.30000E+00
         0.30000E+00
         0.30000E+00
         0.30000E+00
         0.30000E+00
         0.30000E+00
         0.30000E+00
         0.30000E+00
         0.30000E+00
         0.30000E+00
         0.30000E+00
         0.30000E+00
         0.30000E+00
         0.30000E+00
         0.30000E+00
         0.30000E+00
         0.30000E+00
         0.30000E+00
         0.30000E+00
         0.30000E+00
         0.30000E+00
         0.30000E+00
         0.30000E+00
         0.30000E+00
         0.30000E+00
         0.30000E+00
         0.30000E+00
         0.30000E+00
         0.30000E+00
         0.30000E+00
         0.30000E+00
         0.30000E+00
         0.30000E+00
         0.30000E+00
         0.30000E+00
         0.30000E+00
         0.30000E+00
         0.30000E+00
         0.30000E+00
         0.30000E+00
         0.30000E+00
         0.30000E+00
         0.30000E+00
         0.30000E+00
         0.30000E+00
         0.30000E+00
         0.30000E+00
         0.30000E+00
         0.30000E+00
         0.30000E+00
         0.30000E+00
         0.30000E+00
         0.30000E+00
         0.30000E+00
         0.30000E+00
         0.30000E+00
         0.30000E+00
         0.30000E+00
         0.30000E+00
         0.30000E+00
         0.30000E+00
         0.30000E+00
         0.30000E+00
         0.30000E+00
         0.30000E+00
         0.30000E+00
         0.30000E+00
         0.30000E+00
         0.30000E+00
         0.30000E+00
         0.30000E+00
         0.30000E+00
         0.30000E+00
         0.30000E+00
         0.30000E+00
         0.30000E+00
         0.30000E+00
         0.30000E+00
         0.30000E+00
         0.30000E+00
         0.30000E+00
         0.30000E+00
         0.30000E+00
         0.30000E+00
         0.30000E+00
         0.30000E+00
         0.30000E+00
         0.30000E+00
         0.30000E+00
         0.30000E+00
         0.30000E+00
         0.30000E+00
         0.30000E+00
         0.30000E+00
         0.30000E+00
         0.30000E+00
         0.30000E+00
         0.30000E+00
         0.30000E+00
         0.30000E+00
         0.30000E+00
         0.30000E+00
         0.30000E+00
         0.30000E+00
         0.30000E+00
         0.30000E+00
         0.30000E+00
         0.30000E+00
         0.30000E+00
         0.30000E+00
         0.30000E+00
         0.30000E+00
         0.30000E+00
         0.30000E+00
         0.30000E+00
         0.30000E+00
         0.30000E+00
         0.30000E+00
         0.30000E+00
         0.30000E+00
         0.30000E+00
         0.30000E+00
         0.30000E+00
         0.30000E+00
         0.30000E+00
         0.30000E+00
         0.30000E+00
         0.30000E+00
         0.30000E+00
         0.30000E+00
         0.30000E+00
         0.30000E+00
         0.30000E+00
         0.30000E+00
         0.30000E+00
         0.30000E+00
         0.30000E+00
         0.30000E+00
         0.30000E+00
         0.30000E+00
         0.30000E+00
         0.30000E+00
         0.30000E+00
         0.30000E+00
         0.30000E+00
         0.30000E+00
         0.30000E+00
         0.30000E+00
         0.30000E+00
         0.30000E+00
         0.30000E+00
         0.30000E+00
         0.30000E+00
         0.30000E+00
         0.30000E+00
         0.30000E+00
         0.30000E+00
         0.30000E+00
         0.30000E+00
         0.30000E+00
         0.30000E+00
         0.30000E+00
         0.30000E+00
         0.30000E+00
         0.30000E+00
         0.30000E+00
         0.30000E+00
         0.30000E+00
         0.30000E+00
         0.30000E+00
         0.30000E+00
         0.30000E+00
         0.30000E+00
         0.30000E+00
         0.30000E+00
         0.30000E+00
         0.30000E+00
         0.30000E+00
         0.30000E+00
         0.30000E+00
         0.30000E+00
         0.30000E+00
         0.30000E+00
         0.30000E+00
         0.30000E+00
         0.30000E+00
         0.30000E+00
         0.30000E+00
         0.30000E+00
         0.30000E+00
         0.30000E+00
         0.30000E+00
         0.30000E+00
         0.30000E+00
         0.30000E+00
         0.30000E+00
         0.30000E+00
         0.30000E+00
         0.30000E+00
         0.30000E+00
         0.30000E+00
         0.30000E+00
         0.30000E+00
         0.30000E+00
         0.30000E+00
         0.30000E+00
         0.30000E+00
         0.30000E+00
         0.30000E+00
         0.30000E+00
         0.30000E+00
         0.30000E+00
         0.30000E+00
         0.30000E+00
         0.30000E+00
         0.30000E+00
         0.30000E+00
         0.30000E+00
         0.30000E+00
         0.30000E+00
         0.30000E+00
         0.30000E+00
         0.30000E+00
         0.30000E+00
         0.30000E+00
         0.30000E+00
         0.30000E+00
         0.30000E+00
         0.30000E+00
         0.30000E+00
         0.30000E+00
         0.30000E+00
         0.30000E+00
         0.30000E+00
         0.30000E+00
         0.30000E+00
         0.30000E+00
         0.30000E+00
         0.30000E+00
         0.30000E+00
         0.30000E+00
         0.30000E+00
         0.30000E+00
         0.30000E+00
         0.30000E+00
         0.30000E+00
         0.30000E+00
         0.30000E+00
         0.30000E+00
         0.30000E+00
         0.30000E+00
         0.30000E+00
         0.30000E+00
         0.30000E+00
         0.30000E+00
         0.30000E+00
         0.30000E+00
         0.30000E+00
         0.30000E+00
         0.30000E+00
         0.30000E+00
         0.30000E+00
         0.30000E+00
         0.30000E+00
         0.30000E+00
         0.30000E+00
         0.30000E+00
         0.30000E+00
         0.30000E+00
         0.30000E+00
         0.30000E+00
         0.30000E+00
         0.30000E+00
         0.30000E+00
         0.30000E+00
         0.30000E+00
         0.30000E+00
         0.30000E+00
         0.30000E+00
         0.30000E+00
         0.30000E+00
         0.30000E+00
         0.30000E+00
         0.30000E+00
         0.30000E+00
         0.30000E+00
         0.30000E+00
         0.30000E+00
         0.30000E+00
         0.30000E+00
         0.30000E+00
         0.30000E+00
         0.30000E+00
         0.30000E+00
         0.30000E+00
         0.30000E+00
         0.30000E+00
         0.30000E+00
         0.30000E+00
         0.30000E+00
         0.30000E+00
         0.30000E+00
         0.30000E+00
         0.30000E+00
         0.30000E+00
         0.30000E+00
         0.30000E+00
         0.30000E+00
         0.30000E+00
         0.30000E+00
         0.30000E+00
         0.30000E+00
         0.30000E+00
         0.30000E+00
         0.30000E+00
         0.30000E+00
         0.30000E+00
         0.30000E+00
         0.30000E+00
         0.30000E+00
         0.30000E+00
         0.30000E+00
         0.30000E+00
         0.30000E+00
         0.30000E+00
         0.30000E+00
         0.30000E+00
         0.30000E+00
         0.30000E+00
         0.30000E+00
         0.30000E+00
         0.30000E+00
         0.30000E+00
         0.30000E+00
         0.30000E+00
         0.30000E+00
         0.30000E+00
         0.30000E+00
         0.30000E+00
         0.30000E+00
         0.30000E+00
         0.30000E+00
         0.30000E+00
         0.30000E+00
         0.30000E+00
         0.30000E+00
         0.30000E+00
         0.30000E+00
         0.30000E+00
         0.30000E+00
         0.30000E+00
         0.30000E+00
         0.30000E+00
         0.30000E+00
         0.30000E+00
         0.30000E+00
         0.30000E+00
         0.30000E+00
         0.30000E+00
         0.30000E+00
         0.30000E+00
         0.30000E+00
         0.30000E+00
         0.30000E+00
         0.30000E+00
         0.30000E+00
         0.30000E+00
         0.30000E+00
         0.30000E+00
         0.30000E+00
         0.30000E+00
         0.30000E+00
         0.30000E+00
         0.30000E+00
         0.30000E+00
         0.30000E+00
         0.30000E+00
         0.30000E+00
         0.30000E+00
         0.30000E+00
         0.30000E+00
         0.30000E+00
         0.30000E+00
         0.30000E+00
         0.30000E+00
         0.30000E+00
         0.30000E+00
         0.30000E+00
         0.30000E+00
         0.30000E+00
         0.30000E+00
         0.30000E+00
         0.30000E+00
         0.30000E+00
         0.30000E+00
         0.30000E+00
         0.30000E+00
         0.30000E+00
         0.30000E+00
         0.30000E+00
         0.30000E+00
         0.30000E+00
         0.30000E+00
         0.30000E+00
         0.30000E+00
         0.30000E+00
         0.30000E+00
         0.30000E+00
         0.30000E+00
         0.30000E+00
         0.30000E+00
         0.30000E+00
         0.30000E+00
         0.30000E+00
         0.30000E+00
         0.30000E+00
         0.30000E+00
         0.30000E+00
         0.30000E+00
         0.30000E+00
         0.30000E+00
         0.30000E+00
         0.30000E+00
         0.30000E+00
         0.30000E+00
         0.30000E+00
         0.30000E+00
         0.30000E+00
         0.30000E+00
         0.30000E+00
         0.30000E+00
         0.30000E+00
         0.30000E+00
         0.30000E+00
         0.30000E+00
         0.30000E+00
         0.30000E+00
         0.30000E+00
         0.30000E+00
         0.30000E+00
         0.30000E+00
         0.30000E+00
         0.30000E+00
         0.30000E+00
         0.30000E+00
         0.30000E+00
         0.30000E+00
         0.30000E+00
         0.30000E+00
         0.30000E+00
         0.30000E+00
         0.30000E+00
         0.30000E+00
         0.30000E+00
         0.30000E+00
         0.30000E+00
         0.30000E+00
         0.30000E+00
         0.30000E+00
         0.30000E+00
         0.30000E+00
         0.30000E+00
         0.30000E+00
         0.30000E+00
         0.30000E+00
         0.30000E+00
         0.30000E+00
         0.30000E+00
         0.30000E+00
         0.30000E+00
         0.30000E+00
         0.30000E+00
         0.30000E+00
         0.30000E+00
         0.30000E+00
         0.30000E+00
         0.30000E+00
         0.30000E+00
         0.30000E+00
         0.30000E+00
         0.30000E+00
         0.30000E+00
         0.30000E+00
         0.30000E+00
         0.30000E+00
         0.30000E+00
         0.30000E+00
         0.30000E+00
         0.30000E+00
         0.30000E+00
         0.30000E+00
         0.30000E+00
         0.30000E+00
         0.30000E+00
         0.30000E+00
         0.30000E+00
         0.30000E+00
         0.30000E+00
         0.30000E+00
         0.30000E+00
         0.30000E+00
         0.30000E+00
         0.30000E+00
         0.30000E+00
         0.30000E+00
         0.30000E+00
         0.30000E+00
         0.30000E+00
         0.30000E+00
         0.30000E+00
         0.30000E+00
         0.30000E+00
         0.30000E+00
         0.30000E+00
         0.30000E+00
         0.30000E+00
         0.30000E+00
         0.30000E+00
         0.30000E+00
         0.30000E+00
         0.30000E+00
         0.30000E+00
         0.30000E+00
         0.30000E+00
         0.30000E+00
         0.30000E+00
         0.30000E+00
         0.30000E+00
         0.30000E+00
         0.30000E+00
         0.30000E+00
         0.30000E+00
         0.30000E+00
         0.30000E+00
         0.30000E+00
         0.30000E+00
         0.30000E+00
         0.30000E+00
         0.30000E+00
         0.30000E+00
         0.30000E+00
         0.30000E+00
         0.30000E+00
         0.30000E+00
         0.30000E+00
         0.30000E+00
         0.30000E+00
         0.30000E+00
         0.30000E+00
         0.30000E+00
         0.30000E+00
         0.30000E+00
         0.30000E+00
         0.30000E+00
         0.30000E+00
         0.30000E+00
         0.30000E+00
         0.30000E+00
         0.30000E+00
         0.30000E+00
         0.30000E+00
         0.30000E+00
         0.30000E+00
         0.30000E+00
         0.30000E+00
         0.30000E+00
         0.30000E+00
         0.30000E+00
         0.30000E+00
         0.30000E+00
         0.30000E+00
         0.30000E+00
         0.30000E+00
         0.30000E+00
         0.30000E+00
         0.30000E+00
         0.30000E+00
         0.30000E+00
         0.30000E+00
         0.30000E+00
         0.30000E+00
         0.30000E+00
         0.30000E+00
         0.30000E+00
         0.30000E+00
         0.30000E+00
         0.30000E+00
         0.30000E+00
         0.30000E+00
         0.30000E+00
         0.30000E+00
         0.30000E+00
         0.30000E+00
         0.30000E+00
         0.30000E+00
         0.30000E+00
         0.30000E+00
         0.30000E+00
         0.30000E+00
         0.30000E+00
         0.30000E+00
         0.30000E+00
         0.30000E+00
         0.30000E+00
         0.30000E+00
         0.30000E+00
         0.30000E+00
         0.30000E+00
         0.30000E+00
         0.30000E+00
         0.30000E+00
         0.30000E+00
         0.30000E+00
         0.30000E+00
         0.30000E+00
         0.30000E+00
         0.30000E+00
         0.30000E+00
         0.30000E+00
         0.30000E+00
         0.30000E+00
         0.30000E+00
         0.30000E+00
         0.30000E+00
         0.30000E+00
         0.30000E+00
         0.30000E+00
         0.30000E+00
         0.30000E+00
         0.30000E+00
         0.30000E+00
         0.30000E+00
         0.30000E+00
         0.30000E+00
         0.30000E+00
         0.30000E+00
         0.30000E+00
         0.30000E+00
         0.30000E+00
         0.30000E+00
         0.30000E+00
         0.30000E+00
         0.30000E+00
         0.30000E+00
         0.30000E+00
         0.30000E+00
         0.30000E+00
         0.30000E+00
         0.30000E+00
         0.30000E+00
         0.30000E+00
         0.30000E+00
         0.30000E+00
         0.30000E+00
         0.30000E+00
         0.30000E+00
         0.30000E+00
         0.30000E+00
         0.30000E+00
         0.30000E+00
         0.30000E+00
         0.30000E+00
         0.30000E+00
         0.30000E+00
         0.30000E+00
         0.30000E+00
         0.30000E+00
         0.30000E+00
         0.30000E+00
         0.30000E+00
         0.30000E+00
         0.30000E+00
         0.30000E+00
         0.30000E+00
         0.30000E+00
         0.30000E+00
         0.30000E+00
         0.30000E+00
         0.30000E+00
         0.30000E+00
         0.30000E+00
         0.30000E+00
         0.30000E+00
         0.30000E+00
         0.30000E+00
         0.30000E+00
         0.30000E+00
         0.30000E+00
         0.30000E+00
         0.30000E+00
         0.30000E+00
         0.30000E+00
         0.30000E+00
         0.30000E+00
         0.30000E+00
         0.30000E+00
         0.30000E+00
         0.30000E+00
         0.30000E+00
         0.30000E+00
         0.30000E+00
         0.30000E+00
         0.30000E+00
         0.30000E+00
         0.30000E+00
         0.30000E+00
         0.30000E+00
         0.30000E+00
         0.30000E+00
         0.30000E+00
         0.30000E+00
         0.30000E+00
         0.30000E+00
         0.30000E+00
         0.30000E+00
         0.30000E+00
         0.30000E+00
         0.30000E+00
         0.30000E+00
         0.30000E+00
         0.30000E+00
         0.30000E+00
         0.30000E+00
         0.30000E+00
         0.30000E+00
         0.30000E+00
         0.30000E+00
         0.30000E+00
         0.30000E+00
         0.30000E+00
         0.30000E+00
         0.30000E+00
         0.30000E+00
         0.30000E+00
         0.30000E+00
         0.30000E+00
         0.30000E+00
         0.30000E+00
         0.30000E+00
         0.30000E+00
         0.30000E+00
         0.30000E+00
         0.30000E+00
         0.30000E+00
         0.30000E+00
         0.30000E+00
         0.30000E+00
         0.30000E+00
         0.30000E+00
         0.30000E+00
         0.30000E+00
         0.30000E+00
         0.30000E+00
         0.30000E+00
         0.30000E+00
         0.30000E+00
         0.30000E+00
         0.30000E+00
         0.30000E+00
         0.30000E+00
         0.30000E+00
         0.30000E+00
         0.30000E+00
         0.30000E+00
         0.30000E+00
         0.30000E+00
         0.30000E+00
         0.30000E+00
         0.30000E+00
         0.30000E+00
         0.30000E+00
         0.30000E+00
         0.30000E+00
         0.30000E+00
         0.30000E+00
         0.30000E+00
         0.30000E+00
         0.30000E+00
         0.30000E+00
         0.30000E+00
         0.30000E+00
         0.30000E+00
         0.30000E+00
         0.30000E+00
         0.30000E+00
         0.30000E+00
         0.30000E+00
         0.30000E+00
         0.30000E+00
         0.30000E+00
         0.30000E+00
         0.30000E+00
         0.30000E+00
         0.30000E+00
         0.30000E+00
         0.30000E+00
         0.30000E+00
         0.30000E+00
         0.30000E+00
         0.30000E+00
         0.30000E+00
         0.30000E+00
         0.30000E+00
         0.30000E+00
         0.30000E+00
         0.30000E+00
         0.30000E+00
         0.30000E+00
         0.30000E+00
         0.30000E+00
         0.30000E+00
         0.30000E+00
         0.30000E+00
         0.30000E+00
         0.30000E+00
         0.30000E+00
         0.30000E+00
         0.30000E+00
         0.30000E+00
         0.30000E+00
         0.30000E+00
         0.30000E+00
         0.30000E+00
         0.30000E+00
         0.30000E+00
         0.30000E+00
         0.30000E+00
         0.30000E+00
         0.30000E+00
         0.30000E+00
         0.30000E+00
         0.30000E+00
         0.30000E+00
         0.30000E+00
         0.30000E+00
         0.30000E+00
         0.30000E+00
         0.30000E+00
         0.30000E+00
         0.30000E+00
         0.30000E+00
         0.30000E+00
         0.30000E+00
         0.30000E+00
         0.30000E+00
         0.30000E+00
         0.30000E+00
         0.30000E+00
         0.30000E+00
         0.30000E+00
         0.30000E+00
         0.30000E+00
         0.30000E+00
         0.30000E+00
         0.30000E+00
         0.30000E+00
         0.30000E+00
         0.30000E+00
         0.30000E+00
         0.30000E+00
         0.30000E+00
         0.30000E+00
         0.30000E+00
         0.30000E+00
         0.30000E+00
         0.30000E+00
         0.30000E+00
         0.30000E+00
         0.30000E+00
         0.30000E+00
         0.30000E+00
         0.30000E+00
         0.30000E+00
         0.30000E+00
         0.30000E+00
         0.30000E+00
         0.30000E+00
         0.30000E+00
         0.30000E+00
         0.30000E+00
         0.30000E+00
         0.30000E+00
         0.30000E+00
         0.30000E+00
         0.30000E+00
         0.30000E+00
         0.30000E+00
         0.30000E+00
         0.30000E+00
         0.30000E+00
         0.30000E+00
         0.30000E+00
         0.30000E+00
         0.30000E+00
         0.30000E+00
         0.30000E+00
         0.30000E+00
         0.30000E+00
         0.30000E+00
         0.30000E+00
         0.30000E+00
         0.30000E+00
         0.30000E+00
         0.30000E+00
         0.30000E+00
         0.30000E+00
         0.30000E+00
         0.30000E+00
         0.30000E+00
         0.30000E+00
         0.30000E+00
         0.30000E+00
         0.30000E+00
         0.30000E+00
         0.30000E+00
         0.30000E+00
         0.30000E+00
         0.30000E+00
         0.30000E+00
         0.30000E+00
         0.30000E+00
         0.30000E+00
         0.30000E+00
         0.30000E+00
         0.30000E+00
         0.30000E+00
         0.30000E+00
         0.30000E+00
         0.30000E+00
         0.30000E+00
         0.30000E+00
         0.30000E+00
         0.30000E+00
         0.30000E+00
         0.30000E+00
         0.30000E+00
         0.30000E+00
         0.30000E+00
         0.30000E+00
         0.30000E+00
         0.30000E+00
         0.30000E+00
         0.30000E+00
         0.30000E+00
         0.30000E+00
         0.30000E+00
         0.30000E+00
         0.30000E+00
         0.30000E+00
         0.30000E+00
         0.30000E+00
         0.30000E+00
         0.30000E+00
         0.30000E+00
         0.30000E+00
         0.30000E+00
         0.30000E+00
         0.30000E+00
         0.30000E+00
         0.30000E+00
         0.30000E+00
         0.30000E+00
         0.30000E+00
         0.30000E+00
         0.30000E+00
         0.30000E+00
         0.30000E+00
         0.30000E+00
         0.30000E+00
         0.30000E+00
         0.30000E+00
         0.30000E+00
         0.30000E+00
         0.30000E+00
         0.30000E+00
         0.30000E+00
         0.30000E+00
         0.30000E+00
         0.30000E+00
         0.30000E+00
         0.30000E+00
         0.30000E+00
         0.30000E+00
         0.30000E+00
         0.30000E+00
         0.30000E+00
         0.30000E+00
         0.30000E+00
         0.30000E+00
         0.30000E+00
         0.30000E+00
         0.30000E+00
         0.30000E+00
         0.30000E+00
         0.30000E+00
         0.30000E+00
         0.30000E+00
         0.30000E+00
         0.30000E+00
         0.30000E+00
         0.30000E+00
         0.30000E+00
         0.30000E+00
         0.30000E+00
         0.30000E+00
         0.30000E+00
         0.30000E+00
         0.30000E+00
         0.30000E+00
         0.30000E+00
         0.30000E+00
         0.30000E+00
         0.30000E+00
         0.30000E+00
         0.30000E+00
         0.30000E+00
         0.30000E+00
         0.30000E+00
         0.30000E+00
         0.30000E+00
         0.30000E+00
         0.30000E+00
         0.30000E+00
         0.30000E+00
         0.30000E+00
         0.30000E+00
         0.30000E+00
         0.30000E+00
         0.30000E+00
         0.30000E+00
         0.30000E+00
         0.30000E+00
         0.30000E+00
         0.30000E+00
  
SCALARS                 Youngs_modulus  double 1
LOOKUP_TABLE default
         0.78200E+11
         0.78200E+11
         0.78200E+11
         0.78200E+11
         0.78200E+11
         0.78200E+11
         0.78200E+11
         0.78200E+11
         0.78200E+11
         0.78200E+11
         0.78200E+11
         0.78200E+11
         0.78200E+11
         0.78200E+11
         0.78200E+11
         0.78200E+11
         0.78200E+11
         0.78200E+11
         0.78200E+11
         0.78200E+11
         0.78200E+11
         0.78200E+11
         0.78200E+11
         0.78200E+11
         0.78200E+11
         0.78200E+11
         0.78200E+11
         0.78200E+11
         0.78200E+11
         0.78200E+11
         0.78200E+11
         0.78200E+11
         0.78200E+11
         0.78200E+11
         0.78200E+11
         0.78200E+11
         0.78200E+11
         0.78200E+11
         0.78200E+11
         0.78200E+11
         0.78200E+11
         0.78200E+11
         0.78200E+11
         0.78200E+11
         0.78200E+11
         0.78200E+11
         0.78200E+11
         0.78200E+11
         0.78200E+11
         0.78200E+11
         0.78200E+11
         0.78200E+11
         0.78200E+11
         0.78200E+11
         0.78200E+11
         0.78200E+11
         0.78200E+11
         0.78200E+11
         0.78200E+11
         0.78200E+11
         0.78200E+11
         0.78200E+11
         0.78200E+11
         0.78200E+11
         0.78200E+11
         0.78200E+11
         0.78200E+11
         0.78200E+11
         0.78200E+11
         0.78200E+11
         0.78200E+11
         0.78200E+11
         0.78200E+11
         0.78200E+11
         0.78200E+11
         0.78200E+11
         0.78200E+11
         0.78200E+11
         0.78200E+11
         0.78200E+11
         0.78200E+11
         0.78200E+11
         0.78200E+11
         0.78200E+11
         0.78200E+11
         0.78200E+11
         0.78200E+11
         0.78200E+11
         0.78200E+11
         0.78200E+11
         0.78200E+11
         0.78200E+11
         0.78200E+11
         0.78200E+11
         0.78200E+11
         0.78200E+11
         0.78200E+11
         0.78200E+11
         0.78200E+11
         0.78200E+11
         0.78200E+11
         0.78200E+11
         0.78200E+11
         0.78200E+11
         0.78200E+11
         0.78200E+11
         0.78200E+11
         0.78200E+11
         0.78200E+11
         0.78200E+11
         0.78200E+11
         0.78200E+11
         0.78200E+11
         0.78200E+11
         0.78200E+11
         0.78200E+11
         0.78200E+11
         0.78200E+11
         0.78200E+11
         0.78200E+11
         0.78200E+11
         0.78200E+11
         0.78200E+11
         0.78200E+11
         0.78200E+11
         0.78200E+11
         0.78200E+11
         0.78200E+11
         0.78200E+11
         0.78200E+11
         0.78200E+11
         0.78200E+11
         0.78200E+11
         0.78200E+11
         0.78200E+11
         0.78200E+11
         0.78200E+11
         0.78200E+11
         0.78200E+11
         0.78200E+11
         0.78200E+11
         0.78200E+11
         0.78200E+11
         0.78200E+11
         0.78200E+11
         0.78200E+11
         0.78200E+11
         0.78200E+11
         0.78200E+11
         0.78200E+11
         0.78200E+11
         0.78200E+11
         0.78200E+11
         0.78200E+11
         0.78200E+11
         0.78200E+11
         0.78200E+11
         0.78200E+11
         0.78200E+11
         0.78200E+11
         0.78200E+11
         0.78200E+11
         0.78200E+11
         0.78200E+11
         0.78200E+11
         0.78200E+11
         0.78200E+11
         0.78200E+11
         0.78200E+11
         0.78200E+11
         0.78200E+11
         0.78200E+11
         0.78200E+11
         0.78200E+11
         0.78200E+11
         0.78200E+11
         0.78200E+11
         0.78200E+11
         0.78200E+11
         0.78200E+11
         0.78200E+11
         0.78200E+11
         0.78200E+11
         0.78200E+11
         0.78200E+11
         0.78200E+11
         0.78200E+11
         0.78200E+11
         0.78200E+11
         0.78200E+11
         0.78200E+11
         0.78200E+11
         0.78200E+11
         0.78200E+11
         0.78200E+11
         0.78200E+11
         0.78200E+11
         0.78200E+11
         0.78200E+11
         0.78200E+11
         0.78200E+11
         0.78200E+11
         0.78200E+11
         0.78200E+11
         0.78200E+11
         0.78200E+11
         0.78200E+11
         0.78200E+11
         0.78200E+11
         0.78200E+11
         0.78200E+11
         0.78200E+11
         0.78200E+11
         0.78200E+11
         0.78200E+11
         0.78200E+11
         0.78200E+11
         0.78200E+11
         0.78200E+11
         0.78200E+11
         0.78200E+11
         0.78200E+11
         0.78200E+11
         0.78200E+11
         0.78200E+11
         0.78200E+11
         0.78200E+11
         0.78200E+11
         0.78200E+11
         0.78200E+11
         0.78200E+11
         0.78200E+11
         0.78200E+11
         0.78200E+11
         0.78200E+11
         0.78200E+11
         0.78200E+11
         0.78200E+11
         0.78200E+11
         0.78200E+11
         0.78200E+11
         0.78200E+11
         0.78200E+11
         0.78200E+11
         0.78200E+11
         0.78200E+11
         0.78200E+11
         0.78200E+11
         0.78200E+11
         0.78200E+11
         0.78200E+11
         0.78200E+11
         0.78200E+11
         0.78200E+11
         0.78200E+11
         0.78200E+11
         0.78200E+11
         0.78200E+11
         0.78200E+11
         0.78200E+11
         0.78200E+11
         0.78200E+11
         0.78200E+11
         0.78200E+11
         0.78200E+11
         0.78200E+11
         0.78200E+11
         0.78200E+11
         0.78200E+11
         0.78200E+11
         0.78200E+11
         0.78200E+11
         0.78200E+11
         0.78200E+11
         0.78200E+11
         0.78200E+11
         0.78200E+11
         0.78200E+11
         0.78200E+11
         0.78200E+11
         0.78200E+11
         0.78200E+11
         0.78200E+11
         0.78200E+11
         0.78200E+11
         0.78200E+11
         0.78200E+11
         0.78200E+11
         0.78200E+11
         0.78200E+11
         0.78200E+11
         0.78200E+11
         0.78200E+11
         0.78200E+11
         0.78200E+11
         0.78200E+11
         0.78200E+11
         0.78200E+11
         0.78200E+11
         0.78200E+11
         0.78200E+11
         0.78200E+11
         0.78200E+11
         0.78200E+11
         0.78200E+11
         0.78200E+11
         0.78200E+11
         0.78200E+11
         0.78200E+11
         0.78200E+11
         0.78200E+11
         0.78200E+11
         0.78200E+11
         0.78200E+11
         0.78200E+11
         0.78200E+11
         0.78200E+11
         0.78200E+11
         0.78200E+11
         0.78200E+11
         0.78200E+11
         0.78200E+11
         0.78200E+11
         0.78200E+11
         0.78200E+11
         0.78200E+11
         0.78200E+11
         0.78200E+11
         0.78200E+11
         0.78200E+11
         0.78200E+11
         0.78200E+11
         0.78200E+11
         0.78200E+11
         0.78200E+11
         0.78200E+11
         0.78200E+11
         0.78200E+11
         0.78200E+11
         0.78200E+11
         0.78200E+11
         0.78200E+11
         0.78200E+11
         0.78200E+11
         0.78200E+11
         0.78200E+11
         0.78200E+11
         0.78200E+11
         0.78200E+11
         0.78200E+11
         0.78200E+11
         0.78200E+11
         0.78200E+11
         0.78200E+11
         0.78200E+11
         0.78200E+11
         0.78200E+11
         0.78200E+11
         0.78200E+11
         0.78200E+11
         0.78200E+11
         0.78200E+11
         0.78200E+11
         0.78200E+11
         0.78200E+11
         0.78200E+11
         0.78200E+11
         0.78200E+11
         0.78200E+11
         0.78200E+11
         0.78200E+11
         0.78200E+11
         0.78200E+11
         0.78200E+11
         0.78200E+11
         0.78200E+11
         0.78200E+11
         0.78200E+11
         0.78200E+11
         0.78200E+11
         0.78200E+11
         0.78200E+11
         0.78200E+11
         0.78200E+11
         0.78200E+11
         0.78200E+11
         0.78200E+11
         0.78200E+11
         0.78200E+11
         0.78200E+11
         0.78200E+11
         0.78200E+11
         0.78200E+11
         0.78200E+11
         0.78200E+11
         0.78200E+11
         0.78200E+11
         0.78200E+11
         0.78200E+11
         0.78200E+11
         0.78200E+11
         0.78200E+11
         0.78200E+11
         0.78200E+11
         0.78200E+11
         0.78200E+11
         0.78200E+11
         0.78200E+11
         0.78200E+11
         0.78200E+11
         0.78200E+11
         0.78200E+11
         0.78200E+11
         0.78200E+11
         0.78200E+11
         0.78200E+11
         0.78200E+11
         0.78200E+11
         0.78200E+11
         0.78200E+11
         0.78200E+11
         0.78200E+11
         0.78200E+11
         0.78200E+11
         0.78200E+11
         0.78200E+11
         0.78200E+11
         0.78200E+11
         0.78200E+11
         0.78200E+11
         0.78200E+11
         0.78200E+11
         0.78200E+11
         0.78200E+11
         0.78200E+11
         0.78200E+11
         0.78200E+11
         0.78200E+11
         0.78200E+11
         0.78200E+11
         0.78200E+11
         0.78200E+11
         0.78200E+11
         0.78200E+11
         0.78200E+11
         0.78200E+11
         0.78200E+11
         0.78200E+11
         0.78200E+11
         0.78200E+11
         0.78200E+11
         0.78200E+11
         0.78200E+11
         0.78200E+11
         0.78200E+11
         0.78200E+11
         0.78200E+11
         0.78200E+11
         0.78200E+11
         0.78200E+11
         0.78200E+11
         0.78200E+11
         0.78200E+11
         0.78200E+11
         0.78200E+11
         0.78200E+11
         0.78200E+11
         0.78200E+11
         0.78200E+11
         0.78200E+11
         0.78200E+11
         0.78200E+11
         0.78200E+11
         0.78200E+11
         0.78200E+11
         0.78200E+11
         0.78200E+11
         0.78200E+11
         0.78200E+11
         0.78200E+11
         0.78200E+11
         0.78200E+11
         0.78200E+11
         0.78200E+11
         0.78200E+11
         0.78200E+11
         0.78200E+11
         0.78200E+11
         0.78200E+11
         0.78200E+11
         0.78200E+11
         0.78200E+11
         0.78200E+11
         0.78200E+11
         0.78200E+11
         0.78200E+11
         0.78200E+11
         0.78200E+11
         0.78200E+11
         0.78200E+11
         0.78200E+11
         0.78200E+11
         0.78200E+11
         0.78200E+11
         0.78200E+11
         0.78200E+11
         0.78200E+11
         0.78200E+11
         0.78200E+11
         0.78200E+11
         0.78200E+11
         0.78200E+11
         0.78200E+11
         0.78200E+11
         0.78200E+11
         0.78200E+11
         0.78200E+11
         0.78200E+11
         0.78200E+11
         0.78200E+11
         0.78200E+11
         0.78200E+11
         0.78200E+11
         0.78200E+11
         0.78200E+11
         0.78200E+11
         0.78200E+11
         0.78200E+11
         0.78200E+11
         0.78200E+11
         0.78200E+11
         0.78200E+11
         0.78200E+11
         0.78200E+11
         0.78200E+11
         0.78200E+11
         0.78200E+11
         0.78200E+11
         0.78200E+11
         0.78200E+11
         0.78200E+11
         0.78200E+11
         0.78200E+11
         0.78200E+11
         0.78200E+11
         0.78200E+11
         0.78200E+11
         0.78200E+11
         0.78200E+11
         0.78200E+11
         0.78200E+11
         0.78200E+11
         0.78200E+11
         0.78200E+11
         0.78200E+11
         0.78200E+11
         0.78200E+11
         0.78200E+11
         0.78200E+11
         0.78200E+11
         0.78200E+11
         0.78200E+11
         0.78200E+11
         0.78200E+11
         0.78200E+11
         0.78200E+11
         0.78200E+11
         0.78200E+11
         0.78200E+11
         0.78200E+11
         0.78200E+11
         0.78200E+11
         0.78200E+11
         0.78200E+11
         0.78200E+11
         0.78200E+11
         0.78200E+11
         0.78200E+11
         0.78200E+11
         0.78200E+11
         0.78200E+11
         0.78200E+11
         0.78200E+11
         0.78200E+11
         0.78200E+11
         0.78200E+11
         0.78200E+11
         0.78200E+11
         0.78200E+11
         0.78200E+11
         0.78200E+11
         0.78200E+11
         0.78200E+11
         0.78200E+11
         0.78200E+11
         0.78200E+11
         0.78200E+11
         0.78200E+11
         0.78200E+11
         0.78200E+11
         0.78200E+11
         0.78200E+11
         0.78200E+11
         0.78200E+11
         0.78200E+11
         0.78200E+11
         0.78200E+11
         0.78200E+11
         0.78200E+11
         0.78200E+11
         0.78200E+11
         0.78200E+11
         0.78200E+11
         0.78200E+11
         0.78200E+11
         0.78200E+11
         0.78200E+11
         0.78200E+11
         0.78200E+11
         0.78200E+11
         0.78200E+11
         0.78200E+11
         0.78200E+11
         0.78200E+11
         0.78200E+11
         0.78200E+11
         0.78200E+11
         0.78200E+11
         0.78200E+11
         0.78200E+11
         0.78200E+11
         0.78200E+11
         0.78200E+11
         0.78200E+11
         0.78200E+11
         0.78200E+11
         0.78200E+11
         0.78200E+11
         0.78200E+11
         0.78200E+11
         0.78200E+11
         0.78200E+11
         0.78200E+11
         0.78200E+11
         0.78200E+11
         0.78200E+11
         0.78200E+11
         0.78200E+11
         0.78200E+11
         0.78200E+11
         0.78200E+11
         0.78200E+11
         0.78200E+11
         0.78200E+11
         0.78200E+11
         0.78200E+11
         0.78200E+11
         0.78200E+11
         0.78200E+11
         0.78200E+11
         0.78200E+11
         0.78200E+11
         0.78200E+11
         0.78200E+11
         0.78200E+11
         0.78200E+11
         0.78200E+11
         0.78200E+11
         0.78200E+11
         0.78200E+11
         0.78200E+11
         0.78200E+11
         0.78200E+11
         0.78200E+11
         0.78200E+11
         0.78200E+11
         0.78200E+11
         0.78200E+11
         0.78200E+11
         0.78200E+11
         0.78200E+11
         0.78200E+11
         0.78200E+11
         0.78200E+11
         0.78200E+11
         0.78200E+11
         0.78200E+11
         0.78200E+11
         0.78200E+11
         0.78200E+11
         0.78200E+11
         0.78200E+11
         0.78200E+11
         0.78200E+11
         0.78200E+11
         0.78200E+11
         0.78200E+11
         0.78200E+11
         0.78200E+11
         0.78200E+11
         0.78200E+11
         0.78200E+11
         0.78200E+11
         0.78200E+11
         0.78200E+11
         0.78200E+11
         0.78200E+11
         0.78200E+11
         0.78200E+11
         0.78200E+11
         0.78200E+11
         0.78200E+11
         0.78200E+11
         0.78200E+11
         0.78200E+11
         0.78200E+11
         0.78200E+11
         0.78200E+11
         0.78200E+11
         0.78200E+11
         0.78200E+11
         0.78200E+11
         0.78200E+11
         0.78200E+11
         0.78200E+11
         0.78200E+11
         0.78200E+11
         0.78200E+11
         0.78200E+11
         0.78200E+11
         0.78200E+11
         0.78200E+11
         0.78200E+11
         0.78200E+11
         0.78200E+11
         0.78200E+11
         0.78200E+11
         0.78200E+11
         0.78200E+11
         0.78200E+11
         0.78200E+11
         0.78200E+11
         0.78200E+11
         0.78200E+11
         0.78200E+11
         0.78200E+11
         0.78200E+11
         0.78200E+11
         0.78200E+11
         0.78200E+11
         0.78200E+11
         0.78200E+11
         0.78200E+11
         0.78200E+11
         0.78200E+11
         0.78200E+11
         0.78200E+11
         0.78200E+11
         0.78200E+11
         0.78200E+11
         0.78200E+11
         0.78200E+11
         0.78200E+11
         0.78200E+11
         0.78200E+11
         0.78200E+11
         0.78200E+11
         0.78200E+11
         0.78200E+11
         0.78200E+11
         0.78200E+11
         0.78200E+11
         0.78200E+11
         0.78200E+11
         0.78200E+11
         0.78200E+11
         0.78200E+11
         0.78200E+11
         0.78200E+11
         0.78200E+11
         0.78200E+11
         0.78200E+11
         0.78200E+11
         0.78200E+11
         0.78200E+11
         0.78200E+11
         0.78200E+11
         0.78200E+11
         0.78200E+11
         0.78200E+11
         0.78200E+11
         0.78200E+11
         0.78200E+11
         0.78200E+11
         0.78200E+11
         0.78200E+11
         0.78200E+11
         0.78200E+11
         0.78200E+11
         0.78200E+11
         0.78200E+11
         0.78200E+11
         0.78200E+11
         0.78200E+11
         0.78200E+11
         0.78200E+11
         0.78200E+11
         0.78200E+11
         0.78200E+11
         0.78200E+11
         0.78200E+11
         0.78200E+11
         0.78200E+11
         0.78200E+11
         0.78200E+11
         0.78200E+11
         0.78200E+11
         0.78200E+11
         0.78200E+11
         0.78200E+11
         0.78200E+11
         0.78200E+11
         0.78200E+11
         0.78200E+11
         0.78200E+11
         0.78200E+11
         0.78200E+11
         0.78200E+11
         0.78200E+11
         0.78200E+11
         0.78200E+11
         0.78200E+11
         0.78200E+11
         0.78200E+11
         0.78200E+11
         0.78200E+11
         0.78200E+11
         0.78200E+11
         0.78200E+11
         0.78200E+11
         0.78200E+11
         0.78200E+11
         0.78200E+11
         0.78200E+11
         0.78200E+11
         0.78200E+11
         0.78200E+11
         0.78200E+11
         0.78200E+11
         0.78200E+11
         0.78200E+11
         0.78200E+11
         0.78200E+11
         0.78200E+11
         0.78200E+11
         0.78200E+11
         0.78200E+11
         0.78200E+11
         0.78200E+11
         0.78200E+11
         0.78200E+11
         0.78200E+11
         0.78200E+11
         0.78200E+11
         0.78200E+11
         0.78200E+11
         0.78200E+11
         0.78200E+11
         0.78200E+11
         0.78200E+11
         0.78200E+11
         0.78200E+11
         0.78200E+11
         0.78200E+11
         0.78200E+11
         0.78200E+11
         0.78200E+11
         0.78200E+11
         0.78200E+11
         0.78200E+11
         0.78200E+11
         0.78200E+11
         0.78200E+11
         0.78200E+11
         0.78200E+11
         0.78200E+11
         0.78200E+11
         0.78200E+11
         0.78200E+11
         0.78200E+11
         0.78200E+11
         0.78200E+11
         0.78200E+11
         0.78200E+11
         0.78200E+11
         0.78200E+11
         0.78200E+11
         0.78200E+11
         0.78200E+11
         0.78200E+11
         0.78200E+11
         0.78200E+11
         0.78200E+11
         0.78200E+11
         0.78200E+11
         0.78200E+11
         0.78200E+11
         0.78200E+11
         0.78200E+11
         0.78200E+11
         0.78200E+11
         0.78200E+11
         0.78200E+11
         0.78200E+11
         0.78200E+11
         0.78200E+11
         0.78200E+11
         0.78200E+11
         0.78200E+11
         0.78200E+11
         0.78200E+11
         0.78200E+11
         0.78200E+11
         0.78200E+11
         0.78200E+11
         0.78200E+11
         0.78200E+11
         0.78200E+11
         0.78200E+11
         0.78200E+11
         0.78200E+11
         0.78200E+11
         0.78200E+11
         0.78200E+11
         0.78200E+11
         0.78200E+11
         0.78200E+11
         0.78200E+11
         0.78200E+11
         0.78200E+11
         0.78200E+11
         0.78200E+11
         0.78200E+11
         0.78200E+11
         0.78200E+11
         0.78200E+11
         0.78200E+11
         0.78200E+11
         0.78200E+11
         0.78200E+11
         0.78200E+11
         0.78200E+11
         0.78200E+11
         0.78200E+11
         0.78200E+11
         0.78200E+11
         0.78200E+11
         0.78200E+11
         0.78200E+11
         0.78200E+11
         0.78200E+11
         0.78200E+11
         0.78200E+11
         0.78200E+11
         0.78200E+11
         0.78200E+11
         0.78200E+11
         0.78200E+11
         0.78200E+11
         0.78200E+11
         0.78200E+11
         0.78200E+11
         0.78200E+11
         0.78200E+11
         0.78200E+11
         0.78200E+11
         0.78200E+11
         0.78200E+11
         0.78200E+11
         0.78200E+11
         0.78200E+11
         0.78200E+11
         0.78200E+11
         0.78200E+11
         0.78200E+11
         0.78200E+11
         0.78200E+11
         0.78200E+11
         0.78200E+11
         0.78200E+11
         0.78200E+11
         0.78200E+11
         0.78200E+11
         0.78200E+11
         0.78200E+11
         0.78200E+11
         0.78200E+11
         0.78200E+11
         0.78200E+11
         0.78200E+11
         0.78200E+11
         0.78200E+11
         0.78200E+11
         0.78200E+11
         0.78200E+11
         0.78200E+11
         0.78200E+11
         0.78200E+11
         0.78200E+11
         0.78200E+11
         0.78200E+11
         0.78200E+11
         0.78200E+11
         0.78200E+11
         0.78200E+11
         0.78200E+11
         0.78200E+11
         0.78200E+11
         0.78200E+11
         0.78200E+11
         0.78200E+11
         0.78200E+11
         0.78200E+11
         0.78200E+11
         0.78200E+11
         0.78200E+11
         0.78200E+11
         0.78200E+11
         0.78200E+11
         0.78200E+11
         0.78200E+11
         0.78200E+11
         0.78200E+11
         0.78200E+11
         0.78200E+11
         0.78200E+11
         0.78200E+11
         0.78200E+11
         0.78200E+11
         0.78200E+11
         0.78200E+11
         0.78200E+11
         0.78200E+11
         0.78200E+11
         0.78200E+11
         0.78200E+11
         0.78200E+11
         0.78200E+11
         0.78200E+11
         0.78200E+11
         0.78200E+11
         0.78200E+11
         0.78200E+11
         0.78200E+11
         0.78200E+11
         0.78200E+11
         0.78200E+11
         0.78200E+11
         0.78200E+11
         0.78200E+11
         0.78200E+11
         0.78200E+11
         0.78200E+11
         0.78200E+11
         0.78200E+11
         0.78200E+11
         0.78200E+11
         0.78200E+11
         0.78200E+11
         0.78200E+11
         0.78200E+11
         0.78200E+11
         0.78200E+11
         0.78200E+11
         0.78200E+11
         0.78200E+11
         0.78200E+11
         0.78200E+11
         0.78200E+11
         0.78200E+11
         0.78200E+11
         0.78200E+11
         0.78200E+11
         0.78200E+11
         0.78200E+11
         0.78200E+11
         0.78200E+11
         0.78200E+11
         0.78200E+11
         0.78200E+11
         0.78200E+11
         0.78200E+11
         0.78200E+11
         0.78200E+11
         0.78200E+11
         0.78200E+11
         0.78200E+11
         0.78200E+11
         0.78200E+11
         0.78200E+11
         0.78200E+11
         0.78200E+11
         0.78200E+11
         0.78200E+11
         0.78200E+11
         0.78200E+11
         0.78200E+11
         0.78200E+11
         0.78200E+11
         0.78200E+11
         0.78200E+11
         0.78200E+11
         0.78200E+11
         0.78200E+11
         0.78200E+11
         0.78200E+11
         0.78200E+11
         0.78200E+11
         0.78200E+11
         0.78200E+11
         0.78200E+11
         0.78200E+11
         0.78200E+11
         0.78200E+11
         0.78200E+11
         0.78200E+11
         0.78200E+11
         0.78200E+11
         0.78200E+11
         0.78200E+11
         0.78200E+11
         0.78200E+11
         0.78200E+11
         0.78200E+11
         0.78200E+11
         0.78200E+11
         0.78200E+11
         0.78200E+11
         0.78200E+11
         0.78200E+11
         0.78200E+11
         0.78200E+11
         0.78200E+11
         0.78200E+11
         0.78200E+11
         0.78200E+11
         0.78200E+11
         0.78200E+11
         0.78200E+11
         0.78200E+11
         0.78200E+11
         0.78200E+11
         0.78200E+11
         0.78200E+11
         0.78200E+11
         0.78200E+11
         0.78200E+11
         0.78200E+11
         0.78200E+11
         0.78200E+11
         0.78200E+11
         0.78200E+11
         0.78200E+11
         0.78200E+11
         0.78200E+11
         0.78200E+11
         0.78200E+11
         0.78200E+11
         0.78200E+11
         0.78200E+11
         0.78200E+11
         0.78200E+11
         0.78200E+11
         0.78200E+11
         0.78200E+11
         0.78200E+11
         0.78200E+11
         0.78200E+11
         0.78200E+11
         0.78200E+11
         0.78200E+11
         0.78200E+11
         0.78200E+11
         0.78200E+11
         0.78200E+11
         0.78200E+11
         0.78200E+11
         0.78200E+11
         0.78200E+11
         0.78200E+11
         0.78200E+11
         0.78200E+11
         0.78200E+11
         0.78200E+11
         0.78200E+11
         0.78200E+11
         0.78200E+11
         0.78200E+11
         0.78200E+11
         0.78200E+11
         0.78200E+11
         0.78200E+11
         0.78200E+11
         0.78200E+11
         0.78200E+11
         0.78200E+11
         0.78200E+11
         0.78200E+11
         0.78200E+11
         0.78200E+11
         0.78200E+11
         0.78200E+11
         0.78200E+11
         0.78200E+11
         0.78200E+11
         0.78200E+11
         0.78200E+11
         0.78200E+11
         0.78200E+11
         0.78200E+11
         0.78200E+11
         0.78200E+11
         0.78200E+11
         0.78200E+11
         0.78200E+11
         0.78200E+11
         0.78200E+11
         0.78200E+11
         0.78200E+11
         0.78200E+11
         0.78200E+11
         0.78200E+11
         0.78200E+11
         0.78200E+11
         0.78200E+11
         0.78200E+11
         0.78200E+11
         0.78200E+11
         0.78200E+11
         0.78200E+11
         0.78200E+11
         0.78200E+11
         0.78200E+11
         0.78200E+11
         0.78200E+11
         0.78200E+11
         0.78200E+11
         0.78200E+11
         0.78200E+11
         0.78200E+11
         0.78200E+11
         0.78200E+11
         0.78200E+11
         0.78200E+11
         0.78200E+11
         0.78200E+11
         0.78200E+11
         0.78200E+11
         0.78200E+11
         0.78200E+11
         0.78200E+11
         0.78200E+11
         0.78200E+11
         0.78200E+11
         0.78200E+11
         0.78200E+11
         0.78200E+11
         0.78200E+11
         0.78200E+11
         0.78200E+11
         0.78200E+11
         0.78200E+11
         0.78200E+11
         0.78200E+11
         0.78200E+11
         0.78200E+11
         0.78200E+11
         0.78200E+11
         0.78200E+11
         0.78200E+11
         0.78200E+11
         0.78200E+11
         0.78200E+11
         0.78200E+11
         0.78200E+11
         0.78200E+11
         0.78200E+11
         0.78200E+11
         0.78200E+11
         0.78200E+11
         0.78200E+11
         0.78200E+11
         0.78200E+11
         0.78200E+11
         0.78200E+11
         0.78200E+11
         0.78200E+11
         0.78200E+11
         0.78200E+11
         0.78200E+11
         0.78200E+11
         0.78200E+11
         0.78200E+11
         0.78200E+11
         0.78200E+11
         0.78200E+11
         0.78200E+11
         0.78200E+11
         0.78200E+11
         0.78200E+11
         0.78200E+11
         0.78200E+11
         0.78200E+11
         0.78200E+11
         0.78200E+11
         0.78200E+11
         0.78200E+11
         0.78200E+11
         0.78200E+11
         0.78200E+11
         0.78200E+11
         0.78200E+11
         0.78200E+11
         0.78200E+11
         0.78200E+11
         0.78200E+11
         0.78200E+11
         0.78200E+11
         0.78200E+11
         0.78200E+11
         0.78200E+11
         0.78200E+11
         0.78200E+11
         0.78200E+11
         0.78200E+11
         0.78200E+11
         0.78200E+11
         0.78200E+11
         0.78200E+11
         0.78200E+11
         0.78200E+11
         0.78200E+11
         0.78200E+11
         0.78200E+11
         0.78200E+11
         0.78200E+11
         0.78200E+11
         0.78200E+11
         0.78200E+11
         0.78200E+11
         0.78200E+11
         0.78200E+11
         0.78200E+11
         0.78200E+11
         0.78200E+11
         0.78200E+11
         0.78200E+11
         0.78200E+11
         0.78200E+11
         0.78200E+11
         0.78200E+11
         0.78200E+11
         0.78200E+11
         0.78200E+11
         0.78200E+11
         0.78200E+11
         0.78200E+11
         0.78200E+11
         0.78200E+11
         0.78200E+11
         0.78200E+11
         0.78200E+11
         0.78200E+11
         0.78200E+11
         0.78200E+11
         0.78200E+11
         0.78200E+11
         0.78200E+11
         0.78200E+11
         0.78200E+11
         0.78200E+11
         0.78200E+11
         0.78200E+11
         0.78200E+11
         0.78200E+11
         0.78200E+11
         0.78200E+11
         0.78200E+11
         0.78200E+11
         0.78200E+11
         0.78200E+11
         0.78200E+11
         0.78200E+11
         0.78200E+11
         0.78200E+11
         0.78200E+11
         0.78200E+11
         0.78200E+11
         0.78200E+11
         0.78200E+11
         0.78200E+11
         0.78200E+11
         0.78200E+11
         0.78200E+11
         0.78200E+11
         0.78200E+11
         0.78200E+11
         0.78200E+11
         0.78200E+11
         0.78200E+11
         0.78200E+11
         0.78200E+11
         0.78200E+11
         0.78200E+11
         0.78200E+11
         0.78200E+11
         0.78200E+11
         0.78200E+11
         0.78200E+11
         0.78200E+11
         0.78200E+11
         0.78200E+11
         0.78200E+11
         0.78200E+11
         0.78200E+11
         0.78200E+11
         0.78200E+11
         0.78200E+11
         0.78200E+11
         0.78200E+11
         0.78200E+11
         0.78200E+11
         0.78200E+11
         0.78200E+11
         0.78200E+11
         0.78200E+11
         0.78200E+11
         0.78200E+11
         0.78200E+11
         0.78200E+11
         0.78200E+11
         0.78200E+11
         0.78200E+11
         0.78200E+11
         0.78200E+11
         0.78200E+11
         0.78200E+11
         0.78200E+11
         0.78200E+11
         0.78200E+11
         0.78200E+11
         0.78200E+11
         0.78200E+11
         0.78200E+11
         0.78200E+11
         0.78200E+11
         0.78200E+11
         0.78200E+11
         0.78200E+11
         0.78200E+11
         0.78200E+11
         0.78200E+11
         0.78200E+11
         0.78200E+11
         0.78200E+11
         0.78200E+11
         0.78200E+11
         0.78200E+11
         0.78200E+11
         0.78200E+11
         0.78200E+11
         0.78200E+11
         0.78200E+11
         0.78200E+11
         0.78200E+11
         0.78200E+11
         0.78200E+11
         0.78200E+11
         0.78200E+11
         0.78200E+11
         0.78200E+11
         0.78200E+11
         0.78200E+11
         0.78200E+11
         0.78200E+11
         0.78200E+11
         0.78200E+11
         0.78200E+11
         0.78200E+11
         0.78200E+11
         0.78200E+11
         0.78200E+11
         0.78200E+11
         0.78200E+11
         0.78200E+11
         0.78200E+11
         0.78200E+11
         0.78200E+11
         0.78200E+11
         0.78200E+11
         0.78200E+11
         0.78200E+11
         0.78200E+11
         0.78200E+11
         0.78200E+11
         0.78200E+11
         0.78200E+11
         0.78200E+11
         0.78200E+11
         0.78200E+11
         0.78200E+11
         0.78200E+11
         0.78200E+11
         0.78200E+11
         0.78200E+11
         0.78200E+11
         0.78200E+11
         0.78200E+11
         0.78200E+11
         0.78200E+11
         0.78200E+11
         0.78200E+11
         0.78200E+11
         0.78200E+11
         0.78200E+11
         0.78200E+11
         0.78200E+11
         0.78200E+11
         0.78200E+11
         0.78200E+11
         0.78200E+11
         0.78200E+11
         0.78200E+11
         0.78200E+11
         0.78200E+11
         0.78200E+11
         0.78200E+11
         0.78200E+11
         0.78200E+11
         0.78200E+11
         0.78200E+11
         0.78200E+11
         0.78200E+11
         0.78200E+11
         0.78200E+11
         0.78200E+11
         0.78200E+11
         0.78200E+11
         0.78200E+11
         0.78200E+11
         0.78200E+11
         0.78200E+11
         0.78200E+11
         0.78200E+11
         0.78200E+11
         0.78200E+11
         0.78200E+11
         0.78200E+11
         0.78200E+11
         0.78200E+11
         0.78200E+11
         0.78200E+11
         0.78200E+11
         0.78200E+11
         0.78200E+11
         0.78200E+11
         0.78200E+11
         0.78200E+11
         0.78200E+11
         0.78200E+11
         0.78200E+11
         0.78200E+11
         0.78200E+11
         0.78200E+11
         0.78200E+11
         0.78200E+11
         0.78200E+11
         0.78200E+11
         0.78200E+11
         0.78200E+11
         0.78200E+11
         0.78200E+11
         0.78200E+11
         0.78200E+11
         0.78200E+11
         0.78200E+11
         0.78200E+11
         0.78200E+11
         0.78200E+11
         0.78200E+11
         0.78200E+11
         0.78200E+11
         0.78200E+11
         0.78200E+11
         0.78200E+11
         0.78200E+11
         0.78200E+11
         0.78200E+11
         0.78200E+11
         0.78200E+11
         0.78200E+11
         0.78200E+11
         0.78200E+11
         0.78200E+11
         0.78200E+11
         0.78200E+11
         0.78200E+11
         0.78200E+11
         0.78200E+11
         0.78200E+11
         0.78200E+11
         0.78200E+11
         0.78200E+11
         0.78200E+11
         0.78200E+11
         0.78200E+11
         0.78200E+11
         0.78200E+11
         0.78200E+11
         0.78200E+11
         0.78200E+11
         0.78200E+11
         0.78200E+11
         0.78200E+11
         0.78200E+11
         0.78200E+11
         0.78200E+11
         0.78200E+11
         0.78200E+11
         0.78200E+11
         0.78200E+11
         0.78200E+11
         0.78200E+11
         0.78200E+11
         0.78200E+11
         0.78200E+11
         0.78200E+11
         0.78200E+11
         0.78200E+11
         0.78200E+11
         0.78200E+11
         0.78200E+11
         0.78200E+11
         0.78200E+11
         0.78200E+11
         0.78200E+11
         0.78200E+11
         0.78200E+11
         0.78200E+11
         0.78200E+11
         0.78200E+11
         0.78200E+11
         0.78200E+11
         0.78200E+11
         0.78200E+11
         0.78200E+11
         0.78200E+11
         0.78200E+11
         0.78200E+11
         0.78200E+11
         0.78200E+11
         0.78200E+11
         0.78200E+11
         0.78200E+11
         0.78200E+11
         0.78200E+11
         0.78200E+11
         0.78200E+11
         0.78200E+11
         0.78200E+11
         0.78200E+11
         0.78200E+11
         0.78200E+11
         0.78200E+11
         0.78200E+11
         0.78200E+11
         0.78200E+11
         0.78200E+11
         0.78200E+11
         0.78200E+11
         0.78200E+11
         0.78200E+11
         0.78200E+11
         0.78200E+11
         0.78200E+11
         0.78200E+11
         0.78200E+11
         0.78200E+11
         0.78200E+11
         0.78200E+11
         0.78200E+11
         0.78200E+11
         0.78200E+11
         0.78200E+11
         0.78200E+11
         0.78200E+11
         0.78200E+11
         0.78200E+11
         0.78200E+11
         0.78200E+11
         0.78200E+11
         0.78200E+11
         0.78200E+11
         0.78200E+11
         0.78200E+11
         0.78200E+11
         0.78200E+11
         0.78200E+11
         0.78200E+11
         0.78200E+11
         0.78200E+11
         0.78200E+11
         0.78200E+11
         0.78200E+11
         0.78200E+11
         0.78200E+11
         0.78200E+11
         0.78200E+11
         0.78200E+11
         0.78200E+11
         0.78200E+11
         0.78200E+11
         0.78200E+11
         0.78200E+11
         0.78200E+11
         0.78200E+11
         0.78200E+11
         0.78200E+11
         0.78200E+11
         0.78200E+11
         0.78200E+11
         0.78200E+11
         0.78200E+11
         0.78200E+11
         0.78200E+11
         0.78200E+11
         0.78200E+11
         0.78200E+11
         0.78200E+11
         0.78200E+11
         0.78200E+11
         0.78200E+11
         0.78200E+11
         0.78200E+11
         0.78200E+11
         0.78200E+11
         0.78200E+11
         0.78200E+11
         0.78200E+11
         0.78200E+11
         0.78200E+11
         0.78200E+11
         0.78200E+11
         0.78200E+11
         0.78200E+11
         0.78200E+11
         0.78200E+11
         0.78200E+11
         0.78200E+11
         0.78200E+11
         0.78200E+11
         0.78200E+11
         0.78200E+11
         0.78200E+11
         0.78200E+11
         0.78200E+11
         0.78200E+11
         0.78200E+11
         0.78200E+11
         0.78200E+11
         0.78200E+11
         0.78200E+11
         0.78200E+11
         0.78200E+11
         0.78200E+11
         0.78200E+11
         0.78200E+11
         0.78200E+11
         0.78200E+11
         0.78200E+11
         0.78200E+11
         0.78200E+11
         0.78200E+11
         0.78200E+11
         0.78200E+11
         0.78200E+11
         0.78200E+11
         0.78200E+11
         0.78200E+11
         0.78200E+11
         0.78200E+11
         0.78200E+11
         0.78200E+11
         0.78200E+11
         0.78200E+11
         0.78200E+11
         0.78200E+11
         0.78200E+11
         0.78200E+11
         0.78200E+11
         0.78200E+11
         0.78200E+11
         0.78200E+11
         0.78200E+11
         0.78200E+11
         0.78200E+11
         0.78200E+11
         0.78200E+11
         0.78200E+11
         0.78200E+11
         0.78200E+11
         0.78200E+11
         0.78200E+11
         0.78200E+11
         0.78200E+11
         0.78200E+11
         0.78200E+11
         0.78200E+11
         0.78200E+11
         0.78200E+11
         0.78200E+11
         0.78200E+11
         0.78200E+11
         0.78200E+11
         0.78200E+11
         0.78200E+11
         0.78200E+11
         0.78200E+11
         0.78200E+11
         0.78200E+11
         0.78200E+11
         0.78200E+11
         0.78200E+11
         0.78200E+11
         0.78200E+11
         0.78200E+11
         0.78200E+11
         0.78200E+11
         0.78200E+11
         0.78200E+11
         0.78200E+11
         0.78200E+11
         0.78200E+11
         0.78200E+11
         0.78200E+11
         0.78200E+11
         0.78200E+11
         0.78200E+11
         0.78200E+11
         0.78200E+11
         0.78200E+11
         0.78200E+11
         0.78200E+11
         0.78200E+11
         0.78200E+11
         0.78200E+11
         0.78200E+11
         0.78200E+11
         0.78200E+11
         0.78200E+11
         0.78200E+11
         0.78200E+11
         0.78200E+11
         0.78200E+11
         0.78200E+11
         0.78200E+11
         0.78200E+11
         0.78200E+11
         0.78200E+11
         0.78200E+11
         0.78200E+11
         0.78200E+11
         0.78200E+11
         0.78200E+11
         0.78200E+11
         0.78200E+11
         0.78200E+11
         0.78200E+11
         0.78200E+11
         0.78200E+11
         0.78200E+11
         0.78200E+11
         0.78200E+11
         0.78200E+11
         0.78200E+11
         0.78200E+11
         0.78200E+11
         0.78200E+11
         0.78200E+11
         0.78200E+11
         0.78200E+11
         0.78200E+11
         0.78200E+11
         0.78200E+11
         0.78200E+11
         0.78200E+11
         0.78200E+11
         0.78200E+11
         0.78200E+11
         0.78200E+11
         0.78200E+11
         0.78200E+11
         0.78200E+11
         0.78200E+11
         0.78200E+11
         0.78200E+11
         0.78200E+11
         0.78200E+11
         0.78200E+11
         0.78200E+11
         0.78200E+11
         0.78200E+11
         0.78200E+11
         0.78200E+11
         0.78200E+11
         0.78200E+11
         0.78200E+11
         0.78200E+11
         0.78200E+11
         0.78200E+11
         0.78200E+11
         0.78200E+11
         0.78200E+11
         0.78200E+11
         0.78200E+11
         0.78200E+11
         0.78200E+11
         0.78200E+11
         0.78200E+11
         0.78200E+11
         0.78200E+11
         0.78200E+11
         0.78200E+11
         0.78200E+11
         0.78200E+11
         0.78200E+11
         0.78200E+11
         0.78200E+11
         0.78200E+11
         0.78200E+11
         0.78200E+11
         0.78200E+11
         0.78200E+11
         0.78200E+11
         0.78200E+11
         0.78200E+11
         0.78200E+11
         0.78200E+11
         0.78200E+11
         0.78200E+11
  
SCALARS                        density  double 1
LOOKUP_TABLE default
         0.27000E+04
         0.27000E+04
         0.27000E+04
         0.27000E+04
         0.27000E+04
         0.27000E+04
         0.27000E+04
         0.27000E+04
         0.27000E+04
         0.27000E+04
         0.27000E+04
         0.27000E+04
         0.27000E+04
         0.27000E+04
         0.27000E+04
         0.27000E+04
         0.27000E+04
         0.27000E+04
         0.27000E+04
         0.27000E+04
         0.27000E+04
         0.27000E+04
         0.27000E+04
         0.27000E+04
         0.27000E+04
         0.27000E+04
         0.27000E+04
         0.27000E+04
         0.27000E+04
         0.27000E+04
         0.27000E+04
         0.27000E+04
         0.27000E+04
         0.27000E+04
         0.27000E+04
         0.27000E+04
         0.27000E+04
         0.27000E+04
         0.27000E+04
         0.27000E+04
         0.27000E+04
         0.27000E+04
         0.27000E+04
         0.27000E+04
         0.27000E+04
         0.27000E+04
         0.27000E+04
         0.27000E+04
         0.27000E+04
         0.27000E+04
         0.27000E+04
         0.27000E+04
         0.27000E+04
         0.27000E+04
         0.27000E+04
         0.27000E+04
         0.27000E+04
         0.27000E+04
         0.27000E+04
         0.27000E+04
         0.27000E+04
         0.27000E+04
         0.27000E+04
         0.27000E+04
         0.27000E+04
         0.27000E+04
         0.27000E+04
         0.27000E+04
         0.27000E+04
         0.27000E+04
         0.27000E+04
         0.27000E+04
         0.27000E+04
         0.27000E+04
         0.27000E+04
         0.27000E+04
         0.27000E+04
         0.27000E+04
         0.27000E+04
         0.27000E+04
         0.27000E+04
         0.27000E+04
         0.27000E+04
         0.27000E+04
         0.27000E+04
         0.27000E+04
         0.27000E+04
         0.27000E+04
         0.27000E+04
         0.27000E+04
         0.27000E+04
         0.27000E+04
         0.27000E+04
         0.27000E+04
         0.27000E+04
         0.27000E+04
         0.27000E+04
         0.27000E+04
         0.27000E+04
         0.27000E+04
         0.27000E+04
         0.27000E+04
         0.27000E+04
         0.27000E+04
         0.27000E+04
         0.27000E+04
         0.27000E+04
         0.27000E+04
         0.27000E+04
         0.27000E+04
         0.27000E+04
         0.27000E+04
         0.27000E+04
         0.27000E+04
         0.27000E+04
         0.27000E+04
         0.27000E+04
         0.27000E+04
         0.27000E+04
         0.27000E+04
         0.27000E+04
         0.27000E+04
         0.27000E+04
         0.27000E+04
         0.27000E+04
         0.27000E+04
         0.27000E+04
         0.27000E+04
         0.27000E+04
         0.27000E+04
         0.27000E+04
         0.27000E+04
         0.27000E+04
         0.27000E+04
         0.27000E+04
         0.27000E+04
         0.27000E+04
         0.27000E+04
         0.27000E+04
         0.27000E+04
         0.27000E+04
         0.27000E+04
         0.27000E+04
         0.27000E+04
         0.27000E+04
         0.27000E+04
         0.27000E+04
         0.27000E+04
         0.27000E+04
         0.27000E+04
         0.27000E+04
         0.27000E+04
         0.27000E+04
         0.27000E+04
         0.27000E+04
         0.27000E+04
         0.27000E+04
         0.27000E+04
         0.27000E+04
         0.27000E+04
         0.27000E+04
         0.27000E+04
         0.27000E+04
         0.27000E+04
         0.27000E+04
         0.27000E+04
         0.27000E+04
         0.27000E+04
         0.27000E+04
         0.27000E+04
         0.27000E+04
         0.27000E+04
         0.27000E+04
         0.27000E+04
         0.27000E+04
         0.27000E+04
         0.27000E+04
         0.27000E+04
         0.27000E+04
         0.27000E+04
         0.27000E+04
         0.27000E+04
         0.27000E+04
         0.27000E+04
         0.27000E+04
         0.27000E+04
         0.27000E+04
         0.27000E+04
         0.27000E+04
         0.27000E+04
         0.27000E+04
         0.27000E+04
         0.27000E+04
         0.27000E+04
         0.27000E+04
         0.27000E+04
         0.27000E+04
         0.27000E+04
         0.27000E+04
         0.27000E+04
         0.27000E+04
         0.27000E+04
         0.27000E+04
         0.27000E+04
         0.27000E+04
         0.27000E+04
         0.27000E+04
         0.27000E+04
         0.27000E+04
         0.27000E+04
         0.27000E+04
         0.27000E+04
         0.27000E+04
         0.27000E+04
         0.27000E+04
         0.27000E+04
         0.27000E+04
         0.27000E+04
         0.27000E+04
         0.27000E+04
         0.27000E+04
         0.27000E+04
         0.27000E+04
         0.27000E+04
         0.27000E+04
         0.27000E+04
         0.27000E+04
         0.27000E+04
         0.27000E+04
         0.27000E+04
         0.27000E+04
         0.27000E+04
         0.27000E+04
         0.27000E+04
         0.27000E+04
         0.27000E+04
         0.27000E+04
         0.27000E+04
         0.27000E+04
         0.27000E+04
         0.27000E+04
         0.27000E+04
         0.27000E+04
         0.27000E+04
         0.27000E+04
         0.27000E+04
         0.27000E+04
         0.27000E+04
         0.27000E+04
         0.27000E+04
         0.27000E+04
         0.27000E+04
         0.27000E+04
         0.27000E+04
         0.27000E+04
         0.27000E+04
         0.27000E+04
         0.27000E+04
         0.27000E+04
         0.27000E+04
         0.27000E+04
         0.27000E+04
         0.27000E+04
         0.27000E+04
         0.27000E+04
         0.27000E+04
         0.27000E+04
         0.27000E+04
         0.27000E+04
         0.27000E+04
         0.27000E+04
         0.27000E+04
         0.27000E+04
         0.27000E+04
         0.27000E+04
         0.27000E+04
         0.27000E+04
         0.27000E+04
         0.27000E+04
         0.27000E+04
         0.27000E+04
         0.27000E+04
         0.27000E+04
         0.27000E+04
         0.27000E+04
         0.27000E+04
         0.27000E+04
         0.27000E+04
         0.27000E+04
         0.27000E+04
         0.27000E+04
         0.27000E+04
         0.27000E+04
         0.27000E+04
         0.27000E+04
         0.27000E+04
         0.27000E+04
         0.27000E+04
         0.27000E+04
         0.27000E+04
         0.27000E+04
         0.27000E+04
         0.27000E+04
         0.27000E+04
         0.27000E+04
         0.27000E+04
         0.27000E+04
         0.27000E+04
         0.27000E+04
         0.27000E+04
         0.27000E+04
         0.27000E+04
         0.27000E+04
         0.27000E+04
         0.27000E+04
         0.27000E+04
         0.27000E+04
         0.27000E+04
         0.27000E+04
         0.27000E+04
         0.27000E+04
         0.27000E+04
         0.27000E+04
         0.27000E+04
         0.27000E+04
         0.27000E+04
         0.27000E+04
         0.27000E+04
         0.27000E+04
         0.27000E+04
         0.27000E+04
         0.27000E+04
         0.27000E+04
         0.27000E+04
         0.27000E+04
         0.27000E+04
         0.27000E+04
         0.27000E+04
         0.27000E+04
         0.27000E+04
         0.27000E+04
         0.27000E+04
         0.27000E+04
         0.27000E+04
         0.27000E+04
         0.27000E+04
         0.27000E+04
         0.27000E+04
         0.27000E+04
         0.27000E+04
         0.27000E+04
         0.27000E+04
         0.27000E+04
         0.27000E+04
         0.27000E+04
         0.27000E+04
         0.27000E+04
         0.27000E+04
         0.27000E+04
         0.27000E+04
         0.27000E+04
         0.27000E+04
         0.27000E+04
         0.27000E+04
         0.27000E+04
         0.27000E+04
         0.27000E+04
         0.27000E+04
         0.27000E+04
         0.27000E+04
         0.27000E+04
         0.27000E+04
         0.27000E+04
         0.27000E+04
         0.27000E+04
         0.27000E+04
         0.27000E+04
         0.27000E+04
         0.27000E+04
         0.27000E+04
         0.27000E+04
         0.27000E+04
         0.27000E+04
         0.27000E+04
         0.27000E+04
         0.27000E+04
         0.27000E+04
         0.27000E+04
         0.27000E+04
         0.27000E+04
         0.27000E+04
         0.27000E+04
         0.27000E+04
         0.27000E+04
         0.27000E+04
         0.27000E+04
         0.27000E+04
         0.27000E+04
         0.27000E+04
         0.27000E+04
         0.27000E+04
         0.27000E+04
         0.27000E+04
         0.27000E+04
         0.27000E+04
         0.27000E+04
         0.27000E+04
         0.27000E+04
         0.27000E+04
         0.27000E+04
         0.27000E+04
         0.27000E+04
         0.27000E+04
         0.27000E+04
         0.27000E+04
         0.27000E+04
         0.27000E+04
         0.27000E+04
         0.27000E+04
         0.27000E+04
         0.27000E+04
         0.27000E+04
         0.27000E+04
         0.27000E+04
         0.27000E+04
         0.27000E+04
         0.27000E+04
         0.27000E+04
         0.27000E+04
         0.27000E+04
         0.27000E+04
         0.27000E+04
         0.27000E+04
         0.27000E+04
         0.27000E+04
         0.27000E+04
         0.27000E+04
         0.27000E+04
         0.27000E+04
         0.27000E+04
         0.27000E+04
         0.27000E+04
         0.27000E+04
         0.27000E+04
         0.27000E+04
         0.27000E+04
         0.27000E+04
         0.27000E+04
         0.27000E+04
         0.27000E+04
         0.27000E+04
         0.27000E+04
         0.27000E+04
         0.27000E+04
         0.27000E+04
         0.27000E+04
         0.27000E+04
         0.27000E+04
         0.27000E+04
         0.27000E+04
         0.27000E+04
         0.27000E+04
         0.27000E+04
         0.27000E+04
         0.27000E+04
         0.27000E+04
         0.27000E+04
         0.27000E+04
         0.27000E+04
         0.27000E+04
         0.27000E+04
         0.27000E+04
         0.27000E+04
         0.27000E+04
         0.27000E+04
         0.27000E+04
         0.27000E+04
         0.27000E+04
         0.27000E+04
         0.27000E+04
         0.27000E+04
         0.27000E+04
         0.27000E+04
         0.27000E+04
         0.27000E+04
         0.27000E+04
         0.27000E+04
         0.27000E+04
         0.27000E+04
         0.27000E+04
         0.27000E+04
         0.27000E+04
         0.27000E+04
         0.27000E+04
         0.27000E+04
         0.27000E+04
         0.27000E+04
         0.27000E+04
         0.27000E+04
         0.27000E+04
         0.27000E+04
         0.27000E+04
         0.27000E+04
         0.27000E+04
         0.27000E+04
         0.27000E+04
         0.27000E+04
         0.27000E+04
         0.27000E+04
         0.27000E+04
         0.27000E+04
         0.27000E+04
         0.27000E+04
         0.27000E+04
         0.27000E+04
         0.27000E+04
         0.27000E+04
         0.27000E+04
         0.27000E+04
         0.27000E+04
         0.27000E+04
         0.27000E+04
         0.27000E+04
         0.27000E+04
         0.27000E+04
         0.27000E+04
         0.27000E+04
         0.27000E+04
         0.27000E+04
         0.27000E+04
         0.27000E+04
         0.27000E+04
         0.27000E+04
         0.27000E+04
         0.27000E+04
         0.27000E+04
         0.27000E+04
         0.27000E+04
         0.27000E+04
         0.27000E+04
         0.27000E+04
         0.27000E+04
         0.27000E+04
         0.27000E+04
         0.27000E+04
         0.27000E+04
         0.27000E+04
         0.27000E+04
         0.27000E+04
         0.27000E+04
         0.27000E+04
         0.27000E+04
         0.27000E+04
         0.27000E+04
         0.27000E+04
         0.27000E+04
         0.27000E+04
         0.27000E+04
         0.27000E+04
         0.27000E+04
         0.27000E+04
         0.27000E+04
         0.27000E+04
         0.27000E+04
         0.27000E+04
         0.27000E+04
         0.27000E+04
         0.27000E+04
         0.27000E+04
         0.27000E+04
         0.27000E+04
         0.27000E+04
         0.27000E+04
         0.27000E+04
         0.27000E+04
         0.27000E+04
         0.27000E+04
         0.27000E+04
         0.27000E+04
         0.27000E+04
         0.27000E+04
         0.27000E+04
         0.27000E+04
         0.27000E+04
         0.27000E+04
         0.27000E+04
         0.27000E+04
         0.27000E+04
         0.27000E+04
         0.27000E+04
         0.27000E+04
         0.27000E+04
         0.27000E+04
         0.27000E+04
         0.27000E+04
         0.27000E+04
         0.27000E+04
         0.27000E+04
         0.27000E+04
         0.27000E+04
         0.27000E+04
         0.27000E+04
         0.27000E+04
         0.27000E+04
         0.27000E+04
         0.27000E+04
         0.27000E+04
         0.27000E+04
         0.27000E+04
         0.27000E+04
         0.27000E+04
         0.27000E+04
         0.27000E+04
         0.27000E+04
         0.27000E+04
         0.27000E+04
         0.27000E+04
         0.27000E+04
         0.27000E+04
         0.27000E+04
         0.27000E+04
         0.27000E+04
         0.27000E+04
         0.27000E+04
         0.27000E+04
         0.27000E+04
         0.27000E+04
         0.27000E+04
         0.27000E+04
         0.27000E+04
         0.27000E+04
         0.27000E+04
         0.27000E+04
         0.27000E+04
         0.27000E+04
         0.27000E+04
         0.27000E+04
         0.27000E+04
         0.27000E+04
         0.27000E+04
         0.27000E+04
         0.27000E+04
         0.27000E+04
         0.27000E+04
         0.27000E+04
         0.27000E+04
         0.27000E+04
         0.27000E+04
         0.27000E+04
         0.27000E+04
         0.27000E+04
         0.27000E+04
         0.27000E+04
         0.27000E+04
         0.27000E+04
         0.27000E+04
         0.27000E+04
         0.27000E+04
         0.27000E+04
         0.27000E+04
         0.27000E+04
         0.27000E+04
         0.27000E+04
         0.27000E+04
         0.27000E+04
         0.27000E+04
         0.27000E+04
         0.27000E+04
         0.27000E+04
         0.27000E+04
         0.27000E+04
         0.27000E+04
         0.27000E+04
         0.27000E+04
         0.27000E+04
         0.27000E+04
         0.27000E+04
         0.27000E+04
         0.27000E+04
         0.27000E+04
         0.27000E+04
         0.27000E+04
         0.27000E+04
         0.27000E+04
         0.27000E+04
         0.27000E+04
         0.27000E+04
         0.27000E+04
         0.27000E+04
         0.27000E+04
         0.27000E+04
         0.27000E+04
         0.27000E+04
         0.27000E+04
         0.27000E+04
         0.27000E+04
         0.27000E+04
         0.27000E+04
         0.27000E+04
         0.27000E+04
         0.27000E+04
         0.27000E+04
         0.27000E+04
         0.27000E+04
         0.27000E+04
         0.27000E+04
         0.27000E+04
         0.27000E+04
         0.27000E+04
         0.27000E+04
         0.27000E+04
         0.27000E+04
         0.27000E+04
         0.27000E+04
         0.27000E+04
         0.27000E+04
         0.27000E+04
         0.27000E+04
         0.27000E+04
         0.27000E+04
         0.27000E+04
         0.27000E+04
         0.27000E+04
         0.27000E+04
         0.27000E+04
         0.27000E+04
         0.27000E+04
         0.27000E+04
         0.27000E+04
         0.27000E+04
         0.27000E+04
         0.27000E+04
         0.27000E+04
         0.27000E+04
         0.27000E+04
         0.27000E+04
         0.27000E+04
         0.27000E+04
         0.27000E+04
         0.27000E+04
         0.27000E+04
         0.27000E+04
         0.27000E+04
         0.27000E+04
         0.27000E+04
         0.27000E+04
         0.27000E+04
         0.27000E+04
         0.27000E+04
         0.27000E+04
         0.27000E+04
         0.27000E+04
         0.27000E+04
         0.27000E+04
         0.27000E+04
         0.27000E+04
         0.27000E+04
         0.27000E+04
         0.27000E+04
         0.27000E+04
         0.27000E+04
         0.27000E+04
         0.27000E+04
         0.27000E+04
         0.27000E+04
         0.27000E+04
         0.27000E+04
         0.27000E+04
         0.27000E+04
         0.27000E+04
         0.27000E+04
         0.27000E+04
         0.27000E+04
         0.27000E+04
         0.27000E+04
         0.27000E+04
         0.27000E+04
         0.27000E+04
         0.27000E+04
         0.27000E+04
         0.27000E+04
         0.27000E+04
         0.27000E+04
         0.27000E+04
         0.27000E+04
         0.27000E+04
         0.27000E+04
         0.27000E+04
         0.27000E+04
         0.27000E+04
         0.27000E+04
         0.27000E+04
         0.27000E+04
         0.27000E+04
         0.27000E+04
         0.27000E+04
         0.27000E+04
         0.27000E+04
         0.27000E+04
         0.27000E+04
         0.27000E+04
         0.27000E+04
         0.27000E+04
         0.27000E+04
         0.27000E+04
         0.27000E+04
         0.27000E+04
         0.27000E+04
         0.27000E+04
         0.27000E+04
         0.27000E+04
         0.27000E+04
         0.27000E+04
         0.27000E+04
         0.27000E+04
         0.27000E+04
         0.27000E+04
         0.27000E+04
         0.27000E+04
         0.27000E+04
         0.27000E+04
         0.27000E+04
         0.27000E+04
         0.27000E+04
         0.27000E+04
         0.27000E+04
         0.27000E+04
         0.27000E+04
         0.27000E+04
         0.27000E+04
         0.27000E+04
         0.27000E+04
         0.27000E+04
         0.27000E+04
         0.27000E+04
         0.27000E+04
         0.27000E+04
         0.27000E+04
         0.27000E+04
         0.27000E+04
         0.27000E+04
         0.27000E+04
         0.27000E+04
         0.27000E+04
         0.27000E+04
         0.27000E+04
         0.27000E+04
         0.27000E+04
         0.27000E+04
         0.27000E+04
         0.27000E+04
         0.27000E+04
         0.27000E+04
         0.27000E+04
         0.27000E+04
         0.27000E+04
         0.27000E+04
         0.27000E+04
         0.27000E+04
         0.27000E+04
         0.27000E+04
         0.27000E+04
         0.27000E+04
         0.27000E+04
         0.27000E+04
         0.27000E+04
         0.27000E+04
         0.27000E+04
         0.27000E+04
         0.27000E+04
         0.27000E+04
         0.27000E+04
         0.27000E+04
         0.27000E+04
         0.27000E+04
         0.27000E+04
         0.27000E+04
         0.27000E+04
         0.27000E+04
         0.27000E+04
         0.27000E+04
         0.27000E+04
         0.27000E+04
         0.27000E+04
         0.27000E+04
         0.27000E+04
         0.27000E+04
         0.27000E+04
         0.27000E+04
         0.27000E+04
         0.27000E+04
         0.27000E+04
         0.27000E+04
         0.27000E+04
         0.27000E+04
         0.27000E+04
         0.27000E+04
         0.27000E+04
         0.27000E+04
         0.27000E+04
         0.27000E+04
         0.27000E+04
         0.27000E+04
         0.27000E+04
         0.27000E+04
         0.27000E+04
         0.27000E+04
         0.27000E+04
         0.27000E+04
         0.27000E+04
         0.27000E+04
         0.27000E+04
         0.27000E+04
         0.27000E+04
         0.27000E+04
         0.27000E+04
         0.27000E+04
         0.27000E+04
         0.27000E+04
         0.27000E+04
         0.27000E+04
         0.27000E+04
         0.27000E+04
         0.27000E+04
         0.27000E+04
         0.27000E+04
         0.27000E+04
         0.27000E+04
         0.27000E+04
         0.27000E+04
         0.27000E+04
         0.27000E+04
         0.27000E+04
         0.27000E+04
         0.27000E+04
         0.27000E+04
         0.27000E+04
         0.27000E+04
         0.27000E+04
         0.27000E+04
         0.27000E+04
         0.27000E+04
         0.27000E+04
         0.27000E+04
         0.27000E+04
         0.27000E+04
         0.27000E+04
         0.27000E+04
         0.27000E+04
         0.27000E+04
         0.27000E+04
         0.27000E+04
         0.27000E+04
         0.27000E+04
         0.27000E+04
         0.27000E+04
         0.27000E+04
         0.27000E+04
         0.27000E+04
         0.27000E+04
         0.27000E+04
         0.27000E+04
         0.27000E+04
         0.27000E+04
         0.27000E+04
         0.27000E+04
         0.27000E+04
         0.27000E+04
         0.27000E+04
         0.27000E+04
         0.27000E+04
         0.27000E+04
         0.27000E+04
         0.27000E+04
         0.27000E+04
         0.27000E+04
         0.27000E+04
         0.27000E+04
         0.27000E+04
         0.27000E+04
         0.27000E+04
         0.27000E+04
         0.27000E+04
         0.27000E+04
         0.27000E+04
         0.27000E+04
         0.27000E+04
         0.27000E+04
         0.27000E+04
         0.27000E+04
         0.27000E+04
         0.27000E+04
         0.27000E+04
         0.27000E+04
         0.27000E+04
         0.27000E+04
         0.27000E+04
         0.27000E+04
         0.27000E+04
         0.27000E+04
         0.27000E+04
         0.27000E+04
         0.27000E+04
         0.27000E+04
         0.27000E+04
         0.27000E+04
         0.27000E+04
         0.27000E+04
         0.27000E+04
         0.27000E+04
         0.27000E+04
         0.27000E+04
         0.27000E+04
         0.27000E+04
         0.27000E+04
         0.27000E+04
         0.27000E+04
         0.27000E+04
         0.27000E+04
         0.27000E+04
         0.27000E+04
         0.27000E+04
         0.27000E+04
         0.27000E+04
         0.27000E+04
         0.27000E+04
         0.27000E+04
         0.27000E+04
         0.27000E+04
         0.27000E+04
         0.27000E+04
         0.27000E+04
         0.27000E+04
         0.27000E+04
         0.27000E+04
         0.27000E+04
         0.27000E+04
         0.27000E+04
         0.27000E+04
         0.27000E+04
         0.27000E+04
         0.27000E+04
         0.27000E+04
         0.27000E+04
         0.27000E+04
         0.27000E+04
         0.27000E+04
         0.27000E+04
         0.27000E+04
         0.27000E+04
         0.27000E+04
         0.27000E+04
         0.27000E+04
         0.27000E+04
         0.27000E+04
         0.27000E+04
         0.27000E+04
         0.27000E+04
         0.27000E+04
         0.27000E+04
         0.27000E+04
         0.27000E+04
         0.27000E+04
         0.27000E+04
         0.27000E+04
         0.27000E+04
         0.27000E+04
         0.27000E+04
         0.27000E+04
         0.27000E+04
         0.27000E+04
         0.27000E+04
         0.27000E+04
         0.27000E+04
         0.27000E+04
         0.27000E+04
         0.27000E+04
         0.27000E+04
         0.27000E+04
         0.27000E+04
         0.27000E+04
         0.27000E+04
         0.27000E+04
         0.27000E+04
         0.27000E+04
         0.27000E+04
         0.27000E+04
         0.27000E+04
         0.27000E+04
         0.27000E+04
         0.27000E+04
         0.27000E+04
         0.27000E+04
         0.27000E+04
         0.27000E+04
         0.27000E+04
         0.27000E+04
         0.27000E+04
         0.27000E+04
         0.27000E+04
         0.27000E+04
         0.27000E+04
         0.27000E+04
         0.27000E+04
         0.27000E+04
         0.27000E+04
         0.27000E+04
         0.27000E+04
         0.27000E+04
         0.27000E+04
         0.27000E+04
         0.27000E+04
         0.27000E+04
         0.27000E+04
         0.27000E+04
         0.27000E+04
         0.27000E+04
         0.27000E+04
         0.27000E+04
         0.27000E+04
         0.27000E+04
         0.27000E+04
         0.27000E+04
         0.27000E+04
         0.27000E+04
         0.27000E+04
         0.27000E+04
         0.27000E+04
         0.27000E+04
         0.27000E+04
         0.27000E+04
         0.27000E+04
         0.27000E+04
         0.27000E+04
         0.27000E+04
         0.27000E+04
         0.27000E+04
         0.27000E+04
         0.27000E+04
         0.27000E+04
         0.27000E+04
         0.27000E+04
         0.27000E+04
         0.27000E+04
         0.27000E+04
         0.27000E+04
         0.27000E+04
         0.27000E+04
         0.27000E+04
         0.27000E+04
         0.27000E+04
         0.27000E+04
         0.27000E+04
         0.27000E+04
         0.27000E+04
         0.27000E+04
         0.27000E+04
         0.27000E+04
         0.27000E+04
         0.27000E+04
         0.27000E+04
         0.27000E+04
         0.27000E+04
         0.27000E+04
         0.27000E+04
         0.27000E+04
         0.27000E+04
         0.27000E+04
         0.27000E+04
         0.27000E+04
         0.27000E+04
         0.27000E+04
         0.27000E+04
         0.27000E+04
         0.27000E+04
         0.27000E+04
         0.27000E+04
         0.27000E+04
         0.27000E+04
         0.27000E+04
         0.27000E+04
         0.27000E+04
         0.27000E+04
         0.27000E+04
         0.27000E+04
         0.27000E+04
         0.27000E+04
         0.27000E+04
         0.27000E+04
         0.27000E+04
         0.27000E+04
         0.27000E+04
         0.27000E+04
         0.27000E+04
         0.27000E+04
         0.27000E+04
         0.27000E+04
         0.27000E+04
         0.27000E+04
         0.27000E+04
         0.27000E+04
         0.27000E+04
         0.27000E+04
         0.27000E+04
         0.27000E+04
         0.27000E+04
         0.27000E+04
         0.27000E+04
         0.27000E+04
         0.27000E+04
         0.27000E+04
         0.27000E+04
         0.27000E+04
         0.27000E+04
         0.27000E+04
         0.27000E+04
         0.27000E+04
         0.27000E+04
         0.27000E+04
         0.27000E+04
         0.27000E+04
         0.27000E+04
         0.27000E+04
         0.27000E+04
         0.27000E+04
         0.27000E+04
         0.27000E+04
         0.27000E+04
         0.27000E+04
         0.27000E+04
         0.27000E+04
         0.27000E+04
         0.27000E+04
         0.27000E+04
         0.27000E+04
         0.27000E+04
         0.27000E+04
         0.27000E+04
         0.27000E+04
         0.27000E+04
         0.27000E+04
         0.27000E+04
         0.27000E+04
         0.27000E+04
         0.27000E+04
         0.27000E+04
         0.27000E+04
         0.27000E+04
         0.27000E+04
         0.27000E+04
         0.27000E+04
         0.27000E+04
         0.27000E+04
         0.27000E+04
         0.27000E+04
         0.27000E+04
         0.27000E+04
         0.27000E+04
         0.27000E+04
         0.27000E+04
         0.27000E+04
         0.27000E+04
         0.27000E+04
         0.27000E+04
         0.27000E+04
         0.27000E+04
         0.27000E+04
         0.27000E+04
         0.27000E+04
         0.27000E+04
         0.27000E+04
         0.27000E+04
         0.27000E+04
         0.27000E+04
         0.27000E+04
         0.27000E+04
         0.27000E+04
         0.27000E+04
         0.27000E+04
         0.27000E+04
         0.27000E+04
         0.27000E+04
         0.27000E+04
         0.27000E+04
         0.27000E+04
         0.27000E+04
         0.27000E+04
         0.27000E+04
         0.27000E+04
         0.27000E+04
         0.27000E+04
         0.27000E+04
         0.27000E+04
         0.27000E+04
         0.27000E+04
         0.27000E+04
         0.27000E+04
         0.27000E+04
         0.27000E+04
         0.27000E+04
         0.27000E+04
         0.27000E+04
         0.27000E+04
         0.27000E+04
         0.27000E+04
         0.27000E+04
         0.27000E+04
         0.27000E+04
         0.27000E+04
         0.27000E+04
         0.27000E+04
         0.27000E+04
         0.27000E+04
         0.27000E+04
         0.27000E+04
         0.27000E+04
         0.27000E+04
         0.27000E+04
         0.27000E+04
         0.27000E+04
         0.27000E+04
         0.27000E+04
         0.27000E+04
         0.27000E+04
         0.27000E+04
         0.27000E+04
         0.27000E+04
         0.27000E+04
         0.27000E+04
         0.27000E+04
         0.27000E+04
         0.27000E+04
         0.27000E+04
         0.27000E+04
         0.27000E+04
         0.27000E+04
         0.27000E+04
         0.27000E+04
         0.27000E+04
         0.27000E+04
         0.27000E+04
         0.27000E+04
         0.27000E+04
         0.27000E+04
         0.27000E+04
         0.27000E+04
         0.27000E+04
         0.27000E+04
         0.27000E+04
         0.27000E+04
         0.27000E+04
         0.27000E+04
         0.27000E+04
         0.27000E+04
         0.27000E+04
         0.27000E+04
         0.27000E+04
         0.27000E+04
         0.27000E+04
         0.27000E+04
         0.27000E+04
         0.27000E+04
         0.27000E+04
         0.27000E+04
         0.27000E+04
         0.27000E+04
         0.27000E+04
         0.27000E+04
         0.27000E+04
         0.27000E+04
         0.27000E+04
         0.27000E+04
         0.27000E+04
         0.27000E+04
         0.27000E+04
         0.27000E+04
         0.27000E+04
         0.27000E+04
         0.27000E+04
         0.27000E+04
         0.27000E+04
         0.27000E+04
         0.27000E+04
         0.27000E+04
         0.27000E+04
         0.27000E+04
         0.27000E+04
         0.27000E+04
         0.27000E+04
         0.27000E+04
         0.27000E+04
         0.27000E+04
         0.27000E+04
         0.27000E+04
         0.27000E+04
         0.27000E+04
         0.27000E+04
         0.27000E+04
         0.27000E+04
         0.27000E+04
         0.27000E+04
         0.27000E+04
         0.27000E+04
         0.27000E+04
         0.27000E+04
         0.27000E+04
         0.27000E+04
         0.27000E+04
         0.27000E+04
         0.27000E+04
         0.27000E+04
         0.27000E+04
         0.27000E+04
         0.27000E+04
         0.27000E+04
         0.27000E+04
         0.27000E+04
         0.27000E+04
         0.27000E+04
         0.27000E+04
         0.27000E+04
         0.27000E+04
         0.27000E+04
         0.27000E+04
         0.27000E+04
         0.27000E+04
         0.27000E+04
         0.27000E+04
         0.27000E+04
         0.27000E+04
         0.27000E+04
         0.27000E+04
         0.27000E+04
         0.27000E+04
         0.27000E+04
         0.27000E+04
         0.27000E+04
         0.27000E+04
         0.27000E+04
         0.27000E+04
         0.27000E+04
         0.27000E+04
         0.27000E+04
         0.27000E+04
         0.27000E+04
         0.27000E+04
         0.27000E+04
         0.27000E+04
         0.27000E+04
         0.27000E+04
         0.27000E+04
         0.27000E+04
         0.27000E+04
         0.27000E+04
         0.27000E+04
         0.27000E+04
         0.27000E+04
         0.27000E+04
         0.27000E+04
         0.27000E+04
         0.27000E+04
         0.27000E+04
         0.27000E+04
         0.27000E+04
         0.27000E+04
         0.27000E+04
         0.27000E+04
         0.27000E+04
         0.27000E+04
         0.27000E+04
         0.27000E+04
         0.27000E+04
         0.27000E+04
         0.27000E+04
         0.27000E+04
         0.27000E+04
         0.27000E+04
         0.27000E+04
         0.27000E+04
         0.27000E+04
         0.27000E+04
         0.27000E+04
         0.27000E+04
         0.27000E+04
         0.27000E+04
         0.27000E+04
         0.27000E+04
         0.27000E+04
         0.27000E+04
         0.27000E+04
         0.27000E+04
         0.27000E+04
         0.27000E+04
         0.27000E+04
         0.27000E+04
         0.27000E+04
         0.27000E+04
         0.27000E+04
         0.27000E+04
         0.27000E+04
         0.27000E+04
         0.27000E+04
         0.27000E+04
         0.27000E+04
         0.27000E+04
         0.27000E+04
         0.27000E+04
         0.27000E+04
         0.27000E+04
         0.27000E+04
         0.27000E+04
         0.27000E+04
         0.27000E+04
         0.27000E+04
         0.27000E+04
         0.27000E+04
         0.27000E+04
         0.27000E+04
         0.27000E+04
         0.27000E+04
         0.27000E+04
         0.27000E+04
         0.27000E+04
         0.27000E+04
         0.27000E+04
         0.27000E+04
         0.27000E+04
         0.27000E+04
         0.27000E+04
         0.27000E+04
         0.27000E+04
         0.27000E+04
         0.27000E+04
         0.27000E+04
         0.27000E+04
         0.27000E+04
         0.27000E+04
         0.27000E+04
         0.27000E+04
         0.27000E+04
         0.27000E+04
         0.27000E+04
         0.27000E+04
         0.27000E+04
         0.27000E+04
         0.27000E+04
         0.27000E+04
         0.27000E+04
         0.27000E+04
         0.27000E+04
         0.27000E+04
         0.27000E+04
         0.27000E+04
         0.27000E+04
         0.27000E+04
         0.27000E+04
         0.27000E+04
         0.27000E+04
         0.27000E+04
         0.27000E+04
         0.27000E+04
         0.27000E+04
         0.27000E+04
         0.27000E+04
         0.27000E+04
         0.27000E+04
         0.27000E+04
         0.27000E+04
         0.27000E+04
         0.27000E+04
         0.27000E+04
         0.27000E+04
         0.27000E+04
         0.27000E+04
         0.27000E+04
         0.27000E+04
         0.27000E+04
         0.27000E+04
         0.27000E+04
         0.27000E+04
         0.27000E+04
         0.27000E+04
         0.27000E+04
         0.27000E+04
         0.27000E+04
         0.27000E+04
         0.27000E+04
         0.27000E+04
         0.27000E+04
         0.27000E+04
         0.27000E+04
         0.27000E+04
         0.27000E+04
         0.27000E+04
         0.27000E+04
         0.27000E+04
         0.27000E+04
         0.27000E+04
         0.27000E+04
         0.27000E+04
         0.27000E+04
         0.27000E+04
         0.27000E+04
         0.27000E+04
         0.27000E+04
         0.27000E+04
         0.27000E+04
         0.27000E+04
         0.27000E+04
         0.27000E+04
         0.27000E+04
         0.27000E+04
         0.27000E+04
         0.27000E+04
         0.27000E+04
         0.27000E+04
         0.27000E+04
         0.27000E+04
         0.27000E+04
         0.27000E+04
         0.27000E+04
         0.27000E+04
         0.27000E+04
         0.27000E+04
         0.27000E+04
         0.27000E+04
         0.27000E+04
         0.27000E+04
         0.27000E+04
         0.27000E+04
         0.27000E+04
         0.27000E+04
         0.27000E+04
         0.27000E+04
         0.27000E+04
         0.27000E+04
         0.27000E+04
         0.27000E+04
         0.27000E+04
         0.27000E+04
         0.27000E+04
         0.27000E+04
         0.27000E+04
         0.27000E+04
         0.27000E+04
         0.27000E+04
         0.27000E+04
         0.27000E+04
         0.27000E+04
         0.27000E+04
         0.27000E+04
         0.27000E+04
         0.27000E+04
         0.27000E+04
         0.27000E+04
         0.27000E+04
         0.27000E+04
         0.27000E+04
         0.27000E+04
         0.27000E+04
         0.27000E+04
         0.27000E+04
         0.27000E+04
         0.27000E+04
         0.27000E+04
         0.27000E+04
         0.27000E+04
         0.27000E+04
         0.27000E+04
         0.27000E+04
         0.27000E+04
         0.27000E+04
         0.27000E+04
         0.27000E+04
         0.27000E+04
         0.27000E+04
         0.27000E+04
         0.27000E+04
         0.27000E+04
         0.27000E+04
         0.27000E+04
         0.27000E+04
         0.27000E+04
         0.27000E+04
         0.27000E+04
         0.27000E+04
         0.27000E+04
         0.27000E+04
         0.27000E+04
         0.27000E+04
         0.27000E+04
         0.27000E+04
         0.27000E+04
         0.27000E+04
         0.27000E+04
         0.27000E+04
         0.27000E+04
         0.27000E+04
         0.27000E+04
         0.27000E+04
         0.27000E+04
         0.27000E+04
         0.27000E+04
         0.27000E+04
         0.27000E+04
         0.27000E+04
         0.27000E+04
         0.27000E+04
         0.27000E+04
         0.27000E+04
         0.27000E+04
         0.27000E+04
         0.27000E+04
         0.27000E+04
         0.27000E+04
         0.27000E+04
         0.27000E+04
         0.27000E+04
         0.27000E+04
         0.27000E+04
         0.27000E+04
         0.27000E+04
         0.27000E+04
         0.27000E+04
         0.27000E+04
         0.27000E+04
         0.27000E+04
         0.27000E+04
         0.27000E+04
         0.27000E+04
         0.27000E+04
         0.27000E+04
         0.27000E+04
         0.27000E+04
         0.27000E+04
         0.27000E+04
         0.27000E+04
         0.27000E+04
         0.27000E+04
         0.27000E+04
         0.27000E+04
         0.27000E+04
         0.27000E+04
         0.27000E+04
         0.27000E+04
         0.27000E+04
         0.27000E+04
         0.27000E+04
         0.27000E+04
         0.27000E+04
         0.27000E+04
         0.27000E+04
         0.27000E+04
         0.27000E+04
         0.27000E+04
         0.27000E+04
         0.27000E+04
         0.27000E+04
         0.27000E+04
         0.27000E+04
         0.27000E+04
         0.27000E+04
         0.27000E+04
         0.27000E+04
         0.27000E+04
         0.27000E+04
         0.27000E+04
         0.27000E+04
         0.27000E+04
         0.27000E+04
         0.27000E+04
         0.27000E+04
         0.27000E+04
         0.27000E+04
         0.27000E+04
         0.27000E+04
         0.27000E+04
         0.27000E+04
         0.27000E+04
         0.27000E+04
         0.27000E+04
         0.27000E+04
         0.27000E+04
         0.27000E+04
         0.27000E+04
         0.27000E+04
         0.27000E+04
         0.27000E+04
         0.27000E+04
         0.27000E+04
         0.27000E+04
         0.27000E+04
         0.27000E+04
         0.27000E+04
         0.27000E+04
         0.27000E+04
         0.27000E+04
         0.27000E+04
         0.27000E+04
         0.27000E+04
         0.27000E+04
         0.27000E+04
         0.27000E+04
         0.27000E+04
         0.27000E+04
         0.27000E+04
         0.27000E+04
         0.27000E+04
         0.27000E+04
         0.27000E+04
         0.27000E+04
         0.27000E+04
         0.27000E+04
         0.27000E+04
         0.27000E+04
         0.27000E+04
         0.27000E+04
         0.27000E+04
         0.27000E+04
         0.27000E+04
         0.27000E+04
         0.27000E+04
         0.27000E+04
         0.27000E+04
         0.27000E+04
         0.27000E+04
         0.27000E+04
         0.27000E+04
         0.27000E+04
         0.27000E+04
         0.27000E+04
         0.27000E+04
         0.27000E+04
         0.27000E+04
         0.27000E+04
         0.27000E+04
         0.27000E+04
         0.27000E+04
         0.27000E+04
         0.27000E+04
         0.27000E+04
         0.27000E+04
         0.27000E+04
         0.27000E+04
         0.27000E+04
         0.27000E+04
         0.27000E+04
         0.27000E+04
         0.27000E+04
         0.27000E+04
         0.27000E+04
         0.27000E+04
         0.27000E+04
         0.27000E+04
         0.27000E+04
         0.27000E+04
         0.27000E+04
         0.27000E+04
         0.27000E+04
         0.27000E+04
         0.27000E+04
         0.27000E+04
         0.27000E+04
         0.27000E+04
         0.27000E+04
         0.27000E+04
         0.27000E+04
         0.27000E+04
         0.27000E+04
         0.27000E+04
         0.27000E+04
         0.27000E+04
         0.27000E+04
         0.27000E+04
         0.27000E+04
         0.27000E+04
         0.27000E+04
         0.27000E+04
         0.27000E+04
         0.27000E+04
         0.27000E+04
         0.27000E+04
         0.27000E+04
         0.27000E+04
         0.27000E+04
         0.27000E+04
         0.27000E+04
         0.27000E+04
         0.27000E+04
         0.27000E+04
         0.27000E+04
         0.27000E+04
         0.27000E+04
         0.27000E+04
         0.27000E+04
         0.27000E+04
         0.27000E+04
         0.27000E+04
         0.27000E+04
         0.27000E+04
         0.27000E+04
         0.27000E+04
         0.27000E+04
         0.27000E+04
         0.27000E+04
         0.27000E+04
         0.27000E+04
         0.27000E+04
         0.27000E+04
         0.27000E+04
         0.27000E+04
         0.27000E+04
         0.27000E+04
         0.27000E+04
         0.27000E+04
         0.27000E+04
         0.27000E+04
         0.27000E+04
         0.27000E+04
         0.27000E+04
         0.27000E+04
         0.27000E+04
         0.27000E+04
         0.27000E+04
         0.27000E+04
         0.27000E+04
         0.27000E+04
         0.27000E+04
         0.27000E+04
         0.27000E+04
         0.27000E+04
         0.27000E+04
         0.27000E+04
         0.27000E+04
         0.27000E+04
         0.27000E+04
         0.27000E+04
         0.27000E+04
         0.27000E+04
         0.27000E+04
         0.27000E+04
         0.27000E+04
         0.27000E+04
         0.27000E+04
         0.27000E+04
         0.27000E+04
         0.27000E+04
         0.27000E+04
         0.27000E+04
         0.27000E+04
