# vtk DataFile Version 2.0
               (MEGA VTK FILE)
ASCII
DATASET UNSTRUCTURED_GRID
POINTS       1950    double
  0.10378E-02  0.67292E-03 -0.24727E-01
  0.17452E-02  0.12308E-02 -0.24705E-01
  0.23177E-02  0.59151E-03 -0.24701E-01
  0.16698E-02 -0.33775E-03 -0.24743E-01
  0.10379E-02  0.67237E-03 -0.11750E-01
  0.17453E-02  0.12301E-02 -0.11750E-01
  0.23178E-02  0.59098E-03 -0.11750E-01
  0.16700E-02 -0.33851E-03 -0.11750E-01
  0.30377E-02  0.14882E-03 -0.24660E-01
  0.27791E-02 -0.67643E-03 -0.24709E-01
  0.30377E-02  0.14846E-03 -0.11750E-01
  0.27788E-02 -0.67692E-03 -0.11750E-01
  0.12850E-02  0.18412E-02 -0.24681E-01
  0.65139E-03  0.14576E-02 -0.24712E-01
  0.12851E-02  0.18410E-02 -0.11750E-01
  0.65164E-03  0.14566E-02 -0.11750E-01
  0.12757E-03  0.29933E-03 -0.24729E-01
 -0.12822E-03  0.11672E-02 -0.24735E-01
  0.12783E-03  0.29819E-03 -0.11750E-01
 -0.12804E-03  0.11655E-02 -0.11750E-01
  0.94500E-03  0.22748E-02 -0.24664E-01
  0.11327E-02  0.28286E-02 -0.24645E-01
  0.17490E-02  0.24238E-02 -0.24654E-01
  0.94533E-03  0.22746E-02 -0.11750E-01
  0.11330E-02  0.28291E-02 -0.11750E-01
  0.17494E-02  0.24236E-02 -0.11750E-01
  0.40588E-03  0.21685E-02 -0.24703E-01
  0.39779E-03  0.29366E-02 -0.24690E-01
  0.40594E-03  0.21684E-02 -0.11750E-01
  0.39781E-03  0.29369E-02 -0.11750E-01
 -0.76303E-03 -0.10033E-02 -0.24747E-01
 -0.86604E-03  0.78969E-04 -0.24757E-01
  0.46119E-03 -0.70318E-03 -0.24739E-01
 -0.76268E-03 -0.10032E-02 -0.11750E-01
 -0.86593E-03  0.78160E-04 -0.11750E-01
  0.46164E-03 -0.70391E-03 -0.11750E-01
 -0.18300E-02 -0.71196E-03 -0.24702E-01
 -0.18440E-02  0.82749E-04 -0.24747E-01
 -0.18297E-02 -0.71210E-03 -0.11750E-01
 -0.18441E-02  0.82626E-04 -0.11750E-01
 -0.27238E-02 -0.77865E-03 -0.24689E-01
 -0.28028E-02  0.40713E-04 -0.24727E-01
 -0.27238E-02 -0.77882E-03 -0.11750E-01
 -0.28031E-02  0.40439E-04 -0.11750E-01
 -0.25365E-02 -0.15195E-02 -0.24654E-01
 -0.19287E-02 -0.13230E-02 -0.24672E-01
 -0.25363E-02 -0.15195E-02 -0.11750E-01
 -0.19283E-02 -0.13231E-02 -0.11750E-01
 -0.99363E-03  0.98847E-03 -0.24760E-01
 -0.99377E-03  0.98712E-03 -0.11750E-01
 -0.14380E-02 -0.17325E-02 -0.24696E-01
 -0.14377E-02 -0.17325E-02 -0.11750E-01
 -0.31574E-03  0.20220E-02 -0.24744E-01
 -0.31594E-03  0.20217E-02 -0.11750E-01
 -0.11068E-02  0.18615E-02 -0.24758E-01
 -0.11071E-02  0.18616E-02 -0.11750E-01
 -0.18845E-02  0.17175E-02 -0.24720E-01
 -0.18713E-02  0.90940E-03 -0.24750E-01
 -0.18846E-02  0.17175E-02 -0.11750E-01
 -0.18714E-02  0.90916E-03 -0.11750E-01
 -0.15871E-03 -0.19800E-02 -0.24736E-01
 -0.94089E-03 -0.23489E-02 -0.24696E-01
 -0.15844E-03 -0.19800E-02 -0.11750E-01
 -0.94029E-03 -0.23489E-02 -0.11750E-01
  0.78856E-03 -0.17074E-02 -0.24734E-01
  0.78922E-03 -0.17074E-02 -0.11750E-01
  0.17211E-02 -0.14894E-02 -0.24717E-01
  0.17211E-02 -0.14892E-02 -0.11750E-01
  0.32050E-02  0.76036E-03 -0.24598E-01
  0.28046E-02  0.12477E-02 -0.24646E-01
  0.32047E-02  0.75936E-03 -0.11750E-01
  0.28047E-02  0.12473E-02 -0.11750E-01
  0.23059E-02  0.18665E-02 -0.24664E-01
  0.23060E-02  0.18664E-02 -0.11750E-01
 -0.40614E-03  0.29038E-02 -0.24716E-01
 -0.40627E-03  0.29049E-02 -0.11750E-01
 -0.12092E-02  0.27207E-02 -0.24711E-01
 -0.12092E-02  0.27212E-02 -0.11750E-01
 -0.19448E-02  0.24642E-02 -0.24666E-01
 -0.19448E-02  0.24645E-02 -0.11750E-01
 -0.25029E-02  0.22359E-02 -0.24614E-01
 -0.26371E-02  0.16503E-02 -0.24679E-01
 -0.25029E-02  0.22359E-02 -0.11750E-01
 -0.26372E-02  0.16503E-02 -0.11750E-01
 -0.27671E-02  0.87493E-03 -0.24731E-01
 -0.27674E-02  0.87466E-03 -0.11750E-01
 -0.21123E-02 -0.21373E-02 -0.24659E-01
 -0.21122E-02 -0.21373E-02 -0.11750E-01
 -0.16087E-02 -0.26931E-02 -0.24640E-01
 -0.16087E-02 -0.26931E-02 -0.11750E-01
 -0.11939E-02 -0.31291E-02 -0.24592E-01
 -0.58641E-03 -0.30382E-02 -0.24657E-01
 -0.11937E-02 -0.31291E-02 -0.11750E-01
 -0.58606E-03 -0.30382E-02 -0.11750E-01
  0.20912E-03 -0.28748E-02 -0.24700E-01
  0.20952E-03 -0.28748E-02 -0.11750E-01
  0.10586E-02 -0.26423E-02 -0.24694E-01
  0.10589E-02 -0.26420E-02 -0.11750E-01
  0.18413E-02 -0.23707E-02 -0.24659E-01
  0.18413E-02 -0.23705E-02 -0.11750E-01
  0.24544E-02 -0.21445E-02 -0.24609E-01
  0.26022E-02 -0.15105E-02 -0.24668E-01
  0.24543E-02 -0.21439E-02 -0.11750E-01
  0.26021E-02 -0.15106E-02 -0.11750E-01
  0.37964E-02  0.93572E-03 -0.24465E-01
  0.39100E-02  0.00000E+00 -0.24488E-01
  0.37964E-02  0.93572E-03 -0.11750E-01
  0.39100E-02  0.00000E+00 -0.11750E-01
  0.34621E-02  0.18171E-02 -0.24485E-01
  0.34621E-02  0.18171E-02 -0.11750E-01
  0.29267E-02  0.25928E-02 -0.24468E-01
  0.29267E-02  0.25928E-02 -0.11750E-01
  0.22211E-02  0.32179E-02 -0.24470E-01
  0.22211E-02  0.32179E-02 -0.11750E-01
  0.13865E-02  0.36559E-02 -0.24468E-01
  0.13865E-02  0.36559E-02 -0.11750E-01
  0.47130E-03  0.38815E-02 -0.24481E-01
  0.47130E-03  0.38815E-02 -0.11750E-01
 -0.47130E-03  0.38815E-02 -0.24487E-01
 -0.47130E-03  0.38815E-02 -0.11750E-01
 -0.13865E-02  0.36559E-02 -0.24483E-01
 -0.13865E-02  0.36559E-02 -0.11750E-01
 -0.22211E-02  0.32179E-02 -0.24480E-01
 -0.22211E-02  0.32179E-02 -0.11750E-01
 -0.29267E-02  0.25928E-02 -0.24460E-01
 -0.29267E-02  0.25928E-02 -0.11750E-01
 -0.34621E-02  0.18171E-02 -0.24486E-01
 -0.34621E-02  0.18171E-02 -0.11750E-01
 -0.37964E-02  0.93572E-03 -0.24495E-01
 -0.37964E-02  0.93572E-03 -0.11750E-01
 -0.39100E-02  0.22152E-17 -0.24493E-01
 -0.39100E-02 -0.47884E-18 -0.11750E-01
 -0.37964E-02 -0.93572E-03 -0.24482E-01
 -0.37964E-02 -0.93572E-03 -0.11750E-01
 -0.34621E-02 -0.18171E-02 -0.24472E-01
 -0.34621E-02 -0.18171E-02 -0.11750E-01
 -0.29267E-02 -0.25928E-02 -0.24467E-01
 -0.29267E-02 -0.25928E-02 -0.11750E-01
 -0.22211E-02 -0.32179E-02 -0.24483E-01
 -0.22211E-02 -0.32179E-02 -0.11750E-01
 -0.13865E-02 -0.36559E-02 -0.24467E-01
 -0.13865E-02 -0.36559E-02 -0.11750E-01
 -0.47130E-03 -0.38815E-02 -0.24491E-01
 -0.47130E-03 -0.38815E-02 -0.11750E-01
  0.47130E-03 -0.38815E-02 -0.24483E-01
  0.47130E-03 -0.38815E-02 -0.11750E-01
  0.13865E-02 -0.36559E-02 -0.24475E-01
  0.13865E-02 -0.36559E-02 -0.11750E-01
  0.22211E-02 -0.32179E-02 -0.24488E-01
  0.22211E-02 -0.32179E-02 -0.11750E-01
  0.29267E-02 -0.25928E-02 -0.24470E-01
  0.29267E-02 -0.25928E-02 -0.11750E-01
  0.34621E-02 -0.18171E-02 -0.24489E-01
  0.34621E-02 -0.18171E-02 -0.11750E-01
  0.37964E-02 -0.93572E-03 -0.24489E-01
  0.37964E-02 -0.93572E-03 -0.11750E-01
  0.10376E-02  0.67348E-03 -0.29463E-01
  0.17450E-02  0.12314E-02 -0.29459E-01
  0.23175E-02  0.59203E-03 -0.29458E-01
  0.16696E-02 -0.33700E-03 -0.29464E-01
  0.30377E-02  0.14918E-03 -0.29452E-01
  0.27795E-02 -0.67594E-03 -0.29459E-01
  0.12849E-02  0.18414E-02 -0.29455E-01
  0.65115E-03  0.14586E-02 -0.29460E-01
  0.12731E-03  0.30048E-03 -0.29464E-01
 -0.12841E-03  0.11690E-02 -0.29464E-01
  0.94467E-03  0.22749E-02 -0.29453E-01
  0.11323E-02  0.28282E-02 -0.29450E-01
  0.17487E-02  0.24239E-02 -0.29451E-01
  0.40583E-03  0.21685E-02 -0.29458E-01
  0.39777E-03  0.29364E-02 -0.29457E-01
 -0.76338E-03 -0.10035E-02 -0.29464E-01
 -0.86615E-03  0.79778E-04 -0.29467E-01
  0.46074E-03 -0.70245E-03 -0.29464E-01
 -0.18303E-02 -0.71182E-03 -0.29459E-01
 -0.18439E-02  0.82873E-04 -0.29466E-01
 -0.27238E-02 -0.77848E-03 -0.29456E-01
 -0.28025E-02  0.40986E-04 -0.29463E-01
 -0.25366E-02 -0.15194E-02 -0.29451E-01
 -0.19292E-02 -0.13228E-02 -0.29454E-01
 -0.99349E-03  0.98983E-03 -0.29467E-01
 -0.14384E-02 -0.17324E-02 -0.29457E-01
 -0.31554E-03  0.20223E-02 -0.29465E-01
 -0.11064E-02  0.18614E-02 -0.29467E-01
 -0.18845E-02  0.17175E-02 -0.29461E-01
 -0.18712E-02  0.90964E-03 -0.29466E-01
 -0.15899E-03 -0.19800E-02 -0.29464E-01
 -0.94149E-03 -0.23489E-02 -0.29457E-01
  0.78790E-03 -0.17074E-02 -0.29463E-01
  0.17210E-02 -0.14896E-02 -0.29460E-01
  0.32053E-02  0.76137E-03 -0.29443E-01
  0.28046E-02  0.12481E-02 -0.29449E-01
  0.23058E-02  0.18665E-02 -0.29452E-01
 -0.40600E-03  0.29027E-02 -0.29461E-01
 -0.12092E-02  0.27202E-02 -0.29460E-01
 -0.19447E-02  0.24640E-02 -0.29453E-01
 -0.25028E-02  0.22359E-02 -0.29445E-01
 -0.26370E-02  0.16503E-02 -0.29455E-01
 -0.27668E-02  0.87519E-03 -0.29463E-01
 -0.21125E-02 -0.21373E-02 -0.29451E-01
 -0.16088E-02 -0.26932E-02 -0.29449E-01
 -0.11940E-02 -0.31291E-02 -0.29443E-01
 -0.58676E-03 -0.30382E-02 -0.29451E-01
  0.20871E-03 -0.28748E-02 -0.29458E-01
  0.10583E-02 -0.26426E-02 -0.29457E-01
  0.18413E-02 -0.23709E-02 -0.29451E-01
  0.24545E-02 -0.21450E-02 -0.29445E-01
  0.26022E-02 -0.15104E-02 -0.29453E-01
  0.37964E-02  0.93572E-03 -0.29429E-01
  0.39100E-02  0.00000E+00 -0.29433E-01
  0.34621E-02  0.18171E-02 -0.29433E-01
  0.29267E-02  0.25928E-02 -0.29431E-01
  0.22211E-02  0.32179E-02 -0.29431E-01
  0.13865E-02  0.36559E-02 -0.29431E-01
  0.47130E-03  0.38815E-02 -0.29433E-01
 -0.47130E-03  0.38815E-02 -0.29433E-01
 -0.13865E-02  0.36559E-02 -0.29432E-01
 -0.22211E-02  0.32179E-02 -0.29431E-01
 -0.29267E-02  0.25928E-02 -0.29428E-01
 -0.34621E-02  0.18171E-02 -0.29432E-01
 -0.37964E-02  0.93572E-03 -0.29435E-01
 -0.39100E-02 -0.47884E-18 -0.29434E-01
 -0.37964E-02 -0.93572E-03 -0.29433E-01
 -0.34621E-02 -0.18171E-02 -0.29431E-01
 -0.29267E-02 -0.25928E-02 -0.29430E-01
 -0.22211E-02 -0.32179E-02 -0.29433E-01
 -0.13865E-02 -0.36559E-02 -0.29430E-01
 -0.47130E-03 -0.38815E-02 -0.29434E-01
  0.47130E-03 -0.38815E-02 -0.29434E-01
  0.13865E-02 -0.36559E-02 -0.29432E-01
  0.22211E-02 -0.32179E-02 -0.29433E-01
  0.29267E-02 -0.25928E-02 -0.29430E-01
  0.34621E-02 -0.18171E-02 -0.29433E-01
  0.37964E-02 -0.93572E-03 -0.29434E-01
  0.10375E-02  0.67403E-03 -0.28952E-01
  0.17448E-02  0.12321E-02 -0.28952E-01
  0.23174E-02  0.59255E-03 -0.28952E-01
  0.16694E-02 -0.33624E-03 -0.28952E-01
  0.30377E-02  0.14955E-03 -0.28952E-01
  0.27798E-02 -0.67544E-03 -0.28952E-01
  0.12848E-02  0.18415E-02 -0.28952E-01
  0.65090E-03  0.14596E-02 -0.28952E-01
  0.12705E-03  0.30163E-03 -0.28952E-01
 -0.12859E-03  0.11707E-02 -0.28952E-01
  0.94434E-03  0.22750E-02 -0.28952E-01
  0.11320E-02  0.28277E-02 -0.28952E-01
  0.17483E-02  0.24241E-02 -0.28952E-01
  0.40577E-03  0.21685E-02 -0.28952E-01
  0.39776E-03  0.29361E-02 -0.28952E-01
 -0.76374E-03 -0.10036E-02 -0.28952E-01
 -0.86626E-03  0.80588E-04 -0.28952E-01
  0.46029E-03 -0.70173E-03 -0.28952E-01
 -0.18306E-02 -0.71168E-03 -0.28952E-01
 -0.18438E-02  0.82996E-04 -0.28952E-01
 -0.27238E-02 -0.77831E-03 -0.28952E-01
 -0.28022E-02  0.41259E-04 -0.28952E-01
 -0.25368E-02 -0.15194E-02 -0.28952E-01
 -0.19296E-02 -0.13227E-02 -0.28952E-01
 -0.99334E-03  0.99119E-03 -0.28952E-01
 -0.14387E-02 -0.17324E-02 -0.28952E-01
 -0.31534E-03  0.20226E-02 -0.28952E-01
 -0.11061E-02  0.18613E-02 -0.28952E-01
 -0.18844E-02  0.17175E-02 -0.28952E-01
 -0.18710E-02  0.90988E-03 -0.28952E-01
 -0.15926E-03 -0.19801E-02 -0.28952E-01
 -0.94209E-03 -0.23490E-02 -0.28952E-01
  0.78724E-03 -0.17074E-02 -0.28952E-01
  0.17210E-02 -0.14899E-02 -0.28952E-01
  0.32056E-02  0.76237E-03 -0.28952E-01
  0.28046E-02  0.12485E-02 -0.28952E-01
  0.23057E-02  0.18666E-02 -0.28952E-01
 -0.40586E-03  0.29017E-02 -0.28952E-01
 -0.12092E-02  0.27198E-02 -0.28952E-01
 -0.19447E-02  0.24638E-02 -0.28952E-01
 -0.25028E-02  0.22359E-02 -0.28952E-01
 -0.26369E-02  0.16503E-02 -0.28952E-01
 -0.27665E-02  0.87545E-03 -0.28952E-01
 -0.21126E-02 -0.21374E-02 -0.28952E-01
 -0.16088E-02 -0.26932E-02 -0.28952E-01
 -0.11941E-02 -0.31291E-02 -0.28952E-01
 -0.58711E-03 -0.30382E-02 -0.28952E-01
  0.20830E-03 -0.28748E-02 -0.28952E-01
  0.10580E-02 -0.26428E-02 -0.28952E-01
  0.18414E-02 -0.23711E-02 -0.28952E-01
  0.24546E-02 -0.21456E-02 -0.28952E-01
  0.26023E-02 -0.15103E-02 -0.28952E-01
  0.37964E-02  0.93572E-03 -0.28952E-01
  0.39100E-02  0.00000E+00 -0.28952E-01
  0.34621E-02  0.18171E-02 -0.28952E-01
  0.29267E-02  0.25928E-02 -0.28952E-01
  0.22211E-02  0.32179E-02 -0.28952E-01
  0.13865E-02  0.36559E-02 -0.28952E-01
  0.47130E-03  0.38815E-02 -0.28952E-01
 -0.47130E-03  0.38815E-02 -0.28952E-01
 -0.13865E-02  0.36559E-02 -0.28952E-01
 -0.22211E-02  0.32179E-02 -0.28952E-01
 -0.29267E-02  0.25928E-02 -0.28952E-01
 -0.34621E-02  0.18171E-02 -0.28952E-01
 -0.37964E-02  0.93572E-03 -0.28952E-01
 -0.39100E-02  0.39516E-17 -0.28952E-01
 -0.37964E-02 -0.93572E-03 -0.28952E-01
 -0.34621E-02 -0.18171E-02 -0.28952E-01
 -0.29267E-02 -0.25928E-02 -0.28952E-01
 -0.22211E-02 -0.32179E-02 -0.28952E-01
 -0.13865E-02 -0.36559E-02 -0.28952E-01
 -0.47130E-03 -0.38815E-02 -0.28952E-01
  0.47130E-03 -0.38815E-02 -0.28952E-01
  0.13865E-02 -0.36559E-02 -0.28952E-01
  0.22211E-02 -0.32179E-02 -0.28952E-01
  0.29267E-02 -0.25928E-02 -0.28952E-01
  0.34621E-02 -0.18171E-02 -0.28952E-01
  0.37964E-02 -0.93572E-03 -0.28952E-01
  0.10374E-02  0.67459E-03 -0.27972E-01
  0.17446E-02  0.12328E-02 -0.27972E-01
  0.23173E-02  0.59308E-03 -0.27972E-01
  0.16692E-02 -0.33549E-03 -0.27972E-01
  0.30376E-02  0.14991E-03 -0.27972E-01
  0.27801E-02 -0.67495E-03 -0.27972E-01
  0.12847E-02  0.18417E-02 -0.27972E-01
  0.65065E-03  0.14606E-02 -0.27972E-01
  0.12678E-03  0.30278E-03 -0.27972E-01
 -0.12878E-03  0.11725E-02 -0.27972E-01
  0.94401E-03  0.22752E-02 -0.27972E-01
  0.11316E-02  0.28273E-02 -0.27972E-01
  0.17479E-02  0.24242E-02 -0.27972E-01
  0.40572E-03  0.21686E-02 -0.27972E-01
  0.39774E-03  0.29359E-02 -0.27972E-01
 -0.76409E-03 -0.10038E-02 -0.27972E-01
 -0.86637E-03  0.81397E-04 -0.27972E-01
  0.45985E-03 -0.70100E-03 -0.27972E-01
 -0.18309E-02 -0.71154E-03 -0.27972E-01
 -0.18437E-02  0.83120E-04 -0.27972E-01
 -0.27237E-02 -0.77814E-03 -0.27972E-01
 -0.28020E-02  0.41533E-04 -0.27972E-01
 -0.25369E-02 -0.15193E-02 -0.27972E-01
 -0.19300E-02 -0.13227E-02 -0.27972E-01
 -0.99320E-03  0.99254E-03 -0.27972E-01
 -0.14391E-02 -0.17324E-02 -0.27972E-01
 -0.31514E-03  0.20228E-02 -0.27972E-01
 -0.11057E-02  0.18611E-02 -0.27972E-01
 -0.18844E-02  0.17175E-02 -0.27972E-01
 -0.18709E-02  0.91012E-03 -0.27972E-01
 -0.15954E-03 -0.19801E-02 -0.27972E-01
 -0.94269E-03 -0.23490E-02 -0.27972E-01
  0.78658E-03 -0.17074E-02 -0.27972E-01
  0.17209E-02 -0.14901E-02 -0.27972E-01
  0.32060E-02  0.76338E-03 -0.27972E-01
  0.28046E-02  0.12490E-02 -0.27972E-01
  0.23056E-02  0.18666E-02 -0.27972E-01
 -0.40572E-03  0.29006E-02 -0.27972E-01
 -0.12092E-02  0.27193E-02 -0.27972E-01
 -0.19446E-02  0.24636E-02 -0.27972E-01
 -0.25028E-02  0.22359E-02 -0.27972E-01
 -0.26368E-02  0.16503E-02 -0.27972E-01
 -0.27662E-02  0.87571E-03 -0.27972E-01
 -0.21128E-02 -0.21374E-02 -0.27972E-01
 -0.16088E-02 -0.26932E-02 -0.27972E-01
 -0.11942E-02 -0.31291E-02 -0.27972E-01
 -0.58746E-03 -0.30382E-02 -0.27972E-01
  0.20790E-03 -0.28748E-02 -0.27972E-01
  0.10577E-02 -0.26431E-02 -0.27972E-01
  0.18414E-02 -0.23713E-02 -0.27972E-01
  0.24548E-02 -0.21461E-02 -0.27972E-01
  0.26024E-02 -0.15102E-02 -0.27972E-01
  0.37964E-02  0.93572E-03 -0.27972E-01
  0.39100E-02  0.00000E+00 -0.27972E-01
  0.34621E-02  0.18171E-02 -0.27972E-01
  0.29267E-02  0.25928E-02 -0.27972E-01
  0.22211E-02  0.32179E-02 -0.27972E-01
  0.13865E-02  0.36559E-02 -0.27972E-01
  0.47130E-03  0.38815E-02 -0.27972E-01
 -0.47130E-03  0.38815E-02 -0.27972E-01
 -0.13865E-02  0.36559E-02 -0.27972E-01
 -0.22211E-02  0.32179E-02 -0.27972E-01
 -0.29267E-02  0.25928E-02 -0.27972E-01
 -0.34621E-02  0.18171E-02 -0.27972E-01
 -0.37964E-02  0.93572E-03 -0.27972E-01
 -0.39100E-02 -0.47884E-18 -0.27972E-01
 -0.37964E-02 -0.93572E-03 -0.27972E-01
 -0.34621E-02 -0.18171E-02 -0.27972E-01
 -0.29267E-02 -0.25928E-02 -0.27972E-01
 -0.22211E-02 -0.32179E-02 -0.27972E-01
 -0.13865E-02 -0.36559E-02 -0.27972E-01
 -0.47130E-03 -0.38815E-02 -0.27972E-01
  0.47130E-03 -0.38815E-02 -0.27972E-01
  0.13865E-02 -0.36559E-02 -0.27972E-01
  0.22211E-02 -0.32179E-02 -0.27972E-01
  0.29267E-02 -0.25928E-02 -0.27972E-01
  0.34621E-02 -0.18171E-02 -0.27972E-01
  0.37964E-02 -0.93572E-03 -0.27972E-01
  0.10373E-02  0.67514E-03 -0.26993E-01
  0.17445E-02  0.12334E-02 -0.26993E-01
  0.23172E-02  0.59360E-03 -0.26993E-01
  0.16689E-02 -0.33474E-03 -0.26993E-01
  0.30376E-02  0.15027E-03 -0.26993E-01
  0.27805E-02 -0.67446E-03 -0.26993E-01
  0.12846E-02  0.18419E-02 -0.26993E-01
  0.65041E-03  0.14616E-02 -0.26993E-01
  0.12652E-03  0.30393E-03 -0.26993E-01
 -0.12896E-03  0.11742E-02 -0.26993E-01
  0.94367E-03  0.22753E-02 -0.26993E-01
  0.11313E-02  0.28269E-02 -0.26993E-01
  0.17475E-02  0.24244E-02 -0.26993E-01
  0.40566E-03  0.21686E-02 -0.26993E-01
  0.39772E-03  0.29356E-02 -0.26993E-01
 -0.76444E-03 -0.10039E-02 -0.26993E-01
 -0.86648E-03  0.82206E-04 -0.26993E-01
  0.45940E-03 -0.70028E-03 -0.26993E-01
 -0.18312E-02 -0.71140E-03 -0.26993E-01
 -0.18436E-02  0.83243E-04 -0.26993E-01
 -0.27237E-02 -0.77797E-03 -0.26993E-01
 -0.28017E-02  0.41806E-04 -0.26993E-01
 -0.25371E-02 -0.15193E-02 -0.26993E-01
 -0.19305E-02 -0.13226E-02 -0.26993E-01
 -0.99305E-03  0.99390E-03 -0.26993E-01
 -0.14394E-02 -0.17323E-02 -0.26993E-01
 -0.31494E-03  0.20231E-02 -0.26993E-01
 -0.11054E-02  0.18610E-02 -0.26993E-01
 -0.18843E-02  0.17175E-02 -0.26993E-01
 -0.18708E-02  0.91036E-03 -0.26993E-01
 -0.15981E-03 -0.19801E-02 -0.26993E-01
 -0.94328E-03 -0.23490E-02 -0.26993E-01
  0.78592E-03 -0.17074E-02 -0.26993E-01
  0.17209E-02 -0.14904E-02 -0.26993E-01
  0.32063E-02  0.76439E-03 -0.26993E-01
  0.28045E-02  0.12494E-02 -0.26993E-01
  0.23055E-02  0.18666E-02 -0.26993E-01
 -0.40558E-03  0.28995E-02 -0.26993E-01
 -0.12092E-02  0.27188E-02 -0.26993E-01
 -0.19446E-02  0.24633E-02 -0.26993E-01
 -0.25027E-02  0.22359E-02 -0.26993E-01
 -0.26367E-02  0.16503E-02 -0.26993E-01
 -0.27658E-02  0.87597E-03 -0.26993E-01
 -0.21129E-02 -0.21374E-02 -0.26993E-01
 -0.16089E-02 -0.26932E-02 -0.26993E-01
 -0.11943E-02 -0.31291E-02 -0.26993E-01
 -0.58781E-03 -0.30382E-02 -0.26993E-01
  0.20749E-03 -0.28748E-02 -0.26993E-01
  0.10574E-02 -0.26434E-02 -0.26993E-01
  0.18415E-02 -0.23715E-02 -0.26993E-01
  0.24549E-02 -0.21467E-02 -0.26993E-01
  0.26025E-02 -0.15101E-02 -0.26993E-01
  0.37964E-02  0.93572E-03 -0.26993E-01
  0.39100E-02  0.00000E+00 -0.26993E-01
  0.34621E-02  0.18171E-02 -0.26993E-01
  0.29267E-02  0.25928E-02 -0.26993E-01
  0.22211E-02  0.32179E-02 -0.26993E-01
  0.13865E-02  0.36559E-02 -0.26993E-01
  0.47130E-03  0.38815E-02 -0.26993E-01
 -0.47130E-03  0.38815E-02 -0.26993E-01
 -0.13865E-02  0.36559E-02 -0.26993E-01
 -0.22211E-02  0.32179E-02 -0.26993E-01
 -0.29267E-02  0.25928E-02 -0.26993E-01
 -0.34621E-02  0.18171E-02 -0.26993E-01
 -0.37964E-02  0.93572E-03 -0.26993E-01
 -0.39100E-02 -0.47884E-18 -0.26993E-01
 -0.37964E-02 -0.93572E-03 -0.26993E-01
 -0.34621E-02 -0.18171E-02 -0.26993E-01
 -0.29267E-02 -0.25928E-02 -0.26993E-01
 -0.22211E-02 -0.32179E-02 -0.26993E-01
 -0.13865E-02 -0.36559E-02 -0.26993E-01
 -0.47130E-03 -0.38815E-02 -0.26993E-01
  0.47130E-03 -0.38815E-02 -0.26993E-01
  0.13865E-02 -0.36559E-02 -0.26993E-01
  0.22211E-02 -0.32179E-02 -0.26993E-01
  0.29267E-02 -0.25928E-02 -0.26993E-01
  0.34621E-02 -0.18171E-02 -0.26993E-01
  0.37964E-02 -0.93572E-03 -0.26993E-01
  0.10372E-02  0.67570E-03 -0.26014E-01
  0.17443E-02  0.12341E-02 -0.26014E-01
  0.23171E-02  0.59412E-03 -0.26014E-01
  0.16687E-02 -0.33398E-03 -0.26014E-01
  0.30376E-02  0.15064E-03 -0.26014E-01
  0.27808E-02 -0.67396E-03 -0.26014E-01
  0.12845E-02  0.18421E-02 -0.26014E-01
  0.65016E-03  0.14626E-02 -0.26014E-01
  0.12626E-03  0.30507E-03 -0.26014E-01
 -0.12915E-03  0.11760E-02 -0.26014E-01
  0.94334E-03  0.22754E-02 -0.26014E-01
  0.11310E-02  0.28264E-02 -0.26014E-01
  0.17471E-02  0.24245E-02 -0.26014E-01
  0.40561E-03  0.21686E-02 -0.26014E-01
  0.39770E-03  0.29353E-02 -0.26014E-01
 -0.76480E-03 -0.10040E-02 -0.26014E-01
 -0.86659E-03  0.83015E-04 -0.26014E-01
  0.45895E-03 -0.69955E-03 -0.26014E-01
 -0.18315E-02 -0.71126E-03 -0.26014E-01
 -0.18435E-02  0.83367E-04 -0.26014E-01
 -0.27237E-02 -0.77780E-03 -0.26014E-01
 -0.28014E-02  0.42080E-04 -0.26014E-01
 -0.25372E-02 -0.15192E-02 -0.26014E-01
 -0.19309E-02 -0.13224E-02 -0.26014E-01
 -0.99291E-03  0.99526E-03 -0.26014E-01
 -0.14398E-02 -0.17323E-02 -0.26014E-01
 -0.31474E-03  0.20234E-02 -0.26014E-01
 -0.11051E-02  0.18609E-02 -0.26014E-01
 -0.18843E-02  0.17175E-02 -0.26014E-01
 -0.18706E-02  0.91060E-03 -0.26014E-01
 -0.16009E-03 -0.19801E-02 -0.26014E-01
 -0.94388E-03 -0.23490E-02 -0.26014E-01
  0.78526E-03 -0.17074E-02 -0.26014E-01
  0.17208E-02 -0.14906E-02 -0.26014E-01
  0.32066E-02  0.76539E-03 -0.26014E-01
  0.28045E-02  0.12498E-02 -0.26014E-01
  0.23053E-02  0.18667E-02 -0.26014E-01
 -0.40545E-03  0.28984E-02 -0.26014E-01
 -0.12092E-02  0.27184E-02 -0.26014E-01
 -0.19446E-02  0.24631E-02 -0.26014E-01
 -0.25027E-02  0.22359E-02 -0.26014E-01
 -0.26366E-02  0.16503E-02 -0.26014E-01
 -0.27655E-02  0.87623E-03 -0.26014E-01
 -0.21130E-02 -0.21374E-02 -0.26014E-01
 -0.16089E-02 -0.26932E-02 -0.26014E-01
 -0.11944E-02 -0.31291E-02 -0.26014E-01
 -0.58816E-03 -0.30382E-02 -0.26014E-01
  0.20709E-03 -0.28748E-02 -0.26014E-01
  0.10571E-02 -0.26436E-02 -0.26014E-01
  0.18415E-02 -0.23717E-02 -0.26014E-01
  0.24550E-02 -0.21472E-02 -0.26014E-01
  0.26025E-02 -0.15100E-02 -0.26014E-01
  0.37964E-02  0.93572E-03 -0.26014E-01
  0.39100E-02  0.00000E+00 -0.26014E-01
  0.34621E-02  0.18171E-02 -0.26014E-01
  0.29267E-02  0.25928E-02 -0.26014E-01
  0.22211E-02  0.32179E-02 -0.26014E-01
  0.13865E-02  0.36559E-02 -0.26014E-01
  0.47130E-03  0.38815E-02 -0.26014E-01
 -0.47130E-03  0.38815E-02 -0.26014E-01
 -0.13865E-02  0.36559E-02 -0.26014E-01
 -0.22211E-02  0.32179E-02 -0.26014E-01
 -0.29267E-02  0.25928E-02 -0.26014E-01
 -0.34621E-02  0.18171E-02 -0.26014E-01
 -0.37964E-02  0.93572E-03 -0.26014E-01
 -0.39100E-02 -0.47884E-18 -0.26014E-01
 -0.37964E-02 -0.93572E-03 -0.26014E-01
 -0.34621E-02 -0.18171E-02 -0.26014E-01
 -0.29267E-02 -0.25928E-02 -0.26014E-01
 -0.22211E-02 -0.32179E-02 -0.26014E-01
 -0.13865E-02 -0.36559E-02 -0.26014E-01
 -0.47130E-03 -0.38815E-02 -0.26014E-01
  0.47130E-03 -0.38815E-02 -0.26014E-01
  0.13865E-02 -0.36559E-02 -0.26014E-01
  0.22211E-02 -0.32179E-02 -0.26014E-01
  0.29267E-02 -0.25928E-02 -0.26014E-01
  0.34621E-02 -0.18171E-02 -0.26014E-01
  0.37964E-02 -0.93572E-03 -0.26014E-01
  0.10371E-02  0.67625E-03 -0.25035E-01
  0.17441E-02  0.12348E-02 -0.25035E-01
  0.23169E-02  0.59465E-03 -0.25035E-01
  0.16685E-02 -0.33323E-03 -0.25035E-01
  0.30376E-02  0.15100E-03 -0.25035E-01
  0.27812E-02 -0.67347E-03 -0.25035E-01
  0.12844E-02  0.18423E-02 -0.25035E-01
  0.64992E-03  0.14636E-02 -0.25035E-01
  0.12600E-03  0.30622E-03 -0.25035E-01
 -0.12933E-03  0.11777E-02 -0.25035E-01
  0.94301E-03  0.22755E-02 -0.25035E-01
  0.11306E-02  0.28260E-02 -0.25035E-01
  0.17467E-02  0.24247E-02 -0.25035E-01
  0.40556E-03  0.21687E-02 -0.25035E-01
  0.39769E-03  0.29351E-02 -0.25035E-01
 -0.76515E-03 -0.10042E-02 -0.25035E-01
 -0.86670E-03  0.83825E-04 -0.25035E-01
  0.45850E-03 -0.69882E-03 -0.25035E-01
 -0.18318E-02 -0.71112E-03 -0.25035E-01
 -0.18434E-02  0.83490E-04 -0.25035E-01
 -0.27236E-02 -0.77763E-03 -0.25035E-01
 -0.28011E-02  0.42353E-04 -0.25035E-01
 -0.25374E-02 -0.15192E-02 -0.25035E-01
 -0.19313E-02 -0.13223E-02 -0.25035E-01
 -0.99277E-03  0.99661E-03 -0.25035E-01
 -0.14401E-02 -0.17322E-02 -0.25035E-01
 -0.31454E-03  0.20237E-02 -0.25035E-01
 -0.11047E-02  0.18607E-02 -0.25035E-01
 -0.18842E-02  0.17175E-02 -0.25035E-01
 -0.18705E-02  0.91084E-03 -0.25035E-01
 -0.16036E-03 -0.19801E-02 -0.25035E-01
 -0.94448E-03 -0.23491E-02 -0.25035E-01
  0.78460E-03 -0.17074E-02 -0.25035E-01
  0.17208E-02 -0.14909E-02 -0.25035E-01
  0.32070E-02  0.76640E-03 -0.25035E-01
  0.28045E-02  0.12503E-02 -0.25035E-01
  0.23052E-02  0.18667E-02 -0.25035E-01
 -0.40531E-03  0.28974E-02 -0.25035E-01
 -0.12092E-02  0.27179E-02 -0.25035E-01
 -0.19445E-02  0.24629E-02 -0.25035E-01
 -0.25027E-02  0.22359E-02 -0.25035E-01
 -0.26366E-02  0.16503E-02 -0.25035E-01
 -0.27652E-02  0.87650E-03 -0.25035E-01
 -0.21132E-02 -0.21374E-02 -0.25035E-01
 -0.16090E-02 -0.26933E-02 -0.25035E-01
 -0.11946E-02 -0.31291E-02 -0.25035E-01
 -0.58851E-03 -0.30382E-02 -0.25035E-01
  0.20668E-03 -0.28749E-02 -0.25035E-01
  0.10567E-02 -0.26439E-02 -0.25035E-01
  0.18416E-02 -0.23719E-02 -0.25035E-01
  0.24551E-02 -0.21478E-02 -0.25035E-01
  0.26026E-02 -0.15099E-02 -0.25035E-01
  0.37964E-02  0.93572E-03 -0.25035E-01
  0.39100E-02  0.00000E+00 -0.25035E-01
  0.34621E-02  0.18171E-02 -0.25035E-01
  0.29267E-02  0.25928E-02 -0.25035E-01
  0.22211E-02  0.32179E-02 -0.25035E-01
  0.13865E-02  0.36559E-02 -0.25035E-01
  0.47130E-03  0.38815E-02 -0.25035E-01
 -0.47130E-03  0.38815E-02 -0.25035E-01
 -0.13865E-02  0.36559E-02 -0.25035E-01
 -0.22211E-02  0.32179E-02 -0.25035E-01
 -0.29267E-02  0.25928E-02 -0.25035E-01
 -0.34621E-02  0.18171E-02 -0.25035E-01
 -0.37964E-02  0.93572E-03 -0.25035E-01
 -0.39100E-02 -0.47884E-18 -0.25035E-01
 -0.37964E-02 -0.93572E-03 -0.25035E-01
 -0.34621E-02 -0.18171E-02 -0.25035E-01
 -0.29267E-02 -0.25928E-02 -0.25035E-01
 -0.22211E-02 -0.32179E-02 -0.25035E-01
 -0.13865E-02 -0.36559E-02 -0.25035E-01
 -0.47130E-03 -0.38815E-02 -0.25035E-01
  0.47130E-03 -0.38815E-02 -0.25035E-01
  0.13865E-02 -0.36559E-02 -0.25035E-01
  0.22211E-02 -0.32179E-02 -0.25035E-01
  0.29267E-02 -0.25928E-02 -0.25035E-01
  0.34621E-02 -0.18171E-02 -0.25035E-01
  0.37964E-02 -0.93572E-03 -0.25035E-01
  0.10370E-02  0.67680E-03 -0.24056E-01
  0.17439E-02  0.12354E-02 -0.24056E-01
  0.23168E-02  0.59517E-03 -0.24056E-01
  0.16683E-02 -0.33247E-03 -0.24056E-01
  0.30375E-02  0.15136E-03 -0.24056E-01
  0.27815E-02 -0.67298E-03 -0.24056E-01
  0.12843E-02  0.18425E-02 -0.24056E-01
  0.64967E-03  0.14646E-02 -0.24056E-01
  0.12573E-03  0.30737E-03 -0.24056E-01
 -0.12952E-03  0.11795E-02 -0.24056E-01
  0.94268E-03  0.22757E-02 -0.24056E-01
  0.11303E-02  0.28255E-02 -0.24056E-01
  0.17463E-02  0.24248E-02 -0.24056E-01
  0.40550E-03  0.21687E-02 -0.24056E-01
  0.39767E-03  0.29348E-02 -0.24056E-01
 -0.76551E-03 -0.10043E-02 -0.24056E-01
 -0.86680E-03  0.84634E-04 -0.24056E-01
  0.45806E-03 -0.69810E-03 -0.24056E-01
 -0.18321E-02 -0.71098E-03 -0.24056E-01
 -0.18433E-02  0.83614E-04 -0.24056E-01
 -0.27236E-02 -0.77746E-03 -0.24056E-01
 -0.28009E-02  0.42626E-04 -0.24056E-01
 -0.25375E-02 -0.15191E-02 -0.24056E-01
 -0.19317E-02 -0.13223E-02 -0.24056E-01
 -0.99262E-03  0.99797E-03 -0.24056E-01
 -0.14405E-02 -0.17322E-02 -0.24056E-01
 -0.31434E-03  0.20240E-02 -0.24056E-01
 -0.11044E-02  0.18606E-02 -0.24056E-01
 -0.18842E-02  0.17175E-02 -0.24056E-01
 -0.18704E-02  0.91108E-03 -0.24056E-01
 -0.16064E-03 -0.19802E-02 -0.24056E-01
 -0.94508E-03 -0.23491E-02 -0.24056E-01
  0.78394E-03 -0.17074E-02 -0.24056E-01
  0.17208E-02 -0.14911E-02 -0.24056E-01
  0.32073E-02  0.76740E-03 -0.24056E-01
  0.28045E-02  0.12507E-02 -0.24056E-01
  0.23051E-02  0.18668E-02 -0.24056E-01
 -0.40517E-03  0.28963E-02 -0.24056E-01
 -0.12092E-02  0.27174E-02 -0.24056E-01
 -0.19445E-02  0.24627E-02 -0.24056E-01
 -0.25026E-02  0.22358E-02 -0.24056E-01
 -0.26365E-02  0.16503E-02 -0.24056E-01
 -0.27649E-02  0.87676E-03 -0.24056E-01
 -0.21133E-02 -0.21374E-02 -0.24056E-01
 -0.16090E-02 -0.26933E-02 -0.24056E-01
 -0.11947E-02 -0.31291E-02 -0.24056E-01
 -0.58886E-03 -0.30382E-02 -0.24056E-01
  0.20627E-03 -0.28749E-02 -0.24056E-01
  0.10564E-02 -0.26442E-02 -0.24056E-01
  0.18416E-02 -0.23721E-02 -0.24056E-01
  0.24553E-02 -0.21483E-02 -0.24056E-01
  0.26027E-02 -0.15097E-02 -0.24056E-01
  0.37964E-02  0.93572E-03 -0.24056E-01
  0.39100E-02  0.00000E+00 -0.24056E-01
  0.34621E-02  0.18171E-02 -0.24056E-01
  0.29267E-02  0.25928E-02 -0.24056E-01
  0.22211E-02  0.32179E-02 -0.24056E-01
  0.13865E-02  0.36559E-02 -0.24056E-01
  0.47130E-03  0.38815E-02 -0.24056E-01
 -0.47130E-03  0.38815E-02 -0.24056E-01
 -0.13865E-02  0.36559E-02 -0.24056E-01
 -0.22211E-02  0.32179E-02 -0.24056E-01
 -0.29267E-02  0.25928E-02 -0.24056E-01
 -0.34621E-02  0.18171E-02 -0.24056E-01
 -0.37964E-02  0.93572E-03 -0.24056E-01
 -0.39100E-02 -0.47884E-18 -0.24056E-01
 -0.37964E-02 -0.93572E-03 -0.24056E-01
 -0.34621E-02 -0.18171E-02 -0.24056E-01
 -0.29267E-02 -0.25928E-02 -0.24056E-01
 -0.22211E-02 -0.32179E-02 -0.24056E-01
 -0.13865E-02 -0.36559E-02 -0.24056E-01
 -0.47130E-03 -0.38815E-02 -0.24056E-01
  0.47130E-03 -0.38815E-02 -0.24056E-01
  0.13865E-02 -0.36559E-02 -0.24056E-01
  0.22211E-02 -0.32179E-02 -0.24056E-01
  0.29267E-02 -0.25928E-02 -0.24056E-01
  0.34621E-02 -0.18171E-02 -0.24056E-01
  0.37964E-02 -0.93572E-03 -0.24056E-01
  0.10368E-02  0.67736E-03 -0.23077E-01
  0.17438E-02  0.12361E-02 -0.23077E-01
  0.23167E-02  0.59570E-03 -0.23077E-01
  0.16681E-02 -0.33172E-03 -0.23077E-01
  0.30375E-02  0.15173E-03 -0.23077E-01
  0.27819E-02 -0.67248E-03 -0.23077E-01
  0.12842E-02  0.18427E-02 -0.23077E-01
  0.64943E-03  0.14656E-02 -0.23077E-01
  0.12547E-03  0.30852E-03 -0.23077E-01
 -0.12970E-03  0.11812E-02 -0.23077E-01
  0.94235E-03  0.22758E-02 -0.23077E-01
  0.11300E-02  0.28251E-02 -0.23077E-01
  0.17459E-02  0.24249E-02 -0.23077E-01
  0.40545E-03  0.21688E-02 -0.23077E-01
  0.39766E-03  0.29345E-02 -0.23077E-01
 -0.76586E-03 -0.10044E-02 -0.23077E-01
 -0.86691E-03  0.85443E-04 -0.23077E-01
  0.45761E-03 -0.69737E-03 -0.23077E-01
 -0.18324E-02 -0.71084E-03 -0.23077E-01
 -0.18432E-02  0.83737E-04 -0.23077E-01
 -0.27236E-02 -0.77729E-03 -0.23077E-01
 -0.28006E-02  0.42899E-04 -0.23077E-01
 -0.25377E-02 -0.15191E-02 -0.23077E-01
 -0.19322E-02 -0.13222E-02 -0.23077E-01
 -0.99248E-03  0.99932E-03 -0.23077E-01
 -0.14408E-02 -0.17322E-02 -0.23077E-01
 -0.31414E-03  0.20243E-02 -0.23077E-01
 -0.11040E-02  0.18605E-02 -0.23077E-01
 -0.18841E-02  0.17175E-02 -0.23077E-01
 -0.18703E-02  0.91132E-03 -0.23077E-01
 -0.16091E-03 -0.19802E-02 -0.23077E-01
 -0.94568E-03 -0.23491E-02 -0.23077E-01
  0.78328E-03 -0.17074E-02 -0.23077E-01
  0.17207E-02 -0.14914E-02 -0.23077E-01
  0.32076E-02  0.76841E-03 -0.23077E-01
  0.28044E-02  0.12511E-02 -0.23077E-01
  0.23050E-02  0.18668E-02 -0.23077E-01
 -0.40503E-03  0.28952E-02 -0.23077E-01
 -0.12092E-02  0.27170E-02 -0.23077E-01
 -0.19445E-02  0.24624E-02 -0.23077E-01
 -0.25026E-02  0.22358E-02 -0.23077E-01
 -0.26364E-02  0.16503E-02 -0.23077E-01
 -0.27646E-02  0.87702E-03 -0.23077E-01
 -0.21134E-02 -0.21374E-02 -0.23077E-01
 -0.16091E-02 -0.26933E-02 -0.23077E-01
 -0.11948E-02 -0.31291E-02 -0.23077E-01
 -0.58921E-03 -0.30382E-02 -0.23077E-01
  0.20587E-03 -0.28749E-02 -0.23077E-01
  0.10561E-02 -0.26444E-02 -0.23077E-01
  0.18416E-02 -0.23723E-02 -0.23077E-01
  0.24554E-02 -0.21489E-02 -0.23077E-01
  0.26027E-02 -0.15096E-02 -0.23077E-01
  0.37964E-02  0.93572E-03 -0.23077E-01
  0.39100E-02  0.00000E+00 -0.23077E-01
  0.34621E-02  0.18171E-02 -0.23077E-01
  0.29267E-02  0.25928E-02 -0.23077E-01
  0.22211E-02  0.32179E-02 -0.23077E-01
  0.13865E-02  0.36559E-02 -0.23077E-01
  0.47130E-03  0.38815E-02 -0.23077E-01
 -0.47130E-03  0.38815E-02 -0.23077E-01
 -0.13865E-02  0.36559E-02 -0.23077E-01
 -0.22211E-02  0.32179E-02 -0.23077E-01
 -0.29267E-02  0.25928E-02 -0.23077E-01
 -0.34621E-02  0.18171E-02 -0.23077E-01
 -0.37964E-02  0.93572E-03 -0.23077E-01
 -0.39100E-02 -0.47884E-18 -0.23077E-01
 -0.37964E-02 -0.93572E-03 -0.23077E-01
 -0.34621E-02 -0.18171E-02 -0.23077E-01
 -0.29267E-02 -0.25928E-02 -0.23077E-01
 -0.22211E-02 -0.32179E-02 -0.23077E-01
 -0.13865E-02 -0.36559E-02 -0.23077E-01
 -0.47130E-03 -0.38815E-02 -0.23077E-01
  0.47130E-03 -0.38815E-02 -0.23077E-01
  0.13865E-02 -0.36559E-02 -0.23077E-01
  0.22211E-02 -0.32179E-02 -0.23077E-01
  0.29267E-02 -0.25928E-02 -0.23077E-01
  0.34621E-02 -0.18171E-02 -0.23077E-01
  0.37964E-02 -0.93572E-03 -0.23077E-01
  0.10367E-02  0.67791E-03 -0.22097E-01
  0.17436E-02  0.12368E-02 -0.22097E-01
  0.23166E-02  0.59622E-03 -0.22097E-01
  0.16679E-02 -0.33096E-03 -0.22097E-01
  0.30375E-02  0.15209E-03 -0.22097E-01
  0.27822E-02 -0.67199E-03 -0.22097E-01
  0.12841E-02  0.18429E-02 -0.22097E-01
  0.64918E-03  0.14666E-02 -0.22097E-01
  0.12521E-03  0.30967E-03 -0.22097E-01
 -0.12989E-03  0.11830E-02 -0.22097E-01
  0.94202E-03  0.22759E-02 -0.22097E-01
  0.11296E-02  0.28247E-02 -0.22097E-01
  0.17455E-02  0.24251E-02 -0.22097E-01
  0.40539E-03  0.21688E-02 -0.22097E-01
  0.39764E-03  0.29343E-02 -0.22097E-01
 -0.76621E-03 -0.10046E-02 -0.22097E-01
 -0.86702E-03  0.86253E-04 -0.22097E-01
  0.45716E-03 -0.69665E-03 -0.22097E-01
 -0.18326E-02 -0.71070E-03 -0.22097E-01
 -0.18431E-02  0.83861E-04 -0.22097E-01
 -0.27235E-02 -0.77712E-03 -0.22097E-01
 -0.28003E-02  0.43173E-04 -0.22097E-01
 -0.25379E-02 -0.15190E-02 -0.22097E-01
 -0.19326E-02 -0.13220E-02 -0.22097E-01
 -0.99233E-03  0.10007E-02 -0.22097E-01
 -0.14412E-02 -0.17321E-02 -0.22097E-01
 -0.31394E-03  0.20245E-02 -0.22097E-01
 -0.11037E-02  0.18603E-02 -0.22097E-01
 -0.18841E-02  0.17175E-02 -0.22097E-01
 -0.18701E-02  0.91156E-03 -0.22097E-01
 -0.16119E-03 -0.19802E-02 -0.22097E-01
 -0.94628E-03 -0.23491E-02 -0.22097E-01
  0.78262E-03 -0.17074E-02 -0.22097E-01
  0.17207E-02 -0.14916E-02 -0.22097E-01
  0.32079E-02  0.76941E-03 -0.22097E-01
  0.28044E-02  0.12515E-02 -0.22097E-01
  0.23049E-02  0.18668E-02 -0.22097E-01
 -0.40490E-03  0.28942E-02 -0.22097E-01
 -0.12093E-02  0.27165E-02 -0.22097E-01
 -0.19444E-02  0.24622E-02 -0.22097E-01
 -0.25026E-02  0.22358E-02 -0.22097E-01
 -0.26363E-02  0.16503E-02 -0.22097E-01
 -0.27643E-02  0.87728E-03 -0.22097E-01
 -0.21136E-02 -0.21374E-02 -0.22097E-01
 -0.16091E-02 -0.26933E-02 -0.22097E-01
 -0.11949E-02 -0.31291E-02 -0.22097E-01
 -0.58956E-03 -0.30382E-02 -0.22097E-01
  0.20546E-03 -0.28749E-02 -0.22097E-01
  0.10558E-02 -0.26447E-02 -0.22097E-01
  0.18417E-02 -0.23725E-02 -0.22097E-01
  0.24555E-02 -0.21494E-02 -0.22097E-01
  0.26028E-02 -0.15095E-02 -0.22097E-01
  0.37964E-02  0.93572E-03 -0.22097E-01
  0.39100E-02  0.00000E+00 -0.22097E-01
  0.34621E-02  0.18171E-02 -0.22097E-01
  0.29267E-02  0.25928E-02 -0.22097E-01
  0.22211E-02  0.32179E-02 -0.22097E-01
  0.13865E-02  0.36559E-02 -0.22097E-01
  0.47130E-03  0.38815E-02 -0.22097E-01
 -0.47130E-03  0.38815E-02 -0.22097E-01
 -0.13865E-02  0.36559E-02 -0.22097E-01
 -0.22211E-02  0.32179E-02 -0.22097E-01
 -0.29267E-02  0.25928E-02 -0.22097E-01
 -0.34621E-02  0.18171E-02 -0.22097E-01
 -0.37964E-02  0.93572E-03 -0.22097E-01
 -0.39100E-02 -0.47884E-18 -0.22097E-01
 -0.37964E-02 -0.93572E-03 -0.22097E-01
 -0.34621E-02 -0.18171E-02 -0.22097E-01
 -0.29267E-02 -0.25928E-02 -0.22097E-01
 -0.22211E-02 -0.32179E-02 -0.22097E-01
 -0.13865E-02 -0.36559E-02 -0.22097E-01
 -0.47130E-03 -0.38815E-02 -0.22097E-01
  0.47130E-03 -0.38815E-02 -0.22097E-01
  0.13865E-02 -0.36559E-02 -0.22097E-01
  0.22211E-02 -0.32179E-02 -0.22097E-01
  0.29267E-02 -0.25928E-02 -0.22097E-01
  0.34621E-02 -0.18171E-02 -0.22097E-01
  0.37964E-02 -0.93572E-03 -0.22097E-01
  0.10366E-02  0.67847E-03 -0.21118E-01
  0.17434E-02  0.12374E-02 -0.21118E-01
  0.23164E-02  0.59674E-03 -0.21118E-01
  0.16677E-02 -0.33021E-03 -0.21118E-01
  0.30375E-02  0.15245E-03 -0.21118E-01
  0.27825E-02 -0.67150E-03 -0.21118E-01
  0.12840E-02  0.18430E-02 -0.21118E-01
  0.64894E-03  0.14676E-02 -0.21118E-01
  0.12495E-03  0.31081E-03 -0.21118E-01
 -0.13007E-03  0.11847E-02 -0.21118E-01
  0.94169E-03  0.22761E-02 -0.21118E-01
  0.11293E-02  0.28242E-02 -0.21118E-01
  0.17451E-02  0.24252E-02 -0.21118E-01
  0.40534E-03  0.21688E-02 -0.21118E-01
  0.39762E-03  0.29340E-02 -0.21118E-01
 -0.76657E-03 -0.10047E-02 -0.21118E-01
 -0.86713E-03  0.87062E-04 -0.21118E-01
  0.45671E-03 -0.69592E-03 -0.21118E-01
 -0.18329E-02 -0.71056E-03 -0.21118E-01
 -0.18430E-02  0.83985E-04 -0.21118E-01
 -0.27235E-02 -0.77695E-03 -0.21118E-01
 -0.28001E-02  0.43446E-04 -0.21118E-01
 -0.25380E-02 -0.15190E-02 -0.21118E-01
 -0.19330E-02 -0.13219E-02 -0.21118E-01
 -0.99219E-03  0.10020E-02 -0.21118E-01
 -0.14415E-02 -0.17321E-02 -0.21118E-01
 -0.31374E-03  0.20248E-02 -0.21118E-01
 -0.11033E-02  0.18602E-02 -0.21118E-01
 -0.18840E-02  0.17175E-02 -0.21118E-01
 -0.18700E-02  0.91180E-03 -0.21118E-01
 -0.16146E-03 -0.19803E-02 -0.21118E-01
 -0.94687E-03 -0.23491E-02 -0.21118E-01
  0.78195E-03 -0.17073E-02 -0.21118E-01
  0.17207E-02 -0.14919E-02 -0.21118E-01
  0.32083E-02  0.77042E-03 -0.21118E-01
  0.28044E-02  0.12520E-02 -0.21118E-01
  0.23048E-02  0.18669E-02 -0.21118E-01
 -0.40476E-03  0.28931E-02 -0.21118E-01
 -0.12093E-02  0.27160E-02 -0.21118E-01
 -0.19444E-02  0.24620E-02 -0.21118E-01
 -0.25026E-02  0.22358E-02 -0.21118E-01
 -0.26362E-02  0.16503E-02 -0.21118E-01
 -0.27640E-02  0.87754E-03 -0.21118E-01
 -0.21137E-02 -0.21374E-02 -0.21118E-01
 -0.16091E-02 -0.26933E-02 -0.21118E-01
 -0.11950E-02 -0.31291E-02 -0.21118E-01
 -0.58991E-03 -0.30382E-02 -0.21118E-01
  0.20505E-03 -0.28749E-02 -0.21118E-01
  0.10555E-02 -0.26450E-02 -0.21118E-01
  0.18417E-02 -0.23727E-02 -0.21118E-01
  0.24556E-02 -0.21500E-02 -0.21118E-01
  0.26029E-02 -0.15094E-02 -0.21118E-01
  0.37964E-02  0.93572E-03 -0.21118E-01
  0.39100E-02  0.00000E+00 -0.21118E-01
  0.34621E-02  0.18171E-02 -0.21118E-01
  0.29267E-02  0.25928E-02 -0.21118E-01
  0.22211E-02  0.32179E-02 -0.21118E-01
  0.13865E-02  0.36559E-02 -0.21118E-01
  0.47130E-03  0.38815E-02 -0.21118E-01
 -0.47130E-03  0.38815E-02 -0.21118E-01
 -0.13865E-02  0.36559E-02 -0.21118E-01
 -0.22211E-02  0.32179E-02 -0.21118E-01
 -0.29267E-02  0.25928E-02 -0.21118E-01
 -0.34621E-02  0.18171E-02 -0.21118E-01
 -0.37964E-02  0.93572E-03 -0.21118E-01
 -0.39100E-02  0.39516E-17 -0.21118E-01
 -0.37964E-02 -0.93572E-03 -0.21118E-01
 -0.34621E-02 -0.18171E-02 -0.21118E-01
 -0.29267E-02 -0.25928E-02 -0.21118E-01
 -0.22211E-02 -0.32179E-02 -0.21118E-01
 -0.13865E-02 -0.36559E-02 -0.21118E-01
 -0.47130E-03 -0.38815E-02 -0.21118E-01
  0.47130E-03 -0.38815E-02 -0.21118E-01
  0.13865E-02 -0.36559E-02 -0.21118E-01
  0.22211E-02 -0.32179E-02 -0.21118E-01
  0.29267E-02 -0.25928E-02 -0.21118E-01
  0.34621E-02 -0.18171E-02 -0.21118E-01
  0.37964E-02 -0.93572E-03 -0.21118E-01
  0.10365E-02  0.67902E-03 -0.20139E-01
  0.17432E-02  0.12381E-02 -0.20139E-01
  0.23163E-02  0.59727E-03 -0.20139E-01
  0.16675E-02 -0.32945E-03 -0.20139E-01
  0.30374E-02  0.15282E-03 -0.20139E-01
  0.27829E-02 -0.67100E-03 -0.20139E-01
  0.12839E-02  0.18432E-02 -0.20139E-01
  0.64869E-03  0.14686E-02 -0.20139E-01
  0.12468E-03  0.31196E-03 -0.20139E-01
 -0.13026E-03  0.11865E-02 -0.20139E-01
  0.94135E-03  0.22762E-02 -0.20139E-01
  0.11289E-02  0.28238E-02 -0.20139E-01
  0.17447E-02  0.24254E-02 -0.20139E-01
  0.40528E-03  0.21688E-02 -0.20139E-01
  0.39760E-03  0.29337E-02 -0.20139E-01
 -0.76692E-03 -0.10049E-02 -0.20139E-01
 -0.86724E-03  0.87871E-04 -0.20139E-01
  0.45626E-03 -0.69519E-03 -0.20139E-01
 -0.18332E-02 -0.71042E-03 -0.20139E-01
 -0.18430E-02  0.84108E-04 -0.20139E-01
 -0.27235E-02 -0.77678E-03 -0.20139E-01
 -0.27998E-02  0.43720E-04 -0.20139E-01
 -0.25382E-02 -0.15189E-02 -0.20139E-01
 -0.19334E-02 -0.13219E-02 -0.20139E-01
 -0.99205E-03  0.10034E-02 -0.20139E-01
 -0.14419E-02 -0.17320E-02 -0.20139E-01
 -0.31354E-03  0.20251E-02 -0.20139E-01
 -0.11030E-02  0.18601E-02 -0.20139E-01
 -0.18840E-02  0.17175E-02 -0.20139E-01
 -0.18699E-02  0.91204E-03 -0.20139E-01
 -0.16174E-03 -0.19803E-02 -0.20139E-01
 -0.94747E-03 -0.23492E-02 -0.20139E-01
  0.78129E-03 -0.17073E-02 -0.20139E-01
  0.17206E-02 -0.14921E-02 -0.20139E-01
  0.32086E-02  0.77142E-03 -0.20139E-01
  0.28044E-02  0.12524E-02 -0.20139E-01
  0.23047E-02  0.18669E-02 -0.20139E-01
 -0.40462E-03  0.28920E-02 -0.20139E-01
 -0.12093E-02  0.27155E-02 -0.20139E-01
 -0.19444E-02  0.24618E-02 -0.20139E-01
 -0.25025E-02  0.22358E-02 -0.20139E-01
 -0.26361E-02  0.16503E-02 -0.20139E-01
 -0.27637E-02  0.87781E-03 -0.20139E-01
 -0.21139E-02 -0.21374E-02 -0.20139E-01
 -0.16092E-02 -0.26934E-02 -0.20139E-01
 -0.11951E-02 -0.31291E-02 -0.20139E-01
 -0.59025E-03 -0.30382E-02 -0.20139E-01
  0.20465E-03 -0.28749E-02 -0.20139E-01
  0.10552E-02 -0.26452E-02 -0.20139E-01
  0.18418E-02 -0.23729E-02 -0.20139E-01
  0.24558E-02 -0.21505E-02 -0.20139E-01
  0.26030E-02 -0.15093E-02 -0.20139E-01
  0.37964E-02  0.93572E-03 -0.20139E-01
  0.39100E-02  0.00000E+00 -0.20139E-01
  0.34621E-02  0.18171E-02 -0.20139E-01
  0.29267E-02  0.25928E-02 -0.20139E-01
  0.22211E-02  0.32179E-02 -0.20139E-01
  0.13865E-02  0.36559E-02 -0.20139E-01
  0.47130E-03  0.38815E-02 -0.20139E-01
 -0.47130E-03  0.38815E-02 -0.20139E-01
 -0.13865E-02  0.36559E-02 -0.20139E-01
 -0.22211E-02  0.32179E-02 -0.20139E-01
 -0.29267E-02  0.25928E-02 -0.20139E-01
 -0.34621E-02  0.18171E-02 -0.20139E-01
 -0.37964E-02  0.93572E-03 -0.20139E-01
 -0.39100E-02 -0.47884E-18 -0.20139E-01
 -0.37964E-02 -0.93572E-03 -0.20139E-01
 -0.34621E-02 -0.18171E-02 -0.20139E-01
 -0.29267E-02 -0.25928E-02 -0.20139E-01
 -0.22211E-02 -0.32179E-02 -0.20139E-01
 -0.13865E-02 -0.36559E-02 -0.20139E-01
 -0.47130E-03 -0.38815E-02 -0.20139E-01
  0.47130E-03 -0.38815E-02 -0.20139E-01
  0.13865E-02 -0.36559E-02 -0.20139E-01
  0.22211E-02 -0.32179E-02 -0.20139E-01
  0.29267E-02 -0.25928E-02 -0.20139E-01
  0.34621E-02 -0.18171E-02 -0.20139E-01
  0.37964E-02 -0.93572E-03 -0.20139E-01
  0.10364E-02  0.67958E-03 -0.19160E-01
  0.17430E-02  0.12387E-02 -0.19160E-01
  0.23162E-02  0.59779E-03 -0.19160E-01
  0.16672E-02 -0.32870E-03 -0.19160E-01
  0.30374E-02  0.15318E-03 -0.19160E-01
  0.27832E-02 -0.67051E-03 -0.19160E-01
  0.12838E-02  0.18434E-02 -0.19160E-01
  0.64845E-03  0.14696E-02 -0.19160E-01
  0.12442E-03  0.31311E-03 -0.19160E-01
 -0.13044E-03  0.11882E-02 -0.19160E-01
  0.94102E-03  0.22763E-02 -0.19160E-01
  0.11286E-02  0.28233E-02 -0.19160E-01
  0.17443E-02  0.24255E-02 -0.19160E-01
  0.40523E-03  0.21689E-02 -0.19160E-01
  0.39759E-03  0.29335E-02 -0.19160E-01
 -0.76727E-03 -0.10050E-02 -0.19160E-01
 -0.86735E-03  0.88681E-04 -0.19160E-01
  0.45582E-03 -0.69447E-03 -0.19160E-01
 -0.18335E-02 -0.71028E-03 -0.19160E-01
 -0.18429E-02  0.84232E-04 -0.19160E-01
 -0.27235E-02 -0.77661E-03 -0.19160E-01
 -0.27995E-02  0.43993E-04 -0.19160E-01
 -0.25383E-02 -0.15189E-02 -0.19160E-01
 -0.19339E-02 -0.13218E-02 -0.19160E-01
 -0.99190E-03  0.10048E-02 -0.19160E-01
 -0.14422E-02 -0.17320E-02 -0.19160E-01
 -0.31334E-03  0.20254E-02 -0.19160E-01
 -0.11026E-02  0.18599E-02 -0.19160E-01
 -0.18839E-02  0.17175E-02 -0.19160E-01
 -0.18697E-02  0.91228E-03 -0.19160E-01
 -0.16201E-03 -0.19803E-02 -0.19160E-01
 -0.94807E-03 -0.23492E-02 -0.19160E-01
  0.78063E-03 -0.17073E-02 -0.19160E-01
  0.17206E-02 -0.14923E-02 -0.19160E-01
  0.32089E-02  0.77243E-03 -0.19160E-01
  0.28043E-02  0.12528E-02 -0.19160E-01
  0.23046E-02  0.18670E-02 -0.19160E-01
 -0.40448E-03  0.28910E-02 -0.19160E-01
 -0.12093E-02  0.27151E-02 -0.19160E-01
 -0.19443E-02  0.24615E-02 -0.19160E-01
 -0.25025E-02  0.22358E-02 -0.19160E-01
 -0.26360E-02  0.16503E-02 -0.19160E-01
 -0.27633E-02  0.87807E-03 -0.19160E-01
 -0.21140E-02 -0.21374E-02 -0.19160E-01
 -0.16092E-02 -0.26934E-02 -0.19160E-01
 -0.11953E-02 -0.31291E-02 -0.19160E-01
 -0.59060E-03 -0.30382E-02 -0.19160E-01
  0.20424E-03 -0.28749E-02 -0.19160E-01
  0.10549E-02 -0.26455E-02 -0.19160E-01
  0.18418E-02 -0.23732E-02 -0.19160E-01
  0.24559E-02 -0.21511E-02 -0.19160E-01
  0.26030E-02 -0.15092E-02 -0.19160E-01
  0.37964E-02  0.93572E-03 -0.19160E-01
  0.39100E-02  0.00000E+00 -0.19160E-01
  0.34621E-02  0.18171E-02 -0.19160E-01
  0.29267E-02  0.25928E-02 -0.19160E-01
  0.22211E-02  0.32179E-02 -0.19160E-01
  0.13865E-02  0.36559E-02 -0.19160E-01
  0.47130E-03  0.38815E-02 -0.19160E-01
 -0.47130E-03  0.38815E-02 -0.19160E-01
 -0.13865E-02  0.36559E-02 -0.19160E-01
 -0.22211E-02  0.32179E-02 -0.19160E-01
 -0.29267E-02  0.25928E-02 -0.19160E-01
 -0.34621E-02  0.18171E-02 -0.19160E-01
 -0.37964E-02  0.93572E-03 -0.19160E-01
 -0.39100E-02  0.22152E-17 -0.19160E-01
 -0.37964E-02 -0.93572E-03 -0.19160E-01
 -0.34621E-02 -0.18171E-02 -0.19160E-01
 -0.29267E-02 -0.25928E-02 -0.19160E-01
 -0.22211E-02 -0.32179E-02 -0.19160E-01
 -0.13865E-02 -0.36559E-02 -0.19160E-01
 -0.47130E-03 -0.38815E-02 -0.19160E-01
  0.47130E-03 -0.38815E-02 -0.19160E-01
  0.13865E-02 -0.36559E-02 -0.19160E-01
  0.22211E-02 -0.32179E-02 -0.19160E-01
  0.29267E-02 -0.25928E-02 -0.19160E-01
  0.34621E-02 -0.18171E-02 -0.19160E-01
  0.37964E-02 -0.93572E-03 -0.19160E-01
  0.10363E-02  0.68013E-03 -0.18181E-01
  0.17429E-02  0.12394E-02 -0.18181E-01
  0.23161E-02  0.59831E-03 -0.18181E-01
  0.16670E-02 -0.32794E-03 -0.18181E-01
  0.30374E-02  0.15354E-03 -0.18181E-01
  0.27836E-02 -0.67002E-03 -0.18181E-01
  0.12837E-02  0.18436E-02 -0.18181E-01
  0.64820E-03  0.14706E-02 -0.18181E-01
  0.12416E-03  0.31426E-03 -0.18181E-01
 -0.13063E-03  0.11900E-02 -0.18181E-01
  0.94069E-03  0.22765E-02 -0.18181E-01
  0.11282E-02  0.28229E-02 -0.18181E-01
  0.17439E-02  0.24257E-02 -0.18181E-01
  0.40518E-03  0.21689E-02 -0.18181E-01
  0.39757E-03  0.29332E-02 -0.18181E-01
 -0.76763E-03 -0.10051E-02 -0.18181E-01
 -0.86746E-03  0.89490E-04 -0.18181E-01
  0.45537E-03 -0.69374E-03 -0.18181E-01
 -0.18338E-02 -0.71013E-03 -0.18181E-01
 -0.18428E-02  0.84355E-04 -0.18181E-01
 -0.27234E-02 -0.77644E-03 -0.18181E-01
 -0.27992E-02  0.44266E-04 -0.18181E-01
 -0.25385E-02 -0.15188E-02 -0.18181E-01
 -0.19343E-02 -0.13216E-02 -0.18181E-01
 -0.99176E-03  0.10061E-02 -0.18181E-01
 -0.14425E-02 -0.17320E-02 -0.18181E-01
 -0.31314E-03  0.20257E-02 -0.18181E-01
 -0.11023E-02  0.18598E-02 -0.18181E-01
 -0.18839E-02  0.17175E-02 -0.18181E-01
 -0.18696E-02  0.91252E-03 -0.18181E-01
 -0.16229E-03 -0.19803E-02 -0.18181E-01
 -0.94867E-03 -0.23492E-02 -0.18181E-01
  0.77997E-03 -0.17073E-02 -0.18181E-01
  0.17205E-02 -0.14926E-02 -0.18181E-01
  0.32092E-02  0.77343E-03 -0.18181E-01
  0.28043E-02  0.12533E-02 -0.18181E-01
  0.23044E-02  0.18670E-02 -0.18181E-01
 -0.40434E-03  0.28899E-02 -0.18181E-01
 -0.12093E-02  0.27146E-02 -0.18181E-01
 -0.19443E-02  0.24613E-02 -0.18181E-01
 -0.25025E-02  0.22358E-02 -0.18181E-01
 -0.26359E-02  0.16503E-02 -0.18181E-01
 -0.27630E-02  0.87833E-03 -0.18181E-01
 -0.21141E-02 -0.21374E-02 -0.18181E-01
 -0.16093E-02 -0.26934E-02 -0.18181E-01
 -0.11954E-02 -0.31291E-02 -0.18181E-01
 -0.59095E-03 -0.30382E-02 -0.18181E-01
  0.20384E-03 -0.28750E-02 -0.18181E-01
  0.10546E-02 -0.26458E-02 -0.18181E-01
  0.18419E-02 -0.23734E-02 -0.18181E-01
  0.24560E-02 -0.21516E-02 -0.18181E-01
  0.26031E-02 -0.15091E-02 -0.18181E-01
  0.37964E-02  0.93572E-03 -0.18181E-01
  0.39100E-02  0.00000E+00 -0.18181E-01
  0.34621E-02  0.18171E-02 -0.18181E-01
  0.29267E-02  0.25928E-02 -0.18181E-01
  0.22211E-02  0.32179E-02 -0.18181E-01
  0.13865E-02  0.36559E-02 -0.18181E-01
  0.47130E-03  0.38815E-02 -0.18181E-01
 -0.47130E-03  0.38815E-02 -0.18181E-01
 -0.13865E-02  0.36559E-02 -0.18181E-01
 -0.22211E-02  0.32179E-02 -0.18181E-01
 -0.29267E-02  0.25928E-02 -0.18181E-01
 -0.34621E-02  0.18171E-02 -0.18181E-01
 -0.37964E-02  0.93572E-03 -0.18181E-01
 -0.39100E-02 -0.47884E-18 -0.18181E-01
 -0.37964E-02 -0.93572E-03 -0.18181E-01
 -0.34621E-02 -0.18171E-02 -0.18181E-01
 -0.29267E-02 -0.25928E-02 -0.18181E-01
 -0.22211E-02 -0.32179E-02 -0.18181E-01
 -0.13865E-02 -0.36559E-02 -0.18181E-01
 -0.47130E-03 -0.38815E-02 -0.18181E-01
  0.47130E-03 -0.38815E-02 -0.18181E-01
  0.13865E-02 -0.36559E-02 -0.18181E-01
  0.22211E-02 -0.32179E-02 -0.18181E-01
  0.29267E-02 -0.25928E-02 -0.18181E-01
  0.34621E-02 -0.18171E-02 -0.18181E-01
  0.37964E-02 -0.93572E-03 -0.18181E-01
  0.10362E-02  0.68068E-03 -0.17202E-01
  0.17427E-02  0.12401E-02 -0.17202E-01
  0.23160E-02  0.59884E-03 -0.17202E-01
  0.16668E-02 -0.32719E-03 -0.17202E-01
  0.30373E-02  0.15391E-03 -0.17202E-01
  0.27839E-02 -0.66953E-03 -0.17202E-01
  0.12836E-02  0.18438E-02 -0.17202E-01
  0.64796E-03  0.14716E-02 -0.17202E-01
  0.12390E-03  0.31541E-03 -0.17202E-01
 -0.13082E-03  0.11917E-02 -0.17202E-01
  0.94036E-03  0.22766E-02 -0.17202E-01
  0.11279E-02  0.28225E-02 -0.17202E-01
  0.17435E-02  0.24258E-02 -0.17202E-01
  0.40512E-03  0.21690E-02 -0.17202E-01
  0.39755E-03  0.29330E-02 -0.17202E-01
 -0.76798E-03 -0.10053E-02 -0.17202E-01
 -0.86756E-03  0.90299E-04 -0.17202E-01
  0.45492E-03 -0.69302E-03 -0.17202E-01
 -0.18341E-02 -0.70999E-03 -0.17202E-01
 -0.18427E-02  0.84479E-04 -0.17202E-01
 -0.27234E-02 -0.77627E-03 -0.17202E-01
 -0.27990E-02  0.44540E-04 -0.17202E-01
 -0.25386E-02 -0.15188E-02 -0.17202E-01
 -0.19347E-02 -0.13215E-02 -0.17202E-01
 -0.99161E-03  0.10075E-02 -0.17202E-01
 -0.14429E-02 -0.17319E-02 -0.17202E-01
 -0.31294E-03  0.20260E-02 -0.17202E-01
 -0.11019E-02  0.18597E-02 -0.17202E-01
 -0.18838E-02  0.17175E-02 -0.17202E-01
 -0.18695E-02  0.91276E-03 -0.17202E-01
 -0.16256E-03 -0.19804E-02 -0.17202E-01
 -0.94927E-03 -0.23493E-02 -0.17202E-01
  0.77931E-03 -0.17073E-02 -0.17202E-01
  0.17205E-02 -0.14928E-02 -0.17202E-01
  0.32096E-02  0.77444E-03 -0.17202E-01
  0.28043E-02  0.12537E-02 -0.17202E-01
  0.23043E-02  0.18670E-02 -0.17202E-01
 -0.40420E-03  0.28888E-02 -0.17202E-01
 -0.12093E-02  0.27141E-02 -0.17202E-01
 -0.19443E-02  0.24611E-02 -0.17202E-01
 -0.25024E-02  0.22358E-02 -0.17202E-01
 -0.26358E-02  0.16503E-02 -0.17202E-01
 -0.27627E-02  0.87859E-03 -0.17202E-01
 -0.21143E-02 -0.21374E-02 -0.17202E-01
 -0.16093E-02 -0.26934E-02 -0.17202E-01
 -0.11955E-02 -0.31291E-02 -0.17202E-01
 -0.59130E-03 -0.30382E-02 -0.17202E-01
  0.20343E-03 -0.28750E-02 -0.17202E-01
  0.10543E-02 -0.26460E-02 -0.17202E-01
  0.18419E-02 -0.23736E-02 -0.17202E-01
  0.24561E-02 -0.21521E-02 -0.17202E-01
  0.26032E-02 -0.15090E-02 -0.17202E-01
  0.37964E-02  0.93572E-03 -0.17202E-01
  0.39100E-02  0.00000E+00 -0.17202E-01
  0.34621E-02  0.18171E-02 -0.17202E-01
  0.29267E-02  0.25928E-02 -0.17202E-01
  0.22211E-02  0.32179E-02 -0.17202E-01
  0.13865E-02  0.36559E-02 -0.17202E-01
  0.47130E-03  0.38815E-02 -0.17202E-01
 -0.47130E-03  0.38815E-02 -0.17202E-01
 -0.13865E-02  0.36559E-02 -0.17202E-01
 -0.22211E-02  0.32179E-02 -0.17202E-01
 -0.29267E-02  0.25928E-02 -0.17202E-01
 -0.34621E-02  0.18171E-02 -0.17202E-01
 -0.37964E-02  0.93572E-03 -0.17202E-01
 -0.39100E-02  0.22152E-17 -0.17202E-01
 -0.37964E-02 -0.93572E-03 -0.17202E-01
 -0.34621E-02 -0.18171E-02 -0.17202E-01
 -0.29267E-02 -0.25928E-02 -0.17202E-01
 -0.22211E-02 -0.32179E-02 -0.17202E-01
 -0.13865E-02 -0.36559E-02 -0.17202E-01
 -0.47130E-03 -0.38815E-02 -0.17202E-01
  0.47130E-03 -0.38815E-02 -0.17202E-01
  0.13865E-02 -0.36559E-02 -0.17202E-01
  0.22211E-02 -0.32179E-02 -0.17202E-01
  0.29267E-02 -0.25928E-02 -0.17202E-01
  0.34621E-02 -0.18171E-02 -0.17202E-01
  0.37964E-02 -0.93572E-03 -0.17202E-01
  0.10360E-02  0.68124E-03 -0.16222E-01
  0.17425E-02  0.12407E-02 -0.16222E-01
  0.23158E-02  0.59936E-03 -0.16222E-01
  0.16666E-02 -0.32643E-03 -0.16222E-01
  0.30373E-02  0.15427E-03 -0.16222E-01
  0.27842E-02 -0.66903E-03 -0.16222E-01
  0.12835E-02  0.18440E-02 -0.16222E-01
  0.64771E-03  0.14727E-02 -0.16222E-01
  0.12363E-03  0.31656E-03 -0.16222E-01
 -0.13100E-03  0.11935E-02 -0.16222E-01
  0.94003E-03  0.22767E-02 -0.16222E-01
  0.11276E-02  0.28220E-02 -0.16222E-01
  0.17432E-02  0.24260E-02 -0.16222E-01
  0.40507E-03  0.21690E-02 -0.16222E-01
  0.39754E-03  0.29327E-02 -0.16222E-01
 -0.76834E-03 -0.10054E-02 -0.16222E-01
 -0.86767E-03  0.91108E-04 -0.16222E-01
  0.45447E-03 -0.69229E-03 -0.16222E-01
 -0.18344E-02 -0.70985E-03 -0.16222E-01
 -0.18426E-02  0.84602E-04 -0.16222E-01
 -0.27234E-02 -0.77610E-03 -0.16222E-01
 -0.27987E-02  0.44813E-04 -0.16222E-01
 -0.25388E-02 -0.15187E-02 -0.16222E-01
 -0.19352E-02 -0.13215E-02 -0.16222E-01
 -0.99147E-03  0.10088E-02 -0.16222E-01
 -0.14433E-02 -0.17319E-02 -0.16222E-01
 -0.31274E-03  0.20262E-02 -0.16222E-01
 -0.11016E-02  0.18595E-02 -0.16222E-01
 -0.18838E-02  0.17175E-02 -0.16222E-01
 -0.18694E-02  0.91300E-03 -0.16222E-01
 -0.16284E-03 -0.19804E-02 -0.16222E-01
 -0.94986E-03 -0.23493E-02 -0.16222E-01
  0.77865E-03 -0.17073E-02 -0.16222E-01
  0.17205E-02 -0.14931E-02 -0.16222E-01
  0.32099E-02  0.77544E-03 -0.16222E-01
  0.28042E-02  0.12541E-02 -0.16222E-01
  0.23042E-02  0.18671E-02 -0.16222E-01
 -0.40407E-03  0.28877E-02 -0.16222E-01
 -0.12093E-02  0.27137E-02 -0.16222E-01
 -0.19442E-02  0.24609E-02 -0.16222E-01
 -0.25024E-02  0.22358E-02 -0.16222E-01
 -0.26358E-02  0.16503E-02 -0.16222E-01
 -0.27624E-02  0.87885E-03 -0.16222E-01
 -0.21144E-02 -0.21374E-02 -0.16222E-01
 -0.16094E-02 -0.26934E-02 -0.16222E-01
 -0.11956E-02 -0.31291E-02 -0.16222E-01
 -0.59165E-03 -0.30382E-02 -0.16222E-01
  0.20302E-03 -0.28750E-02 -0.16222E-01
  0.10540E-02 -0.26463E-02 -0.16222E-01
  0.18419E-02 -0.23738E-02 -0.16222E-01
  0.24563E-02 -0.21527E-02 -0.16222E-01
  0.26033E-02 -0.15088E-02 -0.16222E-01
  0.37964E-02  0.93572E-03 -0.16222E-01
  0.39100E-02  0.00000E+00 -0.16222E-01
  0.34621E-02  0.18171E-02 -0.16222E-01
  0.29267E-02  0.25928E-02 -0.16222E-01
  0.22211E-02  0.32179E-02 -0.16222E-01
  0.13865E-02  0.36559E-02 -0.16222E-01
  0.47130E-03  0.38815E-02 -0.16222E-01
 -0.47130E-03  0.38815E-02 -0.16222E-01
 -0.13865E-02  0.36559E-02 -0.16222E-01
 -0.22211E-02  0.32179E-02 -0.16222E-01
 -0.29267E-02  0.25928E-02 -0.16222E-01
 -0.34621E-02  0.18171E-02 -0.16222E-01
 -0.37964E-02  0.93572E-03 -0.16222E-01
 -0.39100E-02 -0.47884E-18 -0.16222E-01
 -0.37964E-02 -0.93572E-03 -0.16222E-01
 -0.34621E-02 -0.18171E-02 -0.16222E-01
 -0.29267E-02 -0.25928E-02 -0.16222E-01
 -0.22211E-02 -0.32179E-02 -0.16222E-01
 -0.13865E-02 -0.36559E-02 -0.16222E-01
 -0.47130E-03 -0.38815E-02 -0.16222E-01
  0.47130E-03 -0.38815E-02 -0.16222E-01
  0.13865E-02 -0.36559E-02 -0.16222E-01
  0.22211E-02 -0.32179E-02 -0.16222E-01
  0.29267E-02 -0.25928E-02 -0.16222E-01
  0.34621E-02 -0.18171E-02 -0.16222E-01
  0.37964E-02 -0.93572E-03 -0.16222E-01
  0.10359E-02  0.68179E-03 -0.15243E-01
  0.17423E-02  0.12414E-02 -0.15243E-01
  0.23157E-02  0.59988E-03 -0.15243E-01
  0.16664E-02 -0.32568E-03 -0.15243E-01
  0.30373E-02  0.15463E-03 -0.15243E-01
  0.27846E-02 -0.66854E-03 -0.15243E-01
  0.12834E-02  0.18442E-02 -0.15243E-01
  0.64747E-03  0.14736E-02 -0.15243E-01
  0.12337E-03  0.31770E-03 -0.15243E-01
 -0.13118E-03  0.11952E-02 -0.15243E-01
  0.93970E-03  0.22768E-02 -0.15243E-01
  0.11272E-02  0.28216E-02 -0.15243E-01
  0.17428E-02  0.24261E-02 -0.15243E-01
  0.40501E-03  0.21690E-02 -0.15243E-01
  0.39752E-03  0.29324E-02 -0.15243E-01
 -0.76869E-03 -0.10056E-02 -0.15243E-01
 -0.86778E-03  0.91918E-04 -0.15243E-01
  0.45402E-03 -0.69156E-03 -0.15243E-01
 -0.18347E-02 -0.70971E-03 -0.15243E-01
 -0.18425E-02  0.84726E-04 -0.15243E-01
 -0.27234E-02 -0.77593E-03 -0.15243E-01
 -0.27984E-02  0.45086E-04 -0.15243E-01
 -0.25389E-02 -0.15187E-02 -0.15243E-01
 -0.19356E-02 -0.13213E-02 -0.15243E-01
 -0.99133E-03  0.10102E-02 -0.15243E-01
 -0.14436E-02 -0.17318E-02 -0.15243E-01
 -0.31254E-03  0.20265E-02 -0.15243E-01
 -0.11013E-02  0.18594E-02 -0.15243E-01
 -0.18837E-02  0.17175E-02 -0.15243E-01
 -0.18692E-02  0.91324E-03 -0.15243E-01
 -0.16311E-03 -0.19804E-02 -0.15243E-01
 -0.95046E-03 -0.23493E-02 -0.15243E-01
  0.77799E-03 -0.17073E-02 -0.15243E-01
  0.17204E-02 -0.14933E-02 -0.15243E-01
  0.32102E-02  0.77645E-03 -0.15243E-01
  0.28042E-02  0.12545E-02 -0.15243E-01
  0.23041E-02  0.18671E-02 -0.15243E-01
 -0.40393E-03  0.28867E-02 -0.15243E-01
 -0.12093E-02  0.27132E-02 -0.15243E-01
 -0.19442E-02  0.24606E-02 -0.15243E-01
 -0.25024E-02  0.22358E-02 -0.15243E-01
 -0.26357E-02  0.16503E-02 -0.15243E-01
 -0.27621E-02  0.87912E-03 -0.15243E-01
 -0.21146E-02 -0.21374E-02 -0.15243E-01
 -0.16094E-02 -0.26935E-02 -0.15243E-01
 -0.11957E-02 -0.31291E-02 -0.15243E-01
 -0.59200E-03 -0.30381E-02 -0.15243E-01
  0.20262E-03 -0.28750E-02 -0.15243E-01
  0.10536E-02 -0.26466E-02 -0.15243E-01
  0.18420E-02 -0.23740E-02 -0.15243E-01
  0.24564E-02 -0.21533E-02 -0.15243E-01
  0.26033E-02 -0.15087E-02 -0.15243E-01
  0.37964E-02  0.93572E-03 -0.15243E-01
  0.39100E-02  0.00000E+00 -0.15243E-01
  0.34621E-02  0.18171E-02 -0.15243E-01
  0.29267E-02  0.25928E-02 -0.15243E-01
  0.22211E-02  0.32179E-02 -0.15243E-01
  0.13865E-02  0.36559E-02 -0.15243E-01
  0.47130E-03  0.38815E-02 -0.15243E-01
 -0.47130E-03  0.38815E-02 -0.15243E-01
 -0.13865E-02  0.36559E-02 -0.15243E-01
 -0.22211E-02  0.32179E-02 -0.15243E-01
 -0.29267E-02  0.25928E-02 -0.15243E-01
 -0.34621E-02  0.18171E-02 -0.15243E-01
 -0.37964E-02  0.93572E-03 -0.15243E-01
 -0.39100E-02 -0.47884E-18 -0.15243E-01
 -0.37964E-02 -0.93572E-03 -0.15243E-01
 -0.34621E-02 -0.18171E-02 -0.15243E-01
 -0.29267E-02 -0.25928E-02 -0.15243E-01
 -0.22211E-02 -0.32179E-02 -0.15243E-01
 -0.13865E-02 -0.36559E-02 -0.15243E-01
 -0.47130E-03 -0.38815E-02 -0.15243E-01
  0.47130E-03 -0.38815E-02 -0.15243E-01
  0.13865E-02 -0.36559E-02 -0.15243E-01
  0.22211E-02 -0.32179E-02 -0.15243E-01
  0.29267E-02 -0.25928E-02 -0.15243E-01
  0.34621E-02 -0.18171E-02 -0.15243E-01
  0.37964E-02 -0.93572E-03 -0.15243E-01
  0.10358E-02  0.68235E-03 -0.14264E-01
  0.17422E-02  0.12421E-02 -0.14264E-01
  0.23156E-02  0.60041E-03 -0.14264E-01
  0.16662E-02 -0.32493E-03 -0.14264E-01
  0.30373E-02  0.15500E-03 -0.14264E-01
  0.27849E-02 -0.66805E-03 -0.14264E-01
  0.12833E-02  0.18444E-02 -0.14264E-01
  0.64722E-03  0.14747E-02 -0.14264E-01
  0.12311E-03  0.31885E-03 -0.14264E-01
 -0.13137E-03  0.11970E-02 -0.14264E-01
  0.93937E-03  0.22770E-02 -0.14264E-01
  0.11269E-02  0.28211E-02 -0.14264E-01
  0.17424E-02  0.24262E-02 -0.14264E-01
  0.40496E-03  0.21691E-02 -0.14264E-01
  0.39750E-03  0.29322E-02 -0.14264E-01
 -0.76904E-03 -0.10057E-02 -0.14264E-01
 -0.86789E-03  0.92727E-04 -0.14264E-01
  0.45358E-03 -0.69084E-03 -0.14264E-01
 -0.18350E-02 -0.70957E-03 -0.14264E-01
 -0.18424E-02  0.84849E-04 -0.14264E-01
 -0.27233E-02 -0.77576E-03 -0.14264E-01
 -0.27981E-02  0.45359E-04 -0.14264E-01
 -0.25391E-02 -0.15186E-02 -0.14264E-01
 -0.19360E-02 -0.13212E-02 -0.14264E-01
 -0.99118E-03  0.10115E-02 -0.14264E-01
 -0.14440E-02 -0.17318E-02 -0.14264E-01
 -0.31234E-03  0.20268E-02 -0.14264E-01
 -0.11009E-02  0.18593E-02 -0.14264E-01
 -0.18836E-02  0.17175E-02 -0.14264E-01
 -0.18691E-02  0.91347E-03 -0.14264E-01
 -0.16339E-03 -0.19804E-02 -0.14264E-01
 -0.95106E-03 -0.23493E-02 -0.14264E-01
  0.77733E-03 -0.17073E-02 -0.14264E-01
  0.17204E-02 -0.14936E-02 -0.14264E-01
  0.32105E-02  0.77745E-03 -0.14264E-01
  0.28042E-02  0.12550E-02 -0.14264E-01
  0.23040E-02  0.18671E-02 -0.14264E-01
 -0.40379E-03  0.28856E-02 -0.14264E-01
 -0.12093E-02  0.27127E-02 -0.14264E-01
 -0.19441E-02  0.24604E-02 -0.14264E-01
 -0.25023E-02  0.22358E-02 -0.14264E-01
 -0.26356E-02  0.16503E-02 -0.14264E-01
 -0.27618E-02  0.87938E-03 -0.14264E-01
 -0.21147E-02 -0.21374E-02 -0.14264E-01
 -0.16094E-02 -0.26935E-02 -0.14264E-01
 -0.11958E-02 -0.31291E-02 -0.14264E-01
 -0.59235E-03 -0.30381E-02 -0.14264E-01
  0.20221E-03 -0.28750E-02 -0.14264E-01
  0.10533E-02 -0.26468E-02 -0.14264E-01
  0.18420E-02 -0.23742E-02 -0.14264E-01
  0.24565E-02 -0.21538E-02 -0.14264E-01
  0.26034E-02 -0.15086E-02 -0.14264E-01
  0.37964E-02  0.93572E-03 -0.14264E-01
  0.39100E-02  0.00000E+00 -0.14264E-01
  0.34621E-02  0.18171E-02 -0.14264E-01
  0.29267E-02  0.25928E-02 -0.14264E-01
  0.22211E-02  0.32179E-02 -0.14264E-01
  0.13865E-02  0.36559E-02 -0.14264E-01
  0.47130E-03  0.38815E-02 -0.14264E-01
 -0.47130E-03  0.38815E-02 -0.14264E-01
 -0.13865E-02  0.36559E-02 -0.14264E-01
 -0.22211E-02  0.32179E-02 -0.14264E-01
 -0.29267E-02  0.25928E-02 -0.14264E-01
 -0.34621E-02  0.18171E-02 -0.14264E-01
 -0.37964E-02  0.93572E-03 -0.14264E-01
 -0.39100E-02 -0.47884E-18 -0.14264E-01
 -0.37964E-02 -0.93572E-03 -0.14264E-01
 -0.34621E-02 -0.18171E-02 -0.14264E-01
 -0.29267E-02 -0.25928E-02 -0.14264E-01
 -0.22211E-02 -0.32179E-02 -0.14264E-01
 -0.13865E-02 -0.36559E-02 -0.14264E-01
 -0.47130E-03 -0.38815E-02 -0.14264E-01
  0.47130E-03 -0.38815E-02 -0.14264E-01
  0.13865E-02 -0.36559E-02 -0.14264E-01
  0.22211E-02 -0.32179E-02 -0.14264E-01
  0.29267E-02 -0.25928E-02 -0.14264E-01
  0.34621E-02 -0.18171E-02 -0.14264E-01
  0.37964E-02 -0.93572E-03 -0.14264E-01
  0.10357E-02  0.68290E-03 -0.13285E-01
  0.17420E-02  0.12427E-02 -0.13285E-01
  0.23155E-02  0.60093E-03 -0.13285E-01
  0.16660E-02 -0.32417E-03 -0.13285E-01
  0.30372E-02  0.15536E-03 -0.13285E-01
  0.27853E-02 -0.66755E-03 -0.13285E-01
  0.12832E-02  0.18445E-02 -0.13285E-01
  0.64698E-03  0.14757E-02 -0.13285E-01
  0.12285E-03  0.32000E-03 -0.13285E-01
 -0.13155E-03  0.11987E-02 -0.13285E-01
  0.93903E-03  0.22771E-02 -0.13285E-01
  0.11266E-02  0.28207E-02 -0.13285E-01
  0.17420E-02  0.24264E-02 -0.13285E-01
  0.40490E-03  0.21691E-02 -0.13285E-01
  0.39749E-03  0.29319E-02 -0.13285E-01
 -0.76940E-03 -0.10058E-02 -0.13285E-01
 -0.86800E-03  0.93536E-04 -0.13285E-01
  0.45313E-03 -0.69011E-03 -0.13285E-01
 -0.18353E-02 -0.70943E-03 -0.13285E-01
 -0.18423E-02  0.84973E-04 -0.13285E-01
 -0.27233E-02 -0.77559E-03 -0.13285E-01
 -0.27979E-02  0.45633E-04 -0.13285E-01
 -0.25393E-02 -0.15186E-02 -0.13285E-01
 -0.19365E-02 -0.13212E-02 -0.13285E-01
 -0.99104E-03  0.10129E-02 -0.13285E-01
 -0.14443E-02 -0.17318E-02 -0.13285E-01
 -0.31214E-03  0.20271E-02 -0.13285E-01
 -0.11006E-02  0.18592E-02 -0.13285E-01
 -0.18836E-02  0.17175E-02 -0.13285E-01
 -0.18690E-02  0.91371E-03 -0.13285E-01
 -0.16366E-03 -0.19805E-02 -0.13285E-01
 -0.95166E-03 -0.23493E-02 -0.13285E-01
  0.77667E-03 -0.17073E-02 -0.13285E-01
  0.17203E-02 -0.14938E-02 -0.13285E-01
  0.32109E-02  0.77846E-03 -0.13285E-01
  0.28042E-02  0.12554E-02 -0.13285E-01
  0.23039E-02  0.18672E-02 -0.13285E-01
 -0.40365E-03  0.28845E-02 -0.13285E-01
 -0.12093E-02  0.27122E-02 -0.13285E-01
 -0.19441E-02  0.24602E-02 -0.13285E-01
 -0.25023E-02  0.22358E-02 -0.13285E-01
 -0.26355E-02  0.16502E-02 -0.13285E-01
 -0.27615E-02  0.87964E-03 -0.13285E-01
 -0.21148E-02 -0.21374E-02 -0.13285E-01
 -0.16095E-02 -0.26935E-02 -0.13285E-01
 -0.11960E-02 -0.31291E-02 -0.13285E-01
 -0.59270E-03 -0.30381E-02 -0.13285E-01
  0.20180E-03 -0.28750E-02 -0.13285E-01
  0.10530E-02 -0.26471E-02 -0.13285E-01
  0.18421E-02 -0.23744E-02 -0.13285E-01
  0.24566E-02 -0.21543E-02 -0.13285E-01
  0.26035E-02 -0.15085E-02 -0.13285E-01
  0.37964E-02  0.93572E-03 -0.13285E-01
  0.39100E-02  0.00000E+00 -0.13285E-01
  0.34621E-02  0.18171E-02 -0.13285E-01
  0.29267E-02  0.25928E-02 -0.13285E-01
  0.22211E-02  0.32179E-02 -0.13285E-01
  0.13865E-02  0.36559E-02 -0.13285E-01
  0.47130E-03  0.38815E-02 -0.13285E-01
 -0.47130E-03  0.38815E-02 -0.13285E-01
 -0.13865E-02  0.36559E-02 -0.13285E-01
 -0.22211E-02  0.32179E-02 -0.13285E-01
 -0.29267E-02  0.25928E-02 -0.13285E-01
 -0.34621E-02  0.18171E-02 -0.13285E-01
 -0.37964E-02  0.93572E-03 -0.13285E-01
 -0.39100E-02 -0.47884E-18 -0.13285E-01
 -0.37964E-02 -0.93572E-03 -0.13285E-01
 -0.34621E-02 -0.18171E-02 -0.13285E-01
 -0.29267E-02 -0.25928E-02 -0.13285E-01
 -0.22211E-02 -0.32179E-02 -0.13285E-01
 -0.13865E-02 -0.36559E-02 -0.13285E-01
 -0.47130E-03 -0.38815E-02 -0.13285E-01
  0.47130E-03 -0.38815E-02 -0.13285E-01
  0.13865E-02 -0.36559E-02 -0.13285E-01
  0.22211E-02 -0.32179E-02 -0.13285E-01
  0.29267E-02 -0.25928E-02 -0.13285E-01
  0.34621E-02 -0.18171E-02 -0.13285E-01
  0.37964E-02 -0.93572E-03 -0.13285E-01
  0.10356E-02  0.68346E-03 -0.12306E-01
  0.17418E-02  0.12434E-02 -0.12306E-01
  0.23153E-02  0.60145E-03 -0.12306E-01
  0.16657E-02 -0.32342E-03 -0.12306E-01
  0.30372E-02  0.15572E-03 -0.12306E-01
  0.27856E-02 -0.66706E-03 -0.12306E-01
  0.12830E-02  0.18447E-02 -0.12306E-01
  0.64673E-03  0.14767E-02 -0.12306E-01
  0.12259E-03  0.32115E-03 -0.12306E-01
 -0.13174E-03  0.12005E-02 -0.12306E-01
  0.93870E-03  0.22772E-02 -0.12306E-01
  0.11262E-02  0.28203E-02 -0.12306E-01
  0.17416E-02  0.24265E-02 -0.12306E-01
  0.40485E-03  0.21691E-02 -0.12306E-01
  0.39747E-03  0.29316E-02 -0.12306E-01
 -0.76975E-03 -0.10060E-02 -0.12306E-01
 -0.86811E-03  0.94345E-04 -0.12306E-01
  0.45268E-03 -0.68939E-03 -0.12306E-01
 -0.18356E-02 -0.70929E-03 -0.12306E-01
 -0.18422E-02  0.85096E-04 -0.12306E-01
 -0.27233E-02 -0.77542E-03 -0.12306E-01
 -0.27976E-02  0.45906E-04 -0.12306E-01
 -0.25394E-02 -0.15185E-02 -0.12306E-01
 -0.19369E-02 -0.13211E-02 -0.12306E-01
 -0.99090E-03  0.10142E-02 -0.12306E-01
 -0.14446E-02 -0.17317E-02 -0.12306E-01
 -0.31194E-03  0.20274E-02 -0.12306E-01
 -0.11002E-02  0.18590E-02 -0.12306E-01
 -0.18835E-02  0.17175E-02 -0.12306E-01
 -0.18689E-02  0.91395E-03 -0.12306E-01
 -0.16394E-03 -0.19805E-02 -0.12306E-01
 -0.95226E-03 -0.23494E-02 -0.12306E-01
  0.77601E-03 -0.17073E-02 -0.12306E-01
  0.17203E-02 -0.14941E-02 -0.12306E-01
  0.32112E-02  0.77946E-03 -0.12306E-01
  0.28042E-02  0.12558E-02 -0.12306E-01
  0.23038E-02  0.18672E-02 -0.12306E-01
 -0.40352E-03  0.28835E-02 -0.12306E-01
 -0.12093E-02  0.27118E-02 -0.12306E-01
 -0.19441E-02  0.24600E-02 -0.12306E-01
 -0.25023E-02  0.22358E-02 -0.12306E-01
 -0.26354E-02  0.16502E-02 -0.12306E-01
 -0.27612E-02  0.87990E-03 -0.12306E-01
 -0.21150E-02 -0.21374E-02 -0.12306E-01
 -0.16095E-02 -0.26935E-02 -0.12306E-01
 -0.11961E-02 -0.31291E-02 -0.12306E-01
 -0.59305E-03 -0.30381E-02 -0.12306E-01
  0.20140E-03 -0.28750E-02 -0.12306E-01
  0.10527E-02 -0.26474E-02 -0.12306E-01
  0.18421E-02 -0.23746E-02 -0.12306E-01
  0.24568E-02 -0.21549E-02 -0.12306E-01
  0.26036E-02 -0.15084E-02 -0.12306E-01
  0.37964E-02  0.93572E-03 -0.12306E-01
  0.39100E-02  0.00000E+00 -0.12306E-01
  0.34621E-02  0.18171E-02 -0.12306E-01
  0.29267E-02  0.25928E-02 -0.12306E-01
  0.22211E-02  0.32179E-02 -0.12306E-01
  0.13865E-02  0.36559E-02 -0.12306E-01
  0.47130E-03  0.38815E-02 -0.12306E-01
 -0.47130E-03  0.38815E-02 -0.12306E-01
 -0.13865E-02  0.36559E-02 -0.12306E-01
 -0.22211E-02  0.32179E-02 -0.12306E-01
 -0.29267E-02  0.25928E-02 -0.12306E-01
 -0.34621E-02  0.18171E-02 -0.12306E-01
 -0.37964E-02  0.93572E-03 -0.12306E-01
 -0.39100E-02  0.22152E-17 -0.12306E-01
 -0.37964E-02 -0.93572E-03 -0.12306E-01
 -0.34621E-02 -0.18171E-02 -0.12306E-01
 -0.29267E-02 -0.25928E-02 -0.12306E-01
 -0.22211E-02 -0.32179E-02 -0.12306E-01
 -0.13865E-02 -0.36559E-02 -0.12306E-01
 -0.47130E-03 -0.38815E-02 -0.12306E-01
  0.47130E-03 -0.38815E-02 -0.12306E-01
  0.13865E-02 -0.36559E-02 -0.12306E-01
  0.22211E-02 -0.32179E-02 -0.12306E-01
  0.29267E-02 -0.25928E-02 -0.12306E-01
  0.34621E-02 -0.18171E-02 -0.12306E-01
  0.37964E-02 -0.93572E-03 -0.12306E-01
  0.10355E-02  0.68401E-03 -0.11327E-01
  0.17416E-02  0.12440E-02 -0.11327E-01
  0.23152E-02  0.60198E-03 -0.11327E-01
  0.16655E-02 -0.32266E-03 -0.11327E-01
  0.30372E-02  0.15609E-03 -0.11327E-01
  0.27860E-02 -0.66657E-03 -0.11327E-01
  0.12829E-02  0.18449E-02 -0.11327E-01
  0.64649E-03  0.14777E-02 -0.11327E-01
  0.12232E-03  0.32230E-03 -0.11327E-01
 -0.13193E-03  0.12022E-02 -0.11327E-01
  0.93837E-03  0.22774E-02 -0.11327E-01
  0.11259E-02  0.28198E-02 -0.11327E-01
  0.17412E-02  0.24267E-02 -0.11327E-01
  0.40480E-03  0.21692E-02 -0.11327E-01
  0.39745E-03  0.29314E-02 -0.11327E-01
 -0.77011E-03 -0.10061E-02 -0.11327E-01
 -0.86822E-03  0.95155E-04 -0.11327E-01
  0.45223E-03 -0.68866E-03 -0.11327E-01
 -0.18359E-02 -0.70915E-03 -0.11327E-01
 -0.18421E-02  0.85220E-04 -0.11327E-01
 -0.27232E-02 -0.77525E-03 -0.11327E-01
 -0.27973E-02  0.46180E-04 -0.11327E-01
 -0.25396E-02 -0.15185E-02 -0.11327E-01
 -0.19373E-02 -0.13210E-02 -0.11327E-01
 -0.99075E-03  0.10156E-02 -0.11327E-01
 -0.14450E-02 -0.17317E-02 -0.11327E-01
 -0.31173E-03  0.20277E-02 -0.11327E-01
 -0.10999E-02  0.18589E-02 -0.11327E-01
 -0.18835E-02  0.17175E-02 -0.11327E-01
 -0.18687E-02  0.91419E-03 -0.11327E-01
 -0.16421E-03 -0.19805E-02 -0.11327E-01
 -0.95285E-03 -0.23494E-02 -0.11327E-01
  0.77535E-03 -0.17073E-02 -0.11327E-01
  0.17202E-02 -0.14943E-02 -0.11327E-01
  0.32115E-02  0.78047E-03 -0.11327E-01
  0.28041E-02  0.12563E-02 -0.11327E-01
  0.23037E-02  0.18672E-02 -0.11327E-01
 -0.40338E-03  0.28824E-02 -0.11327E-01
 -0.12093E-02  0.27113E-02 -0.11327E-01
 -0.19440E-02  0.24597E-02 -0.11327E-01
 -0.25023E-02  0.22358E-02 -0.11327E-01
 -0.26353E-02  0.16502E-02 -0.11327E-01
 -0.27609E-02  0.88016E-03 -0.11327E-01
 -0.21151E-02 -0.21374E-02 -0.11327E-01
 -0.16096E-02 -0.26935E-02 -0.11327E-01
 -0.11962E-02 -0.31291E-02 -0.11327E-01
 -0.59340E-03 -0.30381E-02 -0.11327E-01
  0.20099E-03 -0.28751E-02 -0.11327E-01
  0.10524E-02 -0.26476E-02 -0.11327E-01
  0.18422E-02 -0.23748E-02 -0.11327E-01
  0.24569E-02 -0.21554E-02 -0.11327E-01
  0.26036E-02 -0.15083E-02 -0.11327E-01
  0.37964E-02  0.93572E-03 -0.11327E-01
  0.39100E-02  0.00000E+00 -0.11327E-01
  0.34621E-02  0.18171E-02 -0.11327E-01
  0.29267E-02  0.25928E-02 -0.11327E-01
  0.22211E-02  0.32179E-02 -0.11327E-01
  0.13865E-02  0.36559E-02 -0.11327E-01
  0.47130E-03  0.38815E-02 -0.11327E-01
 -0.47130E-03  0.38815E-02 -0.11327E-01
 -0.13865E-02  0.36559E-02 -0.11327E-01
 -0.22211E-02  0.32179E-02 -0.11327E-01
 -0.29267E-02  0.25928E-02 -0.11327E-01
 -0.34621E-02  0.18171E-02 -0.11327E-01
 -0.37964E-02  0.93572E-03 -0.11327E-01
 -0.39100E-02 -0.47884E-18 -0.11327E-01
 -0.37964E-02 -0.93572E-03 -0.11327E-01
 -0.34621E-02 -0.18171E-02 -0.11327E-01
 -0.29267E-02 -0.25928E-02 -0.11327E-01
 -0.22211E-02 -0.32179E-02 -0.11327E-01
 -0.13865E-02 -0.36559E-02 -0.11327E-01
 -0.47130E-03 -0.38815E-02 -0.11327E-01
  0.47130E-03 -0.38815E-02 -0.11327E-01
  0.13865E-02 -0.36559E-02 -0.11327E-01
  0.22211E-02 -0.32179E-02 -0.11327E-01
  0.29267E-02 -0.25928E-02 -0.11327E-01
  0.34621E-02 -0.18171E-02 -0.11327E-01
  0.37964E-02 -0.93572E-03 -0.11327E-01
  0.10354E-02  0.68457E-03 -0.10347E-01
  0.17414E-02  0.12447E-02 -0.10347E-01
  0.23151E-02  0.60250E-03 -0.10347E-01
  0.16653E-02 -0.32191E-03 -0.10347E-01
  0.30372E-02  0.15645E-03 -0.10347E-01
  0.27863E-02 -0.66607E-03 -0.10347E-01
  0.12829E-02  0.18451E-02 -0.10347E-01
  0.64624E-03  0.14787E-02 -0.10347E-01
  0.12206E-03  0.32345E-03 -0.10347E-01
 -0.13211E-03  0.12040E-02 -0.10347E-01
  0.93804E-03  0.22775E-02 -0.10347E-01
  0.11255E-02  0.28194E-02 -0.10347E-01
  0.17408E-02  0.24268E-02 -0.10347E-01
  0.40474E-03  0.21692E-02 -0.10347E-01
  0.39744E-03  0.29311E-02 -0.10347E-01
 -0.77046E-03 -0.10062E-02 -0.10347E-01
 -0.86832E-03  0.95964E-04 -0.10347E-01
  0.45179E-03 -0.68793E-03 -0.10347E-01
 -0.18362E-02 -0.70901E-03 -0.10347E-01
 -0.18420E-02  0.85343E-04 -0.10347E-01
 -0.27232E-02 -0.77507E-03 -0.10347E-01
 -0.27970E-02  0.46453E-04 -0.10347E-01
 -0.25397E-02 -0.15184E-02 -0.10347E-01
 -0.19377E-02 -0.13209E-02 -0.10347E-01
 -0.99061E-03  0.10169E-02 -0.10347E-01
 -0.14453E-02 -0.17316E-02 -0.10347E-01
 -0.31153E-03  0.20280E-02 -0.10347E-01
 -0.10995E-02  0.18588E-02 -0.10347E-01
 -0.18834E-02  0.17175E-02 -0.10347E-01
 -0.18686E-02  0.91443E-03 -0.10347E-01
 -0.16449E-03 -0.19806E-02 -0.10347E-01
 -0.95345E-03 -0.23494E-02 -0.10347E-01
  0.77469E-03 -0.17073E-02 -0.10347E-01
  0.17202E-02 -0.14945E-02 -0.10347E-01
  0.32119E-02  0.78148E-03 -0.10347E-01
  0.28041E-02  0.12567E-02 -0.10347E-01
  0.23036E-02  0.18673E-02 -0.10347E-01
 -0.40324E-03  0.28813E-02 -0.10347E-01
 -0.12093E-02  0.27108E-02 -0.10347E-01
 -0.19440E-02  0.24595E-02 -0.10347E-01
 -0.25022E-02  0.22358E-02 -0.10347E-01
 -0.26352E-02  0.16502E-02 -0.10347E-01
 -0.27606E-02  0.88043E-03 -0.10347E-01
 -0.21152E-02 -0.21374E-02 -0.10347E-01
 -0.16096E-02 -0.26936E-02 -0.10347E-01
 -0.11963E-02 -0.31291E-02 -0.10347E-01
 -0.59375E-03 -0.30381E-02 -0.10347E-01
  0.20059E-03 -0.28751E-02 -0.10347E-01
  0.10521E-02 -0.26479E-02 -0.10347E-01
  0.18422E-02 -0.23750E-02 -0.10347E-01
  0.24570E-02 -0.21560E-02 -0.10347E-01
  0.26037E-02 -0.15082E-02 -0.10347E-01
  0.37964E-02  0.93572E-03 -0.10347E-01
  0.39100E-02  0.00000E+00 -0.10347E-01
  0.34621E-02  0.18171E-02 -0.10347E-01
  0.29267E-02  0.25928E-02 -0.10347E-01
  0.22211E-02  0.32179E-02 -0.10347E-01
  0.13865E-02  0.36559E-02 -0.10347E-01
  0.47130E-03  0.38815E-02 -0.10347E-01
 -0.47130E-03  0.38815E-02 -0.10347E-01
 -0.13865E-02  0.36559E-02 -0.10347E-01
 -0.22211E-02  0.32179E-02 -0.10347E-01
 -0.29267E-02  0.25928E-02 -0.10347E-01
 -0.34621E-02  0.18171E-02 -0.10347E-01
 -0.37964E-02  0.93572E-03 -0.10347E-01
 -0.39100E-02 -0.47884E-18 -0.10347E-01
 -0.37964E-02 -0.93572E-03 -0.10347E-01
 -0.34621E-02 -0.18171E-02 -0.10347E-01
 -0.29267E-02 -0.25928E-02 -0.10347E-01
 -0.22211E-02 -0.32179E-02 -0.10347E-01
 -0.13865E-02 -0.36559E-02 -0.10347E-01
 -0.47130E-03 -0.38815E-02 -0.10347E-01
  0.47130E-03 -0.38815E-02 -0.10347E-01
  0.13865E-02 -0.36559E-02 -0.10347E-01
  0.22211E-02 -0.32179E-02 -0.10347E-01
  0.29267E-02 -0.25928E-02 -0.10347E-01
  0.34621E-02 -0.18171E-02 -0.10347E-01
  0.37964E-02 -0.93572E-03 -0.10347E-01
  0.10352E-02  0.68512E-03 -0.93683E-02
  0.17413E-02  0.12454E-02 -0.93683E-02
  0.23150E-02  0.60302E-03 -0.93683E-02
  0.16651E-02 -0.32115E-03 -0.93683E-02
  0.30371E-02  0.15681E-03 -0.93683E-02
  0.27866E-02 -0.66558E-03 -0.93683E-02
  0.12827E-02  0.18453E-02 -0.93683E-02
  0.64600E-03  0.14797E-02 -0.93683E-02
  0.12180E-03  0.32459E-03 -0.93683E-02
 -0.13230E-03  0.12058E-02 -0.93683E-02
  0.93771E-03  0.22776E-02 -0.93683E-02
  0.11252E-02  0.28189E-02 -0.93683E-02
  0.17404E-02  0.24270E-02 -0.93683E-02
  0.40469E-03  0.21693E-02 -0.93683E-02
  0.39742E-03  0.29308E-02 -0.93683E-02
 -0.77081E-03 -0.10064E-02 -0.93683E-02
 -0.86843E-03  0.96773E-04 -0.93683E-02
  0.45134E-03 -0.68721E-03 -0.93683E-02
 -0.18365E-02 -0.70887E-03 -0.93683E-02
 -0.18419E-02  0.85467E-04 -0.93683E-02
 -0.27232E-02 -0.77490E-03 -0.93683E-02
 -0.27968E-02  0.46726E-04 -0.93683E-02
 -0.25399E-02 -0.15184E-02 -0.93683E-02
 -0.19382E-02 -0.13208E-02 -0.93683E-02
 -0.99046E-03  0.10183E-02 -0.93683E-02
 -0.14457E-02 -0.17316E-02 -0.93683E-02
 -0.31133E-03  0.20283E-02 -0.93683E-02
 -0.10992E-02  0.18586E-02 -0.93683E-02
 -0.18834E-02  0.17175E-02 -0.93683E-02
 -0.18685E-02  0.91467E-03 -0.93683E-02
 -0.16476E-03 -0.19806E-02 -0.93683E-02
 -0.95405E-03 -0.23494E-02 -0.93683E-02
  0.77402E-03 -0.17073E-02 -0.93683E-02
  0.17202E-02 -0.14948E-02 -0.93683E-02
  0.32122E-02  0.78248E-03 -0.93683E-02
  0.28041E-02  0.12571E-02 -0.93683E-02
  0.23034E-02  0.18673E-02 -0.93683E-02
 -0.40310E-03  0.28802E-02 -0.93683E-02
 -0.12093E-02  0.27103E-02 -0.93683E-02
 -0.19440E-02  0.24593E-02 -0.93683E-02
 -0.25022E-02  0.22358E-02 -0.93683E-02
 -0.26351E-02  0.16502E-02 -0.93683E-02
 -0.27602E-02  0.88069E-03 -0.93683E-02
 -0.21154E-02 -0.21374E-02 -0.93683E-02
 -0.16097E-02 -0.26936E-02 -0.93683E-02
 -0.11964E-02 -0.31291E-02 -0.93683E-02
 -0.59409E-03 -0.30381E-02 -0.93683E-02
  0.20018E-03 -0.28751E-02 -0.93683E-02
  0.10518E-02 -0.26482E-02 -0.93683E-02
  0.18422E-02 -0.23752E-02 -0.93683E-02
  0.24571E-02 -0.21565E-02 -0.93683E-02
  0.26038E-02 -0.15081E-02 -0.93683E-02
  0.37964E-02  0.93572E-03 -0.93683E-02
  0.39100E-02  0.00000E+00 -0.93683E-02
  0.34621E-02  0.18171E-02 -0.93683E-02
  0.29267E-02  0.25928E-02 -0.93683E-02
  0.22211E-02  0.32179E-02 -0.93683E-02
  0.13865E-02  0.36559E-02 -0.93683E-02
  0.47130E-03  0.38815E-02 -0.93683E-02
 -0.47130E-03  0.38815E-02 -0.93683E-02
 -0.13865E-02  0.36559E-02 -0.93683E-02
 -0.22211E-02  0.32179E-02 -0.93683E-02
 -0.29267E-02  0.25928E-02 -0.93683E-02
 -0.34621E-02  0.18171E-02 -0.93683E-02
 -0.37964E-02  0.93572E-03 -0.93683E-02
 -0.39100E-02 -0.47884E-18 -0.93683E-02
 -0.37964E-02 -0.93572E-03 -0.93683E-02
 -0.34621E-02 -0.18171E-02 -0.93683E-02
 -0.29267E-02 -0.25928E-02 -0.93683E-02
 -0.22211E-02 -0.32179E-02 -0.93683E-02
 -0.13865E-02 -0.36559E-02 -0.93683E-02
 -0.47130E-03 -0.38815E-02 -0.93683E-02
  0.47130E-03 -0.38815E-02 -0.93683E-02
  0.13865E-02 -0.36559E-02 -0.93683E-02
  0.22211E-02 -0.32179E-02 -0.93683E-02
  0.29267E-02 -0.25928E-02 -0.93683E-02
  0.34621E-02 -0.18171E-02 -0.93683E-02
  0.37964E-02 -0.93572E-03 -0.93683E-02
  0.10351E-02  0.68567E-03 -0.83891E-02
  0.17411E-02  0.12460E-02 -0.83891E-02
  0.23149E-02  0.60355E-03 -0.83891E-02
  0.16649E-02 -0.32040E-03 -0.83891E-02
  0.30371E-02  0.15718E-03 -0.83891E-02
  0.27870E-02 -0.66509E-03 -0.83891E-02
  0.12826E-02  0.18455E-02 -0.83891E-02
  0.64575E-03  0.14807E-02 -0.83891E-02
  0.12154E-03  0.32574E-03 -0.83891E-02
 -0.13248E-03  0.12075E-02 -0.83891E-02
  0.93738E-03  0.22777E-02 -0.83891E-02
  0.11249E-02  0.28185E-02 -0.83891E-02
  0.17400E-02  0.24271E-02 -0.83891E-02
  0.40463E-03  0.21693E-02 -0.83891E-02
  0.39740E-03  0.29306E-02 -0.83891E-02
 -0.77117E-03 -0.10065E-02 -0.83891E-02
 -0.86854E-03  0.97583E-04 -0.83891E-02
  0.45089E-03 -0.68648E-03 -0.83891E-02
 -0.18368E-02 -0.70873E-03 -0.83891E-02
 -0.18418E-02  0.85591E-04 -0.83891E-02
 -0.27232E-02 -0.77474E-03 -0.83891E-02
 -0.27965E-02  0.47000E-04 -0.83891E-02
 -0.25400E-02 -0.15183E-02 -0.83891E-02
 -0.19386E-02 -0.13207E-02 -0.83891E-02
 -0.99032E-03  0.10197E-02 -0.83891E-02
 -0.14460E-02 -0.17316E-02 -0.83891E-02
 -0.31113E-03  0.20285E-02 -0.83891E-02
 -0.10988E-02  0.18585E-02 -0.83891E-02
 -0.18833E-02  0.17175E-02 -0.83891E-02
 -0.18683E-02  0.91491E-03 -0.83891E-02
 -0.16504E-03 -0.19806E-02 -0.83891E-02
 -0.95465E-03 -0.23495E-02 -0.83891E-02
  0.77336E-03 -0.17073E-02 -0.83891E-02
  0.17201E-02 -0.14950E-02 -0.83891E-02
  0.32125E-02  0.78348E-03 -0.83891E-02
  0.28041E-02  0.12576E-02 -0.83891E-02
  0.23033E-02  0.18674E-02 -0.83891E-02
 -0.40296E-03  0.28792E-02 -0.83891E-02
 -0.12093E-02  0.27099E-02 -0.83891E-02
 -0.19439E-02  0.24591E-02 -0.83891E-02
 -0.25022E-02  0.22358E-02 -0.83891E-02
 -0.26350E-02  0.16502E-02 -0.83891E-02
 -0.27599E-02  0.88095E-03 -0.83891E-02
 -0.21155E-02 -0.21374E-02 -0.83891E-02
 -0.16097E-02 -0.26936E-02 -0.83891E-02
 -0.11965E-02 -0.31290E-02 -0.83891E-02
 -0.59444E-03 -0.30381E-02 -0.83891E-02
  0.19977E-03 -0.28751E-02 -0.83891E-02
  0.10515E-02 -0.26484E-02 -0.83891E-02
  0.18423E-02 -0.23754E-02 -0.83891E-02
  0.24573E-02 -0.21571E-02 -0.83891E-02
  0.26039E-02 -0.15080E-02 -0.83891E-02
  0.37964E-02  0.93572E-03 -0.83891E-02
  0.39100E-02  0.00000E+00 -0.83891E-02
  0.34621E-02  0.18171E-02 -0.83891E-02
  0.29267E-02  0.25928E-02 -0.83891E-02
  0.22211E-02  0.32179E-02 -0.83891E-02
  0.13865E-02  0.36559E-02 -0.83891E-02
  0.47130E-03  0.38815E-02 -0.83891E-02
 -0.47130E-03  0.38815E-02 -0.83891E-02
 -0.13865E-02  0.36559E-02 -0.83891E-02
 -0.22211E-02  0.32179E-02 -0.83891E-02
 -0.29267E-02  0.25928E-02 -0.83891E-02
 -0.34621E-02  0.18171E-02 -0.83891E-02
 -0.37964E-02  0.93572E-03 -0.83891E-02
 -0.39100E-02  0.47884E-18 -0.83891E-02
 -0.37964E-02 -0.93572E-03 -0.83891E-02
 -0.34621E-02 -0.18171E-02 -0.83891E-02
 -0.29267E-02 -0.25928E-02 -0.83891E-02
 -0.22211E-02 -0.32179E-02 -0.83891E-02
 -0.13865E-02 -0.36559E-02 -0.83891E-02
 -0.47130E-03 -0.38815E-02 -0.83891E-02
  0.47130E-03 -0.38815E-02 -0.83891E-02
  0.13865E-02 -0.36559E-02 -0.83891E-02
  0.22211E-02 -0.32179E-02 -0.83891E-02
  0.29267E-02 -0.25928E-02 -0.83891E-02
  0.34621E-02 -0.18171E-02 -0.83891E-02
  0.37964E-02 -0.93572E-03 -0.83891E-02
  
CELLS       3486               17724
       1       0
       1       1
       1       2
       1       3
       1       4
       1       5
       1       6
       1       7
       1       8
       1       9
       1      10
       1      11
       1      12
       1      13
       1      14
       1      15
       1      16
       1      17
       1      18
       1      19
       1      20
       1      21
       1      22
       1      23
       1      24
       1      25
       1      26
       1      27
       1      28
       1      29
       1      30
       1      31
       1      32
       1      33
       1      34
       1      35
       1      36
       1      37
       1      38
       1      39
       1      40
       1      41
       1      42
       1      43
       1      44
       1      45
       1      46
       1      47
       1      48
       1      49
       1      50
       1      51
       1      52
       1      53
       1      54
       1      55
       1      56
       1      57
       1      58
       1      59
       1      60
       1      61
       1      62
       1      63
       1      64
       1      65
       1      66
       1      67
       1      68
       1      69
       1      70
       1      71
       1      72
       1      73
       1      74
       1      75
       1      76
       1      77
       1      78
       1      79
       1      80
       1      81
       1      82
       1      83
       1      84
       1      85
       1      86
       1      87
       1      88
       1      89
       1      90
       1      91
       1      92
       1      93
       1      94
       1      95
       1      96
       1      97
       1      98
       1      99
       1     100
       1     101
       1     102
       1     103
       1     104
       1     105
       1     106
       1     107
       1     108
       1     109
       1     110
       1     111
       1     112
       1     113
       1     114
       1     115
       1     116
       1     117
       1     118
       1     119
       1     120
       1     121
       1     122
       1     123
       1     124
       1     125
       1     126
       1     127
       1     128
       1     129
       1     130
       1     131
       1     132
       1     133
       1     134
       1     135
       1     136
       1     137
       1     138
       1     139
       1     140
       1     141
       1     142
       1     143
       1     144
       1     145
       1     146
       1     147
       1     148
       1     149
       1     150
       1     151
       1     152
       1     153
       1     154
       1     155
       1     156
       1     157
       1     158
       1     159
       1     160
       1     161
       1     162
       1     163
       1     164
       1     165
       1     166
       1     167
       1     168
       1     169
       1     170
       1     171
       1     172
       1     173
       1     174
       1     175
       1     176
       1     177
       1     178
       1     179
       1     180
       1     181
       1     182
       1     183
       1     184
       1     185
       1     186
       1     187
       1     188
       1     189
       1     190
       1     191
       1     192
       1     193
       1     194
       1     195
       1     196
       1     197
       1     198
       1     199
       1     200
       1     201
       1     202
       1     203
       1     204
       1     205
       1     206
       1     207
       1     208
       1     209
       1     210
       1     211
       1     212
       1     213
       1     214
       1     215
       1     216
       1     217
       1     218
       1     219
       1     220
       1     221
       1     222
       1     223
       1     224
       1     225
       1     226
       1     227
       1     228
       1     229
       1     230
       1     231
       1     232
       1     233
       1     234
       1     235
       1     236
       1     237
       1     238
       1     239
       1     240
       1     241
       1     242
       1     243
       1     244
       1     245
       1     246
       1     247
       1     248
       1     249
       1     250
       1     251
       1     252
       1     253
       1     254
       1     255
       1     256
       1     257
       1     258
       1     259
       1     260
       1     261
       1     262
       1     263
       1     264
       1     265
       1     266
       1     267
       1     268
       1     269
       1     270
       1     271
       1     272
       1     273
       1     274
       1     275
       1     276
       1     277
       1     278
       1     279
       1     280
       1     281
       1     282
       1     283
       1     284
       1     285
       1     286
       1     287
       1     288
       1     289
       1     290
       1     291
       1     292
       1     293
       1     294
       1     295
       1     296
       1     297
       1     298
       1     299
       1     300
       1     301
       1     302
       1     303
       1     304
       1     305
       1     306
       1     307
       1     308
       1     309
       1     310
       1     311
       1     312
       1     313
       1     314
       1     315
       1     316
       1     317
       1     318
       1     319
       1     320
       1     321
       1     322
       1     323
       1     324
       1     325
       1     326
       1     327
       1     328
       1     329
       1     330
       1     331
       1     332
       1     333
       1     334
       1     335
       1     336
       1     337
       1     338
       1     339
       1     340
       1     341
       1     342
       1     343
       1     344
       1     345
       1     346
       1     347
       1     348
       1     349
       1     350
       1     351
       1     352
       1     353
       1     354
       1     355
       1     356
       1     357
       1     358
       1     359
       1     360
       1     361
       1     362
       1     363
       1     364
       1     365
       1     366
       1     367
       1     368
       1     369
       1     370
       1     371
       1     372
       1     373
       1     374
       1     375
       1     376
       1     377
       1     378
       1     379
       1     380
       1     381
       1     382
       1     383
       1     384
       1     385
       1     386
       1     387
       1     388
       1     389
       1     390
       1     391
       1     392
       1     393
       1     394
       1     395
       1     396
       1     397
       1     398
       1     399
       1     400
       1     401
       1     402
       1     403
       1     404
       1     405
       1     406
       1     407
       1     408
       1     409
       1     410
       1     411
       1     412
       1     413
       1     414
       1     415
       1     416
       1     417
       1     418
       1     419
       1     420
       1     421
       1     422
       1     423
       1     424
       1     425
       1     426
       1     427
       1     428
       1     429
       1     430
       1     431
       1     432
       1     433
       1     434
       1     435
       1     436
       1     437
       1     438
       1     439
       1     440
       1     441
       1     442
       1     443
       1     444
       1     445
       1     446
       1     447
       1     448
       1     449
       1     450
       1     451
       1     452
       1     453
       1     454
       1     455
       1     456
       1     457
       1     458
       1     459
       1     460
       1     461
       1     462
       1     463
       1     464
       1     465
       1     466
       1     467
       1     468
       1     469
       1     470
       1     471
       1     472
       1     473
       1     474
       1     475
       1     476
       1     477
       1     478
       1     479
       1     480
       1     481
       1     482
       1     483
       1     484
       1     485
       1     486
       1     487
       1     488
       1     489
       1     490
       1     491
       1     492
       1     493
       1     494
       1     495
       1     496
       1     497
       1     498
       1     499
       1     500
       1     501
       1     502
       1     503
       1     504
       1     505
       1     506
       1     507
       1     508
       1     509
       1     510
       1     511
       1     512
       1     513
       1     514
       1     515
       1     516
       1     517
       1     518
       1     519
       1     520
       1     521
       1     522
       1     523
       1     524
       1     525
       1     526
       1     527
       1     528
       1     529
       1     530
       1     531
       1     532
       1     533
       1     534
       1     535
       1     536
       1     537
       1     538
       1     539
       1     540
       1     541
       1     542
       1     543
       1     544
       1     545
       1     546
       1     547
       1     548
       1     549
       1     550
       1     551
       1     552
       1     553
       1     554
       1     555
       1     556
       1     557
       1     558
       1     559
       1     560
       1     561
       1     562
       1     563
       1     564
       1     565
       1     566
       1     567
       1     568
       1     569
       1     570
       1     571
       1     572
       1     573
       1     574
       1     575
       1     576
       1     577
       1     578
       1     579
       1     580
       1     581
       1     582
       1     583
       1     584
       1     585
       1     586
       1     587
       1     588
       1     589
       1     590
       1     591
       1     592
       1     593
       1     594
       1     595
       1     596
       1     597
       1     598
       1     599
       1     600
       1     601
       1     602
       1     603
       1     604
       1     605
       1     606
       1     607
       1     608
       1     609
       1     610
       1     611
       1     612
       1     613
       1     614
       1     615
       1     616
       1     617
       1     618
       1     619
       1     620
       1     621
       1     622
       1     623
       1     624
       1     625
       1     626
       1     627
       1     628
       1     629
       1     630
       1     631
       1     632
       1     633
       1     634
       1     635
       1     636
       1     637
       1     638
       1     639
       1     640
       1     641
       1     642
       1     643
       1     644
       1     645
       1     646
       1     647
       1     648
       1     649
       1     650
       1     651
       1     652
       1     653
       1     654
       1     655
       1     656
       1     657
       1     658
       1     659
       1     660
       1     661
       1     662
       1     663
       1     664
       1     665
       1     666
       1     667
       1     668
       1     669
       1     670
       1     671
       1     672
       1     673
       1     674
       1     675
       1     676
       1     677
       1     678
       1     679
       1     680
       1     681
       1     682
       1     683
       1     684
       1     685
       1     686
       1     687
       1     688
       1     689
       1     690
       1     691
       1     692
       1     693
       1     694
       1     695
       1     696
       1     697
       1     698
       1     699
       1     700
       1     701
       1     702
       1     703
       1     704
       1     705
       1     706
       1     707
       1     708
       1     709
       1     710
       1     711
       1     712
       1     713
       1     714
       1     715
       1     716
       1     717
       1     718
       1     719
       1     720
       1     721
       1     722
       1     723
       1     724
       1     725
       1     726
       1     727
       1     728
       1     729
       1     730
       1     731
       1     732
       1     733
       1     734
       1     735
       1     736
       1     737
       1     738
       1     739
       1     740
       1     741
       1     742
       1     743
       1     744
       1     745
       1     746
       1     747
       1     748
       1     749
       1     750
       1     751
       1     752
       1     753
       1     754
       1     755
       1     756
       1     757
       1     758
       1     759
       1     760
       1     761
       1     762
       1     763
       1     764
       1     765
       1     766
       1     767
       1     768
       1     769
       1     770
       1     771
       1     772
       1     773
       1     774
       1     775
       1     776
       1     777
       1     778
       1     779
       1     780
       1     781
       1     782
       1     783
       1     784
       1     785
       1     786
       1     787
       1     788
       1     789
       1     790
       1     791
       1     792
       1     793
       1     794
       1     795
       1     796
       1     797
       1     798
       1     799
       1     800
       1     801
       1     802
       1     803
       1     804
       1     805
       1     806
       1     807
       1     808
       1     809
       1     810
       1     811
       1     812
       1     813
       1     814
       1     815
       1     816
       1     817
       1     818
       1     819
       1     820
       1     821
       1     822
       1     823
       1     824
       1     825
       1     826
       1     827
       1     828
       1     829
       1     830
       1     831
       1     832
       1     833
       1     834
       1     835
       1     836
       1     837
       1     838
       1     839
       1     840
       1     841
       1     842
       1     843
       1     844
       1     845
       1     846
       1     847
       1     848
       1     849
       1     850
       1     851
       1     852
       1     853
       1     854
       1     855
       1     856
       1     857
       1     858
       1     859
       1     860
       1     861
       1     862
       1     863
       1     864
       1     865
       1     866
       1     867
       1     868
       1     869
       1     870
       1     871
       1     872
       1     873
       1     874
       1     875
       1     876
       1     877
       1     878
       1     879
       1     880
       1     881
       1     882
       1     883
       1     884
       1     885
       1     886
       1     887
       1     888
       1     889
       1     890
       1     891
       1     892
       1     893
       1     894
       1     895
       1     896
       1     897
       1     898
       1     899
       1     900
       1     901
       1     902
       1     903
       1     904
       1     905
       1     906
       1     907
       1     908
       1     909
       1     910
       1     911
       1     912
       1     913
       1     914
       1     915
       1     916
       1     917
       1     918
       1     919
       1     920
       1     921
       1     922
       1     923
       1     924
       1     925
       1     926
       1     927
       1     928
       1     929
       1     930
       1     931
       1     932
       1     933
       1     934
       1     935
       1     936
       1     937
       1     938
       1     939
       1     940
       1     941
       1     942
       1     943
       1     944
       1     945
       1     946
       1     947
       1     948
       1     949
       1     950
       1     951
       1     952
       1     953
       1     954
       1     955
       1     956
       1     957
       1     958
       1     959
       1     960
       1     961
       1     962
       1     963
       1     964
       1     965
       1     966
       1     967
       1     968
       1     969
       1     970
       1     971
       1     972
       1     973
       1     974
       1     975
       1     976
       1     977
       1     978
       1     979
       1     980
       1     981
       1     982
       1     983
       1     984
       1     985
       1     986
       1     987
       1     988
       1     989
       1     990
       1     991
       1     992
       1     993
       1     994
       1     995
       1     996
       1     997
       1     998
       1     999
       1    1000
       1    1001
       1    1002
       1    1003
       1    1004
       1    1005
       1    1006
       1    1007
       1    1008
       1    1009
       1    1010
       1    1011
       1    1012
       1    1013
       1    1014
       1    1015
       1    1016
       1    1017
       1    1018
       1    1019
       1    1020
       1    1021
       1    1022
       1    1023
       1    1024
       1    1025
       1    1026
       1    1027
       1    1028
       1    1029
       1    1030
       1    1031
       1    1032
       1    1033
       1    1034
       1    1035
       1    1036
       1    1037
       1    1038
       1    1039
       1    1040
       1    1041
       1    1042
       1    1043
       1    1044
       1    1045
       1    1046
       1    1047
       1    1048
       1    1049
       1    1050
       1    1051
       1    1052
       1    1053
       1    1054
       1    1055
       1    1056
       1    1057
       1    1058
       1    1059
       1    1060
       1    1061
       1    1062
       1    1063
       1    1064
       1    1065
       1    1066
       1    1067
       1    1068
       1    1069
       1    1070
       1    1071
       1    1072
       1    1073
       1    1074
       1    1075
       1    1076
       1    1077
       1    1078
       1    1079
       1    1080
       1    1081
       1    1082
       1    1083
       1    1084
       1    1085
       1    1086
       1    1087
       1    1088
       1    1089
       1    1090
       1    1091
       1    1092
       1    1093
       1    1094
       1    1095
       1    1096
       1    1097
       1    1098
       1    1099
       1    1100
       1    1101
       1    1102
       1    1103
       1    1104
       1    1105
       1    1106
       1    1107
       1    1108
       1    1109
       1    1110
       1    1111
       1    1112
       1    1113
       1    1114
       1    1115
       1    1116
       1    1117
       1    1118
       1    1119
       1    1120
       1    1121
       1    1122
       1    1123
       1    1124
       1    1125
       1    1126
       1    1127
       1    1128
       1    1129
       1    1130
       1    1131
       1    1132
       1    1133
       1    1134
       1    1135
       1    1136
       1    1137
       1    1138
       1    1139
       1    1140
       1    1141
       1    1142
       1    1143
       1    1144
       1    1145
       1    1146
       1    1147
       1    1148
       1    1149
       1    1150
       1    1151
       1    1152
       1    1153
       1    1154
       1    1155
       1    1156
       1    1157
       1    1158
       1    1159
       1    1160
       1    1161
       1    1162
       1    1163
       1    1164
       1    1165
       1    1166
       1    1167
       1    1168
       1    1169
       1    1170
       1    1171
       1    1172
       1    1173
       1    1174
       1    1175
       1    1176
       1    1177
       1    1178
       1    1179
       1    1180
       1    1181
       1    1182
       1    1183
       1    1184
       1    1185
       1    1186
       1    1187
       1    1188
       1    1189
       1    1190
       1    1191
       1    1192
       1    1193
       1    1194
       1    1195
       1    1196
       1    1197
       1    1198
       1    1199
       1    1200
       1    1201
       1    1202
       1    1203
       1    1204
       1    1205
       1    1206
       1    1207
       1    1208
       1    1209
       1    1210
       1    1211
       1    1212
       1    1213
       1    1214
       1    1215
       1    1216
       1    1217
       1    1218
       1    1219
       1    1220
       1    1221
       1    1222
       1    1223
       1    1224
       1    1225
       1    1226
       1    1227
       1    1228
       1    1229
       1    1230
       1    1231
       1    1232
       1    1233
       1    1234
       1    1235
       1    1236
       1    1237
       1    1238
       1    1239
       1    1240
       1    1241
       1    1242
       1    1243
       1    1244
       1    1245
       1    1246
       1    1247
       1    1248
       1    1249
       1    1250
       1    1251
       1    1252
       1    1253
       1    1254
       1    1255
       1    1256
       1    1257
       1    1258
       1    1259
       1    1260
       1    1261
       1    1262
       1    1263
       1    1264
       1    1265
       1    1266
       1    1267
       1    1268
       1    1269
       1    1270
       1    1271
       1    1272
       1    1273
       1    1274
       1    1275
       1    1276
       1    1277
       1    1278
       1    1279
       1    1280
       1    1281
       1    1282
       1    1283
       1    1284
       1    1285
       1    1286
       1    1287
       1    1288
       1    1289
       1    1290
       1    1291
       1    1292
       1    1293
       1    1294
       1    1295
       1    1296
       1    1297
       1    1298
       1    1299
       1    1300
       1    1301
       1    1302
       1    1303
       1    1304
       1    1305
       1    1306
       1    1307
       1    1308
       1    1309
       1    1310
       1    1311
       1    1312
       1    1313
       1    1314
       1    1315
       1    1316
       1    1317
       1    1318
       1    1319
       1    1320
       1    1321
       1    1322
       1    1323
       1    1324
       1    1325
       1    1326
       1    1327
       1    1328
       1    1329
       1    1330
       1    1331
       1    1332
       1    1333
       1    1334
       1    1335
       1    1336
       1    1337
       1    1338
       1    1339
       1    1340
       1    1341
       1    1342
       1    1343
       1    1344
       1    1345
       1    1346
       1    1347
       1    1348
       1    1349
       1    1350
       1    1351
       1    1352
       1    1353
       1    1354
       1    1355
       1    1356
       1    1357
       1    1358
       1    1359
       1    1360
       1    1361
       1    1362
       1    1363
       1    1364
       1    1365
       1    1366
       1    1367
       1    1368
       1    1369
       1    1370
       1    1371
       1    1372
       1    1373
       1    1374
       1    1375
       1    1376
       1    1377
       1    1378
       1    1379
       1    1380
       1    1381
       1    1382
       1    1383
       1    1384
       1    1385
       1    1386
       1    1387
       1    1388
       1    1389
       1    1390
       1    1391
       1    1392
       1    1393
       1    1394
       1    1395
       1    1396
       1    1397
       1    1398
       1    1399
       1    1400
       1    1401
       1    1402
       1    1403
       1    1404
       1    1405
       1    1406
       1    1407
       1    1408
       1    1409
       1    1410
       1    1411
       1    1412
       1    1413
       1    1414
       1    1415
       1    1416
       1    1417
       1    1418
       1    1419
       1    1420
       1    1421
       1    1422
       1    1423
       1    1424
       1    1425
       1    1426
       1    1427
       1    1428
       1    1429
       1    1430
       1    1431
       1    1432
       1    1433
       1    1434
       1    1435
       1    1436
       1    1437
       1    1438
       1    1439
       1    1440
       1    1441
       1    1442
       1    1443
       1    1444
       1    1445
       1    1446
       1    1447
       1    1448
       1    1449
       1    1450
       1    1451
       1    1452
       1    1453
       1    1454
       1    1455
       1    1456
       1    1457
       1    1458
       1    1459
       1    1460
       1    1461
       1    1462
       1    1463
       1    1464
       1    1465
       1    1466
       1    1467
       1    1468
       1    1469
       1    1470
       1    1471
       1    1472
       1    1473
       1    1474
       1    1475
       1    1476
       1    1477
       1    1478
       1    1479
       1    1480
       1    1481
       1    1482
       1    1483
       1    1484
       1    1485
       1    1486
       1    1487
       1    1488
       1    1489
       1    1490
       1    1491
       1    1492
       1    1493
       1    1494
       1    1495
       1    1496
       1    1497
       1    1498
       1    1499
       1    1500
       1    1501
       1    1502
       1    1503
       1    1504
       1    1505
       1    1506
       1    1507
       1    1508
       1    1509
       1    1510
       1    1511
       1    1512
       1    1513
       1    1514
       1    1515
       1    1516
       1    1517
       1    1518
       1    1519
       1    1520
       1    1521
       1    1522
       1    1523
       1    1524
       1    1525
       1    1526
       1    1527
       1    1528
       1    1529
       1    1530
       1    1531
       1    1532
       1    1533
       1    1534
       1    1535
       1    1536
       1    1537
       1    1538
       1    1539
       1    1540
       1    1541
       1    1542
       1    1543
       1    1544
       1    1545
       1    1546
       1    1547
       1    1548
       1    1549
       1    1550
       1    1551
       1    1552
       1    1553
       1    1554
       1    1555
       1    1556
       1    1557
       1    1558
       1    1559
       1    1560
       1    1561
       1    1562
       1    1563
       1    1564
       1    1565
       1    1566
       1    1567
       1    1568
       1    1569
       1    1570
       1    1571
       1    1572
       1    1573
       1    1574
       1    1575
       1    1576
       1    1577
       1    1578
       1    1579
       1    1580
       1    1581
       1    1582
       1    1583
       1    1584
       1    1585
       1    1586
       1    1587
       1    1588
       1    1589
       1    1590
       1    1591
       1    1592
       1    1593
       1    1594
       1    1595
       1    1596
       1    1597
       1    1598
       1    1599
       1    1600
       1    1601
       1    1602
       1    1603
       1    1604
       1    1605
       1    1606
       1    1607
       1    1608
       1    1609
       1    1610
       1    1611
       1    1612
       1    1613
       1    1614
       1    1615
       1    1616
       1    1617
       1    1618
       1    1619
       1    1620
       1    1621
       1    1622
       1    1623
       1    1624
       1    1625
       1    1626
       1    1627
       1    1628
       1    1629
       1    1630
       1    1631
       1    1632
       1    1633
       1    1634
       1    1635
       1    1636
       1    1637
       1    1638
       1    1639
       1    1640
       1    1641
       1    1642
       1    1643
       1    1644
       1    1645
       1    1646
       1    1647
       1    1648
       1    1649
       1    1650
       1    1651
       1    1652
       1    1653
       1    1654
       1    1655
       1    1656
       1    1657
       1    1658
       1    1659
       1    1660
       1    1661
       1    1662
       1    1663
       1    1664
       1    1665
       1    1666
       1    1667
       1    1668
       1    1669
       1    1670
       1    1671
       1    1672
       1    1673
       1    1674
       1    1675
       1    1676
       1    1677
       1    1678
       1    1679
       1    1680
       1    1681
       1    1682
       1    1683
       1    1684
       1    1685
       1    1686
       1    1687
       1    1688
       1    1689
       1    1690
       1    1691
       1    1692
       1    1693
       1    1694
       1    1695
       1    1696
       1    1697
       1    1698
       1    1699
       1    1700
       1    1701
       1    1702
       1    1703
       1    1704
       1    1705
       1    1706
       1    1707
       1    1708
       1    1709
       1    1710
       1    1711
       1    1712
       1    1713
       1    1714
       1    1715
       1    1716
       1    1717
       1    1718
       1    1719
       1    1720
       1    1721
       1    1722
       1    1723
       1    1724
       1    1725
       1    1726
       1    1727
       1    1728
       1    1729
       1    1730
       1    1731
       1    1732
       1    1733
       1    1734
       1    1735
       1    1736
       1    1737
       1    1738
       1    1739
       1    1740
       1    1741
       1    1742
       1    1743
       1    1744
       1    1745
       1    1746
       1    1747
       1    1748
       1    1749
       1    1750
       1    1751
       1    1752
       1    1753
       1    1754
       1    1755
       1    1756
       1    1757
       1    1758
       1    1759
       1    1760
       1    1761
       1    1762
       1    1763
       1    1764
       1    1765
       1    1766
       1    1767
       1    1768
       1    1769
       1    1770
       1    1771
       1    1772
       1    1773
       1    1774
       1    1775
       1    1776
       1    1777
       1    1778
       1    1779
       1    1780
       1    1781
       1    1782
       1    1783
       1    1784
       1    1785
       1    1786
       1    1787
       1    1788
       1    1789
       1    1790
       1    1791
       1    1792
       1    1793
       1    1794
       1    1795
       1    1796
       1    1797
       1    1798
       1    1799
       1    1800
       1    1801
       1    1802
       1    1803
       1    1804
       1    1805
       1    1806
       1    1807
       1    1808
       1    1809
       1    1810
       1    1811
       1    1812
       1    1813
       1    1814
       1    1815
       1    1816
       1    1817
       1    1818
       1    1819
       1    1820
       1    1821
       1    1822
       1    1823
       1    1824
       1    1825
       1    1826
       1    1827
       1    1828
       1    1829
       1    1830
       1    1831
       1    1832
       1    1833
       1    1834
       1    1835
       1    1836
       1    1837
       1    1838
       1    1839
       1    1840
       1    1841
       1    1842
       1    1843
       1    1844
       1    1845
       1    1846
       1    1847
       1    1848
       1    1849
       1    1850
       1    1851
       1    1852
       1    1853
       1    1854
       1    1855
       1    1856
       1    1857
       1    1858
       1    1859
       1    1860
       1    1861
       1    1862
       1    1863
       1    1864
       1    1865
       1    1866
       1    1867
       1    1868
       1    1869
       1    1870
       1    1871
       1    1872
       1    1873
       1    1874
       1    1875
       1    1876
       1    1877
       1    1878
       1    1879
       1    1880
       1    1881
       1    1882
       1    1883
       1    1884
       1    1885
       1    1886
       1    1887
       1    1888
       1    1889
       1    1890
       1    1891
       1    1892
       1    1893
       1    1894
       1    1895
       1    1896
       1    1897
       1    1898
       1    1899
       1    1900
       1    1901
       1    1902
       1    1903
       1    1904
       1    1905
       1    1906
       1    1907
       1    1908
       1    1909
       1    1910
       1    1911
       1    1912
       1    1913
       1    1914
       1    1915
       1    1916
       1    1917
       1    1918
       1    1919
       1    1920
       1    1921
       1    1922
       1    1923
       1    1924
       1    1925
       1    1926
       1    1927
       1    1928
       1    1929
       1    1930
       1    1931
       1    1932
       1    1933
       1    1934
       1    1935
       1    1936
       1    1937
       1    1938
       1    1939
       1    1940
       1    1941
       1    1942
       1    1943
       1    1944
       1    1945
       1    1946
       1    1947
       1    1948
       1    1949
       8       0       1       2       3       4       5       6       7
       8       2       8       9       3       6      10      11       7
       8      12       1       0      13      14       5       4      15
       8       0      16      17      13       4      18      19      15
       8      20      21      22      12      23      24      25      14
       8      26      27      21      20      28      29      24      23
       8      13      26      20      12      15      28      23      14
       8      30      31      16      32      33      34      18      35
       8      36      37      31      30      38      39      34      33
       8      40      41      37      36      42      43      39      38
       8      44      40      36      45      46      42      38      47
       8      48      17      16      31      49      19      18      34
       8      30      50      45      36      33      51      47      38
       8       0       3      32      16       4       7      35      18
       8      52      26      13      17      53      28      15      19
       8      54      52      17      48      55      53      19      49
       8      56      54      48      57      58      55      49      59
       8      37      57      48      31      39      59      49      34
       8      60      61      50      30      62      63      51      33
       8      64      60      30      32      65      62      33      35
       8      66      64      32       3      67      65      35       7
       8      68       8       2      69      70      10       6      71
       8      72      69       2       1      73      71       6       5
       8      22      72       1      12      25      73       5      14
       8      74      27      26      52      75      29      28      53
       8      76      74      52      54      77      75      53      55
       8      78      76      54      56      79      77      55      58
       8      80      78      56      81      82      79      58      83
       8      84      81      56      57      85      83      58      59
       8      41      84      57      37      43      85      59      39
       8      86      44      45      50      87      46      47      51
       8      88      86      50      61      89      87      51      63
       8      90      88      61      91      92      89      63      93
       8      94      91      61      60      95      93      63      62
       8      96      94      60      64      97      95      62      65
       8      98      96      64      66      99      97      65      67
       8     100      98      66     101     102      99      67     103
       8       9     101      66       3      11     103      67       7
       8     104     105       8      68     106     107      10      70
       8     108     104      68      69     109     106      70      71
       8     110     108      69      72     111     109      71      73
       8     112     110      72      22     113     111      73      25
       8     114     112      22      21     115     113      25      24
       8     116     114      21      27     117     115      24      29
       8     118     116      27      74     119     117      29      75
       8     120     118      74      76     121     119      75      77
       8     122     120      76      78     123     121      77      79
       8     124     122      78      80     125     123      79      82
       8     126     124      80      81     127     125      82      83
       8     128     126      81      84     129     127      83      85
       8     130     128      84      41     131     129      85      43
       8     132     130      41      40     133     131      43      42
       8     134     132      40      44     135     133      42      46
       8     136     134      44      86     137     135      46      87
       8     138     136      86      88     139     137      87      89
       8     140     138      88      90     141     139      89      92
       8     142     140      90      91     143     141      92      93
       8     144     142      91      94     145     143      93      95
       8     146     144      94      96     147     145      95      97
       8     148     146      96      98     149     147      97      99
       8     150     148      98     100     151     149      99     102
       8     152     150     100     101     153     151     102     103
       8     154     152     101       9     155     153     103      11
       8     105     154       9       8     107     155      11      10
       8     156     157     158     159       0       1       2       3
       8     158     160     161     159       2       8       9       3
       8     162     157     156     163      12       1       0      13
       8     156     164     165     163       0      16      17      13
       8     166     167     168     162      20      21      22      12
       8     169     170     167     166      26      27      21      20
       8     163     169     166     162      13      26      20      12
       8     171     172     164     173      30      31      16      32
       8     174     175     172     171      36      37      31      30
       8     176     177     175     174      40      41      37      36
       8     178     176     174     179      44      40      36      45
       8     180     165     164     172      48      17      16      31
       8     171     181     179     174      30      50      45      36
       8     156     159     173     164       0       3      32      16
       8     182     169     163     165      52      26      13      17
       8     183     182     165     180      54      52      17      48
       8     184     183     180     185      56      54      48      57
       8     175     185     180     172      37      57      48      31
       8     186     187     181     171      60      61      50      30
       8     188     186     171     173      64      60      30      32
       8     189     188     173     159      66      64      32       3
       8     190     160     158     191      68       8       2      69
       8     192     191     158     157      72      69       2       1
       8     168     192     157     162      22      72       1      12
       8     193     170     169     182      74      27      26      52
       8     194     193     182     183      76      74      52      54
       8     195     194     183     184      78      76      54      56
       8     196     195     184     197      80      78      56      81
       8     198     197     184     185      84      81      56      57
       8     177     198     185     175      41      84      57      37
       8     199     178     179     181      86      44      45      50
       8     200     199     181     187      88      86      50      61
       8     201     200     187     202      90      88      61      91
       8     203     202     187     186      94      91      61      60
       8     204     203     186     188      96      94      60      64
       8     205     204     188     189      98      96      64      66
       8     206     205     189     207     100      98      66     101
       8     161     207     189     159       9     101      66       3
       8     208     209     160     190     104     105       8      68
       8     210     208     190     191     108     104      68      69
       8     211     210     191     192     110     108      69      72
       8     212     211     192     168     112     110      72      22
       8     213     212     168     167     114     112      22      21
       8     214     213     167     170     116     114      21      27
       8     215     214     170     193     118     116      27      74
       8     216     215     193     194     120     118      74      76
       8     217     216     194     195     122     120      76      78
       8     218     217     195     196     124     122      78      80
       8     219     218     196     197     126     124      80      81
       8     220     219     197     198     128     126      81      84
       8     221     220     198     177     130     128      84      41
       8     222     221     177     176     132     130      41      40
       8     223     222     176     178     134     132      40      44
       8     224     223     178     199     136     134      44      86
       8     225     224     199     200     138     136      86      88
       8     226     225     200     201     140     138      88      90
       8     227     226     201     202     142     140      90      91
       8     228     227     202     203     144     142      91      94
       8     229     228     203     204     146     144      94      96
       8     230     229     204     205     148     146      96      98
       8     231     230     205     206     150     148      98     100
       8     232     231     206     207     152     150     100     101
       8     233     232     207     161     154     152     101       9
       8     209     233     161     160     105     154       9       8
       8     234     235     236     237     156     157     158     159
       8     236     238     239     237     158     160     161     159
       8     240     235     234     241     162     157     156     163
       8     234     242     243     241     156     164     165     163
       8     244     245     246     240     166     167     168     162
       8     247     248     245     244     169     170     167     166
       8     241     247     244     240     163     169     166     162
       8     249     250     242     251     171     172     164     173
       8     252     253     250     249     174     175     172     171
       8     254     255     253     252     176     177     175     174
       8     256     254     252     257     178     176     174     179
       8     258     243     242     250     180     165     164     172
       8     249     259     257     252     171     181     179     174
       8     234     237     251     242     156     159     173     164
       8     260     247     241     243     182     169     163     165
       8     261     260     243     258     183     182     165     180
       8     262     261     258     263     184     183     180     185
       8     253     263     258     250     175     185     180     172
       8     264     265     259     249     186     187     181     171
       8     266     264     249     251     188     186     171     173
       8     267     266     251     237     189     188     173     159
       8     268     238     236     269     190     160     158     191
       8     270     269     236     235     192     191     158     157
       8     246     270     235     240     168     192     157     162
       8     271     248     247     260     193     170     169     182
       8     272     271     260     261     194     193     182     183
       8     273     272     261     262     195     194     183     184
       8     274     273     262     275     196     195     184     197
       8     276     275     262     263     198     197     184     185
       8     255     276     263     253     177     198     185     175
       8     277     256     257     259     199     178     179     181
       8     278     277     259     265     200     199     181     187
       8     279     278     265     280     201     200     187     202
       8     281     280     265     264     203     202     187     186
       8     282     281     264     266     204     203     186     188
       8     283     282     266     267     205     204     188     189
       8     284     283     267     285     206     205     189     207
       8     239     285     267     237     161     207     189     159
       8     286     287     238     268     208     209     160     190
       8     288     286     268     269     210     208     190     191
       8     289     288     269     270     211     210     191     192
       8     290     289     270     246     212     211     192     168
       8     291     290     246     245     213     212     168     167
       8     292     291     245     248     214     213     167     170
       8     293     292     248     271     215     214     170     193
       8     294     293     271     272     216     215     193     194
       8     295     294     272     273     217     216     194     195
       8     296     295     273     274     218     217     195     196
       8     297     296     274     275     219     218     196     197
       8     298     297     275     276     220     219     197     198
       8     299     298     276     255     221     220     198     177
       8     300     299     255     254     222     221     177     176
       8     301     300     254     256     223     222     176     178
       8     302     301     256     277     224     223     178     199
       8     303     302     277     278     225     224     199     200
       8     304     303     278     279     226     225     200     201
       8     305     304     279     280     227     226     201     202
       8     306     305     280     281     228     227     202     203
       8     307     306     281     282     229     228     203     204
       8     308     307     282     283     230     229     204     205
       8     309     308     283     284     231     230     205     206
       8     310     309     284     285     232     231     206     207
       8     311     310     285     239     233     232     207     161
       8     287     311     239     238     209     233     161     160
       8     312     313     314     315     234     235     236     237
       8     314     316     317     315     236     238     239     237
       8     318     313     312     319     240     235     234     241
       8     312     320     321     319     234     242     243     241
       8     322     323     324     318     244     245     246     240
       8     325     326     323     322     247     248     245     244
       8     319     325     322     318     241     247     244     240
       8     327     328     320     329     249     250     242     251
       8     330     331     328     327     252     253     250     249
       8     332     333     331     330     254     255     253     252
       8     334     332     330     335     256     254     252     257
       8     336     321     320     328     258     243     242     250
       8     327     337     335     330     249     259     257     252
       8     312     315     329     320     234     237     251     242
       8     338     325     319     321     260     247     241     243
       8     339     338     321     336     261     260     243     258
       8     340     339     336     341     262     261     258     263
       8     331     341     336     328     253     263     258     250
       8     342     343     337     327     264     265     259     249
       8     344     342     327     329     266     264     249     251
       8     345     344     329     315     267     266     251     237
       8     346     316     314     347     268     238     236     269
       8     348     347     314     313     270     269     236     235
       8     324     348     313     318     246     270     235     240
       8     349     326     325     338     271     248     247     260
       8     350     349     338     339     272     271     260     261
       8     351     350     339     340     273     272     261     262
       8     352     351     340     353     274     273     262     275
       8     354     353     340     341     276     275     262     263
       8     333     354     341     331     255     276     263     253
       8     355     334     335     337     277     256     257     259
       8     356     355     337     343     278     277     259     265
       8     357     356     343     358     279     278     265     280
       8     359     358     343     342     281     280     265     264
       8     360     359     342     344     282     281     264     266
       8     361     360     344     345     283     282     266     267
       8     362     361     345     363     284     283     267     285
       8     317     363     345     315     239     285     267     237
       8     364     365     316     346     286     287     238     268
       8     366     364     346     347     288     286     268     269
       8     367     366     347     348     289     288     269     270
       8     368     367     348     324     290     289     270     246
       8     369     368     324     323     291     290     246     245
       8     370     369     323     326     292     291     245     248
       8     371     370     326     349     293     292     248     271
       8     372     371     349     350     294     293     271     272
       8     373     372     350     351     295     294     272     273
       8     374     373     351     352     296     295     273     274
       8     375     374     352     353     297     296     274     275
       8     376     375     353     354     298     297     275     276
       8     377     376     354     333     299     298     276     255
       8     378     377     333     332     300     299     255     254
       8     379     378     332     334     301     300     254     256
       8     380     379     334     355     302     301     256     277
       8     381     380     355     356     303     302     277     278
       8     382     381     356     357     304     303     278     279
       8     383     382     357     358     305     304     279     280
       8     384     383     358     359     306     305     280     281
       8     385     384     359     360     307     306     281     282
       8     386     385     360     361     308     307     282     283
       8     387     386     361     362     309     308     283     284
       8     388     387     362     363     310     309     284     285
       8     389     388     363     317     311     310     285     239
       8     365     389     317     316     287     311     239     238
       8     390     391     392     393     312     313     314     315
       8     392     394     395     393     314     316     317     315
       8     396     391     390     397     318     313     312     319
       8     390     398     399     397     312     320     321     319
       8     400     401     402     396     322     323     324     318
       8     403     404     401     400     325     326     323     322
       8     397     403     400     396     319     325     322     318
       8     405     406     398     407     327     328     320     329
       8     408     409     406     405     330     331     328     327
       8     410     411     409     408     332     333     331     330
       8     412     410     408     413     334     332     330     335
       8     414     399     398     406     336     321     320     328
       8     405     415     413     408     327     337     335     330
       8     390     393     407     398     312     315     329     320
       8     416     403     397     399     338     325     319     321
       8     417     416     399     414     339     338     321     336
       8     418     417     414     419     340     339     336     341
       8     409     419     414     406     331     341     336     328
       8     420     421     415     405     342     343     337     327
       8     422     420     405     407     344     342     327     329
       8     423     422     407     393     345     344     329     315
       8     424     394     392     425     346     316     314     347
       8     426     425     392     391     348     347     314     313
       8     402     426     391     396     324     348     313     318
       8     427     404     403     416     349     326     325     338
       8     428     427     416     417     350     349     338     339
       8     429     428     417     418     351     350     339     340
       8     430     429     418     431     352     351     340     353
       8     432     431     418     419     354     353     340     341
       8     411     432     419     409     333     354     341     331
       8     433     412     413     415     355     334     335     337
       8     434     433     415     421     356     355     337     343
       8     435     434     421     436     357     356     343     358
       8     437     436     421     420     359     358     343     342
       8     438     437     420     422     360     359     342     344
       8     439     438     422     423     361     360     344     345
       8     440     439     423     441     362     361     345     363
       8     395     441     423     393     317     363     345     315
       8     442     443     394     424     364     365     316     346
       8     444     442     424     425     366     364     346     347
       8     445     444     425     426     367     366     347     348
       8     446     445     426     402     368     367     348     324
       8     447     446     402     401     369     368     324     323
       8     448     447     401     404     370     369     323     326
       8     449     448     404     427     371     370     326     349
       8     450     449     427     428     372     371     349     350
       8     451     450     428     429     373     372     350     351
       8     452     451     429     430     374     373     351     352
       8     453     452     430     431     375     374     352     353
       8     454     453     431     432     376     375     353     354
       8     455     454     432     411     377     376     354     333
       8     456     455     411     410     378     377     333     332
       8     457     456     410     412     379     378     332     334
       8     458     457     412     433     380     379     334     355
       8     459     458     433     434     381     380     355     356
       8     460     459     434     435     382     381     356     357
       8     461     460     435     436     383     382     357     358
       8     462     461     436     437     384     383     358     359
       8     463     462     437     438     385     384     359     360
       8     464     463     438     439     386     385     360     361
       8     465     464     439     440     387     386     361     362
       8     466     465     440     441     388     387     362     363
       8     467     466     441     395     389     388     363     317
       8     443     467     395     394     365     389     317     316
       8     468     469     470     471     390     391     392     393
       8     470     472     473     471     392     394     395     393
       8     474     469     468     475     396     391     390     397
       8     468     476     477     475     390     398     399     397
       8     478     479     480     474     400     401     402     396
       8     481     482     479     478     403     404     401     400
       8     475     481     478     474     397     403     400     396
       8     483     484     476     485     405     406     398     407
       8     486     487     484     483     408     409     406     405
       8     488     489     487     486     410     411     409     408
       8     490     488     486     491     412     410     408     413
       8     492     477     476     484     414     399     398     406
       8     483     493     491     486     405     415     413     408
       8     468     471     485     476     390     393     407     398
       8     494     481     475     477     416     403     397     399
       8     495     494     477     492     417     416     399     414
       8     496     495     492     497     418     417     414     419
       8     487     497     492     484     409     419     414     406
       8     498     499     493     483     420     421     415     405
       8     500     498     483     485     422     420     405     407
       8     501     500     485     471     423     422     407     393
       8     502     472     470     503     424     394     392     425
       8     504     503     470     469     426     425     392     391
       8     480     504     469     474     402     426     391     396
       8     505     482     481     494     427     404     403     416
       8     506     505     494     495     428     427     416     417
       8     507     506     495     496     429     428     417     418
       8     508     507     496     509     430     429     418     431
       8     510     509     496     497     432     431     418     419
       8     489     510     497     487     411     432     419     409
       8     511     490     491     493     433     412     413     415
       8     512     511     493     499     434     433     415     421
       8     513     512     499     514     435     434     421     436
       8     515     514     499     498     437     436     421     420
       8     516     515     498     500     438     437     420     422
       8     517     516     500     501     439     438     422     423
       8     518     517     501     519     440     439     423     441
       8     473     519     501     471     395     441     423     393
       8     520     521     472     502     442     443     394     424
       8     522     520     502     503     444     442     424     425
       8     523     522     503     504     445     444     425     426
       8     524     523     504     480     446     445     426     402
       8     525     524     480     479     447     446     402     401
       8     526     525     479     482     448     447     401     404
       8     527     526     482     505     449     448     404     427
       8     528     527     505     506     450     449     427     428
       8     529     528     506     507     451     450     428     429
       8     530     529     507     508     452     451     429     430
       8     531     530     508     509     453     452     430     431
       8     532     531     509     510     454     453     431     432
       8     533     532     510     489     455     454     432     411
       8     534     533     489     488     456     455     411     410
       8     535     534     488     490     457     456     410     412
       8     536     535     490     511     458     457     412     433
       8     537     536     511     512     459     458     433     434
       8     538     537     512     513     460     459     434     435
       8     539     538     513     514     461     460     435     436
       8     540     539     514     515     462     461     436     437
       8     541     540     515     516     463     462     437     438
       8     542     541     516     517     464     463     438     439
       8     543     542     517     518     465     464     439     440
       8     544     543     518     519     466     465     440     441
       8     545     544     519     473     467     466     441     395
       8     521     545     473     472     443     467     395     394
       8     546     547     548     549     468     469     470     471
       8     548     550     551     549     470     472     473     471
       8     552     547     546     553     474     469     468     475
       8     546     554     555     553     468     476     477     475
       8     556     557     558     552     478     479     480     474
       8     559     560     557     556     481     482     479     478
       8     553     559     556     552     475     481     478     474
       8     561     562     554     563     483     484     476     485
       8     564     565     562     561     486     487     484     483
       8     566     567     565     564     488     489     487     486
       8     568     566     564     569     490     488     486     491
       8     570     555     554     562     492     477     476     484
       8     561     571     569     564     483     493     491     486
       8     546     549     563     554     468     471     485     476
       8     572     559     553     555     494     481     475     477
       8     573     572     555     570     495     494     477     492
       8     574     573     570     575     496     495     492     497
       8     565     575     570     562     487     497     492     484
       8     576     577     571     561     498     499     493     483
       8     578     576     561     563     500     498     483     485
       8     579     578     563     549     501     500     485     471
       8     580     550     548     581     502     472     470     503
       8     582     581     548     547     504     503     470     469
       8     558     582     547     552     480     504     469     474
       8     583     560     559     572     505     482     481     494
       8     584     583     572     573     506     505     494     495
       8     585     584     573     574     507     506     495     496
       8     586     585     574     587     508     507     496     509
       8     588     587     574     575     510     509     496     497
       8     567     588     575     565     489     510     497     487
       8     589     568     569     571     511     490     491     493
       8     590     589     571     577     512     511     493     499
       8     591     590     577     592     513     512     499     514
       8     593     592     577     576     515     514     499     498
       8     594     593     576     578     516     515     498     500
       8     595     594     578     579     517     516     500     501
       8     596     595     579     597     518     517     501     519
       8     551     597     579     549     473     519     501     471
       8     598     599     550     580     520     521     472     502
       8     600     598     580     581     522     520     502     503
       8     601     600     581     582     523     522     503     504
       8     602     601     582     558     524     523     504     480
       8     603     602     558     557     525     524     480     479
       8     604     603     557     560     526     525     479     482
       8     605     604     560     583     527     526     482     505
       8     606     605     583     584     528     527     505     506
       8     607     606     584     585     529     528     506     507
       8     608     607     585     586     530     529     507     508
       8     609     608     586     587     531     530     508     509
       8     610     609     587     588     532     531     509     510
       8     611     610     588     567     533     532     510     489
       8     612     611     567     566     534     533     489     488
       8     613     612     566     568     535     534     488     490
       8     614     613     568     589     536     535     490     511
       8     615     614     589     590     537     536     511     512
       8     616     615     590     591     538     537     512     513
       8     617     616     591     592     539     538     513     514
       8     618     617     592     593     540     539     514     515
       8     619     618     593     594     541     540     515     516
       8     620     619     594     595     542     541     516     517
       8     621     620     595     596     543     542     517     518
       8     622     621     596     597     544     543     518     519
       8     623     622     597     551     545     544     519     473
       8     599     623     551     550     521     545     473     472
       8     624     625     626     627     546     547     548     549
       8     626     628     629     627     548     550     551     549
       8     630     625     624     631     552     547     546     553
       8     624     632     633     631     546     554     555     553
       8     634     635     636     630     556     557     558     552
       8     637     638     635     634     559     560     557     556
       8     631     637     634     630     553     559     556     552
       8     639     640     632     641     561     562     554     563
       8     642     643     640     639     564     565     562     561
       8     644     645     643     642     566     567     565     564
       8     646     644     642     647     568     566     564     569
       8     648     633     632     640     570     555     554     562
       8     639     649     647     642     561     571     569     564
       8     624     627     641     632     546     549     563     554
       8     650     637     631     633     572     559     553     555
       8     651     650     633     648     573     572     555     570
       8     652     651     648     653     574     573     570     575
       8     643     653     648     640     565     575     570     562
       8     654     655     649     639     576     577     571     561
       8     656     654     639     641     578     576     561     563
       8     657     656     641     627     579     578     563     549
       8     658     628     626     659     580     550     548     581
       8     660     659     626     625     582     581     548     547
       8     636     660     625     630     558     582     547     552
       8     661     638     637     650     583     560     559     572
       8     662     661     650     651     584     583     572     573
       8     663     662     651     652     585     584     573     574
       8     664     663     652     665     586     585     574     587
       8     666     665     652     653     588     587     574     575
       8     645     666     653     643     567     588     575     565
       8     667     646     647     649     589     568     569     571
       8     668     667     649     655     590     589     571     577
       8     669     668     655     670     591     590     577     592
       8     671     670     655     654     593     592     577     576
       8     672     671     654     656     594     593     576     578
       8     673     672     656     657     595     594     578     579
       8     674     673     657     675     596     595     579     597
       8     629     675     657     627     551     597     579     549
       8     676     677     628     658     598     599     550     580
       8     678     676     658     659     600     598     580     581
       8     679     678     659     660     601     600     581     582
       8     680     679     660     636     602     601     582     558
       8     681     680     636     635     603     602     558     557
       8     682     681     635     638     604     603     557     560
       8     683     682     638     661     605     604     560     583
       8     684     683     661     662     606     605     583     584
       8     685     684     662     663     607     606     584     585
       8     686     685     663     664     608     607     585     586
       8     687     686     664     665     609     608     586     587
       8     688     687     665     666     610     609     587     588
       8     689     688     666     645     611     610     588     567
       8     690     689     645     644     612     611     567     566
       8     691     690     644     646     613     612     566     568
       8     692     691     646     667     614     613     568     589
       8     693     692     667     668     615     614     589     590
       8     694     693     668     669     616     615     590     591
       8     695     694     669     670     617     616     591     592
       8     696     695     670     671     618     617     592     593
       8     697     696     671     672     619     618     593     594
       8     698     697     672     673     620     619     594     595
       8     699     698     673     674     621     620     595     596
       8     700     699     674     675     622     621     596     597
       8     701     700     675     629     623     622     597     551
       8     677     701     629     628     599     623     551     550
       8     702     703     704     705     624     625     626     627
       8     704     706     707     705     626     628     629     627
       8     708     703     702     709     630     625     624     631
       8     702     710     711     709     624     632     633     631
       8     712     713     714     708     634     635     636     630
       8     715     716     713     712     637     638     635     634
       8     709     715     712     708     631     637     634     630
       8     717     718     710     719     639     640     632     641
       8     720     721     718     717     642     643     640     639
       8     722     723     721     720     644     645     643     642
       8     724     722     720     725     646     644     642     647
       8     726     711     710     718     648     633     632     640
       8     717     727     725     720     639     649     647     642
       8     702     705     719     710     624     627     641     632
       8     728     715     709     711     650     637     631     633
       8     729     728     711     726     651     650     633     648
       8     730     729     726     731     652     651     648     653
       8     721     731     726     718     643     653     648     640
       8     732     733     727     717     654     655     649     639
       8     734     732     717     719     656     654     639     641
       8     735     734     719     705     657     656     641     627
       8     736     706     704     737     658     628     626     659
       8     738     737     704     703     660     659     626     625
       8     714     738     703     708     636     660     625     630
       8     739     716     715     728     661     638     637     650
       8     740     739     728     729     662     661     650     651
       8     741     740     729     730     663     662     651     652
       8     742     741     730     743     664     663     652     665
       8     744     743     730     731     666     665     652     653
       8     723     744     731     721     645     666     653     643
       8     745     724     725     727     667     646     647     649
       8     746     745     727     733     668     667     649     655
       8     747     746     733     748     669     668     655     670
       8     749     748     733     732     671     670     655     654
       8     750     749     732     734     672     671     654     656
       8     751     750     734     735     673     672     656     657
       8     752     751     735     753     674     673     657     675
       8     707     753     735     705     629     675     657     627
       8     754     755     706     736     676     677     628     658
       8     756     754     736     737     678     676     658     659
       8     757     756     737     738     679     678     659     660
       8     758     757     738     714     680     679     660     636
       8     759     758     714     713     681     680     636     635
       8     760     759     713     716     682     681     635     638
       8     761     760     716     739     683     682     638     661
       8     762     761     739     740     684     683     661     662
       8     763     762     740     741     685     684     662     663
       8     764     763     741     742     686     685     663     664
       8     765     764     742     743     687     686     664     665
       8     766     765     743     744     688     687     665     666
       8     767     766     744     723     689     688     666     645
       8     768     767     723     722     690     689     645     644
       8     769     768     722     724     691     690     644     646
       8     770     769     724     745     692     691     646     667
       8     771     770     745     746     693     692     667     668
       8     772     771     746     747     694     693     668     669
       8     773     772     747     748     695     694     669     670
       8     774     773     748     749     696     695     670     671
       8     775     774     749     750     697     696     671     672
       8     776     775     750     751     698     697     672     673
       8     777     776     751     752     699     698     673     674
       8     778     777     752     753     700     699     674     675
       8     779     778     753     707     701     700     675     629
       8     755     779     707     706     677     701     629     628
       8     780     781     782     783     702     703     704     705
       8     782     784     785     783     704     706     707     705
       8     786     781     780     787     708     703     702     709
       8     780     788     789     787     702     710     711     709
       8     790     791     792     786     712     713     714     708
       8     793     794     791     790     715     716     713     712
       8     787     793     790     786     709     715     712     708
       8     795     796     788     797     717     718     710     719
       8     798     799     796     795     720     721     718     717
       8     800     801     799     798     722     723     721     720
       8     802     800     798     803     724     722     720     725
       8     804     789     788     796     726     711     710     718
       8     795     805     803     798     717     727     725     720
       8     780     783     797     788     702     705     719     710
       8     806     793     787     789     728     715     709     711
       8     807     806     789     804     729     728     711     726
       8     808     807     804     809     730     729     726     731
       8     799     809     804     796     721     731     726     718
       8     810     811     805     795     732     733     727     717
       8     812     810     795     797     734     732     717     719
       8     813     812     797     783     735     734     719     705
       8     814     784     782     815     736     706     704     737
       8     816     815     782     781     738     737     704     703
       8     792     816     781     786     714     738     703     708
       8     817     794     793     806     739     716     715     728
       8     818     817     806     807     740     739     728     729
       8     819     818     807     808     741     740     729     730
       8     820     819     808     821     742     741     730     743
       8     822     821     808     809     744     743     730     731
       8     801     822     809     799     723     744     731     721
       8     823     802     803     805     745     724     725     727
       8     824     823     805     811     746     745     727     733
       8     825     824     811     826     747     746     733     748
       8     827     826     811     810     749     748     733     732
       8     828     827     810     812     750     749     732     734
       8     829     828     812     813     751     750     734     735
       8     830     829     813     831     752     751     735     753
       8     785     831     813     783     707     753     735     705
       8     832     833     784     814     754     755     706     736
       8     834     832     814     815     756     754     736     737
       8     835     834     815     816     757     756     737     738
       8     836     835     816     792     758     757     738     714
       8     837     836     792     791     759     758     714     713
       8     838     837     791     794     760     759     713     716
       8     839     838     794     817     761     760     716     739
       8     840     839     817     818     762     761     739     740
       8     841     840     818     819     763     762     740     741
       8     842     841     819     820     764     763     741     742
       8     843     842     820     821     765     764     742     743
       8     844     843     821     822     766     765     743     744
       8     845     844     822     801     767     766     744     723
       8     846     845     801     800     768     767     723     722
       8     847     846     800     802     769     768     722     724
       8     848     847     802     823     770     769     724     745
       8     849     848     823     824     771     770     745     746
       8     850     849     824     825     772     771     746     747
       8     851     850     825     826     773     772     747     748
       8     852     851     826     827     774     773     748     749
       8     853     852     827     828     775     774     749     750
       8     854     853     828     829     776     775     750     751
       8     855     854     829     830     777     776     751     752
       8     856     855     830     831     778     777     752     753
       8     857     856     831     785     779     778     753     707
       8     833     857     785     784     755     779     707     706
       8     858     859     860     861     780     781     782     783
       8     860     862     863     861     782     784     785     783
       8     864     859     858     865     786     781     780     787
       8     858     866     867     865     780     788     789     787
       8     868     869     870     864     790     791     792     786
       8     871     872     869     868     793     794     791     790
       8     865     871     868     864     787     793     790     786
       8     873     874     866     875     795     796     788     797
       8     876     877     874     873     798     799     796     795
       8     878     879     877     876     800     801     799     798
       8     880     878     876     881     802     800     798     803
       8     882     867     866     874     804     789     788     796
       8     873     883     881     876     795     805     803     798
       8     858     861     875     866     780     783     797     788
       8     884     871     865     867     806     793     787     789
       8     885     884     867     882     807     806     789     804
       8     886     885     882     887     808     807     804     809
       8     877     887     882     874     799     809     804     796
       8     888     889     883     873     810     811     805     795
       8     890     888     873     875     812     810     795     797
       8     891     890     875     861     813     812     797     783
       8     892     862     860     893     814     784     782     815
       8     894     893     860     859     816     815     782     781
       8     870     894     859     864     792     816     781     786
       8     895     872     871     884     817     794     793     806
       8     896     895     884     885     818     817     806     807
       8     897     896     885     886     819     818     807     808
       8     898     897     886     899     820     819     808     821
       8     900     899     886     887     822     821     808     809
       8     879     900     887     877     801     822     809     799
       8     901     880     881     883     823     802     803     805
       8     902     901     883     889     824     823     805     811
       8     903     902     889     904     825     824     811     826
       8     905     904     889     888     827     826     811     810
       8     906     905     888     890     828     827     810     812
       8     907     906     890     891     829     828     812     813
       8     908     907     891     909     830     829     813     831
       8     863     909     891     861     785     831     813     783
       8     910     911     862     892     832     833     784     814
       8     912     910     892     893     834     832     814     815
       8     913     912     893     894     835     834     815     816
       8     914     913     894     870     836     835     816     792
       8     915     914     870     869     837     836     792     791
       8     916     915     869     872     838     837     791     794
       8     917     916     872     895     839     838     794     817
       8     918     917     895     896     840     839     817     818
       8     919     918     896     897     841     840     818     819
       8     920     919     897     898     842     841     819     820
       8     921     920     898     899     843     842     820     821
       8     922     921     899     900     844     843     821     822
       8     923     922     900     879     845     844     822     801
       8     924     923     879     878     846     845     801     800
       8     925     924     878     880     847     846     800     802
       8     926     925     880     901     848     847     802     823
       8     927     926     901     902     849     848     823     824
       8     928     927     902     903     850     849     824     825
       8     929     928     903     904     851     850     825     826
       8     930     929     904     905     852     851     826     827
       8     931     930     905     906     853     852     827     828
       8     932     931     906     907     854     853     828     829
       8     933     932     907     908     855     854     829     830
       8     934     933     908     909     856     855     830     831
       8     935     934     909     863     857     856     831     785
       8     911     935     863     862     833     857     785     784
       8     936     937     938     939     858     859     860     861
       8     938     940     941     939     860     862     863     861
       8     942     937     936     943     864     859     858     865
       8     936     944     945     943     858     866     867     865
       8     946     947     948     942     868     869     870     864
       8     949     950     947     946     871     872     869     868
       8     943     949     946     942     865     871     868     864
       8     951     952     944     953     873     874     866     875
       8     954     955     952     951     876     877     874     873
       8     956     957     955     954     878     879     877     876
       8     958     956     954     959     880     878     876     881
       8     960     945     944     952     882     867     866     874
       8     951     961     959     954     873     883     881     876
       8     936     939     953     944     858     861     875     866
       8     962     949     943     945     884     871     865     867
       8     963     962     945     960     885     884     867     882
       8     964     963     960     965     886     885     882     887
       8     955     965     960     952     877     887     882     874
       8     966     967     961     951     888     889     883     873
       8     968     966     951     953     890     888     873     875
       8     969     968     953     939     891     890     875     861
       8     970     940     938     971     892     862     860     893
       8     972     971     938     937     894     893     860     859
       8     948     972     937     942     870     894     859     864
       8     973     950     949     962     895     872     871     884
       8     974     973     962     963     896     895     884     885
       8     975     974     963     964     897     896     885     886
       8     976     975     964     977     898     897     886     899
       8     978     977     964     965     900     899     886     887
       8     957     978     965     955     879     900     887     877
       8     979     958     959     961     901     880     881     883
       8     980     979     961     967     902     901     883     889
       8     981     980     967     982     903     902     889     904
       8     983     982     967     966     905     904     889     888
       8     984     983     966     968     906     905     888     890
       8     985     984     968     969     907     906     890     891
       8     986     985     969     987     908     907     891     909
       8     941     987     969     939     863     909     891     861
       8     988     989     940     970     910     911     862     892
       8     990     988     970     971     912     910     892     893
       8     991     990     971     972     913     912     893     894
       8     992     991     972     948     914     913     894     870
       8     993     992     948     947     915     914     870     869
       8     994     993     947     950     916     915     869     872
       8     995     994     950     973     917     916     872     895
       8     996     995     973     974     918     917     895     896
       8     997     996     974     975     919     918     896     897
       8     998     997     975     976     920     919     897     898
       8     999     998     976     977     921     920     898     899
       8    1000     999     977     978     922     921     899     900
       8    1001    1000     978     957     923     922     900     879
       8    1002    1001     957     956     924     923     879     878
       8    1003    1002     956     958     925     924     878     880
       8    1004    1003     958     979     926     925     880     901
       8    1005    1004     979     980     927     926     901     902
       8    1006    1005     980     981     928     927     902     903
       8    1007    1006     981     982     929     928     903     904
       8    1008    1007     982     983     930     929     904     905
       8    1009    1008     983     984     931     930     905     906
       8    1010    1009     984     985     932     931     906     907
       8    1011    1010     985     986     933     932     907     908
       8    1012    1011     986     987     934     933     908     909
       8    1013    1012     987     941     935     934     909     863
       8     989    1013     941     940     911     935     863     862
       8    1014    1015    1016    1017     936     937     938     939
       8    1016    1018    1019    1017     938     940     941     939
       8    1020    1015    1014    1021     942     937     936     943
       8    1014    1022    1023    1021     936     944     945     943
       8    1024    1025    1026    1020     946     947     948     942
       8    1027    1028    1025    1024     949     950     947     946
       8    1021    1027    1024    1020     943     949     946     942
       8    1029    1030    1022    1031     951     952     944     953
       8    1032    1033    1030    1029     954     955     952     951
       8    1034    1035    1033    1032     956     957     955     954
       8    1036    1034    1032    1037     958     956     954     959
       8    1038    1023    1022    1030     960     945     944     952
       8    1029    1039    1037    1032     951     961     959     954
       8    1014    1017    1031    1022     936     939     953     944
       8    1040    1027    1021    1023     962     949     943     945
       8    1041    1040    1023    1038     963     962     945     960
       8    1042    1041    1038    1043     964     963     960     965
       8    1033    1043    1038    1030     955     965     960     952
       8    1044    1045    1039    1029     966     967     961     951
       8    1046    1044    1029    1031     968     966     951     953
       8    1047    1046    1031    1017     969     968     953     939
       8    1048    1018    1016    1049     970     940     938     971
       8    1050    1049    1016    1015     972     971     938     937
       8    1026    1050    1015    1020     948     972     937     942
       8    1051    1028    1027    1040     973     950     949     962
       8    1052    1051    1040    1041     974     973     962     963
       8    1053    1052    1041    1042     975     974     963     964
       8    1054    1053    1042    1055     976     975     964     977
       8    1056    1055    1042    1043     978     977     964     965
       8    1035    1056    1043    1033     957     978     965     955
       8    1057    1036    1037    1039     979     958     959     961
       8    1058    1057    1039    1045     980     979     961     967
       8    1059    1058    1045    1060     981     980     967     982
       8    1061    1060    1045    1044     983     982     967     966
       8    1062    1061    1044    1046     984     983     966     968
       8    1063    1062    1046    1047     985     984     968     969
       8    1064    1063    1047    1065     986     985     969     987
       8    1019    1065    1047    1017     941     987     969     939
       8    1066    1067    1018    1048     988     989     940     970
       8    1068    1066    1048    1049     990     988     970     971
       8    1069    1068    1049    1050     991     990     971     972
       8    1070    1069    1050    1026     992     991     972     948
       8    1071    1070    1026    1025     993     992     948     947
       8    1072    1071    1025    1028     994     993     947     950
       8    1073    1072    1028    1051     995     994     950     973
       8    1074    1073    1051    1052     996     995     973     974
       8    1075    1074    1052    1053     997     996     974     975
       8    1076    1075    1053    1054     998     997     975     976
       8    1077    1076    1054    1055     999     998     976     977
       8    1078    1077    1055    1056    1000     999     977     978
       8    1079    1078    1056    1035    1001    1000     978     957
       8    1080    1079    1035    1034    1002    1001     957     956
       8    1081    1080    1034    1036    1003    1002     956     958
       8    1082    1081    1036    1057    1004    1003     958     979
       8    1083    1082    1057    1058    1005    1004     979     980
       8    1084    1083    1058    1059    1006    1005     980     981
       8    1085    1084    1059    1060    1007    1006     981     982
       8    1086    1085    1060    1061    1008    1007     982     983
       8    1087    1086    1061    1062    1009    1008     983     984
       8    1088    1087    1062    1063    1010    1009     984     985
       8    1089    1088    1063    1064    1011    1010     985     986
       8    1090    1089    1064    1065    1012    1011     986     987
       8    1091    1090    1065    1019    1013    1012     987     941
       8    1067    1091    1019    1018     989    1013     941     940
       8    1092    1093    1094    1095    1014    1015    1016    1017
       8    1094    1096    1097    1095    1016    1018    1019    1017
       8    1098    1093    1092    1099    1020    1015    1014    1021
       8    1092    1100    1101    1099    1014    1022    1023    1021
       8    1102    1103    1104    1098    1024    1025    1026    1020
       8    1105    1106    1103    1102    1027    1028    1025    1024
       8    1099    1105    1102    1098    1021    1027    1024    1020
       8    1107    1108    1100    1109    1029    1030    1022    1031
       8    1110    1111    1108    1107    1032    1033    1030    1029
       8    1112    1113    1111    1110    1034    1035    1033    1032
       8    1114    1112    1110    1115    1036    1034    1032    1037
       8    1116    1101    1100    1108    1038    1023    1022    1030
       8    1107    1117    1115    1110    1029    1039    1037    1032
       8    1092    1095    1109    1100    1014    1017    1031    1022
       8    1118    1105    1099    1101    1040    1027    1021    1023
       8    1119    1118    1101    1116    1041    1040    1023    1038
       8    1120    1119    1116    1121    1042    1041    1038    1043
       8    1111    1121    1116    1108    1033    1043    1038    1030
       8    1122    1123    1117    1107    1044    1045    1039    1029
       8    1124    1122    1107    1109    1046    1044    1029    1031
       8    1125    1124    1109    1095    1047    1046    1031    1017
       8    1126    1096    1094    1127    1048    1018    1016    1049
       8    1128    1127    1094    1093    1050    1049    1016    1015
       8    1104    1128    1093    1098    1026    1050    1015    1020
       8    1129    1106    1105    1118    1051    1028    1027    1040
       8    1130    1129    1118    1119    1052    1051    1040    1041
       8    1131    1130    1119    1120    1053    1052    1041    1042
       8    1132    1131    1120    1133    1054    1053    1042    1055
       8    1134    1133    1120    1121    1056    1055    1042    1043
       8    1113    1134    1121    1111    1035    1056    1043    1033
       8    1135    1114    1115    1117    1057    1036    1037    1039
       8    1136    1135    1117    1123    1058    1057    1039    1045
       8    1137    1136    1123    1138    1059    1058    1045    1060
       8    1139    1138    1123    1122    1061    1060    1045    1044
       8    1140    1139    1122    1124    1062    1061    1044    1046
       8    1141    1140    1124    1125    1063    1062    1046    1047
       8    1142    1141    1125    1143    1064    1063    1047    1065
       8    1097    1143    1125    1095    1019    1065    1047    1017
       8    1144    1145    1096    1126    1066    1067    1018    1048
       8    1146    1144    1126    1127    1068    1066    1048    1049
       8    1147    1146    1127    1128    1069    1068    1049    1050
       8    1148    1147    1128    1104    1070    1069    1050    1026
       8    1149    1148    1104    1103    1071    1070    1026    1025
       8    1150    1149    1103    1106    1072    1071    1025    1028
       8    1151    1150    1106    1129    1073    1072    1028    1051
       8    1152    1151    1129    1130    1074    1073    1051    1052
       8    1153    1152    1130    1131    1075    1074    1052    1053
       8    1154    1153    1131    1132    1076    1075    1053    1054
       8    1155    1154    1132    1133    1077    1076    1054    1055
       8    1156    1155    1133    1134    1078    1077    1055    1056
       8    1157    1156    1134    1113    1079    1078    1056    1035
       8    1158    1157    1113    1112    1080    1079    1035    1034
       8    1159    1158    1112    1114    1081    1080    1034    1036
       8    1160    1159    1114    1135    1082    1081    1036    1057
       8    1161    1160    1135    1136    1083    1082    1057    1058
       8    1162    1161    1136    1137    1084    1083    1058    1059
       8    1163    1162    1137    1138    1085    1084    1059    1060
       8    1164    1163    1138    1139    1086    1085    1060    1061
       8    1165    1164    1139    1140    1087    1086    1061    1062
       8    1166    1165    1140    1141    1088    1087    1062    1063
       8    1167    1166    1141    1142    1089    1088    1063    1064
       8    1168    1167    1142    1143    1090    1089    1064    1065
       8    1169    1168    1143    1097    1091    1090    1065    1019
       8    1145    1169    1097    1096    1067    1091    1019    1018
       8    1170    1171    1172    1173    1092    1093    1094    1095
       8    1172    1174    1175    1173    1094    1096    1097    1095
       8    1176    1171    1170    1177    1098    1093    1092    1099
       8    1170    1178    1179    1177    1092    1100    1101    1099
       8    1180    1181    1182    1176    1102    1103    1104    1098
       8    1183    1184    1181    1180    1105    1106    1103    1102
       8    1177    1183    1180    1176    1099    1105    1102    1098
       8    1185    1186    1178    1187    1107    1108    1100    1109
       8    1188    1189    1186    1185    1110    1111    1108    1107
       8    1190    1191    1189    1188    1112    1113    1111    1110
       8    1192    1190    1188    1193    1114    1112    1110    1115
       8    1194    1179    1178    1186    1116    1101    1100    1108
       8    1185    1195    1193    1188    1107    1117    1115    1110
       8    1170    1173    1187    1178    1092    1095    1109    1100
       8    1196    1183    1177    1179    1118    1105    1099    1101
       8    1197    1196    1179    1194    1119    1118    1101    1116
       8    1198    1197    1194    1199    1120    1119    1116    1121
       8    1189    1199    1194    1186    1111    1121    1116    1108
       8    1200    1201    1195    1185    1122    1123    1117    1107
       8    1202    1200    1185    1187    1124    1122    1107    1109
       8    1203    1202    1187    1173    1125    1124    1109    1095
       8    1204    1174    1172    1205    1126    1096    1094    1127
       8    1206    1205    1172    1171    1128    1127    1094    1093
       8    1182    1206    1171    1176    1104    1128    1093    1098
       8    1207    1184    1183    1196    1129    1106    1105    1118
       8    1208    1207    1196    1197    1130    1129    1118    1119
       8    1209    1208    1197    1198    1131    1130    1119    1120
       8    1210    1209    1198    1211    1132    1131    1120    1133
       8    1212    1211    1198    1199    1134    1133    1120    1121
       8    1191    1212    1199    1189    1113    1134    1121    1111
       8    1213    1192    1193    1195    1135    1114    1115    1117
       8    1214    1213    1195    1201    1136    1135    1117    1123
       8    1215    1214    1201    1216    1137    1136    1123    1138
       8    1217    1216    1201    1200    1139    1138    1123    1122
       8    1218    1217    1200    1202    1140    1139    1122    1124
       8    1219    1218    1202    1203    1141    1140    1124    1125
       8    1220    1219    1203    1221    1142    1141    1125    1143
       8    1175    1221    1203    1173    1097    1143    1125    1095
       8    1222    1223    1174    1204    1144    1145    1096    1126
       8    1224    1222    1204    1205    1146    1144    1126    1127
       8    1225    1224    1205    1206    1147    1146    1127    1128
       8    1226    1225    1206    1182    1148    1147    1128    1104
       8    1227    1226    1182    1181    1149    1148    1104    1103
       8    1228    1227    1181    1184    1150    1149    1103    1106
       8    1229    1228    1184    1207    1151    1150    1106    1129
       8    1230    1229    1207    1208    1152    1151    1129    1130
       8    1231    1230    1208    1209    1153    1152    1130    1131
       8    1232    1231    1209    1210    1154    1153    1131    1132
       8    1233    1232    1210    1211    1155    1154    1132    1133
       8    1234    1233    1211    1212    1156    1155    1133    1134
       8    1235    1234    1212    1191    1157    1156    1134    1113
       8    1236    1235    1191    1190    1158    1157    1113    1112
       8    1237    1236    1190    1192    1159    1158    1112    1114
       8    1238    1237    1192    1213    1160    1159    1114    1135
       8    1239    1238    1213    1214    1161    1160    1135    1136
       8    1240    1239    1214    1215    1162    1161    1136    1137
       8    1241    1240    1215    1216    1163    1162    1137    1138
       8    1242    1241    1216    1217    1164    1163    1138    1139
       8    1243    1242    1217    1218    1165    1164    1139    1140
       8    1244    1243    1218    1219    1166    1165    1140    1141
       8    1245    1244    1219    1220    1167    1166    1141    1142
       8    1246    1245    1220    1221    1168    1167    1142    1143
       8    1247    1246    1221    1175    1169    1168    1143    1097
       8    1223    1247    1175    1174    1145    1169    1097    1096
       8    1248    1249    1250    1251    1170    1171    1172    1173
       8    1250    1252    1253    1251    1172    1174    1175    1173
       8    1254    1249    1248    1255    1176    1171    1170    1177
       8    1248    1256    1257    1255    1170    1178    1179    1177
       8    1258    1259    1260    1254    1180    1181    1182    1176
       8    1261    1262    1259    1258    1183    1184    1181    1180
       8    1255    1261    1258    1254    1177    1183    1180    1176
       8    1263    1264    1256    1265    1185    1186    1178    1187
       8    1266    1267    1264    1263    1188    1189    1186    1185
       8    1268    1269    1267    1266    1190    1191    1189    1188
       8    1270    1268    1266    1271    1192    1190    1188    1193
       8    1272    1257    1256    1264    1194    1179    1178    1186
       8    1263    1273    1271    1266    1185    1195    1193    1188
       8    1248    1251    1265    1256    1170    1173    1187    1178
       8    1274    1261    1255    1257    1196    1183    1177    1179
       8    1275    1274    1257    1272    1197    1196    1179    1194
       8    1276    1275    1272    1277    1198    1197    1194    1199
       8    1267    1277    1272    1264    1189    1199    1194    1186
       8    1278    1279    1273    1263    1200    1201    1195    1185
       8    1280    1278    1263    1265    1202    1200    1185    1187
       8    1281    1280    1265    1251    1203    1202    1187    1173
       8    1282    1252    1250    1283    1204    1174    1172    1205
       8    1284    1283    1250    1249    1206    1205    1172    1171
       8    1260    1284    1249    1254    1182    1206    1171    1176
       8    1285    1262    1261    1274    1207    1184    1183    1196
       8    1286    1285    1274    1275    1208    1207    1196    1197
       8    1287    1286    1275    1276    1209    1208    1197    1198
       8    1288    1287    1276    1289    1210    1209    1198    1211
       8    1290    1289    1276    1277    1212    1211    1198    1199
       8    1269    1290    1277    1267    1191    1212    1199    1189
       8    1291    1270    1271    1273    1213    1192    1193    1195
       8    1292    1291    1273    1279    1214    1213    1195    1201
       8    1293    1292    1279    1294    1215    1214    1201    1216
       8    1295    1294    1279    1278    1217    1216    1201    1200
       8    1296    1295    1278    1280    1218    1217    1200    1202
       8    1297    1296    1280    1281    1219    1218    1202    1203
       8    1298    1297    1281    1299    1220    1219    1203    1221
       8    1253    1299    1281    1251    1175    1221    1203    1173
       8    1300    1301    1252    1282    1222    1223    1174    1204
       8    1302    1300    1282    1283    1224    1222    1204    1205
       8    1303    1302    1283    1284    1225    1224    1205    1206
       8    1304    1303    1284    1260    1226    1225    1206    1182
       8    1305    1304    1260    1259    1227    1226    1182    1181
       8    1306    1305    1259    1262    1228    1227    1181    1184
       8    1307    1306    1262    1285    1229    1228    1184    1207
       8    1308    1307    1285    1286    1230    1229    1207    1208
       8    1309    1308    1286    1287    1231    1230    1208    1209
       8    1310    1309    1287    1288    1232    1231    1209    1210
       8    1311    1310    1288    1289    1233    1232    1210    1211
       8    1312    1311    1289    1290    1234    1233    1211    1212
       8    1313    1312    1290    1269    1235    1234    1212    1191
       8    1314    1313    1269    1268    1236    1235    1191    1190
       8    1315    1314    1268    1270    1237    1236    1190    1192
       8    1316    1315    1270    1291    1238    1237    1192    1213
       8    1317    1316    1291    1292    1239    1238    1213    1214
       8    1318    1317    1292    1293    1240    1239    1214    1215
       8    1319    1318    1293    1294    1241    1240    1215    1216
       8    1320    1319    1294    1295    1242    1241    1216    1217
       8    1321    1320    1295    1296    1243    1242    1217    1218
       8    1322    1321    1296    1297    1244    1243    1218    1219
       8    1323    1322    1297    1298    1245    1244    1219    1220
       8    1324    1323    1298    1299    1246    1245    1220    1221
       8    1325    1324    1299    1253    1247    1246    1221    1175
       8    1301    1325    1253    1252    1223    1247    1175    1174
       8    1326    1327    1328    1329    1248    1249    1250    1251
       8    1328    1330    1331    1329    1250    1252    1253    1251
       8    1332    1327    1326    1333    1254    1249    1248    1255
       8    1326    1334    1335    1333    1248    1256    1257    1255
       8    1336    1337    1338    1332    1258    1259    1260    1254
       8    1339    1340    1337    1336    1261    1262    1259    1258
       8    1333    1339    1336    1332    1255    1261    1258    1254
       8    1341    1342    1334    1343    1263    1264    1256    1265
       8    1344    1345    1342    1341    1266    1267    1264    1263
       8    1346    1347    1345    1344    1268    1269    1267    1266
       8    1348    1346    1344    1349    1270    1268    1266    1271
       8    1350    1335    1334    1342    1272    1257    1256    1264
       8    1341    1351    1349    1344    1263    1273    1271    1266
       8    1326    1329    1343    1334    1248    1251    1265    1256
       8    1352    1339    1333    1335    1274    1261    1255    1257
       8    1353    1352    1335    1350    1275    1274    1257    1272
       8    1354    1353    1350    1355    1276    1275    1272    1277
       8    1345    1355    1350    1342    1267    1277    1272    1264
       8    1356    1357    1351    1341    1278    1279    1273    1263
       8    1358    1356    1341    1343    1280    1278    1263    1265
       8    1359    1358    1343    1329    1281    1280    1265    1251
       8    1360    1330    1328    1361    1282    1252    1250    1283
       8    1362    1361    1328    1327    1284    1283    1250    1249
       8    1338    1362    1327    1332    1260    1284    1249    1254
       8    1363    1340    1339    1352    1285    1262    1261    1274
       8    1364    1363    1352    1353    1286    1285    1274    1275
       8    1365    1364    1353    1354    1287    1286    1275    1276
       8    1366    1365    1354    1367    1288    1287    1276    1289
       8    1368    1367    1354    1355    1290    1289    1276    1277
       8    1347    1368    1355    1345    1269    1290    1277    1267
       8    1369    1348    1349    1351    1291    1270    1271    1273
       8    1370    1369    1351    1357    1292    1291    1273    1279
       8    1371    1370    1357    1372    1293    1292    1279    1294
       8    1373    1372    1357    1356    1295    1294    1279    1278
       8    1374    1373    1356    1358    1296    1295    1278    1280
       8    1375    1374    1358    1359    1297    1296    1280    1281
       8    1376    1375    1359    1377    1298    1297    1281    1299
       8    1331    1377    1359    1329    1253    1299    1281    1251
       8    1378    1379    1330    1360    1300    1301    1252    1282
       8    1380    1378    1360    1361    1302    1300    1282    1283
       8    1381    1380    1361    1362    1303    1302    1283    1284
       8    1382    1381    1362    1338    1304    1303    1284    1260
       8    1383    1382    1338    1337    1305    1304    1260    1259
       8    1384    1383    1337    1340    1306    1305    1259    1262
       8    1385    1384    1340    1363    1307    1306    1262    1285
       8    1386    1385    1363    1364    1308    1307    1285    1286
       8    1387    1386    1364    1365    1309    1308    1286    1287
       8    1388    1387    1365    1366    1310    1309    1287    1288
       8    1389    1388    1366    1367    1311    1310    1288    1289
       8    1390    1389    1367    1368    1312    1311    1289    1290
       8    1391    1390    1368    1347    1313    1312    1290    1269
       8    1392    1391    1347    1346    1314    1313    1269    1268
       8    1393    1392    1346    1348    1315    1314    1268    1270
       8    1394    1393    1348    1369    1316    1315    1270    1291
       8    1395    1394    1369    1370    1317    1316    1291    1292
       8    1396    1395    1370    1371    1318    1317    1292    1293
       8    1397    1396    1371    1372    1319    1318    1293    1294
       8    1398    1397    1372    1373    1320    1319    1294    1295
       8    1399    1398    1373    1374    1321    1320    1295    1296
       8    1400    1399    1374    1375    1322    1321    1296    1297
       8    1401    1400    1375    1376    1323    1322    1297    1298
       8    1402    1401    1376    1377    1324    1323    1298    1299
       8    1403    1402    1377    1331    1325    1324    1299    1253
       8    1379    1403    1331    1330    1301    1325    1253    1252
       8    1404    1405    1406    1407    1326    1327    1328    1329
       8    1406    1408    1409    1407    1328    1330    1331    1329
       8    1410    1405    1404    1411    1332    1327    1326    1333
       8    1404    1412    1413    1411    1326    1334    1335    1333
       8    1414    1415    1416    1410    1336    1337    1338    1332
       8    1417    1418    1415    1414    1339    1340    1337    1336
       8    1411    1417    1414    1410    1333    1339    1336    1332
       8    1419    1420    1412    1421    1341    1342    1334    1343
       8    1422    1423    1420    1419    1344    1345    1342    1341
       8    1424    1425    1423    1422    1346    1347    1345    1344
       8    1426    1424    1422    1427    1348    1346    1344    1349
       8    1428    1413    1412    1420    1350    1335    1334    1342
       8    1419    1429    1427    1422    1341    1351    1349    1344
       8    1404    1407    1421    1412    1326    1329    1343    1334
       8    1430    1417    1411    1413    1352    1339    1333    1335
       8    1431    1430    1413    1428    1353    1352    1335    1350
       8    1432    1431    1428    1433    1354    1353    1350    1355
       8    1423    1433    1428    1420    1345    1355    1350    1342
       8    1434    1435    1429    1419    1356    1357    1351    1341
       8    1436    1434    1419    1421    1358    1356    1341    1343
       8    1437    1436    1421    1407    1359    1358    1343    1329
       8    1438    1408    1406    1439    1360    1330    1328    1361
       8    1440    1439    1406    1405    1362    1361    1328    1327
       8    1416    1440    1405    1410    1338    1362    1327    1332
       8    1441    1418    1417    1430    1363    1340    1339    1352
       8    1442    1441    1430    1431    1364    1363    1352    1353
       8    1443    1442    1431    1432    1365    1364    1353    1354
       8    1444    1443    1432    1445    1366    1365    1354    1367
       8    1446    1445    1432    1433    1368    1367    1354    1355
       8    1425    1446    1433    1423    1347    1368    1355    1345
       8    1447    1426    1427    1429    1369    1348    1349    1351
       8    1448    1447    1429    1435    1370    1369    1351    1357
       8    1449    1448    1435    1450    1371    1370    1357    1372
       8    1451    1450    1435    1434    1373    1372    1357    1356
       8    1452    1451    1434    1436    1374    1373    1356    1358
       8    1453    1452    1436    1437    1375    1374    1358    1359
       8    1454    1453    1437    1455    1376    1375    1359    1377
       8    1409    1455    1437    1407    1331    1377    1359    1329
       8    1456    1457    1408    1438    1378    1379    1330    1360
       8    1458    1456    1438    1439    1380    1378    1360    1361
       8    1459    1458    1439    1440    1381    1380    1361    1362
       8    1460    1459    1440    1416    1382    1381    1362    1338
       8    1461    1460    1416    1415    1383    1382    1338    1337
       8    1462    1461    1415    1418    1384    1383    1337    1340
       8    1463    1462    1418    1441    1385    1384    1340    1363
       8    1464    1463    1441    1442    1386    1385    1363    1364
       8    1465    1464    1442    1443    1387    1386    1364    1365
       8    1466    1465    1443    1444    1388    1387    1365    1366
       8    1467    1466    1444    1445    1389    1388    1366    1367
       8    1468    1467    1445    1446    1390    1389    1367    1368
       8    1469    1468    1446    1425    1391    1390    1368    1347
       8    1470    1469    1425    1424    1392    1391    1347    1346
       8    1471    1470    1424    1426    1393    1392    1346    1348
       8    1472    1471    1426    1447    1394    1393    1348    1369
       8    1473    1472    1447    1448    1395    1394    1369    1370
       8    1474    1473    1448    1449    1396    1395    1370    1371
       8    1475    1474    1449    1450    1397    1396    1371    1372
       8    1476    1475    1450    1451    1398    1397    1372    1373
       8    1477    1476    1451    1452    1399    1398    1373    1374
       8    1478    1477    1452    1453    1400    1399    1374    1375
       8    1479    1478    1453    1454    1401    1400    1375    1376
       8    1480    1479    1454    1455    1402    1401    1376    1377
       8    1481    1480    1455    1409    1403    1402    1377    1331
       8    1457    1481    1409    1408    1379    1403    1331    1330
       8    1482    1483    1484    1485    1404    1405    1406    1407
       8    1484    1486    1487    1485    1406    1408    1409    1407
       8    1488    1483    1482    1489    1410    1405    1404    1411
       8    1482    1490    1491    1489    1404    1412    1413    1411
       8    1492    1493    1494    1488    1414    1415    1416    1410
       8    1495    1496    1493    1492    1417    1418    1415    1414
       8    1489    1495    1492    1488    1411    1417    1414    1410
       8    1497    1498    1490    1499    1419    1420    1412    1421
       8    1500    1501    1498    1497    1422    1423    1420    1419
       8    1502    1503    1501    1500    1424    1425    1423    1422
       8    1504    1502    1500    1505    1426    1424    1422    1427
       8    1506    1491    1490    1498    1428    1413    1412    1420
       8    1497    1507    1505    1500    1419    1429    1427    1422
       8    1482    1485    1499    1490    1404    1407    1421    1412
       8    1508    1495    1489    1491    1430    1417    1411    1413
       8    1509    1508    1491    1506    1431    1430    1413    1428
       8    1510    1509    1506    1511    1432    1431    1428    1433
       8    1501    1511    1506    1498    1423    1433    1428    1420
       8    1512    1513    1507    1497    1434    1435    1429    1419
       8    1514    1512    1497    1499    1436    1434    1419    1421
       8    1515    1514    1499    1485    1437    1436    1421    1407
       8    1516    1486    1484    1517    1438    1408    1406    1439
       8    1518    1517    1484    1483    1440    1439    1406    1405
       8    1494    1518    1483    1488    1416    1440    1405    1410
       8    1519    1496    1495    1508    1441    1418    1417    1430
       8    1520    1519    1508    1509    1442    1441    1430    1431
       8    1521    1520    1509    1510    1443    1442    1431    1432
       8    1522    1521    1510    1523    1444    1443    1432    1445
       8    1524    1523    1510    1511    1446    1445    1432    1433
       8    1503    1524    1511    1501    1425    1446    1433    1423
       8    1525    1504    1505    1507    1447    1426    1427    1429
       8    1526    1525    1507    1513    1448    1447    1429    1435
       8    1527    1526    1513    1528    1449    1448    1435    1450
       8    1529    1528    1513    1512    1451    1450    1435    1434
       8    1530    1529    1512    1514    1452    1451    1434    1436
       8    1531    1530    1514    1515    1453    1452    1436    1437
       8    1532    1531    1515    1533    1454    1453    1437    1455
       8    1487    1533    1515    1485    1409    1455    1437    1407
       8    1534    1535    1486    1516    1456    1457    1408    1438
       8    1536    1534    1516    1517    1458    1456    1438    1439
       8    1537    1536    1517    1518    1459    1458    1439    1440
       8    1538    1537    1518    1494    1460    1459    1440    1416
       8    1539    1538    1494    1493    1461    1460    1416    1415
       8    1540    1539    1493    1496    1462    1461    1415    1418
       8    1541    1540    1496    1519    1463    1462    1418    1441
       8    1542    1541    1519    1520    1464    1463    1441    1442
       8    1543    1542    1520    1521    1465    1464    1442    1443
       8    1544    1543    1521    1522    1466    1465    1443    1444
       8    1545    1544    1522    1523    1467    1466    1444    1445
       8    1546    1545    1523    1524    1468    1467    1445    1446
       8    1547    1546    1524    1503    1469    1468    1446    1425
       8    1548    1547    1503    1502    1470    1469    1425    1424
       8    1549    1548    1502    1504    1471    1470    1424    1426
       8    1550    1549    1504    1525    1472    1471    1426    1447
       8    1551    1550    1525    1526    1473    1472    1447    1448
       8    1552    1551    1526    1527    1474    1473    1448    1449
       8    1553    1552    1527    1528    1475    1474    1449    1450
       8    1554    1553    1528    1529    1476    1475    1450    1451
       8    1555    1554    1529    1530    1477    1476    1451    1452
       8    1556    1555    1530    1531    1478    1477    1452    1453
       8    1557    1556    1531    1532    1479    1478    1453    1454
       8    1558    1557    1532    1533    1480    1479    1454    1455
       8    1559    1558    1533    1487    1481    1480    1455    1409
       8    1535    1559    1487    1486    1457    1481    1409    1408
       8    1560    1561    1562    1563    1482    1483    1484    1485
       8    1562    1564    1565    1563    1484    1486    1487    1485
       8    1566    1561    1560    1567    1488    1483    1482    1489
       8    1560    1568    1569    1567    1482    1490    1491    1489
       8    1570    1571    1572    1566    1492    1493    1494    1488
       8    1573    1574    1571    1570    1495    1496    1493    1492
       8    1567    1573    1570    1566    1489    1495    1492    1488
       8    1575    1576    1568    1577    1497    1498    1490    1499
       8    1578    1579    1576    1575    1500    1501    1498    1497
       8    1580    1581    1579    1578    1502    1503    1501    1500
       8    1582    1580    1578    1583    1504    1502    1500    1505
       8    1584    1569    1568    1576    1506    1491    1490    1498
       8    1575    1585    1583    1578    1497    1507    1505    1500
       8    1560    1563    1577    1568    1482    1485    1499    1490
       8    1586    1573    1567    1569    1508    1495    1489    1491
       8    1587    1586    1569    1584    1509    1508    1491    1506
       8    1588    1587    1584    1589    1510    1509    1506    1511
       8    1579    1589    1584    1576    1501    1511    1506    1498
       8    1590    1591    1585    1575    1512    1513    1507    1497
       8    1592    1590    1575    1577    1514    1512    1497    1499
       8    1593    1592    1577    1563    1515    1514    1499    1485
       8    1594    1564    1562    1595    1516    1486    1484    1517
       8    1596    1595    1562    1561    1518    1517    1484    1483
       8    1572    1596    1561    1566    1494    1518    1483    1488
       8    1597    1574    1573    1586    1519    1496    1495    1508
       8    1598    1597    1586    1587    1520    1519    1508    1509
       8    1599    1598    1587    1588    1521    1520    1509    1510
       8    1600    1599    1588    1601    1522    1521    1510    1523
       8    1602    1601    1588    1589    1524    1523    1510    1511
       8    1581    1602    1589    1579    1503    1524    1511    1501
       8    1603    1582    1583    1585    1525    1504    1505    1507
       8    1604    1603    1585    1591    1526    1525    1507    1513
       8    1605    1604    1591    1606    1527    1526    1513    1528
       8    1607    1606    1591    1590    1529    1528    1513    1512
       8    1608    1607    1590    1592    1530    1529    1512    1514
       8    1609    1608    1592    1593    1531    1530    1514    1515
       8    1610    1609    1593    1611    1532    1531    1515    1533
       8    1565    1611    1593    1563    1487    1533    1515    1485
       8    1612    1613    1564    1594    1534    1535    1486    1516
       8    1614    1612    1594    1595    1536    1534    1516    1517
       8    1615    1614    1595    1596    1537    1536    1517    1518
       8    1616    1615    1596    1572    1538    1537    1518    1494
       8    1617    1616    1572    1571    1539    1538    1494    1493
       8    1618    1617    1571    1574    1540    1539    1493    1496
       8    1619    1618    1574    1597    1541    1540    1496    1519
       8    1620    1619    1597    1598    1542    1541    1519    1520
       8    1621    1620    1598    1599    1543    1542    1520    1521
       8    1622    1621    1599    1600    1544    1543    1521    1522
       8    1623    1622    1600    1601    1545    1544    1522    1523
       8    1624    1623    1601    1602    1546    1545    1523    1524
       8    1625    1624    1602    1581    1547    1546    1524    1503
       8    1626    1625    1581    1580    1548    1547    1503    1502
       8    1627    1626    1580    1582    1549    1548    1502    1504
       8    1628    1627    1582    1603    1550    1549    1504    1525
       8    1629    1628    1603    1604    1551    1550    1525    1526
       8    1630    1629    1604    1605    1552    1551    1526    1527
       8    1631    1630    1605    1606    1553    1552    1527    1528
       8    1632    1631    1606    1607    1554    1553    1528    1529
       8    1633    1632    1607    1608    1555    1554    1529    1530
       8    1634    1633    1608    1609    1556    1555    1530    1531
       8    1635    1634    1609    1610    1557    1556    1531    1532
       8    1636    1635    1610    1611    1558    1557    1532    1533
       8    1637    1636    1611    1565    1559    1558    1533    1487
       8    1613    1637    1565    1564    1535    1559    1487    1486
       8    1638    1639    1640    1641    1560    1561    1562    1563
       8    1640    1642    1643    1641    1562    1564    1565    1563
       8    1644    1639    1638    1645    1566    1561    1560    1567
       8    1638    1646    1647    1645    1560    1568    1569    1567
       8    1648    1649    1650    1644    1570    1571    1572    1566
       8    1651    1652    1649    1648    1573    1574    1571    1570
       8    1645    1651    1648    1644    1567    1573    1570    1566
       8    1653    1654    1646    1655    1575    1576    1568    1577
       8    1656    1657    1654    1653    1578    1579    1576    1575
       8    1658    1659    1657    1656    1580    1581    1579    1578
       8    1660    1658    1656    1661    1582    1580    1578    1583
       8    1662    1647    1646    1654    1584    1569    1568    1576
       8    1653    1663    1661    1656    1575    1585    1583    1578
       8    1638    1641    1655    1646    1560    1563    1577    1568
       8    1664    1651    1645    1647    1586    1573    1567    1569
       8    1665    1664    1647    1662    1587    1586    1569    1584
       8    1666    1665    1662    1667    1588    1587    1584    1589
       8    1657    1667    1662    1654    1579    1589    1584    1576
       8    1668    1669    1663    1653    1590    1591    1585    1575
       8    1670    1668    1653    1655    1592    1590    1575    1577
       8    1671    1670    1655    1641    1593    1592    1577    1563
       8    1672    1642    1640    1673    1594    1564    1562    1595
       8    1674    1673    1640    1639    1596    1595    1562    1561
       8    1650    1674    1639    1644    1572    1596    1561    1566
       8    1675    1652    1651    1664    1597    1574    1573    1586
       8    1676    1675    1664    1665    1598    1597    1586    1587
       8    1677    1676    1665    1666    1599    1598    1587    1588
       8    1678    1677    1666    1679    1600    1599    1588    1601
       8    1680    1679    1666    1667    1602    1601    1588    1589
       8    1659    1680    1667    1657    1581    1602    1589    1579
       8    1681    1660    1661    1663    1603    1582    1583    1585
       8    1682    1681    1663    1669    1604    1603    1585    1591
       8    1683    1682    1669    1684    1605    1604    1591    1606
       8    1685    1684    1669    1668    1607    1606    1591    1590
       8    1686    1685    1668    1670    1608    1607    1590    1592
       8    1687    1686    1670    1671    1609    1608    1592    1593
       8    1688    1687    1671    1689    1610    1609    1593    1611
       8    1643    1689    1671    1641    1565    1611    1593    1563
       8    1690    1691    1642    1672    1612    1613    1564    1594
       8    1692    1690    1672    1673    1614    1612    1594    1595
       8    1693    1692    1673    1674    1615    1614    1595    1596
       8    1694    1693    1674    1650    1616    1615    1596    1572
       8    1695    1694    1650    1649    1617    1616    1572    1571
       8    1696    1695    1649    1652    1618    1617    1571    1574
       8    1697    1696    1652    1675    1619    1618    1574    1597
       8    1698    1697    1675    1676    1620    1619    1597    1598
       8    1699    1698    1676    1677    1621    1620    1598    1599
       8    1700    1699    1677    1678    1622    1621    1599    1600
       8    1701    1700    1678    1679    1623    1622    1600    1601
       8    1702    1701    1679    1680    1624    1623    1601    1602
       8    1703    1702    1680    1659    1625    1624    1602    1581
       8    1704    1703    1659    1658    1626    1625    1581    1580
       8    1705    1704    1658    1660    1627    1626    1580    1582
       8    1706    1705    1660    1681    1628    1627    1582    1603
       8    1707    1706    1681    1682    1629    1628    1603    1604
       8    1708    1707    1682    1683    1630    1629    1604    1605
       8    1709    1708    1683    1684    1631    1630    1605    1606
       8    1710    1709    1684    1685    1632    1631    1606    1607
       8    1711    1710    1685    1686    1633    1632    1607    1608
       8    1712    1711    1686    1687    1634    1633    1608    1609
       8    1713    1712    1687    1688    1635    1634    1609    1610
       8    1714    1713    1688    1689    1636    1635    1610    1611
       8    1715    1714    1689    1643    1637    1636    1611    1565
       8    1691    1715    1643    1642    1613    1637    1565    1564
       8    1716    1717    1718    1719    1638    1639    1640    1641
       8    1718    1720    1721    1719    1640    1642    1643    1641
       8    1722    1717    1716    1723    1644    1639    1638    1645
       8    1716    1724    1725    1723    1638    1646    1647    1645
       8    1726    1727    1728    1722    1648    1649    1650    1644
       8    1729    1730    1727    1726    1651    1652    1649    1648
       8    1723    1729    1726    1722    1645    1651    1648    1644
       8    1731    1732    1724    1733    1653    1654    1646    1655
       8    1734    1735    1732    1731    1656    1657    1654    1653
       8    1736    1737    1735    1734    1658    1659    1657    1656
       8    1738    1736    1734    1739    1660    1658    1656    1661
       8    1740    1725    1724    1732    1662    1647    1646    1654
       8    1731    1741    1739    1734    1653    1663    1661    1656
       8    1716    1719    1733    1724    1638    1641    1655    1646
       8    1742    1729    1723    1725    1664    1651    1645    1647
       8    1743    1742    1725    1740    1665    1664    1647    1662
       8    1744    1743    1740    1745    1666    1665    1662    1667
       8    1735    1745    1740    1732    1657    1667    1662    1654
       8    1746    1747    1741    1731    1668    1669    1663    1653
       8    1748    1746    1731    1733    1670    1668    1653    1655
       8    1749    1748    1733    1719    1671    1670    1655    1641
       8    1750    1720    1718    1751    1672    1642    1640    1673
       8    1752    1751    1718    1717    1674    1673    1640    1639
       8    1728    1752    1717    1722    1650    1674    1639    1644
       8    1753    1730    1729    1742    1675    1652    1651    1664
       8    1754    1753    1742    1743    1676    1675    1664    1665
       8    1755    1754    1743    1744    1677    1676    1665    1666
       8    1756    1755    1744    1757    1678    1677    1666    1679
       8    1758    1757    1744    1745    1680    1679    1666    1667
       8    1737    1758    1745    1735    1659    1680    1667    1657
       8    1759    1738    1739    1741    1681    1660    1661    1663
       8    1760    1759    1741    1747    1682    1681    1663    1669
       8    1761    1760    1747    1762    1683    1682    1669    1684
       8    1763    1762    1747    1746    1685    1684    1669    1668
       8    1764    1763    1746    1748    1686    1685    1668    1670
       8    1765    1764    1748    1749    1687    1686    1670    1671
       8    1766    1765    1749    1767    1688    1687    1671    1689
       8    1721    1767    1749    1719    1643    1689    1671    1641
       8    1768    1769    1720    1750    1690    1691    1642    1672
       8    1770    1768    1750    1751    1692    1690    1672    1673
       8    1771    1770    1751    1752    1693    1692    1673    1674
       8    1772    1771    1752    1728    1694    1693    1674    1650
       8    1773    1772    1728    1727    1695    1694    1650    1649
       8    1774    1773    1727    1730    1696    1695    1649    1652
       8    1775    1774    1730    1753    1697    1696    1652    1675
       8    1776    1775    1753    1754    1698    1697    1675    1676
       8    1777    1776    1754    1755    1699    1698    1676    1677
       8    1778    1777    1755    1756    1700    1699    1677    1678
       8    1779    1778    1756    1757    1701    1700    1678    1679
       8    1780    1779    1757    1758    1702    1701    1679    1680
       8    1781    1780    1758    1737    1703    1702    1680    1659
       8    1782    1781    1737    1736    1704    1703    1659    1658
       8    1783    1782    1736    1738    1705    1704    1658    1660
       8    1784    1783    1738    1759    1706    1705    1660    1681
       8    1785    1784    1759    1760    1707    1706    1681    1682
       8    1786    1785    1760    1761    1708    1707    1682    1683
       8    1787    1786    1761    1762    1709    1708    1683    1684
       8    1788    1787    1762    1763    1710    1709    1684    1685
       8    1789    1788    1763    1764    1711    1710    1685    1686
       8    1790    1789    1764    1765    1712    1711    1686    1687
       8    1791    1790    1765    1766    1713    1712    1687    1688
       8    1792    1791    1766    1767    1714    1713    1688    1689
       8    1793    1792    1767    1721    1715    1714    1689    1643
       8    1769    1793    1721    1720    1691    1715    1643    1642
       8    1794    1795    1796    1797    1716    1717    1718    1719
       8    1796    1798    1799    1797    1718    1720    1721    1719
       8    1800    1795    1794    1801    1722    1717    1716    1723
       8    1794    1802    1803    1801    1716    1724    1725    1723
       8    1804    1805    1806    1800    1726    1727    1728    1722
       8    1807    1808    1805    1804    1729    1730    1727    1726
       8    1801    1807    1804    1800    1723    1729    1726    1722
       8    1809    1810    1802    1811    1731    1732    1724    1733
       8    1812    1813    1810    1809    1734    1735    1732    1731
       8    1814    1815    1813    1812    1736    1737    1735    1734
       8    1816    1814    1812    1817    1738    1736    1734    1739
       8    1818    1803    1802    1810    1740    1725    1724    1732
       8    1809    1819    1817    1812    1731    1741    1739    1734
       8    1794    1797    1811    1802    1716    1719    1733    1724
       8    1820    1807    1801    1803    1742    1729    1723    1725
       8    1821    1820    1803    1818    1743    1742    1725    1740
       8    1822    1821    1818    1823    1744    1743    1740    1745
       8    1813    1823    1818    1810    1735    1745    1740    1732
       8    1824    1825    1819    1809    1746    1747    1741    1731
       8    1826    1824    1809    1811    1748    1746    1731    1733
       8    1827    1826    1811    1797    1749    1748    1733    1719
       8    1828    1798    1796    1829    1750    1720    1718    1751
       8    1830    1829    1796    1795    1752    1751    1718    1717
       8    1806    1830    1795    1800    1728    1752    1717    1722
       8    1831    1808    1807    1820    1753    1730    1729    1742
       8    1832    1831    1820    1821    1754    1753    1742    1743
       8    1833    1832    1821    1822    1755    1754    1743    1744
       8    1834    1833    1822    1835    1756    1755    1744    1757
       8    1836    1835    1822    1823    1758    1757    1744    1745
       8    1815    1836    1823    1813    1737    1758    1745    1735
       8    1837    1816    1817    1819    1759    1738    1739    1741
       8    1838    1837    1819    1825    1760    1759    1741    1747
       8    1839    1838    1825    1840    1761    1760    1747    1762
       8    1841    1840    1825    1824    1763    1762    1747    1746
       8    1842    1841    1824    1826    1764    1763    1746    1748
       8    1843    1842    1826    1827    1765    1764    1748    1749
       8    1844    1843    1827    1845    1766    1765    1749    1767
       8    1799    1845    1827    1797    1721    1767    1749    1719
       8    1846    1847    1798    1828    1768    1769    1720    1750
       8    1848    1846    1828    1829    1770    1768    1750    1751
       8    1849    1848    1829    1830    1771    1770    1751    1752
       8    1850    1849    1830    1806    1772    1771    1752    1728
       8    1851    1850    1806    1805    1773    1772    1728    1727
       8    1852    1851    1805    1808    1774    1773    1727    1730
       8    1853    1852    1808    1831    1775    1774    1730    1753
       8    1854    1853    1831    1832    1776    1775    1753    1754
       8    1855    1854    1832    1833    1777    1776    1754    1755
       8    1856    1855    1833    1834    1778    1777    1755    1756
       8    1857    1856    1834    1835    1779    1778    1756    1757
       8    1858    1857    1835    1836    1780    1779    1757    1758
       8    1859    1858    1836    1815    1781    1780    1758    1737
       8    1860    1859    1815    1814    1782    1781    1737    1736
       8    1861    1860    1814    1816    1783    1782    1736    1738
       8    1862    1861    1816    1837    1784    1783    1738    1759
       8    1863    1862    1837    1838    1785    1784    1759    1760
       8    1864    1863    1838    1839    1786    1785    1760    1761
       8    1865    1864    1839    1840    1787    1786    1761    1762
       8    1866    1865    1840    1841    1788    1787    1762    1763
       8    1867    1866    1841    1842    1789    1788    1763    1764
       8    1868    1867    1842    1843    1790    1789    1764    1765
       8    1869    1868    1843    1844    1791    1790    1765    1766
       8    1870    1869    1844    1845    1792    1791    1766    1767
       8    1871    1870    1845    1799    1793    1792    1767    1721
       8    1847    1871    1799    1798    1769    1793    1721    1720
       8    1872    1873    1874    1875    1794    1795    1796    1797
       8    1874    1876    1877    1875    1796    1798    1799    1797
       8    1878    1873    1872    1879    1800    1795    1794    1801
       8    1872    1880    1881    1879    1794    1802    1803    1801
       8    1882    1883    1884    1878    1804    1805    1806    1800
       8    1885    1886    1883    1882    1807    1808    1805    1804
       8    1879    1885    1882    1878    1801    1807    1804    1800
       8    1887    1888    1880    1889    1809    1810    1802    1811
       8    1890    1891    1888    1887    1812    1813    1810    1809
       8    1892    1893    1891    1890    1814    1815    1813    1812
       8    1894    1892    1890    1895    1816    1814    1812    1817
       8    1896    1881    1880    1888    1818    1803    1802    1810
       8    1887    1897    1895    1890    1809    1819    1817    1812
       8    1872    1875    1889    1880    1794    1797    1811    1802
       8    1898    1885    1879    1881    1820    1807    1801    1803
       8    1899    1898    1881    1896    1821    1820    1803    1818
       8    1900    1899    1896    1901    1822    1821    1818    1823
       8    1891    1901    1896    1888    1813    1823    1818    1810
       8    1902    1903    1897    1887    1824    1825    1819    1809
       8    1904    1902    1887    1889    1826    1824    1809    1811
       8    1905    1904    1889    1875    1827    1826    1811    1797
       8    1906    1876    1874    1907    1828    1798    1796    1829
       8    1908    1907    1874    1873    1830    1829    1796    1795
       8    1884    1908    1873    1878    1806    1830    1795    1800
       8    1909    1886    1885    1898    1831    1808    1807    1820
       8    1910    1909    1898    1899    1832    1831    1820    1821
       8    1911    1910    1899    1900    1833    1832    1821    1822
       8    1912    1911    1900    1913    1834    1833    1822    1835
       8    1914    1913    1900    1901    1836    1835    1822    1823
       8    1893    1914    1901    1891    1815    1836    1823    1813
       8    1915    1894    1895    1897    1837    1816    1817    1819
       8    1916    1915    1897    1903    1838    1837    1819    1825
       8    1917    1916    1903    1918    1839    1838    1825    1840
       8    1919    1918    1903    1902    1841    1840    1825    1824
       8    1920    1919    1902    1904    1842    1841    1824    1826
       8    1921    1920    1904    1905    1843    1842    1826    1827
       8    1922    1921    1905    1923    1844    1843    1827    1845
       8    1877    1923    1905    1875    1799    1845    1827    1797
       8    1924    1925    1876    1906    1846    1847    1798    1828
       8    1926    1924    1906    1907    1848    1846    1828    1829
       8    1927    1926    1907    1908    1849    1848    1829    1830
       8    1928    1927    1908    1884    1850    1849    1830    1806
       8    1929    1928    1884    1883    1851    1850    1806    1805
       8    1930    1929    1883    1886    1852    1851    1805    1808
       8    1931    1930    1886    1909    1853    1852    1808    1831
       8    1932    1931    1909    1910    1854    1853    1831    1832
       8    1933    1932    1910    1911    1855    1854    1832    1833
       8    1934    1933    1911    1912    1856    1855    1833    1834
       8    1935    1934    1912    1913    1857    1856    1834    1835
       8    1936    1935    1913    1914    1858    1857    1835    1836
       8    1937    1936    1914    1893    1859    1858    1836    1815
       8    1938    1937    1893    1892    1860    1859    1815    1814
       8    1939    1938    1892    1894    1861    1860    1814    1816
       8    1940    1939    1894    1915    1862    1861    1816    1837
       8    1941    1940    1915    1916    1863    1862    1837    1838
       8    1942    1941    1916    1917    1864    1863    1838    1839
       8    1943    1942    1917    1918    1865    1864    1839    1840
       8    1944    1943    1918    1919    1866    1865    1840    1841
       8    1945    1944    1919    1920    1867    1866    1841    1842
       8    1946    1945    1920    1921    1868    1867    1842    1843
       8    1947    1946    1921    1922    1869    1868    1843    1844
       8    1948    1947    1922    1923    1870    1869    1844    1845
       8    1949    1948    1923    1877    1871    1870    1845    1799
       8    1925    1949    1877    1876    1847    1871    1799    1798
  
CELL_TYPES    3486
       1
       1
       1
       1
       1
       1
       1
       1
       1
       1
       1
       1
       1
       1
       1
       1
       1
       1
       1
       1
       1
       1
       1
       1
       1
       1
       1
       1
       1
       1
       1
       1
       1
       1
       1
       1
       1
       1
       1
       1
       1
       1
       1
       1
       1
       1
       1
       1
       1
       1
       1
       1
       1
       1
       1
       1
       1
       1
       1
       1
       1
       1
       1
       1
       1
       1
       1
       1
       1
       1
       1
       1
       1
       1
       1
       1
       1
       1
       1
       1
       1
       1
       1
       1
       1
       1
       1
       1
       1
       1
       1
       1
       1
       1
       1
       1
       1
       1
       1
       1
       1
       1
       1
       1
       1
       1
       1
       1
       1
       1
       1
       1
       1
       1
       1
       1
       1
       1
       1
       1
       1
       1
       1
       1
       1
       1
       1
       1
       1
       1
       1
       1
       1
       1
       1
       1
       1
       1
       1
       1
       1
       1
       1
       1
       1
       1
       1
       1
       1
       1
       1
       1
       1
       1
       1
       1
       1
       1
       1
       1
       1
       1
       1
       1
       1
       1
       1
       1
       1
       1
       1
       1
       1
       1
       1
       1
       1
       1
       1
       1
       1
       1
       1
       1
       1
       1
       1
       1
       1
       1
       1
       1
       1
       1
       1
       1
       1
       1
       1
       1
       1
       1
       1
       1
       1
       1
       1
       1
       1
       1
       1
       1
       1
       1
       1
       1
       1
       1
       1
       1
       1
       1
       1
       1
       1
       1
       1
       1
       1
       1
       1
       1
       1
       1
       1
       1
       1
       1
       1
       1
       1
       1
       1
       1
       1
       1
       1
       1
       1
       1
       1
       1
       1
       1
       1
       1
       1
       1
       1
       1
       1
       1
       1
       1
       1
       1
       1
       1
       1
       1
       1
       1
       1
       1
       1
       1
       1
       1
       1
       1
       1
       1
       1
       1
       1
       1
       1
       1
       1
       1
       1
       1
       1
       1
       1
       1
       1
       1
       1
       1
       1
       1
       1
       1
       1
       1
       1
       1
       1
       1
       1
       1
       1
       1
       1
       1
       1
       1
       1
       1
       1
       1
       1
       1
       1
       1
       1
       1
       1
       1
       1
       1
       1
       1
       1
       1
       1
       1
       1
       1
       1
       1
       1
       1
       1
       1
       1
       1
       1
       1
       1
       1
       1
       1
       1
       1
       1
       1
       1
       1
       1
       1
       1
       1
       1
       1
       1
       1
       1
       1
       1
       1
       1
       1
       1
       1
       1
       1
       1
       1
       1
       1
       1
       1
       1
       1
       1
       1
       1
       1
       1
       1
       1
       1
       1
       1
       1
       1
       1
       1
       1
       1
       1
       1
       1
       1
       1
       1
       1
       1
       1
       1
       1
       1
       1
       1
       1
       1
       1
       1
       1
       1
       1
       1
       1
       1
       1
       1
       1
       1
       1
       1
       1
       1
       1
       1
       1
       1
       1
       1
       1
       1
       1
       1
       1
       1
       1
       1
       1
       1
       1
       1
       1
       1
       1
       1
       1
       1
       1
       1
       1
       1
       1
       1
       1
       1
       1
       1
       1
       1
       1
       1
       1
       1
       1
       1
       1
       1
       1
       1
       1
       1
       1
       1
       1
       1
       1
       1
       1
       1
       1
       1
       1
       1
       1
       1
       1
       1
       1
       1
       1
       1
       1
       1
       1
       1
       1
       1
       1
       1
       1
       1
       1
       1
       1
       1
       1
       1
       1
       1
       1
       1
       1
       1
       1
       1
       1
       1
       1
       1
       1
       1
       1
       1
       1
       1
       1
       1
       1
       1
       1
       1
       1
       1
       1
       1
       1
       1
       1
       1
       1
       1
       1
       1
       1
       1
       1
       1
       1
       1
       1
       1
       1
       1
       1
       1
       1
       1
       1
       1
       1
       1
       1
       1
       1
       1
       1
       1
       1
       1
       1
       1
       1
       1
       1
       1
       1
       1
       1
       1
       1
       1
       1
       1
       1
       1
       1
       1
       1
       1
       1
       1
       1
       1
       1
       1
       1
       1
       1
       1
       1
       1
       1
       1
       1
       1
       1
       1
       1
       1
       1
       1
       1
       1
       1
       1
       1
       1
       1
       1
       1
       1
       1
       1
       1
       1
       1
       1
       1
       1
       1
       1
       1
       1
       1
       1
       1
       1
       1
       1
       1
       1
       1
       1
       1
       1
       1
       1
       1
       1
       1
       1
       1
       1
       1
       1
       1
       1
       1
       1
       1
       1
       1
       1
       1
       1
       1
       1
       1
       1
       1
       1
       1
       1
       1
       1
       1
       1
       1
       1
       1
       1
       1
       1
       1
       1
       1
       1
       1
       1
       1
       1
       1
       1
       1
       1
       1
       1
       1
       1
       1
       1
       1
       1
       1
       1
       1
       1
       1
       1
       1
       1
       1
       1
       1
       1
       1
       1
       1
       1
       1
       1
       1
       1
       1
       1
       1
       1
       1
       1
       1
       1
       1
       1
       1
       1
       1
       1
       1
       1
       1
       1
       1
       1
       1
       1
       1
       1
       1
       1
       1
       1
       1
       1
       1
       1
       1
       1
       1
       1
       1
       1
       1
       1
       1
       1
       1
       1
       1
       1
       1
       1
       1
       1
       1
       1
       1
       1
       1
       1
       1
       1
       1
       1
       1
       1
       1
       1
       1
       1
       1
       1
       1
       1
       1
       1
       1
       1
       1
       1
       1
       1
       1
       1
       1
       1
       1
       1
       1
       1
       1
       1
       1
       1
       1
       1
       1
       1
       1
       1
       1
       1
       1
       1
       1
       1
       1
       1
       1
       1
       1
       1
       1
       1
       1
       1
       1
       1
       1
       1
       1
       1
       1
       1
       1
       1
       1
       1
       1
       1
       1
       1
       1
       1
       1
       1
       1
       1
       1
       1
       1
       1
       1
       1
       1
       1
       1
       1
       1
       1
       1
       1
       1
       1
       1
       1
       1
       1
       1
       1
       1
       1
       1
       1
       1
       1
       1
       1
       1
       1
       1
       1
       1
       1
       1
       1
       1
       1
       1
       1
       1
       1
       1
       1
       1
       1
       1
       1
       1
       1
       1
       1
       1
       1
       1
       1
       1
       1
       1
       1
       1
       1
       1
       1
       1
       1
       1
       1
       1
       1
       1
       1
       1
       1
       1
       1
       1
       1
       1
       1
       1
       1
       1
       1
       1
       1
       1
       1
       1
       1
       1
       1
       1
       1
       1
       1
       1
       1
       1
       1
       1
       1
       1
       1
       1
       1
       1
       1
       1
       1
       1
       1
       1
       1
       1
       1
       1
       1
       1
       1
       1
       1
       1
       1
       1
       1
       1
       1
       1
       1
       1
       1
       1
       1
       1
       1
       1
       1
       1
       1
       1
       1
       1
       1
       1
       1
       1
       1
       1
       1
       1
       1
       1
       1
       1
       1
       1
       1
       1
       1
       1
       1
       1
       1
       1
       1
       1
       1
       1
       1
       1
       1
       1
       1
       1
       1
       1
       1
       1
       1
       1
       1
       1
       1
       1
       1
       1
       1
       1
       1
       1
       1
       1
       1
       1
       1
       1
       1
       1
       1
       1
       1
       1
       1
       1
       1
       1
       1
       1
       1
       1
       1
       1
       1
       1
       1
       1
       1
       1
       1
       1
       1
       1
       1
       1
       1
       1
       1
       1
       1
       1
       1
       1
       1
       1
       1
       1
       1
       1
       1
       1
       1
       1
       1
       1
       1
       1
       1
       1
       1
       1
       1
       1
       1
       1
       1
       1
       1
       1
       1
       1
       1
       1
       1
       1
       1
       1
       1
       1
       1
       1
       1
       1
       1
       1
       1
       1
       1
       1
       1
       1
       1
       1
       1
       1
       1
       1
       1
       1
       1
       1
       1
       1
       1
       1
       1
       1
       1
       1
       1
       1
       1
       1
       1
       1
       1
       1
       1
       1
       1
       1
       1
       1
       1
       1
       1
       1
       1
       1
       1
       1
       1
       1
       1
       1
       1
       1
       1
       1
       1
       1
       1
       1
       1
       1
       1
       1
       1
       1
       1
       1
       1
       1
       1
       1
       1
       1
       1
       1
       1
       1
       1
       1
       1
       1
       1
       1
       1
       1
       1
       1
       1
       1
       1
       1
       1
       1
       1
       1
       1
       1
       1
       1
       1
       1
       1
       1
       1
       1
       1
       1
       1
       1
       1
       1
       1
       1
       1
       1
       1
       1
       1
       1
       1
       1
       1
       1
       1
       1
       1
       1
       1
       1
       1
       1
       1
       1
       1
       1
       1
       1
       1
       1
       1
       1
       1
       1
       1
       1
       1
       1
       1
       1
       1
       1
       1
       1
       1
       1
       1
       1
       1
       1
       1
       1
       1
       1
       1
       1
       1
       1
       1
       1
       1
       1
       1
       1
       1
       1
       1
       1
       1
       1
       1
       1
       1
       1
       1
       1
       1
       1
       1
       1
       1
       1
       1
       1
       1
       1
       1
       1
       1
       1
       1
       1
       1
       1
       1
       1
       1
       1
       1
       1
       1
       1
       1
       1
       1
       1
       1
       1
       1
       1
       1
       1
       1
       1
       1
       1
       1
       1
       1
       1
       1
       1
       1
       1
       1
       1
       1
       1
       1
       1
       1
       1
       1
       1
       1
       1
       1
       1
       1
       1
       1
       1
       1
       1
       1
       1
       1
       1
       1
       1
       1
       1
       1
       1
       1
       1
       1
       1
       1
       1
       1
       1
       1
       1
       1
       1
       1
       1
       1
       1
       1
       1
       1
       1
       1
       1
       1
       1
       1
       1
       1
       1
       1
       1
       1
       1
       1
       1
       1
       1
       1
       1
       1
       1
       1
       1
       1
       1
       1
       1
       1
       1
       1
       1
       1
       1
       1
       1
       1
       1
       1
       1
       1
       1
       1
       1
       1
       1
       1
       1
       1
       1
       1
       1
       1
       1
       1
       1
       1
       1
       1
       1
       1
       1
       1
       1
       1
       1
       1
       1
       1
       1
       1
       1
       1
       1
       1
       1
       1
       1
       1
       1
       1
       1
       1
       1
       1
       1
       1
       1
       1
       1
       1
       1
       1
       1
       1
       1
       1
       1
       1
       1
       1
       1
       1
       1
       1
       1
       1
       1
       1
       1
       1
       1
       1
       1
       1
       1
       1
       1
       1
       1
       1
       1
       1
       1
       1
       1
       1
       1
       1
       1
       1
       1
       1
       1
       1
       1
       1
       1
       1
       1
       1
       1
       1
       1
       1
       1
       1
       1
       1
       1
       1
       1
       1
       1
       1
       1
       1
       1
       1
       1
       1
       1
       1
       1
       1
       1
       1
       1
       1
       1
       1
       1
       1
       1
       1
       1
       1
       1
       1
       1
       1
       1
       1
       1
       1
       1
       1
       1
       1
       1
       1
       1
       1
       1
       1
       1
       1
       1
       1
       1
       1
       1
       1
       1
       1
       1
       1
       1
       1
       1
       1
       1
       1
       1
       1
       1
       1
       1
       1
       1
       1
       1
       1
       1
       1
       1
       1
       1
       1
       1
       1
       1
       1
       1
       1
       1
       1
       1
       1
       1
       1
       1
       1
       1
       1
       1
       1
       1
       1
       1
       1
       1
       1
       1
       1
       1
       1
       1
       1
       1
       1
       1
       1
       1
       1
       1
       1
       1
       1
       1
       1
       1
       1
       1
       1
       1
       1
       1
       1
       1
       1
       1
       1
       1
       1
       1
       1
       1
       1
       1
       1
       1
       1
       1
       1
       1
       1
       1
       1
       1
       1
       1
       1
       1
       1
       1
       1
       1
       1
       1
       1
       1
       1
       1
       1
       1
       1
       1
       1
       1
       1
       1
       1
       1
       1
       1
       1
       1
       1
       1
       1
       1
       1
       1
       1
       1
       1
       1
       1
       1
       1
       1
       1
       1
       1
       1
       1
       1
       1
       1
       1
       1
       1
       1
       1
       1
       1
       1
       1
       1
       1
       1
       1
       1
       1
       1
       1
       1
       1
       1
       1
       1
       1
       1
       1
       1
       1
       1
       1
       1
       1
       1
       1
       1
       1
       1
       1
       1
       1
       1
       1
       1
       1
       1
       1
       1
       1
       1
       1
       1
       1
       1
       1
       1
       1
       1
       1
       1
       1
       1
       1
       1
       1
       1
       1
       1
       1
       1
       1
       1
       1
       1
       1
       1
       1
       1
       1
       1
       1
       1
       1
       1
       1
       1
       1
       1
       1
       1
       1
       1
       1
       1
       1
       1
       1
       1
       1
       1
       1
       1
       1
       1
       1
       1
       1
       1
       1
       1
       1
       1
       1
       1
       1
       1
       1
       1
       1
       1
       1
       1
       1
       1
       1
       1
       1
       1
       1
       1
       1
       1
       1
       1
       1
       1
       1
       1
       1
       1
       1
       1
       1
       1
       1
       1
       1
       1
       1
       1
       1
       1
       1
       1
       1
       1
       1
       1
       1
       1
       1
       1
       1
       1
       1
       1
       1
       1
       1
       1
       1
       1
       1
       1
       1
       1
       1
      12
      12
      12
      12
      12
      12
      12
      12
      12
      12
      12
      12
      12
      12
      12
      12
      12
      12
      12
      12
      12
      12
      12
      12
      12
      12
      12
      12
      12
      12
      12
      12
      12
      12
      12
      12
      12
      12
      12
      12
      12
      12
      12
      12
      12
      12
      12
      12
      12
      12
      12
      12
      12
      12
      12
      12
      12
      12
      12
      12
      12
      12
      12
      12
      12
      12
      12
      12
      12
      12
      12
      12
      12
      12
      12
      12
      12
      12
      12
      12
      12
      12
      12
      12
      12
      12
      12
      12
      12
      12
      12
      12
      12
      12
      12
      12
      12
      12
      12
      12
      12
      12
      12
      12
      12
      12
      12
      12
      12
      12
      12
      12
      12
      12
      12
      12
      12
      12
      12
      12
      12
      12
      12
      12
      12
      12
      12
      12
      12
      12
      12
      12
      12
      12
      12
      12
      12
      12
      12
      12
      12
      12
      12
      12
      12
      12
      12
      12
      12
      12
      12
      12
      12
      12
      12
      12
      12
      12
      12
      12
      12
      12
      12
      12
      12
      12
      12
      12
      12
      12
      12
      12
      12
      12
      12
      12
      12
      12
      12
      12
      12
      12
      12
      12
      12
      12
      12
      12
      12
      12
      12
      12
      12
      12
      12
      12
      12
      12
      12
      12
      12
      12
      12
      12
      12
      12
      12
      12
      12
      12
      12
      12
      12
      12
      12
      12
      12
      12
      12
      12
      12
      12
      12
      12
      12
      12
      12
      12
      12
      12
      12
      12
      12
      12
      12
      12
      12
      12
      12
      12
      12
      12
      12
      12
      12
      12
      12
      12
      12
      12
      12
      12
      12
      12
      12
      12
      12
      12
      12
      12
      12
      12
      12
      12
      12
      12
      12
      12
      12
      12
      12
      12
      12
      12
      12
      12
      12
      12
      12
      12
      12
      12
      12
      12
      12
      12
      12
      12
      12
      12
      12
      12
      12
      12
      12
      12
      12
      12
      12
      12
      12
      12
      12
      12
      12
      12
      12
      12
      12
      12
      12
      12
      12
      12
      12
      12
      12
      12
      12
      12
      12
      12
      12
      12
      12
      12
      12
      12
      12
      12
      12
      12
      12
      12
      12
      12
      12
      12
      12
      12
      12
      12
      12
      12
      12
      12
      12
      12
      12
      12
      12
      12
      12
      12
      12
      12
      12
      12
      12
      12
      12
      12
      12
      12
      12
      12
      12
      12
      12
      12
      12
      12
      12
      12
      12
      12
      12
      12
      12
      12
      12
      12
      12
      12
      12
      12
      12
      12
      12
      12
      12
      12
      12
      12
      12
      12
      12
      12
      12
      12
      12
      12
      12
      12
      12
      12
      12
      12
      12
      12
      12
      12
      12
      12
      12
      12
      12
      12
      12
      12
      12
      12
      12
      12
      12
      12
      12
      12
      12
      12
      12
      12
      12
      12
      12
      12
      12
      12
      12
      12
      12
      12
      12
      12
      12
      12
      12
      12
      12
      12
      12
      12
      12
      12
      12
      12
      12
      12
      12
      12
      12
      12
      12
      12
      12
      12
      12
      12
      12
      12
      12
      12
      12
      12
      12
      12
      12
      12
      12
      12
      12
      12
      12
      12
      12
      12
      12
      12
      12
      12
      12
      12
      12
      12
      12
      12
      12
      12
      12
      12
      12
      12
      12
      12
      12
      12
      12
      12
      12
      12
      12
      12
      12
      12
      12
      12
      12
      12
      12
      12
      12
      12
      12
      12
      12
      12
      12
      12
      12
      12
      12
      12
      12
      12
      12
      12
      12
      12
      12
      12
      12
      12
      12
      12
      12
      12
      12
      12
      12
      12
      12
      12
      12
      12
      12
      12
      12
      12
      12
      12
      12
      12
      12
      12
      12
      12
      12
      12
      12
      12
      12
      12
      12
      12
      12
      12
      12
      12
      12
      12
      12
      12
      12
      12
      12
      12
      12
      12
      12
      12
      12
      12
      12
      12
      12
      12
      12
      12
      12
      12
      12
      12
      12
      12
      12
      12
      12
      12
      12
      12
      12
      12
      12
      12
      12
      12
      12
      12
      12
      12
      12
      12
      12
      12
      12
      12
      12
      12
      12
      12
      12
      12
      12
      12
      12
      12
      12
      12
      12
      12
      12
      12
      12
      12
      12
      12
      12
      12
      12
      12
      12
      12
      12
      12
      12
      12
      12
      12
      12
      12
      12
      12
      12
      12
      12
      12
      12
      12
      12
      12
      12
      12
      12
      12
      12
      12
      12
      12
      12
      12
      12
      12
      12
      12
      12
      12
      12
      12
      12
      12
      12
      12
      12
      12
      12
      12
      12
      12
      12
      12
      12
      12
      12
      12
      12
      12
      12
      12
      12
      12
      12
      12
      12
      12
      12
      12
      12
      12
      12
      12
      12
      12
      12
      12
      12
      12
      12
      12
      12
      12
      12
      12
      12
      12
      12
      12
      12
      12
      12
      12
      12
      12
      12
      12
      12
      12
      12
      12
      12
      12
      12
      12
      12
      12
      12
      12
      12
      12
      12
      12
      12
      12
      12
      12
      12
      12
      12
      12
      12
      12
      12
      12
      12
      12
      12
      12
      12
      12
      12
      12
      12
      12
      12
      12
      12
      12
      12
      12
      12
      12
      12
      12
      12
      12
      12
      12
      12
      12
      12
      12
      12
      12
      12
      12
      12
      12
      12
      12
      12
      12
      12
      12
      12
      12
      12
      12
      12
      12
      12
      12
      12
      12
      12
      12
      12
      12
      12
      12
      12
      12
      12
      12
      12
      12
      12
      12
      12
      12
      12
      12
      12
      12
      12
      12
      12
      12
      12
      12
      12
      12
      12
      12
      12
      12
      12
      12
      12
      12
      12
      12
      12
      12
      12
      12
      12
      12
      12
      12
      12
      12
      12
      12
      12
      12
      12
      12
      12
      12
      12
      12
      12
      12
      12
      12
      12
      12
      12
      12
      12
      12
      12
      12
      12
      12
      12
      12
      12
      12
      12
      12
      12
      12
      12
      12
      12
      12
      12
      12
      12
      12
      12
      12
      12
      12
      12
      12
      12
      12
      12
      12
      12
      12
      12
      12
      12
      12
      12
      12
      12
      12
      12
      12
      12
      12
      12
      12
      12
      12
      12
      12
      12
      12
      12
      12
      12
      12
      12
      12
      12
      12
      12
      12
      12
      12
      12
      12
      12
      12
      12
      12
      12
      12
      12
      12
      12
      12
      12
      12
      12
      12
      12
      12
      12
      12
      12
      12
      12
      12
      12
      12
      12
      12
      12
      12
      12
      12
      12
      12
      12
      12
      12
      12
      12
      12
      12
      12
      12
      12
      12
      12
      12
      12
      12
      12
      12
      12
      12
      12
      12
      12
      12
      12
      12
      12
      12
      12
      12
      12
      12
      12
      12
      12
      12
      12
      12
      12
      12
      12
      12
      12
      12
      12
      12
      12
      12
      12
      12
      12
      12
      12
      12
      12
      12
      12
      12
      12
      12
      12
      12
      12
      12
      12
      12
      12
      12
      12
      12
      12
      12
      12
      12
      12
      12
      12
      12
      12
      12
      12
      12
      12
      12
      12
      12
      12
      12
      12
      12
      12
      12
      12
      12
      12
      12
      12
      12
      12
      12
      12
      12
      12
      12
      12
      12
      12
      12
      12
      12
      12
      12
      12
      12
      12
      12
      12
      12
      12
      12
      12
      12
      12
      12
      12
      12
      12
      12
      12
      12
      12
      12
      12
      12
      12
      12
      12
      12
      12
      12
      12
      12
      12
      12
      12
      12
      12
      12
      12
      12
      12
      12
      12
      12
      12
      12
      12
      12
      12
      12
      12
      12
      12
      12
      12
      12
      12
      12
      12
      12
      12
      12
      12
      12
      12
      12
      12
      12
      12
      12
      12
      12
      12
      12
      12
      12
      12
      12
      12
      12
      12
      12
      12
      12
      12
      12
      12
      12
      12
      12
      12
      12
      12
      12
      12
      12
      12
      12
      12
      12
      12
      12
      12
      12
      12
      12
      12
      12
      12
      12
      12
      12
      12
      12
      12
      12
      12
      12
      12
      12
      12
      12
      12
      12
      12
      12
      12
      12
      12
      12
      12
      12
      12
      12
      12
      12
      12
      12
      12
      12
      12
      12
      12
      12
      12
      12
      12
      12
      12
      12
      12
      12
      12
      12
      12
      12
      12
      12
      12
      12
      12
      12
      12
      12
      12
      12
      12
      12
      12
      12
      12
      12
      12
      12
      12
      12
      12
      12
      12
      12
      12
      12
      12
      12
      12
      12
      12
      12
      12
      12
      12
      12
      12
      12
      12
      12
      12
      12
      12
      12
      12
      12
      12
      12
      12
      12
      12
      12
      12
      12
      12
      12
      12
      12
      12
      12
      12
      12
      12
      12
      12
      12
      12
      12
      12
      12
      12
      12
      12
      12
      12
      12
      12
      12
      12
      12
      12
      12
      12
      12
      12
      12
      12
      12
      12
      12
      12
      12
      12
      12
      12
      12
      12
      12
      12
      12
      12
      12
      12
      12
      12
      12
      12
      12
      12
      12
      12
      12
      12
      12
      12
      12
      12
      12
      12
      12
      12
      12
      12
      12
      12
      12
      12
      12
      12
      12
      12
      12
      12
      12
      12
      12
      12
      12
      12
      12
      12
      12
      12
      12
      12
      12
      12
      12
      12
      12
      12
      12
      12
      12
      12
      12
      12
      12
      12
      12
      12
      12
      12
      12
      12
      12
      12
      12
      12
      12
      12
      12
      12
      12
      12
      12
      12
      12
      12
      12
      12
      12
      12
      12
      12
      12
      12
      12
      12
      12
      12
      12
      12
      12
      12
      12
      12
      12
      12
      12
      12
      12
      12
      12
      12
      12
      12
      12
      12
      12
      12
      12
      12
      12
      12
      12
      12
      12
      12
      12
      12
      12
      12
      12
      12
      12
      12
      12
      12
      12
      12
      12
      12
      12
      12
      12
      12
      12
      12
      12
      12
      12
      12
      12
      12
      12
      12
      12
      12
      12
      12
      12
      12
      12
      12
      12
      12
      12
      12
      12
      12
      12
      12
      12
      12
      12
      12
      12
      12
      12
      12
      12
      12
      12
      12
      12
      12
      12
      12
      12
      12
      12
      12
  
  
POINT_DATA       1950
  
SCALARS                  material_type  double 1
LOOKUP_TABLE default
                   2
                   2
                   2
                   2
                   2
                   2
                   2
                   2
                   2
                   2
                   2
                   2
                   2
                   2
                   2
                   2
                   2
                   2
                   2
                   2
                   2
                   2
                   2
                   2
                   2
                   2
                   2
                   2
                   2
                   2
                   2
                   2
                   2
                   2
                   2
                   2
                   2
                   2
                   2
                   2
                   2
                   2
                   2
                   2
                   2
                   2
                   2
                   2
                   2
                   2
                   2
                   2
                   2
                   2
                   2
                   2
                   2
                   2
                   2
                   2
                   2
                   2
                   2
                   2
                   2
                   2
                   2
                   2
                   2
                   2
                   2
                   2
                   2
                   2
                   2
                   2
                   2
                   2
                   2
                   2
                   2
                   2
                   2
                   2
                   2
                   2
                   2
                   2
                   2
                   2
                   2
                   2
                   2
                   2
                   2
                   2
                   2
                   2
                   2
                   2
                   2
                   2
                   2
                   2
                   2
                   2
                   2
                   2
                   2
                   2
                   2
                   2
                   2
                   2
                   2
                   2
                   2
                   2
                   2
                   2
                   2
                   2
                   2
                   2
                   2
                   2
                   2
                   2
                   2
                   2
                   2
                   2
                   2
                   2
                   2
                   2
                   2
                   2
                   2
                   2
                   2
                   2
                   2
                   2
                   2
                   2
                   2
                   2
                   2
                   2
                   2
                   2
                   2
                   2
                   2
                   2
                   2
                   2
                   2
                   2
                   2
                   2
                   2
                   2
                   2
                   2
                   2
                   2
                   2
                   2
                   2
                   2
                   2
                   2
                   2
                   2
                   2
                   2
                   2
                   2
                   2
                   2
                   2
                   2
                   2
                   2
                   2
                   2
                   2
                   2
                   2
                   2
                   2
                   2
                   2
                   2
                   2
                   2
                   2
                   2
                   2
                   2
                   2
                   2
                   2
                   2
                   2
                   2
                   2
                   2
                   2
                   2
                   2
                   2
                   2
                   2
                   2
                   2
                   2
                   2
                   2
                   2
                   2
                   2
                   2
                   2
                   2
                   2
                   2
                   2
                   2
                   2
                   2
                   2
                   2
                   2
                   2
                   2
                   2
                   2
                   2
                   2
                   2
                   2
                   2
                   2
                   2
                   2
                   2
                   2
                   2
                   2
                   2
                   2
                   2
                   2
                   2
                   2
                   2
                   2
                   2
                   2
                   2
                   2
                   2
                   2
                   2
                   2
                   2
                   2
                   2
                   2
                   2
                   2
                   2
                   2
                   2
                   2
                   2
                   2
                   2
                   2
                   2
                   2
                   2
                   2
                   2
                   2
                   2
                   2
                   2
                   2
                   2
                   2
                   2
                   2
                   2
                   2
                   2
                   2
                   2
                   2
                   2
                   2
                   2
                   2
                   2
                   2
                   2
                   2
                   2
                   2
                   2
                   2
                   2
                   2
                   2
                   2
                   2
                   2
                   2
                   2
                   2
                   2
                   2
                   2
                   2
                   2
                   2
                   2
                   2
                   2
                   2
                   2
                   2
                   2
                   2
                   2
                   2
                   2
                   2
                   2
                   2
                   2
                   2
                   2
                   2
                   2
                   2
                   2
                   2
                   2
                   2
                   2
                   2
                   2
                   2
                   2
                   2
                   2
                   2
                   2
                   2
                   2
                   2
                   2
                   2
                   2
                   2
                   2
                   2
                   2
                   2
                   2
                   2
                   2
                   2
                   2
                   2
                   2
                   2
                   2
                   2
                   2
                   2
                   2
                   2
                   2
                   2
                   2
                   2
                   2
                   2
                   2
                   2
                   2
                   2
                   2
                   2
                   2
                   2
                   2
                   2
                   2
                   2
                   2
                   2
                   2
                   2
                   2
                   2
                   2
                   2
                   2
                   2
                   2
                   2
                   2
                   2
                   2
                   2
                   2
                   2
                   2
                   2
                   2
                   2
                   2
                   2
                   2
                   2
                   2
                   2
                   2
                   2
                   2
                   2
                   2
                   2
                   2
                   2
                   2
                   2
                   2
                   2
                   2
                   2
                   2
                   2
                   2
                   2
                   2
                   2
                   2
                   2
                   2
                   2
                   2
                   2
                   2
                   2
                   2
                   2
                   2
                   2
                   2
                   2
                   2
                   2
                   2
                   2
                   2
                   2
                   2
                   2
                   2
                   2
                   2
                   2
                   2
                   2
                   2
                   2
                   2
                   2
                   2
                   2
                   2
                   2
                   2
                   2
                   2
                   2
                   2
                   2
                   2
                   2
                   2
                   2
                   2
                   2
                   2
                   2
                   2
                   2
                   2
                   2
                   2
                   2
                   2
                   2
                   2
                   2
                   2
                   2
                   2
                   2
                   2
                   2
                   2
                   2
                   2
                   2
                   2
                   2
                   2
                   2
                   2
                   2
                   2
                   2
                   2
                   2
                   2
                   2
                   2
                   2
                   2
                   2
                   2
                   2
                   2
                   2
                   2
                   2
                   2
                   2
                   2
                   2
                   2
                   2
                   2
                   2
                   2
                   2
                   2
                   2
                   2
                   2
                   2
                   2
                   2
                   2
                   2
                   2
                   2
                   2
                   2
                   2
                   2
                   2
                   2
                   2
                   2
                   2
                   2
                   2
                   2
                   2
                   2
                   2
                   2
                   2
                   2
                   2
                   2
                   2
                   2
                   2
                   2
                   2
                   2
                   2
                   2
                   2
                   2
                   2
                   2
                   2
                   2
                   2
                   2
                   2
                   2
                   2
                   2
                   2
                   2
                   2
                   2
                   2
                   2
                   2
                   2
                   2
                   2
                   2
                   2
                   2
                   2
                   2
                   2
                   2
                   2
                   2
                   2
                   2
                   2
                   2
                   2
                   2
                   2
                   2
                   2
                   2
                   2
                   2
                   2
                   2
                   2
                   2
                   2
                   2
                   2
                   2
                   2
                   2
                   2
                   2
                   2
                   2
                   2
                   2
                   2
                   2
                   2
                   2
                   2
                   2
                   2
                   2
                   2
                   2
                   2
                   2
                   2
                   2
                   2
                   2
                   2
                   2
                   2
                   2
                   2
                   2
                   2
                   2
                   2
                   2
                   2
                   2
                   2
                   2
                   2
                   2
                   2
                   2
                   2
                   2
                   2
                   2
                   2
                   2
                   2
                   2
                   2
                   2
                   2
                   2
                   2
                   2
                   2
                   2
                   2
                   2
                   2
                   2
                   2
                   2
                   2
                   2
                   2
                   2
                   2
                   2
                   2
                   2
                   2
                   2
                   2
                   2
                   2
                   2
                   2
                   2
                   2
                   2
                   2
                   2
                   2
                   2
                   2
                   2
                   2
                   2
                   2
                   2
                   2
                   2
                   2
                   2
                   2
                   2
                   2
                   2
                   2
                   2
                   2
                   2
                   2
                   2
                   2
                   2
                   2
                   2
                   2
                   2
                   2
                   2
                   2
                   2
                   2
                   2
                   2
                   2
                   2
                   2
                   2
                   2
                   2
                   2
                   2
                   2
                   2
                   2
                   2
                   2
                   2
                   2
                   2
                   2
                   2
                   2
                   2
                   2
                   2
                   2
                   2
                   2
                   2
                   2
                   2
                   2
                   2
                   2
                   2
                   2
                   2
                   2
                   2
                   2
                   2
                   2
                   2
                   2
                   2
                   2
                   2
                   2
                   2
                   2
                   2
                   2
                   2
                   2
                   2
                   2
                   2
                   2
                   2
                   2
                   2
                   2
                   2
                   2
                   2
                   2
                   2
                   2
                   2
                   2
                   2
                   2
                   2
                   2
                   2
                   2
                   2
                   2
                   2
                   2
                   2
                   2
                   2
                   2
                   2
                   2
                   2
                   2
                   2
                   2
                   2
                   2
                   2
                   2
                   2
                   2
                   2
                   2
                   2
                   2
                   2
                   2
                   2
                   2
                   2
                   2
                   2
                   2
                   2
                   2
                   2
                   2
                   2
                   2
                   2
                   2
                   2
                   2
                   2
                   2
                   2
                   2
                   2
                   2
                   2
                   2
                   2
                   2
                   2
                   2
                   2
                   2
                   2
                   2
                   2
                   2
                   2
                   2
                   2
                   2
                   2
                   2
                   2
                   2
                   2
                   2
                   2
                   2
                   2
                   2
                   2
                   2
                   2
                   2
                   2
                   2
                   2
                   2
                   2
                   2
                   2
                   2
                   2
                   2
                   2
                   2
                   2
                   2
                   2
                   2
                   2
                   2
                   2
                   2
                   2
                   2
                   2
                   2
                   2
                   2
                   2
                   2
                   2
                   2
                   2
                   2
                   2
                   2
                   2
                   2
                   2
                   2
                   2
                   2
                   2
                   2
                   2
                   2
                   2
                   2
                   2
                   2
                   2
                   2
                   2
                   2
                   2
                   2
                   2
                   2
                   2
                   2
                   2
                   2
                   2
                   2
                   2
                   2
                   2
                   2
                   2
                   2
                   2
                   2
                   2
                   2
                   2
                   2
                   2
                   2
                   2
                   2
                   2
                   2
                   2
                   2
                   2
                   2
                   2
                   2
                   2
                   2
                   2
                   2
                   2
                   2
                   2
                   2
                   2
                   2
                   2
                   2
                   2
                   2
                   2
                   2
                   2
                   2
                   2
                   2
                   2
                   2
                   2
                   2
                   2
                   2
                   2
                   2
                   2
                   2
                   2
                   2
                   2
                   2
                   2
                   2
                   2
                   2
                   2
                   2
                   2
                   2
                   2
                   2
                   2
                   2
                   2
                   2
                   2
                   2
                   2
                   2
                   2
                   2
                   2
                   2
                   2
                   2
                   2
                   2
                   2
                   2
                   2
                   2
                   2
                   2
                   2
                   2
                   2
                   2
                   2
                   2
                   2
                   2
                   2
                   2
                   2
                   2
                   2
                   2
                   2
                   2
                   2
                   2
                   2
                   2
                   2
                   2
                   2
                   2
                   2
                   2
                   2
                   2
                   2
                   2
                   2
                   2
                   2
                   2
                   2
                   2
                   2
                   2
                   2
                   2
                   2
                   2
                   2
                   2
                   2
                   2
                   2
                   2
                   2
                   2
                   2
                   2
                   2
                   2
                   2
                   2
                   2
                   2
                   2
                   2
                   2
                   2
                   2
                   2
                   2
                   2
                   2
                   2
                   2
                   2
                   2
                   2
                   2
                   2
                   2
                   2
                   2
                   2
                   2
                   2
                   2
                   2
                   2
                   2
                   2
                   2
                   2
                   2
                   2
                   2
                   2
                   2
                   2
                   2
                   2
                   2
                   2
                   2
                   2
                   2
                   2
                   2
                   2
                   2
                   2
                   2
                   2
                   2
                   2
                   2
                   2
                   2
                   2
                   2
                   2
                   2
                   2
                   2
                   2
                   2
                   2
                   2
                   2
                   2
                   2
                   2
                   2
                   2
                   2
                   2
                   2
                   2
                   2
                   2
                   2
                   2
                   2
                   2
                   2
                   2
                   2
                   2
                   2
                   2
                   2
                   2
                   2
                   2
                   2
                   2
                   2
                   2
                   2
                   2
                   2
                   2
                   2
                   2
                   2
                   2
                   2
                   2
                   2
                   2
                   2
                   2
                   2
                   2
                   2
                   2
                   2
                   2
                   2
                   2
                   2
                   2
                   2
                   2
                   2
                   2
                   2
                   2
                   2
                   2
                   2
                   2
                   2
                   2
                   2
                   2
                   2
                   2
                   2
                   2
                   2
                   2
                   2
                   2
                   2
                   2
                   2
                   2
                   2
                   2
                   2
                   2
                   2
                   2
                   2
                   2
                   2
                   2
                   2
                   2
                   2
                   2
                   2
                   2
                   2
                   2
                   2
                   2
                   2
                   2
                   2
                   2
                   2
                   2
                   2
                   2
                   2
                   2
                   2
                   2
                   2
                   2
                   2
                   2
                   2
                   2
                   2
                   2
                   2
                   2
                   2
                   2
                   2
                   2
                   2
                   2
                   2
                   2
                   2
                   2
                   2
                   2
                   2
                   2
                   2
                   2
                   2
                   2
                   2
                   2
                   2
                   2
                   2
                   2
                   2
                   2
                   2
                   2
                   2
                   2
                   2
                   2
                   2
                   2
                   2
                   2
                   2
                   2
                   2
                   2
                   2
                   2
                   2
                   2
                   2
                   2
                   2
                   2
                   2
                   2
                   2
                   2
                   2
                   2
                   2
                   2
                   2
                   2
                   2
                   2
                   2
                   2
                   2
                   2
                   2
                   2
                   2
                   2
                   2
                   2
                   2
                   2
                   2
                   2
                   2
                   2
                   2
                   2
                   2
                   2
                   2
                   2
                   2
                   2
                   2
                   2
                   2
                   2
                   2
                   2
                   2
                   2
                   2
                   2
                   2
                   2
                   2
                   2
                   2
                   2
                   2
                   2
                   2
                   2
                   2
                   2
                   2
                   2
                   2
                   2
                   2
                   2
                   2
                   2
                   2
                   2
                   2
                   2
                   2
                   2
                   2
                   2
                   2
                   2
                   2
                   2
                   2
                   2
                   2
                   2
                   2
                   2
                   2
                   2
                   2
                   2
                   2
                   2
                   2
                   2
                   2
                   2
                   2
                   2
                   2
                   2
                   2
                   2
                   2
                   2
                   2
                   2
                   2
                   2
                   2
                   2
                   2
                   2
                   2
                   2
                   2
                   2
                   2
                   2
                   2
                   2
                   2
                   2
                   2
                   2
                   2
                   2
                   2
                   2
                   2
                   2
                   2
                   2
                   2
                   2
                   2
                   2
                   2
                   2
                   2
                   2
                   2
                   2
                   2
                   2
                   2
                   2
                   2
                   2
                   2
                   2
                   2
                   2
                   2
                   2
                   2
                   2
                   2
                   2
                   2
                   2
                   2
                   2
                   2
                   2
                   2
                   2
                   2
                   2
                   2
                   2
                   2
                   2
                   2
                   2
                   2
                   2
                   2
                   2
                   2
                   2
                   2
                   2
                   2
                   2
                   2
                   2
                   2
                   2
                   2
                   2
                   2
                   2
                   2
                   2
                   2
                   2
                   2
                   2
                   2
                   2
                   2
                   2
                   2
                   2
                   2
                   2
                   2
                   2
                   2
                   2
                   2
                   2
                   2
                   2
                   2
                   2
                   2
                   2
                   2
                   2
                   2
                   2
                   2
                   2
                   2
                   2
                   2
                   2
                   2
                   2
                   2
                   2
                   2
                   2
                   2
                   2
                   2
                   2
                   2
                   2
                   2
                   2
                   2
                   2
                   2
                   2
                   2
                   2
                   2
                   2
                   2
                   2
                   2
                   2
                   2
                   2
                   2
                   2
                   2
                   2
                   2
                   2
                   2
                   2
                   2
                   2
                   2
                   2
                   2
                   2
                   2
                   2
                   2
                   2
                   2
                   2
                   2
                   2
                   2
                   2
                   2
                   2
                   2
                   2
                   2
                   2
                   2
                   2
                   2
                   2
                   2
                   2
                   2
                   2
                   2
                   2
                   2
                   2
                   2
                   2
                   2
                   2
                   2
                   2
                   2
                   2
                   2
                   2
                   2
                   2
                   2
                   2
                   2
                   2
                   2
                   2
                   2
                   2
                   2
                   2
                   2
                   2
                   2
                   2
                   2
                   2
                   2
                   2
                   2
                   2
                   2
                   2
                   2
                   2
                   2
                   2
                   2
                   2
                   2
                   2
                   2
                   2
                   2
                   2
                   2
                   2
                   2
                   2
                   2
                   2
                   2
                   2
                   2
                   2
                   2
                   2
                   2
                   2
                   2
                   2
                   2
                   2
                   2
                   2
                   2
                   2
                   2
                   2
                   2
                   2
                   2
                   2
                   2
                   2
                   2
                   2
                   2
                   2
                   2
                   2
                   2
                   2
                   2
                   2
                   2
                   2
                   2
                   2
                   2
                   2
                   2
                   2
                   2
                   2
                   2
                   2
                   2
                   2
                   2
                   2
                   2
                   2
                   2
                   2
                   2
                   2
                   2
                   2
                   2
                   2
                   2
                   2
                   2
                   2
                   2
                   2
                   2
                   2
                   2
                   2
                   2
                   2
                   2
                   2
                   2
                   2
                   2
                   2
                   2
                   2
                   2
                   2
                   2
                   2
                   2
                   2
                   2
                   2
                   2
                   2
                   2
                   2
                   2
                   2
                   2
                   2
                   2
                   2
                   2
                   2
                   2
                   2
                   2
                   2
                   2
                   2
                   2
                   2
                   2
                   2
                   2
                   2
                   2
                   2
                   2
                   2
                   2
                   2
                   2
                   2
                   2
                   2
                   2
                   2
                   2
                   2
                   2
                   2
                   2
                   2
                   2
                   2
                   2
                   2
                   2
                   2
                   2
                   2
                   2
                   2
                   2
                   2
                   2
                   2
                   2
                   2
                   2
                   2
                   2
                   2
                   2
                   2
                   2
                   2
                   2
                   2
                   2
                   2
                   2
                   2
                   2
                   2
                   2
                   2
                   2
                   2
                   2
                   2
                   2
                   2
                   2
                   2
                   2
                   2
                   2
                   2
                   2
                   2
                   2
                   2
                   2
                   2
                   2
                   2
                   2
                   2
                   2
                   2
                   2
                   2
                   2
                   2
                   2
                   2
                   2
                   2
                   2
                   2
                   2
                   2
                   2
                   2
                   2
                   2
                   2
                   2
                   2
                   2
                   2
                   2
                   2
                   2
                   2
                   2
                   2
                   2
                   2
                   2
                   2
                   2
                   2
                   2
                   2
                   2
                   2
                   2
                   2
                   2
                   2
                   2
                   2
                   2
                   2
                   2
                   2
                   2
                   2
                   2
                   2
                   2
                   2
                   2
                   2
  
SCALARS                        node_id  double 1
LOOKUP_TABLE default
                   1
                   2
                   3
                   4
                   5
                   6
                   7
                   8
                   9
                  10
                  11
                  12
                  13
                  14
                  15
                  16
                  17
                  18
                  19
                  20
                  21
                  22
                  23
                  24
                  25
                  26
                  27
                  28
                  29
                  30
                  31
                  32
                  33
                  34
                  35
                  36
                  37
                  38
                  39
                  40
                  41
                  42
                  43
                  44
                  45
                  46
                  47
                  48
                  49
                  50
                  51
                  52
                  53
                  54
                  55
                  56
                  57
                  58
                  59
                  60
                  61
                  62
                  63
                  64
                  65
                  66
                  67
                  68
                  69
                  70
                  71
                  72
                  73
                  74
                  75
                  76
                  77
                  78
                  79
                  80
                  81
                  82
                  83
                  84
                  85
                  86
                  87
                  88
                  89
                  90
                  91
                  92
                  93
                  94
                  95
                  96
                  97
                  98
                  99
                 100
                 101
                 102
                 103
                 104
                 105
                 106
                 107
                 108
                 109
                 110
                 111
                 112
                 113
                 114
                 115
                 116
                 117
                 118
                 119
                 120
                 121
                 122
                 123
                 124
                 125
                 126
                 127
                 128
                 129
                 130
                 131
                 132
                 133
                 134
                 135
                 136
                 137
                 138
                 139
                 140
                 141
                 142
                 143
                 144
                 145
                 146
                 147
                 148
                 149
                 150
                 151
                 152
                 153
                 154
                 155
                 156
                 157
                 158
                 159
                 160
                 161
                 162
                 163
                 164
                 165
                 166
                 167
                 168
                 169
                 170
                 171
                 172
                 173
                 174
                 175
                 176
                 177
                 178
                 179
                 180
                 181
                 182
                 183
                 184
                 185
                 186
                 187
                 188
                 189
                 190
                 191
                 192
                 193
                 194
                 195
                 196
                 197
                 198
                 199
                 200
                 201
                 202
                 203
                 204
                 205
                 206
                 207
                 208
                 209
                 210
                 211
                 212
                 213
                 214
                 215
                 216
                 217
                 218
                 219
                 220
                 221
                 222
                 223
                 224
                 225
                 226
                 227
                 228
                 229
                 230
                 231
                 232
                 233
                 234
                 235
                 236
                 237
                 238
                 239
                 240
                 241
                 242
                 243
                 244
                 245
                 246
                 247
                 248
                 249
                 250
                 251
                 252
                 253
                 254
                 255
                 256
                 257
                 258
                 259
                 260
                 261
                 262
                 263
                 264
                 265
                 266
                 267
                 268
                 269
                 270
                 271
                 272
                 273
                 274
                 275
                 276
                 277
                 278
                 279
                 280
                 281
                 282
                 283
                 284
                 285
                 286
                 287
                 288
                 289
                 290
                 291
                 292
                 293
                 294
                 295
                 296
                 297
                 298
                 299
                 300
                 301
                 302
                 303
                 304
                 305
                 306
                 307
                 308
                 309
                 310
                 311
                 312
                 313
                 314
                 315
                 316
                 317
                 318
                 319
                 320
                 321
                 322
                 323
                 324
                 325
                 326
                 327
                 328
                 329
                 330
                 331
                 332
                 333
                 334
                 335
                 336
                 337
                 338
                 339
                 340
                 341
                 342
                 343
                 344
                 345
                 346
                 347
                 348
                 349
                 350
                 351
                 352
                 353
                 354
                 355
                 356
                 357
                 358
                 359
                 360
                 361
                 362
                 363
                 364
                 365
                 366
                 367
                 368
                 369
                 370
                 371
                 372
                 373
                 374
                 375
                 376
                 377
                 378
                 379
                 380
                 381
                 382
                 383
                 384
                 385
                 386
                 387
                 388
                 389
                 390
                 391
                 392
                 393
                 394
                 395
                 396
                 397
                 398
                 399
                 400
                 401
                 402
                 403
                 404
                 405
                 406
                 407
                 408
                 409
                 410
                 411
                 412
                 413
                 414
                 415
                 416
                 417
                 418
                 419
                 420
                 421
                 422
                 423
                 424
                 425
                 426
                 427
                 428
                 429
                 430
                 431
                 432
                 433
                 434
                 435
                 436
                 437
                 438
                 439
                 440
                 441
                 442
                 443
                 444
                 445
                 446
                 447
                 448
                 449
                 450
                 451
                 452
                 453
                 454
                 455
                 456
                 457
                 458
                 459
                 460
                 461
                 462
                 463
                 464
                 465
                 466
                 467
                 468
                 469
                 470
                 471
                 472
                 473
                 474
                 475
                 476
                 477
                 478
                 479
                 480
                 481
                 482
                 483
                 484
                 485
                 486
                 487
                 488
                 489
                 490
                 491
                 492
                 493
                 494
                 495
                 496
                 497
                 498
                 499
                 500
                 501
                 502
                 503
                 504
                 505
                 506
                 507
                 508
                 509
                 510
                 511
                 512
                 513
                 514
                 515
                 516
                 517
                 518
                 519
                 520
                 521
                 522
                 523
                 524
                 525
                 526
                 527
                 528
                 529
                 530
                 531
                 532
                 533
                 534
                 535
                 536
                 537
                 538
                 539
                 540
                 541
                 542
                 543
                 544
                 545
                 546
                 547
                 548
                 549
                 550
                 551
                 552
                 553
                 554
                 555
                 556
                 557
                 558
                 559
                 560
                 561
                 562
                 563
                 564
                 565
                 566
                 567
                 568
                 569
                 570
                 571
                 572
                 573
                 574
                 575
                 576
                 577
                 578
                 579
                 580
                 581
                 582
                 583
                 584
                 585
                 586
                 587
                 588
                 589
                 590
                 591
                 592
                 593
                 594
                 595
                 596
                 597
                 598
                 599
                 600
                 601
                 602
                 603
                 604
                 605
                 606
                 607
                 608
                 609
                 610
                 611
                 612
                 613
                 614
                 615
                 616
                 617
                 618
                 619
                 620
                 621
                 622
                 623
                 624
                 625
                 626
                 627
                 628
                 629
                 630
                 631
                 632
                 633
                 634
                 635
                 636
                 637
                 638
                 639
                 640
                 641
                 642
                 643
                 644
                 645
                 646
                 647
                 648
                 649
                 650
                 651
                 652
                 653
                 654
                 655
                 656
                 657
                 658
                 659
                 660
                 661
                 662
                 663
                 664
                 665
                 666
                 667
                 668
                 669
                 670
                 671
                 672
                 673
                 674
                 675
                 676
                 677
                 678
                 679
                 680
                 681
                 682
                 683
                 684
                 685
                 686
                 687
                 688
                 689
                 690
                 691
                 692
                 693
                 694
                 695
                 696
                 697
                 698
                 699
                 700
                 701
                 702
                 703
                 704
                 705
                 706
                 707
                 708
                 709
                 710
                 711
                 712
                 713
                 714
                 715
                 716
                 717
                 718
                 719
                 720
                 721
                 722
                 723
                 724
                 725
                 726
                 727
                 728
                 729
                 730
                 731
                 732
                 733
                 734
                 735
                 736
                 737
                 738
                 739
                 740
                 741
                 742
                 743
                 744
                 745
                 746
                 747
                 748
                 749
                 750
                 751
                 752
                 753
                 754
                 755
                 756
                 757
                 758
                 759
                 760
                 761
                 762
                 763
                 764
                 765
                 766
                 767
                 768
                 769
                 770
                 771
                 772
                 773
                 774
                 775
                 776
                 777
                 778
                 779
                 780
                 781
                 782
                 783
                 784
                 785
                 786
                 787
                 788
                 789
                 790
                 791
                 792
                 793
                 794
                 795
                 796
                 797
                 798
                 799
                 800
                 801
                 802
                 803
                 804
                 805
                 806
                 807
                 808
                 809
                 810
                 811
                 812
                 813
                 814
                 815
                 816
                 817
                 818
                 819
                 820
                 821
                 822
                 823
                 824
                 825
                 826
                 827
                 828
                 829
                 830
                 831
                 832
                 833
                 834
                 835
                 836
                 837
                 838
                 839
                 840
                 841
                 842
                 843
                 844
                 845
                 846
                 847
                 848
                 849
                 850
                 851
                 852
                 853
                 854
                 855
                 856
                 857
                 858
                 859
                 860
                 861
                 862
                 863
                 864
                 865
                 866
                 867
                 868
                 869
                 870
                 871
                 872
                 873
                 874
                 875
                 876
                 877
                 878
                 879
                 880
                 881
                 882
                 883
                 884
                 885
                 886
                 887
                 888
                 889
                 890
                 891
                 892
                 893
                 894
                 895
                 896
                 897
                 898
                 899
                 900
                 901
                 902
                 903
                 904
                 905
                 906
                 907
                 908
                 909
                 910
                 911
                 912
                 913
                 914
                 915
                 916
                 917
                 918
                 919
                 920
                 921
                 922
                 923
                 924
                 925
                 926
                 927
                 928
                 929
                 930
                 931
                 932
                 933
                 934
                 935
                 936
                 937
                 938
                 939
                 940
                 941
                 942
                 943
                 944
                 945
                 946
                 947
                 948
                 949
                 950
                 951
                 952
                 953
                 954
                 955
                 956
                 957
                 958
                 959
                 960
                 961
                 962
                 963
                 964
                 965
                 966
                 967
                 968
                 969
                 970
                 971
                 972
                 973
                 974
                 975
                 976
                 977
                 978
                 979
                 980
                 981
                 982
                 983
                 984
                 985
                 986
                 987
                 988
                 989
                 990
                 991
                 992
                 993
                 994
                 995
                 996
                 997
                 998
                 999
                1000
                1001
                1002
                1003
                1004
                1005
                1006
                1007
                1008
                1009
                1010
                1011
                1012
                1013
                1014
                1015
                1016
                1017
                1018
                1019
                1020
                1021
                1022
                1023
                1024
                1025
                1026
                1027
                1028
                1029
                1030
                1031
                1032
                1033
                1034
                1035
                1036
                1037
                1038
                1039
                1040
                1041
                1042
                1043
                1044
                1045
                1046
                1047
                1048
                1049
                1050
                1051
                1052
                1053
                1054
                1055
                1056
                1057
                1058
                1059
                1060
                1061
                1062
                1063
                1064
                1065
                1066
                1067
                1068
                1069
                1070
                1071
                1072
                1073
                1074
                1075
                1076
                1077
                1078
                1079
                1080
                1081
                1082
                1083
                1084
                1085
                1086
                1087
                1088
                1089
                1090
                1091
                1092
                1093
                1094
                1095
                1096
                1097
                1098
                1099
                1100
                1101
                1102
                1103
                1104
                1105
                1106
                1107
                1108
                1109
                1110
                1111
                1112
                1113
                1114
                1115
                1116
                1117
                1118
                1119
                1120
                1121
                1122
                1123
                1124
                1125
                1126
                1127
                1128
                1129
                1130
                1131
                1132
                1133
                1134
                1135
                1136
                1137
                1138
                1139
                1140
                1141
                1142
                1143
                1144
                1145
                1146
                1147
                1148
                1149
                1150
                1151
                1152
                1153
                1154
                1155
                1156
                1157
                1158
                1159
                1160
                1161
                1162
                1163
                1164
                1165
                1166
                1167
                1168
                1169
                1170
                1171
                1172
                1173
                1174
                1175
                1176
                1177
                1178
                1179
                1180
                1181
                1182
                1183
                1184
                1185
                1186
                1187
                1188
                1189
                1190
                1191
                1192
                1193
                1194
                1195
                1196
                1197
                1198
                1199
                1200
                1201
                1202
                1203
                1204
                1205
                1206
                1207
                1208
                1209
                1210
                1211
                1212
                1213
                1214
                1215
                1216
                1217
                1218
                1219
                1220
                1221
                1222
                1223
                1224
                1225
                1226
                1227
                1228
                1229
                1230
                1231
                1232
                1233
                1234
                1235
                1236
                1237
                1238
                1239
                1240
                1241
                1242
                1243
                1244
                1245
                1246
                1247
                1248
                1249
                1250
                1251
                1252
                1253
                1254
                1255
                1256
                1257
                1258
                1259
                1260
                1261
                1262
                1263
                1264
                1265
                1266
                1267
                1268
                1269
                1270
                1271
                1272
                1273
                1274
                1275
                1276
                1277
                1278
                1279
                1280
                1281
                1282
                1283
                1284
                1285
                1286
                1287
                1288
                1289
                1290
                1291
                1292
                1293
                1294
                1295
                1296
                1297
                1298
                1299
                1300
                1301
                1302
                1303
                1304
                1305
                1306
                1307
                1308
                1309
                1310
                1311
                1312
                1313
                1314
                1315
                1316
                1317
                1318
                1319
                1320
                1321
                1322
                1323
                1324
                1325
                1326
                1327
                1328
                1329
                1330
                1331
                1332
                1333
                1334
                1335
                1336
                1337
                1338
                1339
                1340
                1341
                1342
                1343
                1344
                1345
                1346
                1347
                1348
                1349
                1350
                1351
                1352
                1353
                1354
                1355
                1356
                1357
                1358
                1359
                1360
                1361
                1362
                1363
                1364
                1365
                1366
                1367
                1368
                1369
                1370
                1371
                1372
                1373
                1374
                1375
                1376
                1377
                1378
                1379
                1380
                1381
                1382
                1383
                1384
                1385
                1386
                1387
                1388
                1389
                1390
                1391
                1392
                1393
                1394
                1395
                1396
                1397
                1398
                1399
                1400
                1401
                1402
                1403
                1404
                1405
                1406
                1407
                1408
                1409
                1410
                1411
                1412
                1413
                1414
                1415
                1416
                1417
                1418
                1419
                1420
                1421
                1422
                1423
                1424
                1425
                1426
                1427
                1428
                1429
                1430
                1431
                1432
                1433
                1434
                1435
                1436
                1437
                1438
                1439
                1440
                1441
                1442
                1443
                1444
                1445
                1446
                1447
                1448
                1449
                1450
                1451
                1452
                1453
                1454
                1455
                1456
                1457
                1458
                1459
                1460
                1461
                1462
                1463
                1464
                1465
                1466
                1467
                1468
                1469
                1470
                1471
                1472
                1473
                1474
                1475
                1476
                1477
                1478
                1479
                1480
                1481
                1482
                1483
                1484
                1485
                1486
                1487
                1488
                1489
                1490
                1491
                1492
                1493
                1494
                1495
                1496
                1497
                1498
                1499
                1500
                1501
                1502
                1503
                1504
                1505
                1506
                1507
                1508
                1509
                1510
                1511
                1512
                1513
                1514
                1515
                1516
                1517
                1518
                1519
                1520
                1521
                1522
                1523
                1524
                1525
                1526
                1527
                1528
                1529
                1530
                1531
                1532
                1533
                1534
                1535
                1536
                1537
                1538
                1539
                1540
                1541
                1542
                1543
                1544
                1545
                1546
                1547
                1548
                1549
                1550
                1551
                1552
                1553
                1554
                1555
                1556
                1557
                1558
                1559
                1560
                1561
                1562
                1563
                1564
                1565
                1566
                1567
                1568
                1569
                1570
                1571
                1572
                1573
                1574
                1575
                1576
                1577
                1578
                1579
                1580
                1581
                1582
                1583
                1584
                1585
                1586
                1587
                1588
                1589
                1590
                1591
                1592
                1593
                1594
                1595
                1596
                1597
                1598
                1599
                1600
                1601
                1602
                1603
                1604
                1605
                1606
                1607
                1608
                1609
                1610
                1611
                1612
                1613
                1614
                1615
                1616
                1617
                1618
                1619
                1620
                1621
                1622
                1623
                1624
                1625
                1626
                1627
                1628
                1629
                1630
                1631
                1632
                1633
                1634
                1635
                1636
                1637
                1638
                1639
                1640
                1641
                1642
                1643
                1644
                1645
                1646
                1647
                1648
                1649
                1650
                1651
                1652
                1653
                1654
                1655
                1656
                1657
                1658
                1659
                1660
                1661
                1662
                1663
                1664
                1665
                1666
                1667
                1668
                1669
                1670
                1671
                1672
                1673
                1674
                1675
                1676
                1677
                1678
                1679
                1680
                1681
                1682
                1683
                1684
                1685
                1686
                1687
                1688
                1689
                1690
                1691
                1692
                1693
                1694
                1695
                1696
                1697
                1698
                1699
                1700
                1701
                1702
                1703
                1704
                1705
                1706
                1707
                1708
                1709
                1710
                1711
                1712
                1713
                1714
                1715
                1716
                1717
                1718
                1719
                1720
                1721
                1722
                1723
                1724
                1725
                1726
                1727
                1728
                1729
                1730
                1731
                1732
                1733
                1734
                1735
                1736
                1737
                1738
                1739
                1740
                1741
                1742
                1743
                1744
                1745
                1746
                1747
                1748
                1749
                1750
                1751
                1752
                1753
                1754
                1755
                1756
                1757
                1758
                1759
                1760
                1761
                1762
                1763
                1764
                1765
                1766
                1767
                1768
                1769
                1770
                1771
                1772
                1773
                1774
                1775
                1776
                1777
                1778
                1779
                1780
                1781
                1782
                1783
                1784
                1785
                1786
                1787
                1788
                1789
                1790
                1791
                1792
                1793
                1794
                1795
                1796
                1797
                1798
                1799
                1800
                1801
                1802
                1803
                1804
                1805
                1806
                1807
                1808
                1809
                1810
                1811
                1812
                1813
                1814
                1815
                1816
                1817
                1818
                1819
                1820
                1821
                1822
                1823
                1824
                1825
                1826
                1827
                1828
                1829
                1830
                1831
                1832
                1833
                1834
                1835
                1836
                1837
                1838
                1839
                1840
                1841
                1842
                1843
                1844
                1845
                1846
                1847
                1848
                1849
                1850
                1851
                1852
                1853
                1854
                1855
                1856
                1857
                1858
                1859
                1860
                1861
                1862
                1863
                1864
                1865
                1866
                1867
                1868
                1869
                1870
                1871
                1872
                1873
                1874
                1875
                1876
                1877
                1878
                1879
                1880
                1881
                1882
                1883
                1884
                1885
                1886
                1887
                1888
                1889
                1890
                1891
                1892
                1893
                1894
                1895
                1896
                1897
                1898
                1899
                1900
                1901
                1902
                1903
                1904
                1905
                1906
                1907
                1908
                1909
                1910
                1911
                1912
                1913
                1914
                1915
                1916
                1917
                1918
                1919
                1920
                1921
                1922
                1923
                1924
                1925
                1926
                1927
                1928
                1929
                1930
                1931
                1932
                1933
                1934
                1935
                1936
                1937
                1938
                1939
                1940
                1941
                1942
                1943
                1944
                1945
                1946
                1947
                1948
                1949
                1950
  
SCALARS                         bodyid  double 1
LOOKUP_TABLE default
                   1
                   1
                   1
                   1
                   1
                   1
                   1
                   1
                   1
                   1
                   1
                   1
                   1
                   1
                   1
                   1
                   1
                   1
                   1
                   1
                   1
                   1
                   1
                   1
                   1
                   1
                   1
                   1
                   1
                   1
                   1
                   1
                   1
                   1
                   1
                   1
                   1
                   1
                   1
                   1
                   1
                   1
                   1
                   1
                   1
                   1
                   1
                   1
                   1
                   1
                   1
                   1
                   1
                   1
                   1
                   1
                   1
                   1
                   1
                   1
                   1
                   1
                   1
                   1
                   1
                   1
                   1
                   1
                   1
                   1
                   1
                   1
                   1
                   1
                   1
                   1
                   1
                   1
                   1
                   1
                   1
                   1
                   1
                   1
                   1
                   1
                   1
                   1
                   1
                   1
                   1
                   1
                   1
                   1
                   1
                   1
                   1
                   1
                   1
                   1
                   1
                   1
                   1
                   1
                   1
                   1
                   1
                   1
                   1
                   1
                   1
                   1
                   1
                   1
                   1
                   1
                   1
                   1
                   1
                   1
                   1
                   1
                   1
                   1
                   1
                   1
                   1
                   1
                   1
                   1
                   1
                   1
                   1
                   1
                   1
                   1
                   1
                   1
                   1
                   1
                   1
                   1
                   1
                   1
                   1
                   1
                   1
                   1
                   1
                   1
                   1
                   1
                   1
                   1
                   1
                   1
                   1
                   1
                   1
                   1
                   1
                   1
                   1
                   1
                   1
                   1
                   1
                   1
                   1
                   1
                   1
                   1
                   1
                   1
                   1
                   1
                   1
                   1
                   1
                   1
                   1
                   1
                   1
                   1
                   1
                   1
                   1
                   1
                   1
                   1
                   1
                   1
                   1
                   1
                   1
                   1
                   1
                   1
                   1
                   1
                   1
                   1
                   1
                   1
                   1
                   1
                   1
                   1
                   1
                   1
                   1
                   1
                   1
                   1
                   1
                   1
                   1
                   1
                   1
                   1
                   1
                   1
                   1
                   1
                   1
                   1
                   1
                   1
                   1
                   1
                   1
                   1
                   1
                   1
                   1
                   1
                   1
                   1
                   1
                   1
                   1
                   1
                   1
                   1
                   1
                   1
                   1
                   1
                   1
                   1
                   1
                   1
                   1
                   1
                   1
                   1
                   1
                   1
                   1
                   1
                   1
                   1
                   1
                   1
                   1
                   1
                   1
                   1
                   1
                   1
                   1
                   1
                   1
                   1
                   1
                   1
                   1
                   1
                   1
                   1
                   1
                   1
                   1
                   1
                   1
                   1
                   1
                   1
                   1
                   1
                   1
                   1
                   1
                   1
                   1
                   1
                   1
                   1
                   1
                   1
                   1
                   1
                   1
                   1
                   1
                   1
                   1
                   1
                   1
                   1
                   1
                   1
                   1
                   1
                   1
                   1
                   1
                   1
                   1
                   1
                   1
                   1
                   1
                   1
                   1
                   1
                   1
                   1
                   1
                   1
                   1
                   1
                   1
                   1
                   1
                   1
                   1
                   1
                   1
                   1
                   1
                   1
                   1
                   1
                   1
                   1
                   1
                   1
                   1
                   1
                   1
                   1
                   1
                   1
                   1
                   1
                   1
                   1
                   1
                   1
                   1
                   1
                   1
                   1
                   1
                   1
                   1
                   1
                   1
                   1
                   1
                   1
                   1
                   1
                   1
                   1
                   1
                   1
                   1
                   1
                   1
                   1
                   1
                   1
                   1
                   1
                   1
                   1
                   1
                   1
                   1
                   1
                   1
                   1
                   1
                   1
                   1
                   1
                   1
                   1
                   1
                   1
                   1
                   1
                   1
                   1
                   1
                   1
                   1
                   1
                   1
                   1
                   1
                   1
                   1
                   1
                   1
                   1
                   1
                   1
                   1
                   1
                   1
                   1
                   1
                   1
                   1
                   1
                   1
                   1
                   1
                   1
                   1
                   1
                   1
                   1
                   1
                   1
                   1
                   1
                   1
                   1
                   1
                   1
                   1
                   1
                   1
                   1
                   1
                   1
                   1
                   1
                   1
                   1
                   1
                   1
                   1
                   1
                   1
                   1
                   1
                   1
                   1
                   1
                   1
                   1
                   1
                   1
                   1
                   1
                   1
                   1
                   1
                   1
                   1
                   1
                   1
                   1
                   1
                   1
                   1
                   1
                   1
                   1
                   1
                   1
                   1
                   1
                   1
                   1
                   1
                   1
                   1
                   1
                   1
                   1
                   1
                   1
                   1
                   1
                   1
                   1
                   1
                   1
                   1
                   1
                   1
                   1
                   1
                   1
                   1
                   1
                   1
                   1
                   1
                   1
                   1
                   1
                   1
                   1
                   1
                   1
                   1
                   1
                   1
                   1
                   1
                   1
                   1
                   1
                   1
                   1
                   1
                   1
                   1
                   1
                   1
                   1
                   1
                   1
                   1
                   1
                   1
                   1
                   1
                   1
                   1
                   1
                   1
                   1
                   1
                   1
                   1
                   1
                   1
                   1
                   1
                   1
                   1
                   1
                   1
                   1
                   1
                   1
                   1
                   1
                   1
                   1
                   1
                   1
                   1
                   1
                   1
                   1
                   1
                   1
                   1
                   1
                   1
                   1
                   1
                   1
                   1
                   1
                   1
                   1
                   1
                   1
                   1
                   1
                   1
                   1
                   1
                   1
                   1
                   1
                   1
                   1
                   1
                   1
                   1
                   1
                   1
                   1
                   1
                   1
                   1
                   1
                   1
                   1
                   1
                   1
                   1
                   1
                   1
                   1
                   1
                   1
                   1
                   1
                   1
                   1
                   1
                   1
                   1
                   1
                   1
                   1
                   1
                   1
                   1
                   1
                   1
                   1
                   1
                   1
                   1
                   1
                   1
                   1
                   1
                   1
                   1
                   1
                   1
                   1
                   1
                   1
                   1
                   1
                   1
                   1
                   1
                   1
                   1
                   1
                   1
                   1
                   1
                   1
                   1
                   1
                   1
                   1
                   1
                   1
                   1
                   1
                   1
                   1
                   1
                   1
                   1
                   1
                   1
                   1
                   1
                   1
                   1
                   1
                   1
                   1
                   1
                   1
                   1
                   1
                   1
                   1
                   1
                   1
                   1
                   1
                   1
                   1
                   1
                   1
                   1
                   1
                   1
                   1
                   1
                   1
                   1
                   1
                   1
                   1
                   1
                   1
                   1
                   1
                   1
                   1
                   1
                   1
                   1
                   1
                   1
                   1
                   1
                   1
                   1
                   1
                   1
                   1
                   1
                   1
                   1
                   1
                   1
                   1
                   1
                   1
                   1
                   1
                   1
                   1
                   1
                   1
                   1
                   1
                   1
                   1
                   1
                   1
                   1
                   1
                   1
                   1
                   1
                   1
                   1
                   1
                   1
                   1
                   1
                   1
                   1
                   1
                   1
                   1
                   1
                   1
                   1
                   1
                   1
                   1
                   1
                   1
                   1
                   1
                   1
                   1
                   1
                   1
                   1
                   1
                   1
                   1
                   1
                   1
                   1
                   1
                   1
                   1
                   1
                   1
                   1
                   1
                   1
                   1
                   1
                   1
                   1
                   1
                   1
                   1
                   1
                   1
                   1
                   1
                   1
                   1
                   1
                   1
                   1
                   1
                   1
                   1
                   1
                   1
                   1
                   1
                   1
                   1
                   1
                   1
                   1
                   1
                   1
                   1
                   1
                   1
                   1
                   1
                   1
                   1
                   1
                   1
                   1
                   1
                   1
                   1
                   1
                   1
                   1
                   1
                   1
                   1
                   1
                   1
                   1
                   1
                   1
                   1
                   1
                   1
                   1
                   1
                   1
                   1
                   1
                   1
                   1
                   1
                   1
                   1
                   1
                   1
                   1
                   1
                   1
                   1
                   1
                   1
                   1
                   1
                   1
                   1
                   1
                   1
                   1
                   1
                   1
                   1
                   1
                   1
                   1
                   1
                   1
                   1
                   1
                   1
                   1
                   1
                   1
                   1
                   1
                   1
                   1
                   1
                   1
                   1
                   1
                   1
                   1
                   1
                   1
                   1
                   1
                   1
                   1
                   1
                   1
                   1
                   1
                   1
                   1
                   1
                   1
                   1
                   1
                   1
                   1
                   1
                   1
                   1
                   1
                   1
                   1
                   1
                   1
                   1
                   1
                   1
                   1
                   1
                   1
                   1
                   1
                   1
                   1
                   1
                   1
                   1
                   1
                   1
                   1
                   1
                   1
                   1
                   1
                   1
                   1
                   1
                   1
                   1
                   1
                   1
                   1
                   1
                   1
                   1
                   1
                   1
                   1
                   1
                   1
                   1
                   1
                   1
                   1
                   1
                   1
                   1
                   1
                   1
                   1
                   1
                   1
                   1
                   1
                   1
                   1
                   1
                   1
                   1
                   1
                   1
                   1
                   1
                   1
                   1
                   1
                   1
                   1
                   1
                   1
                   1
                   1
                   1
                   1
                   1
                   1
                   1
                   1
                   1
                   1
                   1
                   1
                   1
                   1
                   1
                   1
                   1
                   1
                   1
                   1
                   1
                   1
                   1
                   1
                   1
                   1
                   1
                   1
                   1
                   1
                   1
                   1
                   1
                   1
                   1
                   1
                   1
                   1
                   1
                   1
                   1
                   1
                   1
                   1
                   1
                   1
                   1
                   1
                   1
                   1
                   1
                   1
                   1
                   1
                   1
                   1
                   1
                   1
                   1
                   1
                   1
                   1
                   1
                   1
                   1
                   1
                   1
                   1
                   1
                   1
                   1
                   1
                   1
                   1
                   1
                   1
                   1
                   1
                   1
                   1
                   1
                   1
                   1
                   1
                   1
                   1
                   1
                   1
                   1
                   1
                   1
                   1
                   1
                   1
                   1
                   1
                   1
                   1
                   1
                   1
                   1
                   1
                   1
                   1
                   1
                   1
                   1
                   1
                   1
                   1
                   1
                   1
                   1
                   1
                   1
                   1
                   1
                   1
                   1
                   1
                   1
                   1
                   1
                   1
                   1
                   1
                   1
                   1
                   1
                   1
                   1
                   1
                   1
                   1
                   1
                   1
                   1
                   1
                   1
                   1
                   1
                   1
                   1
                   1
                   1
                   1
                   1
                   1
                   1
                   1
                   1
                   1
                   1
                   1
                   1
                   1
                   1
                   1
                   1
                   1
                   1
                   1
                   1
                   1
                   1
                   1
                   1
                   1
                   1
                   1
                   1
                   1
                   1
                   1
                   1
                   1
                   1
                   1
                   1
                   1
                   1
                   1
                   1
                   1
                   1
                   1
                   1
                   1
                   1
                   1
                   1
                   1
                   1
                   1
                   1
                   1
                   1
                   1
                   1
                   1
                   1
                   1
                   1
                   1
                   1
                   1
                   1
                   1
                   1
                   1
                   1
                   1
                   1
                   1
                   1
                   1
                   1
                   1
                   1
                   1
                   1
                   1
                   1
                   1
                   1
                   1
                   1
                   1
                   1
                   1
                   1
                   1
                   1
                   1
                   1
                   1
                   1
                   1
                   1
                   1
                   1
                   1
                   1
                   1
                   1
                   1
                   1
                   1
                   1
                   1
                   1
                   1
                   1
                   1
                   1
                   1
                   1
                   1
                   1
                   1
                   1
                   1
                   1
                   1
                   1
                   1
                   1
                   1
                   1
                   1
                   1
                   1
                   1
                   1
                   1
                   1
                   1
                   1
                   1
                   1
                   1
                   1
                   1
                   1
                   1
                   1
                   1
                   1
                   1
                   1
                   1
                   1
                   1
                   1
                   1
                   1
                   1
                   1
                   1
                   1
                   1
                   1
                   1
                   1
                   1
                   1
                   1
                   1
                   1
                   1
                   1
                   1
                   1
                   1
                   1
                   1
                   1
                   1
                   1
                   1
                   1
                   1
                   1
                   1
                   1
                   1
                   1
                   1
                   1
                   1
                   1
                   1
                   1
                   1
                   1
                   1
                   1
                   1
                   1
                   1
                   1
                   1
                   1
                   1
                   1
                   1
                   1
                   1
                   1
                   1
                   1
                   1
                   1
                   1
                   1
                   1
                   1
                   1
                   1
                   1
                   1
                   1
                   1
                   1
                   1
                   1
                   1
                   1
                   1
                   1
                   1
                   1
                   1
                   1
                   1
                   1
                   1
                   1
                   1
                   1
                   1
                   1
                   1
                   1
                   1
                   1
                   1
                   1
                   1
                   1
                   1
                   1
                   1
                   1
                   1
                   1
                   1
                   1
                   1
                   1
                   1
                   1
                   1
                   1
                   1
                   1
                   1
                   1
                   1
                   1
                   1
                   1
                   1
                   1
                   1
                   1
                   1
                   1
                   1
                   1
                   1
                   1
                   1
                   1
                   1
                   1
                   1
                   1
                   1
                   1
                   1
                   1
                   1
                   1
                   1
                   1
                   1
                   1
                   1
                   1
                   1
                   1
                   1
                   1
                   1
                   1
                   1
                   1
                   1
                   1
                   1
                   1
                   1
                   1
                   1
                   1
                   1
                   1
                   1
                   1
                   1
                   1
                   1
                   1
                   1
                   1
                   1
                   1
                   1
                   1
                   1
                   1
                   1
                   1
                   1
                   1
                   1
                   1
                   1
                   1
                   1
                   1
                   1
                   1
                   1
                   1
                   1
                   1
                   1
                   1
                   1
                   1
                   1
                   1
                   1
                   1
                   1
                   1
                   1
                   1
                   1
                   1
                   1
                   1
                   1
                   1
                   1
                   1
                   1
                   1
                   1
                   1
                   1
                   1
                   1
                   1
                   1
                   1
                   1
                   1
                   1
                   1
                   1
                   1
                   1
                   1
                   1
                   1
                   1
                   1
                   1
                   1
                   1
                   1
                   1
                   1
                   1
                   1
                   1
                   1
                   1
                   1
                   1
                   1
                   1
                   1
                   1
                   1
                   1
                   1
                   1
                   1
                   1
                   1
                   1
                   1
                   1
                   1
                   1
                   1
                   1
                   1
                   1
                   1
                   1
                   1
                   1
                   1
                   1
                   1
                   1
                   1
                   1
                   1
                   1
                   1
                   1
                   1
                   1
                   1
                   1
                   1
                   1
                   1
                   1
                   1
                   1
                   1
                   1
                   1
                   1
                   1
                   1
                   1
                   1
                   1
                   1
                   1
                   1
                   1
                   1
                   1
                   1
                   1
                   1
                   1
                   1
                   1
                   1
                   1
                   1
                   1
                   1
                   1
                   1
                   1
                   1
                   1
                   1
                   1
                   1
                   1
                   1
                   1
                   1
                   1
                   1
                   1
                   1
                   1
                   1
                   1
                   1
                   1
                   1
                   1
                   1
                   1
                   1
                   1
                   1
                   1
                   1
                   1
                   1
                   1
                   1
                   1
                   1
                   1
                   1
                   1
                   1
                   1
                   1
                   1
                   1
                   1
                   1
                   1
                   1
                   1
                   1
                   1
                   1
                   1
                   1
                   1
                   1
                   1
                   1
                   1
                   1
                   1
                   1
                   1
                   1
                   1
                   1
                   1
                   1
                   1
                   1
                   1
                   1
                   1
                   1
                   1
                   1
                   1
                   1
                   1
                   1
                   1
                   1
                   1
                   1
                   1
                   1
                   1
                   1
                   1
                   1
                   1
                   1
                   1
                   1
                   1
                   1
                   1
                   1
                   1
                   1
                   1
                   1
                   1
                   1
                   1
                   1
                   1
                   1
                   1
                   1
                   1
                   1
                   1
                   1
                   1
                   1
                   1
                   1
                   1
                   1
                   1
                   1
                   1
                   1
                   1
                   1
                   1
                   1
                   1
                   1
                   1
                   1
                   1
                   1
                   1
                   1
                   1
                   1
                   1
                   1
                   1
                   1
                   1
                   1
                   1
                   1
                   1
                   1
                   1
                   1
                   1
                   1
                   1
                   1
                   1
                   1
                   1
                   1
                   1
                   1
                   1
                   1
                   1
                   1
                   1
                   1
                   1
                   1
                   1
                   1
                   1
                   1
                   1
                   1
                   1
                   1
                   1
                   1
                   1
                   1
                   1
                   1
                   1
                   1
                   1
                   1
                   1
                   1
                   1
                   1
                   1
                   1
                   1
                   1
                   1
                   1
                   1
                   1
                   1
                   1
                   1
                   1
                   1
                   1
                   1
                   1
                   1
                   1
                   1
                   1
                   1
                   1
                   1
                   1
                   1
                   1
                   1
                   1
                   1
                   1
                   1
                   1
                   1
                   1
                   1
                   1
                   1
                   1
                   1
                   1
                   1
                   1
                   1
                   1
                   1
                   1
                   1
                   1
                   1
                   1
                   1
                   1
                   1
                   1
                   1
                   1
                   1
                   1
                   1
                   1
                   1
                   1
                   1
                   1
                   1
                   1
                   1
                   1
                   1
                   1
                   1
                   1
                   1
                   1
                   1
                   1
                   1
                   1
                   1
                   1
                   1
                   1
                   1
                   1
                   1
                   1
                   1
                   1
                   1
                   1
                   1
                   1
                   1
                   1
                   1
                   1
                   1
                   1
                   1
                   1
                   1
                   1
                   1
                   1
                   1
                   1
                   1
                   1
                   1
                   1
                   1
                   1
                   1
                   1
                   1
                   1
                   1
                   1
                   1
                   1
                   1
                   1
                   1
                   1
                   1
                   1
                   1
                   1
                   1
                   1
                   1
                   1
                   1
                   1
                   1
                   1
                   1
                   1
                   1
                   1
                   1
                   1
                   1
                   1
                   1
                   1
                   1
                   1
                   1
                   1
                   1
                   1
                   1
                   1
                   1
                   1
                   1
                   1
                   1
                   1
  
SCALARS                  material_type  double 1
LOOKUP_TABLE default
                   2
                   2
                   2
                   2
                   2
                   2
                   2
                   2
                   2
                   2
                   2
                   2
                   2
                   2
                   2
                   2
                   2
                   2
                   2
                   2
                   2
                   2
                   2
                   2
                   2
                   2
                   2
                   2
                   2
                   2
                   2
                   2
                   2
                   2
                   2
                   2
                   2
                   2
                   2
                   2
                   2
                   2
                   2
                   2
                   2
                   2
                   2
                   2
                   2
                   2
                   2
                   2
                   2
                   2
                   2
                   2
                   2
                   2
                   2
                   2
                   2
                   2
                   2
                   2
                   2
                   2
                   2
                   2
                   2
                   2
                   2
                   2
                   2
                   2
                   2
                   2
                   2
                   2
                   2
                   2
                   2
                   2
                   2
                   2
                   2
                   2
                   2
                   2
                   2
                   2
                   2
                   2
                   2
                   2
                   2
                   2
                   2
                   2
                   2
                   2
                   2
                   2
                   2
                   2
                   2
                   2
                   2
                   2
                   2
                   2
                   2
                   2
                   2
                   2
                   2
                   2
                   2
                   2
                   2
                   2
                   2
                   2
                   2
                   2
                   2
                   2
                   2
                   2
                   2
                   2
                   2
                   2
                   2
                   2
                   2
                   2
                   2
                   2
                   2
                   2
                   2
                   2
                   2
                   2
                   2
                   2
                   2
                   2
                   2
                   2
                   2
                   2
                   2
                   2
                   2
                   2
                   2
                   2
                   2
                   2
                   2
                   2
                   2
                   2
                   2
                   2
                   2
                   2
                   2
                   2
                   2
                   2
                   2
                   2
                   2
                   2
                   2
                   2
                   2
                   2
                   2
                   2
                   2
                   2
                   2
                   2
                   2
                   2
                   2
                   2
                   2
                   2
                   2
                   2
                   2
                   2
                   2
                   2
                   2
                   2
                   2
                   2
                   2
                   2
                   2
                   2
                   2
                   2
                   2
                   2
                   2
                   2
                   2
                   2
                   2
                   2
                   2
                   2
                   2
                   2
                   2
                   2
                   2
                   2
                   2
                   2
                   2
                   2
                   2
                   2
                   2
                   2
                   2
                   2
                   2
                   2
                   2
                   2
                   2
                   2
                   2
                   2
                   2
                   2
                   2
                   2
                   2
                   2
                   2
                   2
                   2
                   2
                   2
                   2
                   2
                   2
                   2
                   2
                   2
                   2
                   2
                   2
                   2
                   2
                   2
                   2
                   2
                   2
                   2
                   2
                   2
                   2
                   2
                   2
                   2
                   2
                   2
                   2
                   2
                   2
                   2
                   2
                   2
                   2
                   2
                   2
                   2
                   2
                   2
                   2
                   2
                   2
                   2
                   2
                   2
                   2
                   2
                   2
                   2
                   2
                   2
                   2
                   2
                   2
                   2
                   2
                   2
                   2
                   2
                   2
                   2
                   2
                   2
                   2
                   2
                   2
                   2
                   2
                   2
                   2
                   2
                   2
                   2
                   2
                   2
                   2
                   2
                   2
                   2
                   2
                   2
                   2
                   2
                   2
                   2
                   2
                   2
                   2
                   2
                   2
                   2
                   2
                   2
                   2
                   2
                   2
                   2
                   2
                   2
                   2
                   2
                   2
                   2
                   2
                   2
                   2
                   2
                   2
                   2
                   2
                   2
                   2
                   2
                   2
                   2
                   2
                   2
                   2
                   2
                   2
                   2
                   2
                   2
                   2
                   2
                   2
                   2
                   2
                   2
                   2
                   2
                   2
                   2
                   2
                   2
                   2
                   2
                   2
                   2
                   2
                   2
                   2
                   2
                   2
                   2
                   2
                   2
                   2
                   2
                   2
                   2
                   2
                   2
                   2
                   2
                   2
                   2
                   2
                   2
                   2
                   2
                   2
                   2
                   2
                   2
                   2
                   2
                   2
                   2
                   2
                   2
                   2
                   2
                   2
                   2
                   2
                   2
                   2
                   2
                   2
                   2
                   2
                   2
                   2
                   2
                   2
                   2
                   2
                   2
                   2
                   2
                   2
                   2
                   2
                   2
                   2
                   2
                   2
                   2
                   2
                   2
                   2
                   2
                   2
                   2
                   2
                   2
                   2
                   2
                   2
                   2
                   2
                   2
                   2
                   2
                   2
                   2
                   2
                   2
                   2
                   2
                   2
                   2
                   2
                   2
                   2
                   2
                   2
                   2
                   2
                   2
                   2
                   2
                   2
                   2
                   2
                   2
                   2
                   2
                   2
                   2
                   2
                   2
                   2
                   2
                   2
                   2
                   2
                   2
                   2
                   2
                   2
                   2
                   2
                   2
                   2
                   2
                   2
                   2
                   2
                   2
                   2
                   2
                   2
                   2
                   2
                   2
                   2
                   2
                   2
                   2
                   2
                   2
                   2
                   2
                   2
                   2
                   2
                   2
                   2
                   2
                   2
                   2
                   2
                   2
                   2
                   2
                   2
                   2
                   2
                   2
                   2
                   2
                   2
                   2
                   2
                   2
                   2
                   2
                   2
                   2
                   2
                   2
                   2
                   2
                   2
                   2
                   2
                   2
                   2
                   2
                   2
                   2
                   2
                   2
                   2
                   2
                   2
                   2
                   2
                   2
                   2
                   2
                   2
                   2
                   2
                   2
                   2
                   2
                   2
                   2
                   2
                   2
                   2
                   2
                   2
                   2
                   2
                   2
                   2
                   2
                   2
                   2
                   2
                   2
                   2
                   2
                   2
                   2
                   2
                   2
                   2
                   2
                   2
                   2
                   2
                   2
                   2
                   2
                   2
                   2
                   2
                   2
                   2
                   2
                   2
                   2
                   2
                   2
                   2
                   2
                   2
                   2
                   2
                   2
                   2
                   2
                   2
                   2
                   2
                   2
                   2
                   2
                   2
                   2
                   2
                   2
                   2
                   2
                   2
                   2
                   2
                   2
                   2
                   2
                   2
                   2
                   2
                   2
                   2
                   2
                   2
                   2
                   2
                   2
                   2
                   2
                   2
                   2
                   2
                   2
                   2
                   2
                   2
                   2
                   2
                   2
                   2
                   2
                   2
                   2
                   2
                   2
                   2
                   2
                   2
                   2
                   2
                   2
                   2
                   2
                   2
                   2
                   2
                   2
                   2
                   2
                   2
                   2
                   2
                   2
                   2
                   2
                   2
                   2
                   2
                   2
                   2
                   2
                   2
                   2
                   2
                   2
                   2
                   2
                   2
                   2
                   2
                   2
                   2
                   2
                   2
                   2
                   2
                   2
                   2
                   2
                   2
                   2
                   2
                   2
                   2
                   2
                   2
                   2
                   2
                   2
                   2
                   2
                   2
                   2
                   2
                   2
                   2
                   2
                   2
                   2
                   2
                   2
                   2
                   2
                   2
                   2
                   2
                   2
                   2
                   2
                   2
                   2
                   2
                   2
                   2
                   2
                   2
                   2
                   2
                   2
                   2
                   2
                   2
                   2
                   2
                   2
                   2
                   2
                   2
                   2
                   2
                   2
                   2
                   2
                   2
                   2
                   2
                   2
                   2
                   2
                   2
                   2
                   2
                   2
                   2
                   2
                   2
                   2
                   2
                   2
                   2
                   2
                   2
                   2
                   2
                   2
                   2
                   2
                   2
                   2
                   2
                   2
                   2
                   2
                   2
                   2
                   2
                   2
                   2
                   2
                   2
                   2
                   2
                   2
                   2
                   2
                   2
                   2
                   2
                   2
                   2
                   2
                   2
                   2
                   2
                   2
                   2
                   2
                   2
                   2
                   2
                   2
                   2
                   2
                   2
                   2
                   2
                   2
                   2
                   2
                   2
                   2
                   2
                   2
                   2
                   2
                   2
                   2
                   2
                   2
                   2
                   2
                   2
                   2
                   2
                   2
                   2
                   2
                   2
                   2
                   2
                   2
                   2
                   2
                   2
                   2
                   2
                   2
                   2
                   2
                   2
                   2
                   2
                   2
                   2
                   2
                   2
                   2
                   2
                   2
                   2
                   2
                   2
                   2
                   2
                   2
                   2
                   2
                   2
                   2
                   2
                   2
                   2
                   2
                   2
                   2
                   2
                   2
                   2
                   2
                   2
                   2
                   2
                   2
                   2
                   2
                   2
                   2
                   2
                   2
                   2
                   2
                   2
                   2
                   2
                   2
                   2
                   2
                   2
                   2
                   2
                   2
                   2
                   2
                   2
                   2
                   2
                   2
                   2
                   2
                   2
                   2
                   2
                   2
                   2
                   2
                   2
                   2
                   2
                   2
                   2
                   2
                   2
                   2
                   2
                   2
                   2
                   2
                   2
                   2
                   2
                   2
                   2
                   2
                   2
                   2
                   2
                   2
                   2
                   2
                   2
                   2
                   2
                   2
                   2
                   2
                   2
                   2
                   2
                   2
                   2
                   2
                   2
                   2
                   2
                   2
                   2
                   2
                   2
                   2
                   2
                   2
                   2
                   2
                   2
                   2
                   2
                   2
                   2
                   2
                   2
                   2
                   2
                   2
                   2
                   2
                   2
                   2
                   2
                   2
                   2
                   2
                   2
                   2
                   2
                   2
                   2
                   2
                   2
                   2
                   2
                   2
                   2
                   2
                   2
                   2
                   2
                   2
                   2
                   2
                   2
                   2
                   2
                   2
                   2
                   2
                   2
                   2
                   2
                   2
                   2
                   2
                   2
                   2
                   2
                   2
                   2
                   2
                   2
                   2
                   2
                   2
                   2
                   2
                   2
                   2
                   2
                   2
                   2
                   2
                   2
                   2
                   2
                   2
                   2
                   2
                   2
                   2
                   2
                   2
                   2
                   2
                   2
                   2
                   2
                   2
                   2
                   2
                   2
                   2
                   2
                   2
                   2
                   2
                   2
                   2
                   2
                   2
                   2
                   2
                   2
                   2
                   2
                   2
                   2
                   2
                   2
                   2
                   2
                   2
                   2
                   2
                   2
                   2
                   2
                   2
                   2
                   2
                   2
                   2
                   2
                   2
                   2
                   2
                   2
                   2
                   2
                   2
                   2
                   2
                   2
                   2
                   2
                   2
                   2
                   2
                   2
                   2
                   2
                   2
                   2
                   2
                   2
                   2
                   2
                   2
                   2
                   2
                   2
                   2
                   2
                   2
                   2
                   2
                   2
                   2
                   2
                   2
                   2
                   2
                   2
                   2
                   2
                   2
                   2
                   2
                   2
                   2
                   2
                   2
                   2
                   2
                   2
                   2
                   2
                   2
                   2
                   2
                   2
                   2
                   2
                   2
                   2
                   2
                   2
                   2
                   2
                   2
                   2
                   2
                   2
                   2
                   2
                   2
                   2
                   2
                   2
                   2
                   2
                   2
                   2
                   2
                   2
                   2
                   2
                   2
                   2
                   2
                   2
                   2
                   2
                   2
                   2
                   2
                   2
                   2
                   2
                   2
                   2
                   2
                   2
                   2
                   2
                   2
                   2
                   2
                   2
                   2
                   2
                   2
                   2
                   2
                   2
                   2
                   2
                   2
                   2
                   2
                   2
                   2
                   2
                   2
                   2
                   2
                   2
                   2
                   2
                   2
                   2
                   2
                   2
                   2
                   2
                   2
                   2
                   2
                   2
                   2
                   2
                   2
                   2
                   2
                   2
                   2
                   2
                   2
                   2
                   2
                   2
                   2
                   2
                   2
                   2
                   2
                   2
                   2
                   2
                   2
                   2
                   2
                   2
                   2
                   2
                   2
                   2
                   2
                   2
                   2
                   2
                   2
                   2
                   2
                   2
                   2
                   2
                   2
                   2
                   2
                   2
                   2
                   2
                   2
                   2
                   2
                   2
                   2
                   2
                   2
                   2
                   2
                   2
                   2
                   2
                   2
                   2
                   2
                   2
                   2
                   2
                   2
                   2
                   2
                   2
                   2
                   2
                   2
                   2
                   2
                   2
                   2
                   2
                   2
                   2
                   2
                   2
                   2
                   2
                   2
                   2
                   2
                   2
                   2
                   2
                   2
                   2
                   2
                   2
                   2
                   2
                   2
                   2
                   2
                   2
                   2
                   2
                   2
                   2
                   2
                   2
                   2
                   2
                   2
                   2
                   2
                   2
                   2
                   2
                   2
                   2
                   2
                   2
                   2
                   2
                   2
                   2
                   2
                   2
                   2
                   2
                   2
                   2
                   2
                   2
                   2
                   2
                   2
                   2
                   2
                   2
                   2
                   2
                   2
                   2
                   2
                   2
                   2
                   2
                   2
                   2
                   2
                   2
                   2
                   2
                   2
                   2
                   2
                   2
                   2
                   2
                   2
                   2
                   2
                   2
                   2
                   2
                   2
                   2
                   2
                   2
                   2
                   2
                   2
                   2
                   2
                   2
                   2
                   2
                   2
                   2
                   2
                   2
                   2
                   2
                   2
                   2
                   2
                   2
                   2
                   2
                   2
                   2
                   2
                   2
                   2
                   2
                   2
                   2
                   2
                   2
                   2
                   2
                   2
                   2
                   2
                   2
                   2
                   2
                   2
                   2
                   2
                   2
                   2
                   2
                   2
                   2
                   2
                   2
                   2
                   2
                   2
                   2
                   2
                   2
                   2
                   2
                   2
                   2
                   2
                   2
                   2
                   2
                   2
                   2
                   2
                   2
                   2
                   2
                   2
                   2
                   2
                   2
                   2
                   2
                   2
                   2
                   2
                   2
                   2
                   2
                   2
                   2
                   2
                   2
                   2
                   2
                   2
                   2
                   2
                   2
                   2
                   2
                   2
                   2
                   2
                   2
                   2
                   2
                   2
                   2
                   2
                   2
                   2
                   2
                   2
                   2
                   2
                   2
                   2
                   2
                   2
                   2
                   2
                   2
                   2
                   2
                   2
                   2
                   2
                   2
                   2
                   2
                   2
                   2
                   2
                   2
                   2
                   2
                   2
                   2
                   2
                   2
                   2
                   2
                   2
                   2
                   2
                   2
                   2
                   2
                   2
                   2
                   2
                   2
                   2
                   2
                   2
                   2
                   2
                   2
                   2
                   2
                   2
                   2
                   2
                   2
                   2
                   2
                   2
                   2
                   2
                   2
                   2
                   2
                   2
                   2
                   2
                   2
                   2
                   2
                   2
                   2
                   2
                   2
                   2
                   2
                   2
                   2
                   2
                   2
                   2
                   2
                   2
                   2
                   2
                   2
                   2
                   2
                   2
                   2
                   2
                   2
                   2
                   2
                   2
                   2
                   2
                   2
                   2
                   2
                   2
                   2
                   2
                   2
                   2
                   2
                   2
                   2
                   2
                   2
                   2
                   2
                   2
                   2
                   2
                   2
                   2
                   2
                   2
                   2
                   2
                   2
                   2
                   2
                   2
                   2
                   2
                   2
                   2
                   2
                   2
                   2
                   2
                   2
                   2
                   2
                   2
                   2
                   2
                   2
                   2
                   2
                   2
                   2
                   2
                   2
                   2
                   2
                   2
                   2
                   2
                   2
                   2
                   2
                   2
                   2
                   2
                   2
                   2
                   2
                   2
                   2
                   2
                   2
                   2
                   2
                   2
                   2
                   2
                   2
                   2
                   2
                   2
                   2
                   2
                   2
                   2
                   2
                   2
                   2
                   2
                   2
                   2
                   2
                   2
                   2
                   2
                   2
                   2
                   2
                   2
                   2
                   2
                   2
                   2
                   2
                   2
                   2
                   2
                   2
                   2
                   2
                   2
                   2
                   2
                   2
                   2
                   2
                   2
                   2
                   2
                   2
                   2
                   2
                   2
                   2
                   2
                   2
                   2
                   2
                   2
                   2
                   2
                   2
                   2
                   2
                   2
                   2
                   2
                   2
                   2
                   2
                   2
                   2
                   2
                   2
                   2
                   2
                   2
                   2
                   2
                   2
                   2
                   2
                   2
                   2
                   2
                   2
                   2
                   2
                   2
                   2
                   2
                   2
                   2
                   2
                   2
                   2
                   2
                   2
                   2
                   2
                   2
                   2
                   2
                   2
                   2
                   2
                   2
                   2
                   2
                   2
                   2
                   2
                   2
                   2
                   2
                   2
                   2
                   2
                   2
                   2
                   2
                   2
                   2
                   2
                   2
                   2
                   2
                   2
                   2
                   2
                   2
                   2
                   2
                   2
                   2
                   2
                   2
                   2
                   2
                   2
                   2
                   2
                   2
                   2
                   2
                   2
                   2
                   2
                   2
                   2
                   2
                   2
                   2
                   2
                   2
                   2
                   2
                   2
                   2
                   2
                   2
                   2
                   2
                   2
                   2
                   2
                   2
                   2
                   2
                   2
                   2
                   2
                   2
                   2
                   2
                   2
                   2
                   2
                   2
                   2
                   2
                   2
                   2
                   2
                   2
                   2
                   2
                   2
                   2
                   2
                   2
                   2
                   2
                   2
                   2
                   2
                   2
                   2
                   2
                   2
                   2
                   2
                   2
                   2
                   2
                   2
                   2
                   2
                   2
                   2
                   2
                   2
                   2
                   2
                   2
                   2
                   2
                   2
                   2
                   2
                   2
                   2
                   2
                   2
                   2
                   2
                   2
                   2
                   2
                   2
                   2
                   2
                   2
                   2
                   2
                   2
                   2
                   2
                   2
                   2
                   2
                   2
                   2
                   2
                   2
                   2
                   2
                   2
                   2
                   2
                   2
                   2
                   2
                   2
                   2
                   2
                   2
                   2
                   2
                   2
                   2
                   2
                   2
                   2
                   2
                   2
                   2
                   2
                   2
                   2
                   2
                   2
                   2
                   2
                   2
                   2
                   2
                   2
                   2
                   2
                   2
                   2
                   2
                   2
                   2
                   2
                   2
                   2
                   2
                   2
                   2
                   2
  
SCALARS                       fixity_x  double 1
LOOKUP_TABLE default
                   0
                   0
                   0
                   0
                   0
                   0
                   0
                   0
                   0
                   0
                   0
                   0
                   0
                   0
                   0
                   0
                   0
                   0
                   0
                   0
                   0
                   0
                   0
                   0
                   0
                   0
                   0
                   0
                   0
                   0
                   0
                   0
                   0
                   0
                   0
                   0
                   0
                   0
                   0
                   0
                   0
                   0
                   0
                   0
                   0
                   0
                   0
                   0
                   0
                   0
                   0
                   0
                   0
                   0
                   0
                   0
                   0
                   0
                   0
                   0
                   0
                   0
                   0
                   0
                   0
                   0
                   0
                   0
                   0
                   0
                   0
                   0
                   0
                   0
                   0
                   0
                   0
                   0
                   0
                   0
                   0
                   0
                   0
                   0
                   0
                   0
                   0
                   0
                   0
                   0
                   0
                   0
                   0
                   0
                   0
                   0
                   0
                   0
                   0
                   0
                   0
                   0
                   0
                   0
                   0
                   0
                   0
                   0
                   0
                   0
                   0
                   0
                   0
                   0
                   0
                   0
                   0
                   0
                   0
                   0
                   0
                   0
                   0
                   0
                   0
                   0
                   0
                   0
                   0
                   0
                   0
                   0
                   0
                   0
                   0
                   0
                   0
                   0
                   0
                   0
                   0
                   0
                   0
                   0
                   0
                   0
                   0
                   0
                   0
                   0
                   0
                   0
                   0
                   0
                   0
                   0
                   0
                   0
                   0
                   0
                   0
                   0
                   0
                   0
                   0
                   0
                   0
                   0
                   0
                   0
                   0
                   0
                   0
                   0
                   0
                   0
                   0
                   0
                   0
                   0
                   0
                   0
                   0
                   0
                   0
                   0
                   0
                   0
                   0
                   0
                   0
                   0
                   0
                   0
                   0
                   0
                   0
                   0
                   0
                   0
                   0
                   0
                   0
                   0
                   0
                   0
                   0
                   0
                   0
                   0
                   0
                   0
                   0
                   0
                   0
                   0
                   0
                   0
                   0
                   0
                   0
                   0
                   0
                   0
                   0
                   0
                   0
                   0
                   0
                   0
                   0
                   0
                   0
                   0
                   0
                   0
                   0
                   0
                   0
                   0
                   0
                   0
                   0
                   0
                   0
                   0
                   0
                   0
                   0
                   0
                   0
                   0
                   0
                   0
                   0
                   0
                   0
                   0
                   0
                   0
                   0
                   0
                   0
                   0
                   0
                   0
                   0
                   0
                   0
                   0
                   0
                   0
                   0
                   0
                   0
                   0
                   0
                   0
                   0
                   0
                   0
                   0
                   0
                   0
                   0
                   0
                   0
                   0
                   0
                   0
                   0
                   0
                   0
                   0
                   0
                   0
                   0
                   0
                   0
                   0
                   0
                   0
                   0
                   0
                   0
                   0
                   0
                   0
                   0
                   0
                   0
                   0
                   0
                   0
                   0
                   0
                   0
                   0
                   0
                   0
                   0
                   0
                   0
                   0
                   0
                   0
                   0
                   0
                   0
                   0
                   0
                   0
                   0
                   0
                   0
                   0
                   0
                   0
                   0
                   0
                   0
                   0
                   0
                   0
                   0
                   0
                   0
                   0
                   0
                   0
                   0
                   0
                   0
                   0
                   0
                   0
                   0
                   0
                   0
                   0
                   0
                   0
                   0
                   0
                   0
                   0
                   0
                   0
                   0
                   0
                   0
                   0
                   0
                   0
                   0
                   0
                   0
                   0
                   0
                   0
                   0
                   0
                   0
                   0
                   0
                   0
                   0
                   0
                   0
                   0
                   0
                   0
                   0
                   0
                   0
                   0
                   0
                   0
                   0
                   0
                   0
                   0
                   0
                   0
                   0
                   0
                   0
                   0
                   0
                   0
                   0
                   0
                   0
                   0
                   0
                   0
                   0
                   0
                   0
                   0
                   0
                   0
                   0
                   0
                   0
                   0
                   0
                   0
                   0
                   0
                   0
                   0
                   0
                   0
                   0
                   0
                   0
                   0
                   0
                   0
                   0
                   0
                   0
                   0
                   0
                   0
                   0
                   0
                   0
                   0
                   0
                   0
                   0
                   0
                   0
                   0
                   0
                   0
                   0
                   0
                   0
                   0
                   0
                   0
                   0
                   0
                   0
                   0
                   0
                   0
                   0
                   0
                   0
                   0
                   0
                   0
                   0
                   0
                   0
                   0
                   0
                   0
                   0
                   0
                   0
                   0
                   0
                   0
                   0
                   0
                   0
                   0
                   0
                   0
                   0
                   0
                   0
                   0
                   0
                   0
                   0
                   0
                   0
                   0
                   0
                   0
                   0
                   0
                   0
                   0
                   0
                   0
                   0
                   0
                   0
                   0
                   0
                   0
                   0
                   0
                   0
                   0
                   0
                   0
                   0
                   0
                   0
                   0
                   0
                   0
                   0
                   0
                   0
                   0
                   0
                   0
                   0
                   0
                   0
                   0
                   0
                   0
                   0
                   0
                   0
                   0
                   0
                   0
                   0
                   0
                   0
                   0
                   0
                   0
                   0
                   0
                   0
                   0
                   0
                   0
                   0
                   0
                   0
                   0
                   0
                   0
                   0
                   0
                   0
                   0
                   0
                   0
                   0
                   0
                   0
                   0
                   0
                   0
                   0
                   0
                   0
                   0
                   0
                   0
                   0
                   0
                   0
                   0
                   0
                   0
                   0
                   0
                   0
                   0
                   0
                   0
                   0
                   0
                   0
                   0
                   0
                   0
                   0
                   0
                   0
                   0
                   0
                   0
                   0
                   0
                   0
                   0
                   0
                   0
                   0
                   0
                   0
                   0
                   0
                   0
                   0
                   0
                   0
                   0
                   0
                   0
                   0
                   0
                   0
                   0
                   0
                   0
                   0
                   0
                   0
                   0
                   0
                   0
                   0
                   0
                   0
                   0
                   0
                   0
                   0
                   0
                   0
                   0
                   0
                   0
                   0
                   0
                   0
                   0
                   0
                   0
                   0
                   0
                   0
                   0
                   0
                   0
                   0
                   0
                   0
                   0
                   0
                   0
                   0
                   0
                   0
                   0
                   0
                   0
                   0
                   0
                   0
                   0
                   0
                   0
                   0
                   0
                   0
                   0
                   0
                   0
                   0
                   0
                   0
                   0
                   0
                   0
                   0
                   0
                   0
                   0
                   0
                   0
                   0
                   0
                   0
                   0
                   0
                   0
                   0
                   0
                   0
                   0
                   0
                   0
                   0
                   0
                   0
                   0
                   0
                   0
                   0
                   0
                   0
                   0
                   0
                   0
                   0
                   0
                   0
                   0
                   0
                   0
                   0
                   0
                   0
                   0
                   0
                   0
                   0
                   0
                   0
                   0
                   0
                   0
                   0
                   0
                   0
                   0
                   0
                   0
                   0
                   0
                   0
                   0
                   0
                   0
                   0
                   0
                   0
                   0
                   0
                   0
                   0
                   0
                   0
                   0
                   0
                   0
                   0
                   0
                   0
                   0
                   0
                   0
                   0
                   0
                   0
                   0
                   0
                   0
                   0
                   0
                   0
                   0
                   0
                   0
                   0
                   0
                   0
                   0
                   0
                   0
                   0
                   0
                   0
                   0
                   0
                   0
                   0
                   0
                   0
                   0
                   0
                   0
                   0
                   0
                   0
                   0
                   0
                   0
                   0
                   0
                   0
                   0
                   0
                   0
                   0
                   0
                   0
                   0
                   0
                   0
                   0
                   0
                   0
                   0
                   0
                   0
                   0
                   0
                   0
                   0
                   0
                   0
                   0
                   0
                   0
                   0
                   0
                   0
                   0
                   0
                   0
                   0
                   0
                   0
                   0
                   0
                   0
                   0
                   0
                   0
                   0
                   0
                   0
                   0
                   0
                   0
                   0
                   0
                   0
                   0
                   0
                   0
                   0
                   0
                   0
                   0
                   0
                   0
                   0
                   0
                   0
                   0
                   0
                   0
                   0
                   0
                   0
                   0
                   0
                   0
                   0
                   0
                   0
                   0
                   0
                   0
                   0
                   0
                   0
                   0
                   0
                   0
                   0
                   0
                   0
                   0
                   0
                   0
                   0
                   0
                   0
                   0
                   0
                   0
                   0
                   0
                   0
                   0
                   0
                   0
                   0
                   0
                   0
                   0
                   0
                   0
                   0
                   0
                   0
                   0
                   0
                   0
                   0
                   0
                   0
                   0
                   0
                   0
                   0
                   0
                   0
                   0
                   0
                   0
                   0
                   0
                   0
                   0
                   0
                   0
                   0
                   0
                   0
                   0
                   0
                   0
                   0
                   0
                   0
                   0
                   0
                   0
                   0
                   0
                   0
                   0
                   0
                   0
                   0
                   0
                   0
                   0
                   0
                   0
                   0
                   0
                   0
                   0
                   0
                   0
                   0
                   0
                   0
                   0
                   0
                   0
                   0
                   0
                   0
                   0
                   0
                   0
                   0
                   0
                   0
                   0
                   0
                   0
                   0
                   0
                   0
                   0
                   0
                   0
                   0
                   0
                   0
                   0
                   0
                   0
                   0
                   0
                   0
                   0
                   0
                   0
                   0
                   0
                   0
                   0
                   0
                   0
                   0
                   0
                   0
                   0
                   0
                   0
                   0
                   0
                   0
                   0
                   0
                   0
                   0
                   0
                   0
                   0
                   0
                   0
                   0
                   0
                   0
                   0
                   0
                   0
                   0
                   0
                   0
                   0
                   0
                   0
                   0
                   0
                   0
                   0
                   0
                   0
                   0
                   0
                   0
                   0
                   0
                   0
                   0
                   0
                   0
                   0
                   0
                   0
                   0
                   0
                   0
                   0
                   0
                   0
                   0
                   0
                   0
                   0
                   0
                   0
                   0
                   0
                   0
                   0
                   0
                   0
                   0
                   0
                   0
                   0
                   0
                   0
                   0
                   0
                   0
                   0
                   0
                   0
                   0
                   0
                   0
                   0
                   0
                   0
                   0
                   0
                   0
                   0
                   0
                   0
                   0
                   0
                   0
                   0
                   0
                   0
                   0
                   0
                   0
                   0
                   0
                   0
                   0
                   0
                   0
                   0
                   0
                   0
                   0
                   0
                   0
                   0
                   0
                   0
                   0
                   0
                   0
                   0
                   0
                   0
                   0
                   0
                   0
                   0
                   0
                   0
                   0
                   0
                   0
                   0
                   0
                   0
                   0
                   0
                   0
                   0
                   0
                   0
                   0
                   0
                   0
                   0
                   0
                   0
                   0
                   0
                   0
                   0
                   0
                   0
                   0
                   0
                   0
                   0
                   0
                   0
                   0
                   0
                   0
                   0
                   0
                   0
                   0
                   0
                   0
                   0
                   0
                   0
                   0
                   0
                   0
                   0
                   0
                   0
                   0
                   0
                   0
                   0
                   0
                   0
                   0
                   0
                   0
                   0
                   0
                   0
                   0
                   0
                   0
                   0
                   0
                   0
                   0
                   0
                   0
                   0
                   0
                   0
                   0
                   0
                   0
                   0
                   0
                   0
                   0
                   0
                   0
                   0
                   0
                   0
                   0
                   0
                   0
                   0
                   0
                   0
                   0
                   0
                   0
                   0
                   0
                   0
                   0
                   0
                   0
                   0
                   0
                   0
                   0
                   0
                   0
                   0
                   0
                   0
                   0
                   0
                   0
                   0
                   0
                   0
                   0
                   0
                   0
                   0
                   0
                   0
                   0
                   0
                   0
                   0
                   0
                   0
                   0
                   0
                   0
                   0
                   0
                   0
                   0
                   0
                   0
                   0
                   0
                   0
                   0
                   0
                   0
                   0
                   0
                   0
                   0
                   0
                   0
                   0
                   0
                   0
                   0
                   0
                   0
                   0
                   0
                   0
                   0
                   0
                   0
                   0
                   0
                   0
                   0
                   0
                   0
                   0
                   0
                   0
                   0
                   0
                   0
                   0
                   0
                   0
                   0
                   0
                   0
                   0
                   0
                   0
                   0
                   0
                   0
                   0
                   0
                   0
                   0
                   0
                   0
                   0
                   0
                   0
                   0
                   0
                   0
                   0
                   0
                   0
                   0
                   0
                   0
                   0
                   0
                   0
                   0
                   0
                   0
                   0
                   0
                   0
                   0
                   0
                   0
                   0
                   0
                   0
                   0
                   0
                   0
                   0
                   0
                   0
                   0
                   0
                   0
                   0
                   0
                   0
                   0
                   0
                   0
                   0
                   0
                   0
                   0
                   0
                   0
                   0
                   0
                   0
                   0
                   0
                   0
                   0
                   0
                   0
                   0
                   0
                   0
                   0
                   0
                   0
                   0
                   0
                   0
                   0
                   0
                   0
                   0
                   0
                   0
                   0
                   0
                   0
                   0
                   0
                   0
                   0
                   0
                   0
                   0
                   0
                   0
                   0
                   0
                   0
                   0
                   0
                   0
                   0
                   0
                   0
                   0
                   0
                   0
                   0
                   0
                   0
                   0
                   0
                   0
                   0
                   0
                   0
                   0
                   0
                   0
                   0
                   0
                   0
                   0
                   0
                   0
                   0
                   0
                   0
                   0
                   0
                   0
                   0
                   0
                   0
                   0
                   0
                   0
                   0
                   0
                   0
                   0
                   0
                   0
                   0
                   0
                   0
                   0
                   0
                   0
                   0
                   0
                   0
                   0
                   0
                   0
                   0
                   0
                   0
                   0
                   0
                   0
                   0
                   0
                   0
                   0
                   0
                   0
                   0
                   0
                   0
                   0
                   0
                   0
                   0
                   0
                   0
                   0
                   0
                   0
                   0
                   0
                   0
                   0
                   0
                   0
                   0
                   0
                   0
                   0
                   0
                   0
                   0
                   0
                   0
                   0
                   0
                   0
                   0
                   0
                   0
                   0
                   0
                   0
                   0
                   0
                   0
                   0
                   0
                   0
                   0
                   0
                   0
                   0
                   0
                   0
                   0
                   0
                   0
                   0
                   0
                   0
                   0
                   0
                   0
                   0
                   0
                   0
                   0
                   0
                   0
                   0
                   0
                   0
                   0
                   0
                   0
                   0
                   0
                   0
                   0
                   0
                   0
                   0
                   0
                   0
                   0
                   0
                   0
                   0
                   0
                   0
                   0
                   0
                   0
                   0
                   0
                   0
                   0
                   0
                   0
                   0
                   0
                   0
                   0
                   0
                   0
                   0
                   0
                   0
                   0
                   0
                   0
                   0
                   0
                   0
                   0
                   0
                   0
                   0
                   0
                   0
                   0
                   0
                   0
                   0
                   0
                   0
                   0
                   0
                   0
                   0
                   0
                   0
                   0
                   0
                   0
                   0
                   0
                   0
                   0
                   0
                   0
                   0
                   0
                   0
                   0
                   0
                   0
                   0
                   0
                   0
                   0
                   0
                   0
                   0
                   0
                   0
                   0
                   0
                   0
                   0
                   0
                   0
                   0
                   0
                   0
                   0
                   0
                   0
                   0
                   0
                   0
                   0
                   0
                   0
                   0
                   0
                   0
                   0
                   0
                   0
                   0
                   0
                   0
                   0
                   0
                   0
                   0
                   0
                   0
                   0
                   0
                   0
                   0
                   0
                   0
                   0
                   0
                   0
                   0
                   0
                   0
                   0
                   0
                   0
                   0
                   0
                   0
                   0
                   0
                   0
                   0
                   0
                   0
                   0
                   0
                   0
                   0
                   0
                   0
                   0
                   0
                   0
                   0
                   0
                   0
                   0
                   0
                   0
                   0
                   0
                   0
                   0
                   0
                   0
                   0
                   0
                   0
                   0
                   0
                   0
                   0
                   0
                   0
                   0
                   0
                   0
                   0
                   0
                   0
                   0
                   0
                   0
                   0
                   0
                   0
                   0
                   0
                   0
                   0
                   0
                   0
                   0
                   0
                   0
                   0
                   0
                   0
                   0
                   0
                   0
                   0
                   0
                   0
                   0
                   0
                   0
                   0
                   0
                   0
                   0
                   0
                   0
                   0
                   0
                   0
                   0
                   0
                   0
                   0
                   0
                   0
                   0
                   0
                   0
                   0
                   0
                   0
                   0
                   0
                   0
                   0
                   0
                   0
                   0
                   0
                   0
                   0
                   0
                   0
                   0
                   0
                   0
                   0
                   0
                   0
                   0
                   0
                   0
                   0
                   0
                   0
                   0
                   0
                   0
                   0
                   0
                   0
                   0
                   0
                   0
                   0
                   0
                   0
                   0
                   0
                   0
                   0
                   0
                   0
                   0
                   0
                   0
                   0
                   0
                   0
                   0
                   0
                   0
                   0
                   0
                   0
                   0
                   0
                   0
                   0
                   0
                   0
                   0
                   0
                   0
                   0
                   0
                   0
                   0
                   0
                   0
                   0
                   0
                   0
                   0
                   0
                   0
                   0
                   0
                   0
                   0
                   0
                   0
                   0
                   0
                   0
                   0
                   0
                   0
                   0
                   0
                   0
                   0
                   0
                   0
                   0
                   0
                   0
                   0
                   0
                   0
                   0
                   0
                   0
                   0
                   0
                   0
                   0
                   0
                   0
                   0
                   0
                   0
                   0
                   0
                   0
                   0
                   0
                   0
                   0
                   0
                   0
                   0
                   0
                   0
                   0
                   0
                   0
                   0
                   0
                   0
                   0
                   0
                   0
                   0
                   0
                   0
                   0
                   0
                   0
                   0
                   0
                   0
                   0
                   0
                   0
                   0
                   0
                   0
                   0
                   0
                   0
                   0
                   0
                   0
                   0
                   0
                   0
                   0
                   0
                   0
                   0
                   0
                   0
                   0
                   0
                   0
                   0
                   0
                   0
                   0
                   0
                   0
                   0
                   0
                   0
                   0
                   0
                   0
                   0
  
SCALARS                       fixity_y  double 1
LOOKUP_TABLE default
                   0
                   0
                   0
                   0
                   0
                   0
                   0
                   0
                   0
                   0
                   0
                   0
                   0
                   0
                   0
                   0
                   0
                   0
                   0
                   0
                   0
                   0
                   0
                   0
                   0
                   0
                   0
                   0
                   0
                   0
                   0
                   0
                   0
                   0
                   0
                   0
                   0
                   0
                   0
                   0
                   0
                   0
                   0
                   0
                   0
                   0
                   0
                   0
                   0
                   0
                   0
                   0
                   0
                   0
                   0
                   0
                   0
                   0
                   0
                   0
                   0
                   0
                   0
                   0
                   0
                   0
                   0
                   0
                   0
                   0
                   0
                   0
                   0
                   0
                   0
                   0
                   0
                   0
                   0
                   0
                   0
                   0
                   0
                   0
                   0
                   0
                   0
                   0
                   0
                   0
                   0
                   0
                   0
                   0
                   0
                   0
                   0
                   0
                   0
                   0
                   0
                   0
                   0
                   0
                   0
                   0
                   0
                   0
                   0
                   0
                   0
                   0
                   0
                   0
                   0
                   0
                   0
                   0
                   0
                   0
                   0
                   0
                   0
                   0
                   0
                   0
                   0
                   0
                   0
                   0
                   0
                   0
                   0
                   0
                   0
                   0
                   0
                   0
                   0
                   0
                   0
                   0
                   0
                   0
                   0
                   0
                   0
                   0
                   0
                   0
                   0
                   0
                   0
                   0
                   0
                   0
                   0
                   0
                   0
                   0
                   0
                   0
                   0
                   0
                   0
                   0
                   0
                   0
                   0
                   0
                   0
                   0
                   0
                   0
                   0
                   0
                   0
                   0
                   0
                   0
                   0
                   0
                   0
                   0
                   0
                   0
                   0
                   0
                   0
                   0
                   0
                   0
                   0
                   0
                   0
                   0
                   0
                   0
                   0
                   0
                   0
                   0
                   0
                   0
                   0
                   0
                   0
                   0
                   0
                   0
                   0
                   0
                   0
                   0
                   0
                   0
                   0
                   0
                   0
                   0
                   0
                   0
                   0
                   0
                   0
                   0
                   0
                   0
                   0
                   0
                   0
                   0
                   0
                   0
                   0
                   0
                   0
                   0
                   0
                   0
                   0
                   0
                   0
                   0
                   0
                   0
                   0
                   0
                   0
                   0
                   0
                   0
                   0
                   0
                   0
                   0
                   0
                   0
                   0
                   0
                   0
                   0
                   0
                   0
                   0
                   0
                   0
                   0
                   0
                   0
                   0
                   0
                   0
                   0
                   0
                   0
                   0
                   0
                   0
                   0
                   0
                   0
                   0
                   0
                   0
                   0
                   0
                   0
                   0
                   0
                   0
                   0
                   0
                   0
                   0
                   0
                   0
                   0
                   0
                   0
                   0
                   0
                   0
                   0
                   0
                   0
                   0
                   0
                   0
                   0
                   0
                   0
                   0
                   0
                   0
                   0
                   0
                   0
                   0
                   0
                   0
                   0
                   0
                   0
                   0
                   0
                   0
                   0
                   0
                   0
                   0
                   0
                   0
                   0
                   0
                   0
                   0
                   0
                   0
                   0
                   0
                   0
                   0
                   0
                   0
                   0
                   0
                   0
                   0
                   0
                   0
                   0
                   0
                   0
                   0
                   0
                   0
                   0
                   0
                   0
                   0
                   0
                   0
                   0
                   0
                   0
                   0
                   0
                   0
                   0
                   0
                   0
                   0
                   0
                   0
                   0
                   0
                   0
                   0
                   0
                   0
                   0
                   0
                   0
                   0
                   0
                   0
                   0
                   0
                   0
                   0
                   0
                   0
                   0
                   0
                   0
                   0
                   0
                   0
                   0
                   0
                   0
                   0
                   0
                   0
                   0
                   0
                   0
                   0
                   0
                   0
                   0
                   0
                   0
                   0
                   0
                   0
                   0
                   0
                   0
                   0
                   0
                   0
                   0
                   0
                   0
                   0
                   0
                   0
                   0
                   0
                   0
                   0
                   0
                   0
                   0
                   0
                   0
                   0
                   0
                   0
                   0
                   0
                   0
                   0
                   0
                   0
                   0
                   0
                   0
                   0
                   0
                   0
                   0
                   0
                   0
                   0
                   0
                   0
                   0
                   0
                   0
                   0
                   0
                   0
                   0
                   0
                   0
                   0
                   0
                   0
                   0
                   0
                   0
                   0
                   0
                   0
                   0
                   0
                   0
                   0
                   0
                   0
                   0
                   0
                   0
                   0
                   0
                   0
                   0
                   0
                   0
                   0
                   0
                   0
                   0
                   0
                   0
                   0
                   0
                   0
                   0
                   0
                   0
                   0
                   0
                   0
                   0
                   0
                   0
                   0
                   0
                   0
                   0
                   0
                   0
                   0
                   0
                   0
                   0
                   0
                   0
                   0
                   0
                   0
                   0
                   0
                   0
                   0
                   0
                   0
                   0
                   0
                   0
                   0
                   0
                   0
                   0
                   0
                   0
                   0
                   0
                   0
                   0
                   0
                   0
                   0
                   0
                   0
                   0
                   0
                   0
                   0
                   0
                   0
                   0
                   0
                   0
                   0
                   0
                   0
                   0
                   0
                   0
                   0
                   0
                   0
                   0
                   0
                   0
                   0
                   0
                   0
                   0
                   0
                   0
                   0
                   0
                   0
                   0
                   0
                   0
                   0
                   0
                   0
                   0
                   0
                   0
                   0
                   0
                   0
                   0
                   0
                   0
                   0
                   0
                   0
                   0
                   0
                   0
                   0
                   0
                   0
                   0
                   0
                   0
                   0
                   0
                   0
                   0
                   0
                   0
                   0
                   0
                   0
                   0
                   0
                   0
                   0
                   0
                   0
                   0
                   0
                   0
                   0
                   0
                   0
                   0
                   0
                   0
                   0
                   0
                   0
                   0
                   0
                   0
                   0
                   0
                   0
                   0
                   0
                   0
                   0
                   0
                   0
                   0
                   0
                   0
                   0
                   0
                   0
                   0
                   0
                   0
                   0
                   0
                   0
                   0
                   0
                   0
                   0
                   0
                   0
                   0
                   0
                   0
                   0
                   0
                   0
                   0
                   0
                   0
                   0
                   0
                   0
                   0
                   0
                   0
                   0
                   0
                   0
                   0
                   0
                   0
                   0
                   0
                   0
                   0
                   0
                   0
                   0
                   0
                   0
                   0
                   0
                   0
                   0
                   0
                   0
                   0
                   0
                   0
                   0
                   0
                   0
                   0
                   0
                   0
                   0
                   0
                   0
                   0
                   0
                   0
                   0
                   0
                   0
                   0
                   0
                   0
                   0
                   0
                   0
                   0
                   0
                   0
                   0
                   0
                   0
                   0
                   0
                   0
                   0
                   0
                   0
                   0
                   0
                   0
                   0
                   0
                   0
                   0
                   0
                   0
                   0
                   0
                   0
                   0
                   0
                   0
                   0
                   0
                   0
                   0
                   0
                   0
                   0
                   0
                   0
                   0
                   0
                   0
                   0
                   0
                   0
                   0
                   0
                   0
                   0
                   0
                   0
                   0
                   0
                   0
                   0
                   0
                   0
                   0
                   0
                   0
                   0
                   0
                   0
                   0
                   0
                   0
                   0
                   0
                   0
                   0
                   0
                   0
                   0
                   0
                   0
                   0
                   0
                   0
                   0
                   0
                   0
                   0
                   0
                   0
                   0
                   0
                   0
                   0
                   0
                   0
                   0
                   0
                   0
                   0
                   0
                   0
                   0
                   0
                   0
                   0
                   0
                   0
                   0
                   0
                   0
                   0
                   0
                   0
                   0
                   0
                   0
                   0
                   0
                   0
                   0
                   0
                   0
                   0
                   0
                   0
                   0
                   0
                   0
                   0
                   0
                   0
                   0
                   0
                   0
                   0
                   0
                   0
                   0
                   0
                   0
                   0
                   0
                   0
                   0
                   0
                   0
                   0
                   0
                   0
                   0
                   0
                   0
                   0
                   0
                   0
                   0
                   0
                   0
                   0
                   0
                   0
                   0
                   0
                   0
                   0
                   0
                   0
                   0
                   0
                   0
                   0
                   0
                   0
                   0
                   0
                   0
                   0
                   0
                   0
                   0
                   0
                   0
                   0
                   0
                   0
                   0
                   0
                   0
                   0
                   0
                   0
                   0
                   0
                   0
                   0
                   0
                   0
                   0
                   0
                   0
                   0
                   0
                   0
                   0
                   0
                   0
                   0
                   0
                   0
                   0
                   0
                   0
                   0
                   0
                   0
                   0
                   0
                   0
                   0
                   0
                   0
                   0
                   0
                   0
                   0
                   0
                   0
                   0
                   0
                   0
                   0
                   0
                   0
                   0
                   0
                   0
                   0
                   0
                   0
                   0
                   0
                   0
                   0
                   0
                   0
                   0
                   0
                   0
                   0
                   0
                   0
                   0
                   0
                   0
                   0
                   0
                   0
                   0
                   0
                   0
                   0
                   0
                   0
                   0
                   0
                   0
                   0
                   0
                   0
                   0
                   0
                   0
                   0
                   0
                   0
                   0
                   0
                   0
                   0
                   0
                   0
                   0
                   0
                   0
                   0
                   0
                   0
                   0
                   0
                   0
                   0
                   0
                   0
                   0
                   0
                   0
                   0
                   0
                   0
                   0
                   0
                   0
                   0
                   0
                   0
                   0
                   0
                   0
                   0
                   0
                   0
                   0
                   0
                   0
                   0
                   0
                   0
                   0
                   0
                   0
                   0
                   0
                   0
                   0
                   0
                   0
                   0
                   0
                   0
                   0
                   0
                   0
                   0
                   0
                   0
                   0
                   0
                   0
                   0
                   0
                   0
                   0
                   0
                   0
                   0
                   0
                   0
                   0
                   0
                   0
                   0
                   0
                   0
                   0
                   0
                   0
                   0
                   0
                   0
                   0
                   0
                   0
                   0
                   0
                   0
                   0
                   0
                   0
                   0
                   0
                   0
                   0
                   0
                   0
                   0
                   0
                   0
                   0
                   0
                   0
                   0
                   0
                   0
                   0
                   0
                   0
                   0
                   0
                   0
                   0
                   0
                   0
                   0
                   0
                   0
                   0
                   0
                   0
                   0
                   0
                   0
                   0
                   0
                   0
                   0
                   0
                   0
                   0
                   0
                   0
                   0
                   0
                   0
                   0
                   0
                   0
                   0
                   0
                   0
                   0
                   0
                   0
                   0
                   0
                   0
                   0
                   0
                   0
                   0
                   0
                   0
                   0
                   0
                   0
                   0
                   0
                   0
                   0
                   0
                   0
                   0
                   0
                   0
                   0
                   0
                   0
                   0
                   0
                   0
                   0
                   0
                   0
                   0
                   0
                   0
                   0
                   0
                   0
                   0
                   0
                   0
                   0
                   0
                   0
                   0
                   0
                   0
                   0
                   0
                   0
                   0
                   0
                   0
                   0
                   0
                   0
                   0
                   0
                   0
                   0
                   0
                   0
                   0
                   0
                   0
                   0
                   0
                   0
                   0
                   0
                   0
                   0
                   0
                   0
                   0
                   0
                   0
                   0
                   0
                   0
                   0
                   0
                   0
                   0
                   0
                   0
                   0
                   0
                   0
                   0
                   0
                   0
                   0
                   0
                   0
                   0
                   0
                   0
                   0
                   0
                   0
                   0
                   0
                   0
                   0
                   0
                   0
                   0
                   0
                   0
                   0
                   0
                   0
                   0
                   0
                   0
                   0
                   0
                   0
                   0
                   0
                   0
                   0
                   0
                   0
                   0
                   0
                   0
                   0
                   0
                   0
                   0
                   0
                   0
                   0
                   0
                   0
                   0
                   0
                   0
                   0
                   0
                   0
                   0
                   0
                   0
                   0
                   0
                   0
                   0
                   0
                   0
                   0
                   0
                   0
                   0
                   0
                   0
                   0
                   0
                   0
                   0
                   0
                   0
                   0
                   0
                   0
                   0
                   0
                   0
                   0
                   0
                   0
                   0
                   0
                   0
                   0
                   0
                   0
                   0
                   0
                   0
                   0
                   0
                   0
                   0
                   0
                   0
                   0
                   0
                   0
                   0
                   0
                   0
                   0
                   0
                   0
                   0
                   0
                   0
                   0
                   0
                   0
                   0
                   0
                   0
                   0
                   0
                   0
                   0
                   0
                   0
                   0
                   0
                   0
                   0
                   0
                   0
                   0
                   0
                   0
                   0
                   0
                   0
                   0
                   0
                   0
                   0
                   0
                   0
                   0
                   0
                   0
                   0
                   0
                   0
                   0
                   0
                   0
                   0
                   0
                   0
                   0
                   0
                   0
                   0
                   0
                   0
                   0
                   0
                   0
                   0
                   0
                   0
                   0
                   0
                   0
                   0
                   0
                   0
                   0
                   0
                   0
                   0
                   0
                   0
                   0
                   0
                   0
                   0
                   0
                   0
                   0
                   0
                   0
                   0
                   0
                   0
                   0
                   0
                   0
                   0
                   0
                   0
                   0
                   0
                   0
                   0
                   0
                   0
                   0
                   0
                   0
                   0
                   0
                   0
                   0
                   0
                   0
                   0
                   0
                   0
                   0
                   0
                   0
                   0
                   0
                   0
                   0
                   0
                   0
                   0
                   0
                   0
                   0
                   0
                   0
                   0
                   0
                   0
                   0
                   0
                   0
                   0
                   0
                   0
                   0
                   0
                   0
                   0
                   0
                   0
                   0
                   0
                   0
                   0
                   0
                   0
                   0
                   0
                   0
                   0
                   0
                   0
                   0
                   0
                   0
                   0
                   0
                   0
                   0
                   0
                   0
                   0
                   0
                   0
                   0
                   0
                   0
                   0
                   0
                   0
                   0
                   0
                   0
                   0
                   0
                   0
                   0
                   0
                   0
                   0
                   0
                   0
                   0
                   0
                   0
                   0
                   0
                   0
                   0
                   0
                   0
                   0
                   0
                   0
                   0
                   0
                   0
                   0
                   0
                   0
                   0
                   0
                   0
                   0
                   0
                   0
                   0
                   0
                   0
                   0
                   0
                   0
                   0
                   0
                   0
                   0
                   0
                   0
                   0
                   0
                   0
                   0
                   0
                   0
                   0
                   0
                   0
                   0
                   0
                   0
                   0
                   0
                   0
                   0
                   0
                   0
                   0
                   0
                   0
                   0
                   0
                   0
                   0
                   0
                   0
                   0
                   0
                   0
                   0
                   0
                   0
                   0
                   0
                   0
                   0
                   0
                   0
                   0
                   0
                   0
                   0
                   0
                   0
                   0
                   0
                   0
                   0
                   0
                   0
                   0
                   0
                   0
                   0
                   0
                   0
                   0
                   0
                   0
                   0
                   0
                   0
                   0
                   0
                   0
                   0
                   0
                   0
                   0
                   0
                   0
                   0
                   0
                   0
                   0
                   0
                   0
                   0
                   0
                   0
                   0
                   0
                   0
                   0
                   0
                   0
                   0
                   0
                   0
                   0
                   0
                   0
                   0
                   0
                   0
                   0
                   0
                   0
                   0
                   0
                   0
                   0
                   0
                   0
                   0
                   0
                   0
                   0
                   0
                   0
                   0
                   0
                   0
                   0
                   0
                   0
                   0
                   0
                   0
                   0
                   0
                   0
                   0
                   0
                   0
                   0
                   0
                   0
                   0
                   0
                   0
                   0
                   0
                   0
                   0
                   0
                   0
                   0
                   0
                   0
                   0
                   0
                   0
                   0
                   0
                   0
                   0
                   0
                   0
                   0
                   0
                   0
                   0
                   0
                   0
                   0
                   0
                   0
                   0
                   0
                   0
                   0
                   0
                   0
                   0
                   0
                   0
                   0
                   0
                   0
                   0
                   0
                   0
                   0
                   0
                   0
                   0
                   0
                   0
                   0
                   0
                   0
                   0
                   0
                   0
                   0
                   0
                   0
                   0
                   0
                   0
                   0
                   0
                   0
                   0
                   0
                   0
                   0
                   0
                   0
                   0
                   0
                   0
                   0
                   0
                   0
                   0
                   0
                   0
                   0
                   0
                   0
                   0
                   0
                   0
                   0
                   0
                   0
                   0
                   0
                   0
                   0
                   0
                   0
                   0
                   0
                   0
                   0
                   0
                   0
                   0
                   0
                   0
                   0
                   0
                   0
                   0
                   0
                   0
                   0
                   0
                   0
                   0
                   0
                   0
                   0
                   0
                   0
                   0
                   0
                   0
                   0
                   0
                   0
                   0
                   0
                   0
                   0
                   0
                   0
                   0
                   0
                   0
                   0
                   0
                   0
                   0
                   0
                   0
                   0
                   0
                   0
                   0
                   0
                   0
                   0
                   0
                   0
                   0
                   0
                   0
                   0
                   0
                   0
                   0
                   0
                   0
                   0
                   0
                   0
                   0
                   0
                   0
                   0
                   0
                   0
                   0
                   0
                   0
                   0
                   0
                   0
                   0
                   0
                   0
                   0
                   0
                   0
                   0
                   0
                   0
                   0
                   0
                   0
                   0
                   0
                   0
                   0
                   0
                   0
                   0
                   0
                   0
                   0
                   0
                   0
                   0
                   0
                   0
                   0
                   0
                   0
                   0
                   0
                   0
                   0
                   0
                   0
                   0
                   0
                   0
                   0
                   0
                   0
                   0
                   0
                   0
                   0
                   0
                   0
                   0
                   0
                   0
                   0
                   0
                   0
                   0
                   0
                   0
                   0
                   0
                   0
                   0
                   0
                   0
                   0
                   0
                   0
                   0
                   0
                   0
                   0
                   0
                   0
                   0
                   0
                   0
                   0
                   0
                   0
                   0
                   0
                   0
                   0
                   0
                   0
                   0
                   0
                   0
                   0
                   0
                   0
                   0
                   0
                   0
                   0
                   0
                   0
                   0
                   0
                   0
                   0
                   0
                   0
  
SCALARS                       fixity_z  double 1
LOOKUP_TABLE default
                   0
                   0
                   0
                   0
                   1
                   1
                   1
                   1
                   0
                   0
                   1
                   1
                   0
                   0
                   1
                   1
                   0
                   0
                   1
                   1
                   0
                   0
                   0
                   1
                   1
                   1
                   0
                   0
                   1
                   1
                   0
                   0
                   0
                   1
                   1
                   1
                   0
                   0
                   1
                   1
                   0
                   0
                   1
                   1
                   0
                   0
                   1
                   1
                   0
                   1
                   0
                   1
                   0
                   1
                   0
                   1
                   0
                   0
                   1
                   1
                   0
                   0
                   1
                   1
                   0
                   1
                   0
                   1
                   0
                   0
                   1
                   1
                   0
                   1
                   0
                   1
                   0
                   1
                   0
                   1
                   0
                   0
                   1
                   1
                   0
                   1
                   0
                   1
                   0
                   1
                   0
                   0
                   1
                   1
                   0
                   1
                   0
                   1
                   0
                   1
                   0
                   0
                   1
                   1
                   0
                   0
                   1
                   1
                   0
                   1
                   0
                   1
                   0
                   1
                   0
                   1
                   0
                   1
                   0
                   1
                   0
                   1
                   0
                   1
                   0
                   1
                   0
                   1
                   0
                   1
                   0
                   1
                   0
                   1
                   0
                   1
                   0
                   1
                   0
                   1
                   0
                   1
                   0
                   1
                   0
                   1
                   0
                   1
                   0
                   1
                   0
                   1
                   0
                   1
                   0
                   1
                   0
                   0
                   0
                   0
                   0
                   0
                   0
                   0
                   0
                   0
                   0
                   0
                   0
                   0
                   0
                   0
                   0
                   0
                   0
                   0
                   0
                   0
                   0
                   0
                   0
                   0
                   0
                   0
                   0
                   0
                   0
                   0
                   0
                   0
                   0
                   0
                   0
                   0
                   0
                   0
                   0
                   0
                   0
                   0
                   0
                   0
                   0
                   0
                   0
                   0
                   0
                   0
                   0
                   0
                   0
                   0
                   0
                   0
                   0
                   0
                   0
                   0
                   0
                   0
                   0
                   0
                   0
                   0
                   0
                   0
                   0
                   0
                   0
                   0
                   0
                   0
                   0
                   0
                   0
                   0
                   0
                   0
                   0
                   0
                   0
                   0
                   0
                   0
                   0
                   0
                   0
                   0
                   0
                   0
                   0
                   0
                   0
                   0
                   0
                   0
                   0
                   0
                   0
                   0
                   0
                   0
                   0
                   0
                   0
                   0
                   0
                   0
                   0
                   0
                   0
                   0
                   0
                   0
                   0
                   0
                   0
                   0
                   0
                   0
                   0
                   0
                   0
                   0
                   0
                   0
                   0
                   0
                   0
                   0
                   0
                   0
                   0
                   0
                   0
                   0
                   0
                   0
                   0
                   0
                   0
                   0
                   0
                   0
                   0
                   0
                   0
                   0
                   0
                   0
                   0
                   0
                   0
                   0
                   0
                   0
                   0
                   0
                   0
                   0
                   0
                   0
                   0
                   0
                   0
                   0
                   0
                   0
                   0
                   0
                   0
                   0
                   0
                   0
                   0
                   0
                   0
                   0
                   0
                   0
                   0
                   0
                   0
                   0
                   0
                   0
                   0
                   0
                   0
                   0
                   0
                   0
                   0
                   0
                   0
                   0
                   0
                   0
                   0
                   0
                   0
                   0
                   0
                   0
                   0
                   0
                   0
                   0
                   0
                   0
                   0
                   0
                   0
                   0
                   0
                   0
                   0
                   0
                   0
                   0
                   0
                   0
                   0
                   0
                   0
                   0
                   0
                   0
                   0
                   0
                   0
                   0
                   0
                   0
                   0
                   0
                   0
                   0
                   0
                   0
                   0
                   0
                   0
                   0
                   0
                   0
                   0
                   0
                   0
                   0
                   0
                   0
                   0
                   0
                   0
                   0
                   0
                   0
                   0
                   0
                   0
                   0
                   0
                   0
                   0
                   0
                   0
                   0
                   0
                   0
                   0
                   0
                   0
                   0
                   0
                   0
                   0
                   0
                   0
                   0
                   0
                   0
                   0
                   0
                   0
                   0
                   0
                   0
                   0
                   0
                   0
                   0
                   0
                   0
                   0
                   0
                   0
                   0
                   0
                   0
                   0
                   0
                   0
                   0
                   0
                   0
                   0
                   0
                   0
                   0
                   0
                   0
                   0
                   0
                   0
                   0
                   0
                   0
                   0
                   0
                   0
                   0
                   0
                   0
                   0
                   0
                   0
                   0
                   0
                   0
                   0
                   0
                   0
                   0
                   0
                   0
                   0
                   0
                   0
                   0
                   0
                   0
                   0
                   0
                   0
                   0
                   0
                   0
                   0
                   0
                   0
                   0
                   0
                   0
                   0
                   0
                   0
                   0
                   0
                   0
                   0
                   0
                   0
                   0
                   0
                   0
                   0
                   0
                   0
                   0
                   0
                   0
                   0
                   0
                   0
                   0
                   0
                   0
                   0
                   0
                   0
                   0
                   0
                   0
                   0
                   0
                   0
                   0
                   0
                   0
                   0
                   0
                   0
                   0
                   0
                   0
                   0
                   0
                   0
                   0
                   0
                   0
                   0
                   0
                   0
                   0
                   0
                   0
                   0
                   0
                   0
                   0
                   0
                   0
                   0
                   0
                   0
                   0
                   0
                   0
                   0
                   0
                   0
                   0
                   0
                   0
                   0
                   0
                   0
                   0
                   0
                   0
                   0
                   0
                   0
                   0
                   0
                   0
                   0
                   0
                   0
                   0
                   0
                   0
                   0
                   0
                   0
                   0
                   0
                   0
                   0
                   0
                   0
                   0
                   0
                   0
                   0
                   0
                   0
                   0
                   0
                   0
                   0
                   0
                   0
                   0
                   0
                   0
                   0
                   0
                   0
                   0
                   0
                   0
                   0
                   0
                   0
                   0
                   0
                   0
                   0
                   0
                   0
                   0
                   0
                   0
                   0
                   0
                   0
                   0
                   0
                   0
                   0
                   0
                   0
                   0
                   0
                   0
                   0
                   0
                   0
                   0
                   0
                   0
                   0
                   0
                   0
                   0
                   0
                   0
                   0
                   0
                   0
                   0
                   0
                   0
                   0
                   0
                   0
                   0
                   0
                   0
                   0
                   0
                   0
                   0
                   0
                   0
                   0
                   0
                   0
                   0
                   0
                   0
                   0
                   0
                   0
                   0
                   0
                   0
                   0
                   0
                   0
                   0
                   0
                   0
                   0
                   0
                   0
                   0
                   0
                   0
                   0
                   0
                   0
                   0
                   0
                   0
                   0
                   0
                   0
                   0
                   0
                   0
                   0
                   0
                   0
                   0
                   0
                   0
                   0
                   0
                   0
                   0
                   0
                   0
                   0
                   0
                   0
                   0
                   0
                   0
                   0
                   0
                   0
                   0
                   0
                   0
                   0
                   0
                   0
                   0
                   0
                   0
                   0
                   0
                   0
                   0
                   0
                   0
                   0
                   0
                   0
                   0
                   0
                   0
                   0
                   0
                   0
                   0
                   0
                   0
                   0
                   0
                   0
                   0
                   0
                   0
                   0
                   0
                   0
                   0
                   0
                   0
                   0
                   0
                   0
                   0
                   0
                   0
                   0
                   0
                   0
                   0
                   0
                   0
                   0
                   0
                   0
                   0
                   0
                   0
                   0
                   0
                   0
                   0
                   0
                   0
                   0
                   0
                   0
                   0
                   0
                   0
                   0
                   0
                   0
                   0
                   0
                   0
                   0
                   0
                   0
                   0
                   0
                   0
                   0
                   0
                   0
                   0
                   0
                   0
                   0
                   0
                   0
                   0
                   0
                   0
                   0
                   0
                   0
                   0
                   0
                   0
                   0
                   0
                   0
                   0
                   0
                   0
                   0
                   0
                   0
                   0
                   0
                   0
                   0
                   0
                   0
                   0
                   0
                   0
                   0
                   0
                   0
                   0
                   0
                   0
                   0
                   0
                   0
                   0
                   0
                   0
                   0
                   0
                   0
                   0
                   0
                   0
                   0
                   0
                   0
                   0
                   0
                   0
                   0
                   0
                   0
                   0
                   0
                   0
                   0
                   0
                   0
                   0
                   0
                   0
                   0
                   0
                   0
                   0
                   0
                   0
                   0
                   0
                   0
                   0
                   0
                   0
                   0
                   0
                   0
                   0
                   0
                   0
                   0
                   0
                   0
                   0
                   0
                   0
                   0
                   0
                   0
                   0
                   0
                   0
                   0
                   0
                   0
                   0
                   0
                   0
                   0
                   0
                   0
                   0
                   0
                   0
                   0
                   0
                   0
                   0
                   0
                   0
                   0
                   0
                   0
                   0
                   0
                   0
                   0
                   0
                   0
                   0
                   0
                   0
                   0
                   0
                   0
                   0
                   0
                   0
                   0
                   0
                   0
                   0
                   0
                   0
                   0
                   0
                   0
                   0
                   0
                   0
                   0
                   0
                   0
                   0
                   0
                   0
                   0
                   0
                   0
                   0
                   0
                   0
                   0
                   0
                   0
                   0
                   0
                   0
                   0
                   0
                   0
                   0
                   0
                   0
                   0
                   0
                   0
                   0
                   0
                   0
                   0
                   0
                   0
                   0
                   0
                   0
                   0
                   0
                   0
                   0
                   0
                   0
                   0
                   0
                   0
                   0
                   0
                   0
                   0
                   0
                   0
                   0
                   0
                   0
                   0
                   0
                   0
                   0
                   0
                   0
                   0
                   0
                   0
                   0
                   0
                   0
                   0
                   0
                   0
                   0
                   0
                   0
                   0
                   0
                   0
                   0
                   0
                   0
                   0
                   0
                   0
                   0
                   0
                   0
                   0
                   0
                   0
                   0
                   0
                   0
                   0
                   0
                   0
                   0
                   0
                   0
                   0
                   0
                   0
                   0
                   0
                   0
                   0
                   0
                   0
                   0
                   0
                   0
                   0
                   0
                   0
                   0
                   0
                   0
                   0
                   0
                   0
                   0
                   0
                   0
                   0
                   0
                   0
                   0
                   0
                   0
                   0
                   0
                   0
                   0
                   0
                   0
                   0
                   0
                   0
                   0
                   0
                   0
                   0
                   0
                   0
                   0
                   0
                   0
                   0
                   0
                   0
                   0
                   0
                   0
                   0
                   0
                   0
                   0
                   0
                   0
                   0
                   0
                   0
                   0
                   0
                   0
                   0
                   0
                   0
                   0
                   0
                   0
                   0
                   0
                   0
                   0
                   0
                   0
                   0
                   0
                   0
                   0
                   0
                   0
                   0
                   0
                   0
                   0
                   0
                   0
                   0
                   0
                   0
                   0
                   0
                   0
                   0
                   0
                   0
                   0
                   0
                   0
                   0
                   0
                   0
                   0
                   0
                   0
                   0
                   0
                   0
                   0
                   0
                   0
                   0
                   0
                   0
                   0
                   0
                   0
                   0
                   0
                   0
                   0
                   0
                   0
                   0
                   0
                   0
                   0
                   0
                   0
                   0
                   0
                   0
                   0
                   0
                   0
                   0
                   0
                   0
                   0
                   0
                   0
                   0
                   0
                   0
                   0
                   0
                   0
                   0
                   0
                   0
                   0
                   0
                   0
                   0
                   0
                   0
                   0
                   0
                   0
                   0
                   0
                   0
                   0
                   0
                   0
                   0
                   0
                   0
                   0
                   0
                   0
                   0
                   0
                   0
                   0
                   0
                   0
                   0
                   0
                   0
                   0
                   0
                   0
                   0
                   0
                   0
                   0
                   0
                   0
                   0
                   0
                   0
                   0
                   0
                   0
                   0
                   0
                   0
                   0
                   0
                   0
                   0
                   0
                   0
                   0
                   0
                   0
                   0
                   0
                   0
                   0
                   0
                   0
                   0
                   0
                   0
                   0
                   0
                   0
                   0
                   0
                   0
                   0
                   0
                   0
                   0
                   0
                   0
                   0
                   0
                   0
                   0
                   0
                   0
                   0
                   0
                   0
                   0
                   0
                   0
                   0
                   0
                   0
                   0
                   0
                   0
                   0
                   0
                   0
                   0
                   0
                   0
                   0
                   0
                   0
                   0
                   0
                   0
                   0
                   0
                   0
                   0
                   0
                   0
                   0
                   0
                   0
                   0
                   0
                   0
                   0
                   0
                   0
                   0
                   0
                   0
                   0
                   0
                   0
                   0
                   0
                   0
                   0
                   0
                   0
                   0
                   0
                   0
                   0
                   0
                   0
                   0
                   0
                   0
                   0
                   0
                   0
                   0
                   0
                   0
                   0
                   0
                   0
                   0
                   0
                   0
                   0
                   0
                   0
                   0
                   0
                   0
                   0
                   0
                   0
                   0
                   0
                   0
                   0
                   0
                   0
                   0
                   0
                   0
                   0
                   0
                   0
                   0
                   0
                   0
                   0
                   0
                   0
                   0
                   0
                   0
                   0
                   0
                   0
                   0
                   0
                   0
                   0
                   0
                   0
                   0
                   0
                   0
                   0
                   0
                   0
                   0
                   0
                   0
                   0
                   0
                   0
                   0
                   0
                   0
                   0
                   0
                   0
                   0
                   0
                   0
                   0
                   0
                   0
                   0
                   0
                   0
                   0
                   0
                   0
                   0
                   0
                   0
                   0
                   0
                   0
                   0
                   0
                   0
                   0
                   0
                   0
                   0
                   0
                   0
                   0
                   0
                   0
                   0
                   0
                   0
                   0
                   0
                   0
                   0
                   0
                   0
                   0
                   0
                   0
                   0
                   0
                   0
                   0
                   0
                   0
                   0
                   0
                   0
                   0
                   0
                   0
                   0
                   0
                   0
                   0
                   0
                   0
                   0
                   0
                   0
                   0
                   0
                   0
                   0
                   0
                   0
                   0
                   0
                   0
                   0
                   0
                   0
                   0
                   0
                   0
                   0
                   0
                   0
                   0
                   0
                   0
                   0
                   0
                   0
                   0
                   0
                   0
                   0
                   0
                   0
                   0
                   0
                   0
                   0
                   0
                   0
                   0
                   0
                   0
                   0
                   0
                   0
                   0
                   0
                   0
                   0
                   0
                   0
                   0
                   0
                   0
                   0
                   0
                   0
                   0
                   0
                   0
                   0
                   0
                   0
                   0
                   0
                   0
                   0
                   0
                   0
                   0
                   0
                   0
                   0
                   0
                   0
                   0
                   0
                   0
                   0
                   0
                   0
                   0
                   0
                   0
                   0
                   0
                   0
                   0
                   0
                   0
                   0
                   0
                   0
                   0
                   0
                   0
                   0
                   0
                   0
                   0
                   0
                   0
                   0
                   0
                   0
                   0
                   0
                   0
                   0
                   0
                   0
                   0
                   0
                   0
                   0
                   0
                   0
                   0
                   0
                   0
                   0
                   0
                   0
                   0
                   0
                   0
                   0
                   0
                   0
                   0
                   0
                   0
                   0
                   0
                   0
                   0
                   0
                   0
                   0
                   0
                   0
                   0
                   0
                   0
                   0
                   0
                   0
                   0
                   0
                   0
                   0
                   0
                   0
                   0
                   0
                   0
                   0
                   0
                   0
                   0
                   0
                   0
                   0
                   0
                   0
                   0
                   0
                   0
                   0
                   0
                   0
                   0
                   0
                   0
                   0
                   0
                   0
                   0
                   0
                   0
                   0
                   0
                   0
                   0
                   0
                   0
                   0
                   0
                   0
                   0
                   0
                   0
                   0
                   0
                   0
                   0
                   0
                   0
                   0
                   0
                   0
                   0
                   0
                   0
                   0
                   0
                   0
                   0
                   0
                   0
                   0
                   0
                   0
                   0
                   0
                   0
                   0
                   0
                   0
                   0
                   0
                   0
                   0
                   0
                   0
                   0
                   0
                   0
                   0
                   0
                   0
                   0
                   0
                   0
                   0
                   0
                   0
                   0
                   0
                   0
                   0
                   0
                   0
                   0
                   0
                   0
                   0
                   0
                   0
                   0
                   0
                   0
                   0
                   0
                   0
                   0
                   0
                   0
                   0
                   0
                   0
                   0
                   0
                   0
                   0
                   0
                   0
                   0
                   0
                   0
                   0
                   0
                   0
                   0
                   0
                   0
                   0
                   0
                   0
                   0
                   0
                   0
                   0
                   0
                   0
                   0
                   0
                   0
                   0
                   0
                   0
                   0
                   0
                   0
                   0
                   0
                   0
                   0
                   0
                   0
                   0
                   0
                   0
                   0
                   0
                   0
                   0
                   0
                   0
                   0
                   0
                   0
                   0
                   0
                   0
                   0
                   0
                   0
                   0
                   0
                   0
                   0
                   0
                   0
                   0
                   0
                   0
                   0
                   0
                   0
                   0
                   0
                   0
                   0
                   0
                   0
                   0
                   0
                   0
                   0
                   0
                   0
                   0
                   0
                   0
                   0
                   0
                   0
                   0
                   0
                   0
                   0
                   0
                   0
                   0
                   0
                   0
                   0
                   0
                   0
                   0
                   0
                   0
                   0
                   0
                   0
                   0
                   0
                   0
                   0
                   0
                   0
                   0
                   0
                   0
                   0
                   0
                   0
                   0
                   0
                   0
                   0
                   0
                   0
                   0
                   0
                   0
                   0
                   0
                   0
                   0
                   0
                   0
                   0
                   0
                   0
                   0
                   0
                   0
                   0
                   0
                   0
                   0
                   0
                   0
                   0
                   0
                   0
                   0
                   0
                   0
                   0
                   0
                   0
                   0
                   0
                   0
                   0
                   0
                   0
                   0
                   0
                   0
                   0
                   0
                   0
                   0
                   0
                   0
                   0
                   0
                   0
                   0
                   0
                   0
                   0
                   0
                   0
                   0
                   0
                   0
                   0
                   0
                   0
                   0
                   0
                   0
                   0
                   0
                   0
                   0
                   0
  
SCALARS                         Ispace  double 1
LOOKUP_TABLE default
                  12
                  12
                  12
                  12
                  12
                  12
                  12
                  12
                  12
                  12
                  12
                  12
                  12
                  11
                  12
                  11
                  11
                  11
                  11
                  11
                  11
                  12
                  12
                  11
                  12
                  12
                  11
                  11
                  11
                  11
                  11
                  11
                  11
                  11
                  11
                  11
                  11
                  11
                  11
                  11
                  11
                  11
                  11
                  11
                  11
                  11
                  11
                  11
                  11
                  11
                  11
                  11
                  11
                  11
                  11
                  11
                  11
                  11
                  11
                  11
                  11
                  11
                  11
                  11
                  11
                  11
                  12
                  12
                  12
                  12
                  12
                  12
                  12
                  12
                  11
                  11
                  11
                  11
                  11
                  11
                  11
                  11
                  11
                  11
                  11
                  11
                  11
                  11
                  11
                  11
                  11
                  11
                  11
                  11
                  11
                  11
                  12
                  12
                  12
                  12
                  12
                  12
                  12
                  12
                  12
                  12
                  12
                  12
                  12
                  12
                  12
                  12
                  12
                  12
                  12
                  12
                  11
                  11
                  11
                  11
                  11
                  11
                  11
                  11
                  11
                  11
                  11
                  11
                  11
                  11
                  11
                  11
                  11
                  11
                  11
                  11
                  11
                  11
                  11
                  11
                  11
                  11
                  11
                  11
                  11
                  11
                  12
                  12
                  12
                  12
                  12
                  12
                  12
                  12
                  12
                  12
                  12
                  12
                  12
                  12
                  12
                  12
                  12
                  11
                  11
                  11
                  11
                  12
                  12
                  11
                  11
                  11
                  11
                  11
                  11
                  11
                  11
                  11
                  11
                  11
                  11
                  11
                  11
                  11
                  11
                  11
                  11
                  11
                  11
                  12
                  12
                  12
                  12
                  11
                  11
                  11
                  11
                  11
                  11
                  11
                  11
                  11
                  11
                  11
                  12
                  12
                  12
                  12
                  12
                  12
                  12
                  12
                  12
                  12
                  11
                  11
                  11
                  11
                  11
                  11
                  11
                  11
                  11
                  11
                  11
                  11
                  11
                  11
                  11
                  12
                  12
                  12
                  12
                  12
                  12
                  12
                  12
                  12
                  12
                  12
                  12
                  11
                  11
                  11
                  11
                  12
                  12
                  11
                  11
                  11
                  11
                  11
                  11
                  11
                  11
                  11
                  11
                  11
                  11
                  11
                  11
                  11
                  11
                  11
                  11
                  11
                  11
                  12
                  12
                  12
                  12
                  11
                  11
                  11
                  11
                  11
                  11
                  11
                  11
                  11
                  11
                  11
                  12
                  12
                  12
                  12
                  12
                  12
                  12
                  12
                  12
                  12
                  11
                  11
                  11
                  11
                  11
                  11
                  11
                  11
                  11
                  11
                  11
                  11
                  11
                  11
                  11
                  12
                  12
                  12
                  12
                  12
                  12
                  12
                  12
                  12
                  12
                  12
                  12
                  11
                  11
                  11
                  11
                  12
                  12
                  11
                  11
                  11
                  11
                  11
                  11
                  11
                  11
                  11
                  11
                  11
                  11
                  11
                  11
                  11
                  11
                  11
                  11
                  11
                  11
                  12
                  12
                  12
                  12
                  11
                  11
                  11
                  11
                  11
                  11
                  11
                  11
                  11
                  11
                  11
                  12
                  12
                  12
                  12
                  12
                  12
                  12
                  12
                  12
                  12
                  11
                  11
                  11
                  11
                  11
                  11
                  11
                  11
                  11
                  11
                  11
                  11
                  11
                  11
                  11
                  12
                  12
                  12
                  12
                  12
                  12
                  12
                  12
                  12
                  12
                  12
                  12
                  11
                  11
                  11
                  11
                  12
                  12
                  11
                  11
                  11
                  11
                  11
                  11
                  11
                  11
                  11
                  11
                  11
                  11
                  11
                  11
                  11
                  11
                  11
                  11
                  11
                  11
                  12
                  12
                  12
                  12
                  11
                  11
                  11
                  11
                  11
                  11
                  11
                  11
                  11
                  11
                  11
                  12
                  12
                  12
                  12
                  12
                  12
                  12
                  12
                  12
                  12
                  11
                  11
                  11
                  11
                  11
                  11
                  11
                  11
                  11
                  11
                  11
                  11
                  11
                  11
                  11
                  12
                  12
                  12
                  12
                  12
                  12
                  12
                  12
                  12
                  12
                  12
                  12
                  11
                  11
                  11
                  11
                  12
                  12
                  11
                  11
                  11
                  11
                  11
                  11
                  11
                  11
                  11
                  11
                  11
                  11
                  11
                  11
                  11
                  11
                  11
                  11
                  11
                  11
                  12
                  12
                  12
                  12
                  11
                  11
                  11
                  11
                  11
                  11
                  11
                  11
                  11
                  11
                  11
                  12
                  12
                  12
                  12
                  12
                  12
                  12
                  12
                  12
                  12
                  11
                  11
                  11
                  11
                  11
                  11
                  11
                  11
                  11
                  11
                  11
                  11
                  11
                  11
                  11
                  12
                  12
                  12
                  12
                  12
                  12
                  12
                  12
                  12
                  12
                  12
                  12
                  11
                  11
                  11
                  11
                  12
                  12
                  11
                  11
                  11
                  11
                  11
                  11
                  11
                  11
                  11
                  11
                  11
                  11
                  11
                  11
                  11
                  11
                  11
                  11
                  11
                  11
                  12
                  12
                  12
                  12
                  11
                  11
                  11
                  11
                  11
                  11
                  11
                  11
                  11
                  11
                  11
                  12
                  12
                  12
                  12
                  12
                  12
                  12
                  12
                  12
                  12
                  11
                  11
                  11
                  11
                  11
                  11
                  11
                  11
                  11
                  11
                  11
                  11
                  11
                  11
                  11
                  12
                  12
                  12
                  12
                  12
                  12
                  12
                  12
                  12
                  12
                  12
                  12
                  11
                  11
                  11
                  11
                  12
                  12
                  11
                  11
                  11
                  11
                  11
                  11
                  11
                  11
                  11
                  11
                  11
                  11
                  11
                  11
                  11
                  11
                  11
                  11
                  11
                  11
                  12
                  12
                  12
                  12
                  11
                  11
                  11
                  11
                  11
                  11
                  11
                  11
                  11
                  11
                  11
                  12
                  12
                  12
                  12
                  12
                  12
                  12
                  12
                  12
                  12
                  11
                  11
                  11
                  11
                  11
                  11
                  11
                  11
                  11
                  11
                  11
                  11
                  11
                  11
                  11
                  12
                  12
                  12
                  12
                  12
                  12
                  12
                  12
                  12
                  12
                  12
                  12
                  11
                  11
                  11
                  11
                  12
                  12
                  11
                  11
                  11
                  11
                  11
                  11
                  11
                  11
                  11
                  11
                  11
                  11
                  11
                  11
                  11
                  11
                  11
                  11
                  11
                  11
                  12
                  12
                  12
                  12
                  11
                  11
                  11
                  11
                  11
                  11
                  11
                  11
                  11
                  11
                  11
                  12
                  12
                  12
                  12
                  12
                  12
                  12
                  12
                  12
                  12
                  11
                  11
                  11
                  11
                  11
                  11
                  11
                  11
                  11
                  11
                  11
                  11
                  11
                  11
                  11
                  12
                  12
                  12
                  12
                  12
                  12
                  12
                  12
                  12
                  12
                  12
                  12
                  11
                  11
                  11
                  11
                  12
                  12
                  11
                  11
                  11
                  11
                  11
                  11
                  11
                  11
                  11
                  11
                  11
                  11
                  11
                  11
                  11
                  11
                  11
                  11
                  11
                  11
                  12
                  12
                  12
                  12
                  11
                  11
                  11
                  11
                  11
                  11
                  11
                  11
                  11
                  11
                  11
                  12
                  12
                  12
                  12
                  12
                  12
                  12
                  12
                  12
                  12
                  11
                  11
                  11
                  11
                  11
                  11
                  11
                  11
                  11
                  11
                  11
                  11
                  11
                  11
                  11
                  12
                  12
                  12
                  12
                  12
                  12
                  12
                  12
                  12
                  12
                  12
                  12
                  11
                  11
                  11
                  11
                  12
                  12
                  11
                  11
                  11
                  11
                  11
                  11
                  11
                  11
                  11
                  11
                  11
                  11
                  11
                  11
                  11
                  11
                  11
                  11
                  11
                  11
                  12
                  12
                  12
                  12
                  11
                  11
                  11
                  11
                  11
                  11
                  11
                  11
                  11
                  11
                  11
                  12
                  12
                  12
                  12
                  12
                  12
                  12
                  12
                  12
                  12
                  11
                  11
                  11
                  11
                  11
                  11
                  11
                  11
                  11
                  11
                  11
                  11
                  11
                  11
                  11
                  12
                  12
                  12
                  12
                  12
                  12
                  12
                  12
                  12
                  12
                  12
                  12
                  11
                  11
                  11
                  11
                  12
                  12
                  11
                  11
                  11
                  11
                  11
                  11
                  11
                  11
                  11
                  11
                  11
                  11
                  11
                  11
                  11
                  11
                  11
                  11
                  11
                  11
                  12
                  12
                  12
                  12
                  11
                  11
                  11
                  11
                  11
                  11
                  11
                  11
                  11
                  11
                  11
                  12
                  12
                  12
                  12
                  12
                  12
                  12
                  12
                  12
                  12
                  11
                  11
                  11
                  11
                  11
                  11
                  11
                  11
                  11
                  11
                  11
                  11
                  11
                  11
                  11
                  12
                  12
                  12
                  12
                  12
                  12
                  12
                  12
                  12
                  12
                  12
                  12
                  11
                  11
                  11
                  11
                  12
                  12
                  11
                  11
                  11
                  11
                  11
                  11
                  11
                  11
                  11
                  11
                  11
                  11
                  11
                  11
                  11
                  11
                  11
                  11
                  11
                  11
                  12
                  12
                  12
                  12
                  11
                  11
                  11
                  11
                  11
                  11
                  11
                  11
                  11
                  11
                  11
                  12
                  12
                  12
                  12
                  12
                  12
                  12
                  12
                  12
                  12
                  11
                  11
                  11
                  11
                  11
                  11
                  11
                  11
                  11
                  11
                  11
                  11
                  11
                  11
                  11
                  12
                  12
                  12
                  12
                  12
                  12
                  12
                  12
                  12
                  12
                  12
                  12
                  11
                  11
                  11
                  11
                  12
                  12
                  11
                  11
                  11
                  11
                  11
                  11
                  11
                  11
                  11
                  11
                  11
                  11
                  11
                  11
                  11
                  11
                  11
                  11
                  11
                  11
                  12
                  12
                  12
                  12
                  11
                  11
                  11
                  11
                  11
                  11
                  11
                  11
                  11
                  11
                  11
                  12
                  12
                  12
                  12
                  12
                  12
                  12
                  12
                  12
                  12
                  11
                  11
                  11
                  11
                  11
                  11
                  11
                  11
                  11
                  11
                  11
                  11
                  11
                  11
                  11
                  12
                  12
                  12
                  12
                  12
                  12
                  12
                  12
                  12
                  12
                  12
                  12
                  11
                  11
                  11
                  11
                  12
                  12
                  11
                  11
                  11
                  11
                  11
                  11
                  11
                  11
                  11
                  11
                  11
                  11
                  11
                  11
                  11
                  11
                  11
                  11
                  11
                  11
                  12
                  12
                  12
                  12
                  11
                  11
                  11
                  11
                  11
                  11
                  11
                  11
                  11
                  11
                  11
                  12
                  12
                  12
                  12
                  12
                  12
                  12
                  12
                  12
                  12
                  11
                  11
                  11
                  11
                  11
                  11
                  11
                  11
                  11
                  11
                  11
                  11
                  11
                  11
                  11
                  12
                  12
                  12
                  12
                  12
                  12
                  12
                  12
                  12
                  12
                  12
                  12
                  11
                  11
                  11
                  11
                  12
                  12
                  11
                  11
                  11
                  11
                  11
                  11
                  11
                  11
                  11
                  11
                  11
                  11
                  11
                  11
                  11
                  11
                  11
                  11
                  11
                  11
                  12
                  12
                  12
                  12
                  11
                  11
                  11
                  11
                  11
                  11
                  11
                  11
                  11
                  11
                  11
                  12
                  12
                  12
                  12
                  12
                  12
                  12
                  12
                  12
                  12
                  11
                  11
                  11
                  11
                  11
                  11
                  11
                  11
                  11
                  11
                  11
                  11
                  11
                  11
                  11
                  12
                  12
                  12
                  12
                  12
                  12
                  12
                  12
                  12
                  12
                  12
                  12
                  11
                  11
                  11
                  11
                  12
                  12
                  11
                  11
                  11
                  11
                  11
                  11
                  11
                  11
                  11
                  11
                  11
                  11
                  11
                  11
                  11
                  11
                  11
                  11
                  11
                  11
                  12
                  12
                  12
                  12
                  11
                  11
                  11
                  11
                  11
                  11
                  11
                  11
                  11
                  11
                  11
                  12
                  12
                  12
                  12
                  12
                  12
                  12
                  12
                  12
                  12
                  11
                  11
                  11
                  11
                  11
                  11
                  11
                  11
                  11
                  11
                  11
                  11
                  11
                  11
                  11
                  12
                  12
                  12
                  12
                  12
                  12
                  12
                  12
                  12
                  12
                  12
                  12
                  11
                  11
                  11
                  11
                  12
                  12
                  11
                  11
                  11
                  11
                  11
                  11
                  11
                  11
                  11
                  11
                  11
                  11
                  11
                  11
                  11
                  11
                  11
                  11
                  11
                  11
                  12
                  12
                  12
                  12
                  11
                  11
                  11
                  11
                  11
                  11
                  11
                  11
                  11
                  11
                  11
                  12
                  12
                  12
                  12
                  12
                  12
                  12
                  12
                  12
                  12
                  11
                  11
                  11
                  11
                  11
                  11
                  11
                  11
                  11
                  11
                  11
                  11
                  11
                  11
                  11
                  12
                  12
                  12
                  12
                  12
                  12
                  12
                  12
                  12
                  12
                  12
                  12
                  11
                  11
                  11
                  11
                  12
                  12
                  11
                  11
                  11
                  11
                  11
                  11
                  11
                  11
                  11
                  11
                  11
                  11
                  11
                  11
                  11
                  11
                  11
                  11
                  11
                  11
                  12
                  12
                  12
                  12
                  11
                  11
                  11
                  11
                  11
                  11
                  11
                  11
                  11
                  11
                  11
                  12
                  12
                  12
                  12
                  12
                  12
                  12
                  12
                  12
                  12
                  11
                  11
                  11
                  11
                  11
                  11
                  11
                  11
                  11
                  11
                  11
                  11
                  11
                  11
                  11
                  12
                  12
                  12
                  12
                  12
                  12
                  12
                  12
                  12
                  12
                  12
                  12
                  11
                  11
                  11
                  11
                  12
                  12
                  11
                  11
                  11
                  11
                  11
                  11
                  11
                  11
                  11
                  11
                  11
                  11
                  11
                  11
                  11
                  11
                  11
                  11
                  11
                  11
                  12
                  12
                  12
                  12
                  11
                  11
                  11
                  11
                  11
                  11
                  11
                  11
                  11
                  11
                  11
                  12
                  12
                  12
                  12
                  12
                  12
                  12
                  12
                  12
                  12
                  11
                  11
                  11
                  11
                  11
                  11
                  11
                  11
                  11
                  11
                  11
                  11
                  11
                  11
                  11
                  12
                  12
                  12
                  12
                  12
                  12
                  12
                  12
                  12
                  12
                  12
                  12
                  11
                  11
                  11
                  11
                  12
                  12
                  11
                  11
                  11
                  11
                  11
                  11
                  11
                  11
                  11
                  11
                  11
                  11
                  11
                  11
                  11
                  11
                  11
                  11
                  11
                  11
                  12
                  12
                  12
                  12
                  11
                  11
                  11
                  11
                  11
                  11
                  11
                  11
                  11
                  11
                  11
                  12
                  12
                  12
                  12
                  12
                  12
                  12
                  12
                  12
                  12
                  11
                  11
                  11
                  11
                  11
                  11
                  11
                  11
                  11
                  11
                  11
                  11
                  11
                  11
                  11
                  12
                  12
                  12
                  12
                  12
                  12
                  12
                  12
                  12
                  12
                  12
                  12
                  11
                  11
                  11
                  11
                  12
                  12
                  11
                  11
                  11
                  11
                  11
                  11
                  11
                  11
                  11
                  11
                  11
                  11
                  11
                  11
                  11
                  11
                  11
                  11
                  11
                  11
                  12
                  12
                  12
                  12
                  11
                  11
                  11
                  11
                  11
                  11
                  11
                  11
                  11
                  11
                  11
                  12
                  12
                  12
                  12
                  12
                  12
                  12
                  12
                  12
                  12
                  11
                  11
                  11
                  11
                  11
                  11
                  11
                  11
                  11
                  11
                  11
                  11
                  11
                  11
                  11
                  12
                  12
                  12
                  12
                  12
                  12
                  12
                  12
                  12
                  12
                  12
                  12
                  11
                  11
                  11
                  11
                  12
                  12
                  11
                  11
                  11
                  11
                  11
                  11
                  11
                  11
                  11
                  11
                  11
                  11
                  11
                  11
                  11
                  11
                  11
                  11
                  11
                  11
                  12
                  12
                  12
                  12
                  11
                  11
                  11
                  11
                  11
                  11
                  11
                  11
                  11
                  11
                  11
                  12
                  12
                  12
                  12
                  12
                  12
                  12
                  12
                  12
                  12
                  11
                  11
                  11
                  11
                  11
                  11
                  11
                  11
                  11
                  11
                  11
                  11
                  11
                  11
                  11
                  12
                  12
                  12
                  12
                  12
                  12
                  12
                  12
                  12
                  12
                  12
                  12
                  11
                  11
                  11
                  11
                  12
                  12
                  11
                  11
                  11
                  11
                  11
                  11
                  11
                  11
                  11
                  11
                  11
                  11
                  11
                  11
                  11
                  11
                  11
                  11
                  11
                  11
                  12
                  12
                  12
                  12
                  11
                  11
                  11
                  11
                  11
                  11
                  11
                  11
                  11
                  11
                  11
                  12
                  12
                  12
                  12
                  12
                  12
                  12
                  12
                  12
                  12
                  11
                  11
                  11
                  11
                  11
                  11
                  11
                  11
                  11
                  11
                  11
                  11
                  11
                  11
                  11
                  12
                  12
                  12
                  12
                  12
  
SCALARS                         Jspace  double 1
LOOKUP_TABLE default
                  11
                  12
                  11
                  11
                  11
                  12
                  11
                  11
                  11
                  11
                  11
                  11
                  12
                  12
                  12
                  12
                  11
                  12
                  11
                  12
                  12
                  12
                  12
                  12
                  12
                  12
                  12
                  12
                  12
                  12
                  11
                  11
                  11
                  11
                  11
                  11
                  11
                  11
                  11
                  11
                  11
                  11
                  11
                  11
                  11
                  11
                  11
                  11
                  11
                  11
                  11
                  11
                  12
                  12
                  12
                  12
                  12
                  11
                  12
                  11
                  11
                  11
                  11
                  11
                  11
                  11
                  11
                  11
                  11
                  12
                  11
                  12
                  12
                  12
                  12
                  12
                  12
                  12
                  12
                  12
                  12
                  12
                  12
                  12
                  11
                  11
                  11
                  11
                  11
                  11
                  11
                  11
                  11
                  11
                  11
                  11
                  11
                  11
                  11
                  11
                  11
                  11
                  11
                  11
                  11
                  11
                  11
                  11
                  12
                  12
                  12
                  12
                  12
                  12
                  12
                  12
                  12
                  12
                  12
                  12
                  12
                  12
                  12
                  12
                  12
                  12
                  12
                  12
                  11
                  11
                  11
                  11
                  11
                  11
                  11
                  11
                  11
                  11
                  11
                  11
                  11
                  11
                  11
                  11
                  11
                  11
                  11
                  11
                  11
                  11
                  11
                  11
                  11
                  11
                  11
                  11
                  11
                  12
                  11
                  11
                  11
                  11
                  12
                  12
                  11
                  12
                  12
                  12
                  12
                  12
                  12
                  11
                  11
                  11
                  11
                  11
                  11
                  11
                  11
                  11
                  11
                  11
                  12
                  12
                  12
                  11
                  11
                  11
                  11
                  11
                  11
                  12
                  12
                  12
                  12
                  12
                  12
                  12
                  11
                  11
                  11
                  11
                  11
                  11
                  11
                  11
                  11
                  11
                  11
                  11
                  12
                  12
                  12
                  12
                  12
                  12
                  12
                  12
                  12
                  12
                  11
                  11
                  11
                  11
                  11
                  11
                  11
                  11
                  11
                  11
                  11
                  11
                  11
                  11
                  11
                  12
                  11
                  11
                  11
                  11
                  12
                  12
                  11
                  12
                  12
                  12
                  12
                  12
                  12
                  11
                  11
                  11
                  11
                  11
                  11
                  11
                  11
                  11
                  11
                  11
                  12
                  12
                  12
                  11
                  11
                  11
                  11
                  11
                  11
                  12
                  12
                  12
                  12
                  12
                  12
                  12
                  11
                  11
                  11
                  11
                  11
                  11
                  11
                  11
                  11
                  11
                  11
                  11
                  12
                  12
                  12
                  12
                  12
                  12
                  12
                  12
                  12
                  12
                  11
                  11
                  11
                  11
                  11
                  11
                  11
                  11
                  11
                  11
                  11
                  11
                  11
                  11
                  11
                  12
                  11
                  11
                  11
                  11
                  12
                  12
                  11
                  12
                  12
                  12
                  12
                  12
                  12
                  11
                  11
                  11
                  11
                  11
                  11
                  11
                  11
                  11
                  11
                  11
                  12
                  12
                  12
                  11
                  11
                  11
                  11
                  11
                  11
                  12
                  12
                  12
                  12
                  12
                  12
                  12
                  11
                  11
                  11
                  11
                  11
                  11
                  11
                  11
                  11
                  11
                  11
                  11
                  12
                  12
                  12
                  12
                  12
                  12
                  12
                  12
                  12
                  12
                  11
                  11
                  11
                  11
                  11
                  11
                  11
                  11
                  11
                  11
                  11
                  11
                  11
                  11
                  11
                  12
                  11
                  11
                  11
                  11
                  12
                  12
                  11
                  12
                  12
                  12
                  12
                  12
                  12
                  11
                  11
                  11
                  11
                  11
                  11
                  11
                  11
                  11
                  11
                  11
                  12
                  12
                  12
                  11
                  11
                  11
                  11
                  11
                  11
                  12
                  12
                  12
                  12
                  12
                  12
                  12
                  11
                  11
                  11
                  11
                  11
                  11
                  11
                  11
                  11
                  11
                  11
                  11
                  12
                  12
                  12
                  12
                  12
                  12
                  12
                  12
                  12
                  12
                  11
                  11
                  11
                  11
                  11
                  11
                  11
                  11
                  11
                  11
                  11
                  11
                  11
                  11
                  11
                  12
                  11
                  11
                  11
                  11
                  12
                  12
                  11
                  12
                  12
                  12
                  12
                  12
                  12
                  11
                  11
                  11
                  11
                  11
                  11
                  11
                  11
                  11
                  11
                  11
                  12
                  12
                  12
                  11
                  11
                  11
                  11
                  11
                  11
                  12
                  12
                  12
                  12
                  12
                  12
                  12
                  11
                  11
                  11
                  11
                  11
                  11
                  11
                  11
                  11
                  11
                  11
                  11
                  12
                  12
                  12
                  12
                  12
                  12
                  12
                  12
                  12
                  12
                  11
                  11
                  11
                  11
                  11
                  11
                  11
                  11
                  11
                  11
                  11
                  11
                  11
                  11
                  11
                  12
                  11
                  11
                  11
                  11
                  12
                  12
                  11
                  12
                  12
                  12
                  12
                  12
                  12
                  11
                  11
                  11
                  11
                  11
                  11
                  11
                  11
                  11
                  11
                  11
                  12
                  12
                  12
                  11
                  11
                  11
                  11
                  11
                  11
                  12
                  12
                  12
                  12
                  12
                  12
                  12
                  11
                  11
                  11
                  11
                  11
                  11
                  11
                  11
                  11
                  11
                  11
                  11
                  12
                  12
                  12
                  12
                  12
                  12
                  12
                  12
                  12
                  12
                  11
                  11
                  11
                  11
                  11
                  11
                  11
                  11
                  11
                  11
                  11
                  11
                  11
                  11
                  11
                  12
                  11
                  11
                  11
                  11
                  12
                  12
                  11
                  12
                  12
                  12
                  12
                  12
                  12
                  11
                  11
                  11
                  11
                  11
                  11
                  11
                  11
                  11
                  11
                  11
                  12
                  12
                  12
                  11
                  11
                  11
                  11
                  11
                  11
                  12
                  12
                  12
                  12
                  12
                  12
                  12
                  11
                  11
                  11
                  11
                  11
                  11
                  11
                  11
                  11
                  11
                  11
                  11
                  12
                  12
                  12
                  12
                  12
                  12
                  12
                  12
                  12
                  12
                  11
                  11
                  11
                  11
                  11
                  11
                  11
                  11
                  11
                  11
                  11
                  11
                  11
                  11
                  11
                  12
                  11
                  11
                  11
                  11
                  12
                  12
                  11
                  12
                  12
                  12
                  12
                  12
                  12
                  11
                  11
                  11
                  11
                  11
                  11
                  11
                  11
                  11
                  11
                  11
                  12
                  12
                  12
                  11
                  11
                  11
                  11
                  11
                  11
                  12
                  12
                  12
                  12
                  12
                  12
                  12
                  11
                  11
                  11
                  11
                  11
                  11
                  11
                  11
                  11
                  11
                  11
                  11
                  12
                  12
                  12
                  12
                  12
                  12
                  12
                  12
                  12
                  12
                  11
                  11
                  11
                  11
                  11
                  11
                  11
                  11
                  11
                  11
                  11
                  11
                  11
                  11
                  11
                  12
                  11
                  11
                  11
                  11
                  12
                  12
                  11
                  12
                  12
                  12
                  12
                  12
                  12
                  11
                  11
                  11
                  11
                  11
                  11
                  11
                  11
                  11
                  11
                  11
                  12
                  12
                  12
                  11
                  11
                  11
                  11
                  11
                  11
                  12
                  12
                  12
                  12
                  12
                  12
                  12
                  11
                  11
                  11
                  11
                  11
                  11
                  11
                  11
                  11
                  11
                  11
                  11
                  12
                  12
                  12
                  12
                  12
                  12
                  12
                  12
                  12
                  12
                  11
                  11
                  11
                  11
                  11
                  11
                  11
                  11
                  11
                  11
                  11
                  11
                  11
                  11
                  11
                  12
                  11
                  11
                  11
                  11
                  12
                  12
                  11
                  12
                  12
                  12
                  12
                  12
                  12
                  11
                  11
                  11
                  11
                  11
                  11
                  11
                  11
                  11
                  11
                  11
                  12
                  12
                  12
                  11
                  11
                  11
                  11
                  11
                  11
                  12
                  12
                  12
                  12
                  12
                  12
                  12
                  11
                  11
                  11
                  11
                  11
                  11
                  11
                  11
                  11
                  11
                  11
                  11
                  12
                  12
                  12
                  12
                  12
                  12
                  12
                  12
                  12
                  12
                  11
                  11
                  11
                  11
                  11
                  11
                  11
                  11
                  11
                  11
                  11
                  11
                  11
                  11
                  11
                  12
                  11
                  11
                  11
                  11
                  12
                  12
                  11
                  12
                  12
                  12
                  12
                  12
                  12
                  11
                  11
                  11
                  11
                  11
                  11
                  11
                  11
                  11
                  11
                  11
                  12
                  12
                  12
                  11
                  11
                  11
                  11
                  11
                  11
                  12
                  12
                  12
                  12
                  12
                  12
                  12
                  11
                  11
                  11
                  11
                  11
                  11
                  11
                  11
                  11
                  11
                  11
                  11
                  12
                  12
                  12
                  12
                  12
                  12
                  12
                  12
                  12
                  12
                  11
                  11
                  11
                  11
                  11
                  11
                  11
                  11
                  11
                  11
                  11
                  11
                  11
                  11
                  11
                  12
                  11
                  11
                  11
                  11
                  12
                  12
                  11
                  12
                  12
                  12
                  12
                  12
                  12
                  11
                  11
                  11
                  11
                  11
                  11
                  11
                  11
                  11
                  11
                  11
                  12
                  12
                  12
                  11
                  11
                  11
                  11
                  11
                  11
                  12
                  12
                  12
                  12
                  12
                  12
                  12
                  11
                  11
                  11
                  11
                  11
                  11
                  11
                  11
                  11
                  11
                  11
                  11
                  12
                  12
                  12
                  12
                  12
                  12
                  12
                  12
                  12
                  12
                  11
                  11
                  11
                  11
                  11
                  11
                  11
                  11
                  11
                  11
                  11
                  11
                  11
                  11
                  11
                  12
                  11
                  11
                  11
                  11
                  12
                  12
                  11
                  12
                  12
                  12
                  12
                  12
                  12
                  11
                  11
                  11
                  11
                  11
                  11
                  11
                  11
                  11
                  11
                  11
                  12
                  12
                  12
                  11
                  11
                  11
                  11
                  11
                  11
                  12
                  12
                  12
                  12
                  12
                  12
                  12
                  11
                  11
                  11
                  11
                  11
                  11
                  11
                  11
                  11
                  11
                  11
                  11
                  12
                  12
                  12
                  12
                  12
                  12
                  12
                  12
                  12
                  12
                  11
                  11
                  11
                  11
                  11
                  11
                  11
                  11
                  11
                  11
                  11
                  11
                  11
                  11
                  11
                  12
                  11
                  11
                  11
                  11
                  12
                  12
                  11
                  12
                  12
                  12
                  12
                  12
                  12
                  11
                  11
                  11
                  11
                  11
                  11
                  11
                  11
                  11
                  11
                  11
                  12
                  12
                  12
                  11
                  11
                  11
                  11
                  11
                  11
                  12
                  12
                  12
                  12
                  12
                  12
                  12
                  11
                  11
                  11
                  11
                  11
                  11
                  11
                  11
                  11
                  11
                  11
                  11
                  12
                  12
                  12
                  12
                  12
                  12
                  12
                  12
                  12
                  12
                  11
                  11
                  11
                  11
                  11
                  11
                  11
                  11
                  11
                  11
                  11
                  11
                  11
                  11
                  11
                  12
                  11
                  11
                  11
                  11
                  12
                  12
                  11
                  12
                  12
                  12
                  12
                  12
                  12
                  11
                  11
                  11
                  11
                  11
                  11
                  11
                  11
                  11
                  11
                  11
                  12
                  12
                  12
                  11
                  11
                  11
                  11
                  11
                  11
                  12
                  12
                  12
                  12
                  12
                  12
                  12
                  11
                  11
                  11
                  11
                  11
                  11
                  11
                  11
                  11
                  11
                  11
                  11
                  12
                  12
                  12
                  12
                  12
                  12
                  12
                  12
                  12
                  12
                  11
                  11
                  11
                  11
                  11
                  11
                  11
                  11
                  11
                  11
                  11
                  11
                  11
                  11
                  11
                  12
                  11
                  11
                  11
                  11
                  12
                  12
                  11
                  12
                  12
                  12
                  12
                  12
                  12
                  11
                  11
                  11
                  11
                  11
                  11
                  11
                  11
                  11
                  11
                  11
                  12
                  12
                  12
                  11
                  11
                  11
                  11
                  11
                  11
                  12
                  12
                  12
                  12
                  12
                  12
                  12
                  11
                  11
                  11
                  11
                  11
                  11
                  11
                  11
                  11
                  11
                  11
                  11
                  12
                  12
                  12
                  12
                  12
                  12
                  12
                  12
                  12
                  12
                  11
                  11
                  11
                  11
                  11
                  11
                  11
                  11
                  11
                  11
                  11
                  11
                  11
                  11
                  11
                  12
                  11
                  11
                  11
                  11
                  12
                  12
                  11
                  12
                  12
                  12
                  12
                  12
                  12
                  11
                  11
                  11
                  11
                  11
                  11
                  11
                  11
                  11
                  11
                  11
                  12
                  12
                  12
                  11
                  11
                  11
                  11
                  11
                  11
                  12
                  12
                  12
                  12
                  12
                  12
                  12
                  11
                  11
                  11
                  11
                  11
                  11
                  11
                  11
                  11
                  11
                  11
                  11
                  12
                  12
                  12
                  12
                  12
                  12
                  12
                  12
                  12
                  12
                  11
                  11
                  11
                  11
                  11
                  11
                  11
                  11
                  11
                  11
                  11
                  11
                  11
                  11
                  11
                  12
                  11
                  11
                  11
                  11
                  12
                  12
                  11
                  12
                  12
                  12
                  12
                  12
                  12
                  11
                  11
                  11
                  11
                  11
                  11
                  11
                  11
                  11
                  11
                  11
                  12
                  12
                  12
                  11
                  11
                  11
                  11
                  11
                  11
                  12
                  12
                  12
                  12
                  12
                  12
                  12
                  11
                  11
                  11
                  11
                  11
                  11
                  11
                  11
                  11
                  11
                  11
                  11
                  12
                  12
                  12
                  12
                  12
                  12
                  12
                  12
                  12
                  12
                  11
                  11
                  11
                  11
                  11
                  11
                  11
                  11
                  11
                  11
                  11
                  11
                  11
                  11
                  11
                  12
                  11
                  11
                  11
                  11
                  12
                  12
                  11
                  12
                  12
                  12
                  12
                  12
                  12
                  11
                  11
                  11
                  11
                  11
                  11
                  11
                  11
                  11
                  11
                  11
                  12
                  12
                  12
                  11
                  11
                  11
                  11
                  11
                  11
                  12
                  12
                  12
                  12
                  12
                  12
                  12
                  11
                  11
                  11
                  11
                  11
                  11
                  11
                  11
                  11
                  11
                  11
                  11
                  12
                  12
                  12
                  12
                  12
                  12
                  12
                  12
                  12
                  12
                  11
                  11
                  11
                  11
                  11
                  11
                  11
                  11
                  11
                  11
                  11
                  11
                  11
                  11
                  11
                  12
                  11
                  11
                  11
                  11
                  12
                  12
                  11
                  12
                  12
                  12
                  12
                  12
                  12
                  11
                  11
                  11
                  11
                  11
                  11
                  11
                  11
                  11
                  11
                  11
                  12
                  12
                  12
                  11
                  11
                  11
                  11
                  11
                  11
                  12
                  12
                  12
                  12
                  12
                  12
                  12
                  11
                  11
                  11
                  11
                  11
                  11
                  11
                  11
                  11
                  11
                  11
                  11
                  12
                  12
                  12
                  12
                  12
                  12
                  12
                  12
                  12
                  12
                  11
                  11
                  11
                  11
                  11
                  11
                  11
                  11
                  11
                  11
                  11
                  11
                  11
                  11
                  11
                  12
                  11
                  11
                  11
                  11
                  12
                  12
                  11
                  12
                  12
                  12
                  12
                  12
                  12
                  11
                  11
                  11
                  11
                  11
                  11
                  11
                  11
                  11
                  11
                  11
                  12
                  12
                  12
                  11
                  11
                  11
                  11
                  11
                  11
                  12
                  12
                  12
                  12
                  12
                  12
                  12
                  11
                  11
                  11
                  11
                  11
                  11
                  11
                  11
                  11
                  11
                  11
                  11
                  12
                  12
                  12
                  12
                  12
                  12
                  12
                  12
                  12
                  12
                  11
                  11
                  11
                  11
                  11
                  11
                  11
                  11
                  11
                  11
                  11
                  11
                  11
                  11
                  11
                  12
                  11
                  11
                  11
                  11
                  12
                  12
                  11
                  12
                  12
                  12
                  12
                  12
                  12
                  11
                  11
                  11
                  11
                  11
                  11
                  11
                  11
                  11
                  11
                  11
                  12
                  12
                  12
                  11
                  11
                  11
                  11
                  11
                  11
                  12
                  12
                  12
                  12
                  12
                  12
                  12
                  11
                  11
                  11
                  11
                  11
                  11
                  11
                  11
                  11
                  11
                  11
                  11
                  12
                  12
                  12
                  12
                  12
                  12
                  12
                  12
                  12
                  12
                  11
                  11
                  11
                  11
                  11
                  11
                  11
                  11
                  11
                  11
                  11
                  11
                  11
                  11
                  11
                  12
                  11
                  11
                  11
                  11
                  12
                  12
                  11
                  12
                  12
                  12
                  12
                  12
                  12
                  11
                  11
                  11
                  11
                  11
                  11
                  11
                  11
                  11
                  11
                  11
                  12
                  12
                  12
                  11
                  11
                  11
                  11
                  11
                  11
                  12
                  12
                  12
                  12
                  12
                  12
                  12
                  11
                  11
                  11
                  11
                  11
                  11
                  11
                  11
                  11
                  11
                  11
                  11
                  12
                  12
                  12
                  12
                  12
                  12
                  12
                  12
                  12
                  12
                  11
                  11
                  11
                  11
                  11
                  11
                  11
                  11
                  11
                  11
                  11
                  11
                  11
                  11
  
SCALARS                         Kspace  double 1
LOOKUP_TABLE default
                  11
                  11
                  11
                  11
                  11
                  11
                  11
                  11
                  11
                  11
                  11
                  11
                  11
                  11
                  11
                  11
                  11
                  11
                  11
                  11
                  11
                  11
                  11
                  11
                  11
                  11
                  11
                  11
                  11
                  11
                  11
                  11
                  11
                  11
                  11
                  11
                  11
                  11
                  11
                  11
                  11
                  11
                  11
                  11
                  11
                  11
                  11
                  11
                  11
                  11
                  11
                  11
                  11
                  11
                  11
                  11
                  11
                  11
                  11
                  11
                  11
                  11
                  11
                  11
                  11
                  11
                  11
                  11
                  11
                  11
                  11
                  11
                  11
                  11
                  11
                  11
                  11
                  11
                  11
                  11
                  11
                  11
                  11
                  11
                  11
                  11
                  11
                  11
                  11
                  11
                  11
                  11
                  11
                  11
                  11
                  11
                  11
                  11
                  11
                  11
                  11
                  11
                  11
                  11
                  11
                  11
                  11
                  11
                  11
                  11
                  11
                  11
                  11
                  11
                  11
                  11
                  11
                  11
                  11
                  11
                  11
                  11
                  11
                  11
                  11
                  11
                  11
                  11
                  11
                  11
                  11
                  11
                  11
                  11
                  11
                  11
                  11
                  11
                  11
                  11
                  11
                  11
                  11
                  11
                  11
                  11
                  11
                  11
                  11
                  11
                  11
                  11
                  11
                  11
                  11
                  11
                  11
                  11
                  11
                  11
                  11
                  11
                  11
                  11
                  11
                  11
                  11
                  11
                  11
                  11
                  11
                  11
                  11
                  11
                  11
                  11
                  11
                  11
                  11
                  11
                  11
                  11
                  11
                  11
                  11
                  11
                  11
                  11
                  11
                  11
                  11
                  11
                  11
                  11
                  11
                  11
                  11
                  11
                  11
                  11
                  11
                  11
                  11
                  11
                  11
                  11
                  11
                  11
                  11
                  11
                  11
                  11
                  11
                  11
                  11
                  11
                  11
                  11
                  11
                  11
                  11
                  11
                  11
                  11
                  11
                  11
                  11
                  11
                  11
                  11
                  11
                  11
                  11
                  11
                  11
                  11
                  11
                  11
                  11
                  11
                  11
                  11
                  11
                  11
                  11
                  11
                  11
                  11
                  11
                  11
                  11
                  11
                  11
                  11
                  11
                  11
                  11
                  11
                  11
                  11
                  11
                  11
                  11
                  11
                  11
                  11
                  11
                  11
                  11
                  11
                  11
                  11
                  11
                  11
                  11
                  11
                  11
                  11
                  11
                  11
                  11
                  11
                  11
                  11
                  11
                  11
                  11
                  11
                  11
                  11
                  11
                  11
                  11
                  11
                  11
                  11
                  11
                  11
                  11
                  11
                  11
                  11
                  11
                  11
                  11
                  11
                  11
                  11
                  11
                  11
                  11
                  11
                  12
                  12
                  12
                  12
                  12
                  12
                  12
                  12
                  12
                  12
                  12
                  12
                  12
                  12
                  12
                  12
                  12
                  12
                  12
                  12
                  12
                  12
                  12
                  12
                  12
                  12
                  12
                  12
                  12
                  12
                  12
                  12
                  12
                  12
                  12
                  12
                  12
                  12
                  12
                  12
                  12
                  12
                  12
                  12
                  12
                  12
                  12
                  12
                  12
                  12
                  12
                  12
                  12
                  12
                  12
                  12
                  12
                  12
                  12
                  12
                  12
                  12
                  12
                  12
                  12
                  12
                  12
                  12
                  12
                  12
                  12
                  12
                  12
                  12
                  12
                  12
                  12
                  12
                  12
                  12
                  12
                  12
                  12
                  12
                  12
                  12
                  12
                  12
                  12
                  12
                  12
                  12
                  12
                  12
                  12
                  12
                  12
                  12
                  12
                  12
                  12
                  12
                  12
                  12
                  12
                  12
                  12
                  12
                  12
                  12
                  12
                  12
                  12
                  12
                  12
                  12
                  12
                  12
                  12
                  12
                  12
                  12
                  12
                  12
                  12
                  12
                  12
                  12
                  12
                  12
                  12
                  12
                  12
                  12
                  12
                  12
                  12
                  12
                  12
                  12
                  12
                  12
                  12
                  12
                  12
                  12
                  12
                  12
                  12
                  12
                  12
                  12
                  12
                  12
                  12
                  12
                  12
                  12
                  12
                  12
                  12
                  12
                  12
                  12
                  12
                  12
                  12
                  12
                  12
                  12
                  12
                  12
                  12
                  12
                  12
                  12
                  12
                  12
                  12
                  12
                  12
                  12
                  12
                  12
                  12
                  12
                  12
                  12
                  12
                  12
                  12
                  12
                  12
                  12
                  12
                  12
                  12
                  12
                  12
                  12
                  12
                  12
                  12
                  12
                  12
                  12
                  12
                  12
                  12
                  12
                  12
                  12
                  12
                  12
                  12
                  12
                  12
                  12
                  12
                  12
                  12
                  12
                  12
                  12
                  12
                  12
                  12
                  12
                  12
                  12
                  12
                  12
                  12
                  12
                  13
                  13
                  13
                  13
                  13
                  13
                  13
                  13
                  13
                  13
                  13
                  13
                  13
                  13
                  13
                  13
                  13
                  13
                  13
                  13
                  13
                  13
                  13
                  13
                  13
                  13
                  13
                  13
                  13
                  13
                  13
                  13
                  13
                  13
                  13
                  13
                  13
                  13
                  13
                  13
                  13
                  13
                  13
                  13
                  13
                  13
                  13
                  13
                  13
                  13
                  13
                  13
                  13
                  13
                  13
                  13
                  13
                  13
                  13
                  13
                  13
                  13
                  13
                  13
                  13
                  13
                  13
                  13
                  13
                  13
                  13
                  13
                  13
                  13
                  13
                  13
                  13
                  13
                  13
                  13
                  13
                  13
                  13
                  13
                  13
                  13
                  13
                  13
                  13
                  13
                  13
                  13
                  13
                  13
                  13
                  13
                  13
                  13
                  13
                  13
                  13
                  13
                  13
                  13
                  13
                  13
                  13
                  13
                  13
                  13
                  13
                  13
                  13
                  13
                  13
                  13
                  13
                  13
                  13
                  13
                  13
                  13
                  13
                  13
                  13
                  13
                  13
                  13
                  13
                  13
                  13
                  13
                  13
                  13
                  13
                  13
                  13
                  13
                  13
                  13
                  13
                  13
                  13
                  13
                  13
                  13
                  13
                  13
                  13
                  13
                  13
                  13
                  13
                  13
                  13
                  13
                  13
                  13
                  13
                  13
                  13
                  13
                  13
                  13
                  13
                  13
                  13
                  13
                  13
                  13
                  13
                  13
                  13
                  13
                  13
                  13
                  13
                  13
                  13
                  13
                  13
                  13
                  13
                  13
                  13
                  13
                  13
                  13
                  13
                  13
                  13
                  13
                  13
                  13
                  13
                  13
                  13
                  13
                  13
                  13
                  13
                  13
                  13
                  13
                  13
                  13
                  13
                  13
                  13
                  13
                  13
                  13
                  13
                  13
                  13
                  13
                  13
                  13
                  13
                  13
                  13
                  13
                  13
                  13
                  13
                  13
                  13
                  13
                  13
                  13
                  13
                  13
                  13
                  13
                  14
                  14
                  14
                  14
                  14
                  14
                  14
                  14
                  14
                  14
                  14
                  14
                  14
                  14
                  14
                  14
                  14
                  14
                  14
                  14
                  14
                  14
                  14
                  14
                  14
                  14
                  14
                  14
                  14
                  14
                  14
                  14
                  14
                  14
                  14
                  14
                  14
                  14
                  14
                  14
                  14
                  14
                  14
                  14
                  14
                  14
                  14
                  14
                  14
                  14
                  14
                  14
                  14
                  14
                  14
                  14
                  14
                  14
                  14
                  14
                  14
                  14
                  14
                  14
                  14
                  14
                  14
                  14
                  14
                  14
                  14
                  14
                  14
                  14
                  14
                  14
                  14
                  14
                  14
                  14
                  14
                  14
                  14
                  14
                  14
                  14
                  14
                  14
                  14
                  14
                  14
                  14
                  14
                  14
                  14
                  14
                  14
                  14
                  14
                  14
                  14
                  14
                  14
                  14
                  14
                  14
                  14
                  14
                  14
                  14
                  14
                  14
                  14
                  14
                  14
                  14
                  14
                  14
                  14
                  14
                  14
                  14
                  14
                  14
                  14
                  14
                  14
                  14
                  14
                  14
                  14
                  14
                  14
                  14
                  14
                  14
                  14
                  14
                  14
                  14
                  14
                  14
                  14
                  14
                  14
                  14
                  14
                  14
                  14
                  14
                  14
                  14
                  14
                  14
                  14
                  14
                  14
                  14
                  14
                  14
                  14
                  14
                  14
                  14
                  14
                  14
                  14
                  14
                  14
                  14
                  14
                  14
                  14
                  14
                  14
                  14
                  14
                  14
                  14
                  14
                  14
                  14
                  14
                  14
                  14
                  14
                  14
                  14
                  14
                  14
                  14
                  14
                  14
                  14
                  14
                  14
                  14
                  14
                  14
                  14
                  14
                  14
                  14
                  14
                  14
                  14
                  14
                  14
                  14
                  14
                  14
                  14
                  14
                  14
                  14
                  14
                  14
                  14
                  14
                  14
                  14
                  14
                  14
                  14
                  14
                  14
                  14
                  14
                  14
                  14
                  14
                  14
                  14
                  14
                  15
                  15
                  15
                  15
                  15
                  15
                  15
                  15
                  15
                  15
                  15
                  15
                  15
                  15
                  15
                  15
                  15
                  15
                  15
                  15
                  15
                  15
                  15
                  15
                  15
                  15
                  15
                  15
                  15
                  15
                  15
                  15
                  15
                  15
                  15
                  15
                  15
                  15
                  15
                  15
                  15
                  15
                  15
                  15
                  15
                  15
                  15
                  15
                  15
                  15
                  15
                  15
                  15
                  15
                  15
                  15
                  15
                  15
                  15
                  15
                  15
                  15
                  15
                  15
                  15
                  15
                  15
                  15
                  15
                  15
                  15
                  15
                  15
                  15
                  15
                  15
                  15
                  15
                  15
                  15
                  15
                  15
                  15
                  15
                  15
                  15
                  15
                  15
                  15
                  15
                  15
                  15
                  15
                  15
                  15
                  15
                  15
                  15
                  15
                  15
                  15
                  15
                  15
                  15
                  15
                  15
                  15
                  15
                  15
                  15
                  15
                  15
                  15
                  15
                  15
                  15
                  15
                  15
                  15
                  15
                  15
                  15
                  15
                  15
                  15
                  15
                  15
                  15
                  15
                  15
                  15
                  15
                  15
                  15
                  15
                  15
                  15
                  15
                  15
                  15
                  15
                  15
                  15
                  15
                  15
                  15
                  15
                  15
                  15
                  15
                  15
                  15
                  15
                  15
                  15
                  15
                  15
                  15
                  15
                  15
                  15
                  15
                  15
                  15
                  15
                  15
                  15
                  15
                  15
                  15
                  15
                  15
                  15
                  15
                  15
                  15
                  15
                  15
                  15
                  15
                  15
                  15
                  15
                  15
                  15
                  15
                  15
                  15
                  15
                  15
                  15
                  15
                  15
                  15
                  15
                  15
                  15
                  15
                  15
                  15
                  15
                  15
                  15
                  15
                  15
                  15
                  15
                  15
                  15
                  15
                  15
                  15
                  15
                  15
                  15
                  15
                  15
                  15
                  15
                  15
                  15
                  15
                  15
                  15
                  15
                  15
                  15
                  15
                  15
                  15
                  15
                  15
                  15
                  15
                  15
                  15
                  15
                  15
                  15
                  15
                  15
                  15
                  15
                  15
                  15
                  15
                  15
                  15
                  15
                  15
                  15
                  15
                  15
                  15
                  15
                  15
                  15
                  15
                  15
                  15
                  15
                  15
                  15
                  15
                  15
                  15
                  15
                  15
                  15
                  15
                  15
                  15
                  15
                  15
                  15
                  15
                  15
                  15
                  15
                  15
                  15
                  15
                  15
                  15
                  15
                  15
                  15
                  15
                  15
                  15
                  15
                  15
                  15
                  15
                  15
                  15
                  15
                  15
                  15
                  15
                  15
                  15
                  15
                  15
                  15
                  15
                  15
                  15
                  15
                  15
                  15
                  15
                  16
                  16
                  16
                  16
                  16
                  16
                  16
                  16
                  16
                  16
                  16
                  16
                  16
                  16
                  16
                  16
                  16
                  16
                  16
                  16
                  16
                  16
                  16
                  16
                  16
                  16
                  16
                  16
                  16
                  16
                  16
                  16
                  16
                  16
                  16
                  16
                  16
                  16
                  16
                  16
                  16
                  16
                  16
                  16
                  16
                  16
                  16
                  16
                  16
                  16
                  16
                  16
                  16
                  16
                  16
                  16
                  16
                  16
                  16
                  16
                  16
                  16
                  16
                  16
                  16
                  16
                  16
                  16
                  16
                  16
                  16
                  16
                  16
                  16
                  16
                  16
                  16
                  16
                  16
                  16
                  16
                  16
                  16
                  16
                  16
                  16
                  16
                  16
                  16
                  16
                  16
                  16
                  16
                  16
                  16
                  16
                  16
                  16
                  16
                  16
                  16
                  16
                  16
                  16
                  16
                  16
                  16
                  16
                  16
                  16
                  16
                  16
                  16
                  16
                  16
                  16
                  16
                  16
                  16
                  16
                  16
                  16
                  16
                  16
                  16
                  16
                  16
                  16
                  16
                  16
                  16
                  16
                  16
                  16
                  16
                  16
                  16
                  16
                  16
                  16
                  16
                  16
                  16
                  16
                  16
                  16
                  16
                  16
                  16
                  16
                  16
                  16
                  16
                  16
                  16
                  16
                  16
                  16
                  16
                  16
                  16
                  16
                  16
                  16
                  16
                  16
                  16
                  16
                  16
                  16
                  16
                  16
                  16
                  16
                  16
                  16
                  16
                  16
                  16
                  16
                  16
                  16
                  16
                  16
                  16
                  16
                  16
                  16
                  16
                  16
                  16
                  16
                  16
                  16
                  16
                  16
                  16
                  16
                  16
                  16
                  16
                  16
                  16
                  16
                  16
                  16
                  16
                  16
                  16
                  16
                  16
                  16
                  16
                  16
                  16
                  16
                  16
                  16
                  16
                  16
                  16
                  16
                  16
                  16
                  16
                  16
                  16
                  16
                  16
                  16
                  16
                  16
                  16
                  16
                  17
                  17
                  17
                  17
                  17
                  17
                  17
                  17
                  17
                  17
                  17
                  17
                  17
                  17
                  17
                  17
                  17
                  17
                  17
                  17
                  17
                  17
                  17
                  17
                  17
                  17
                  17
                  17
                  17
                  17
                  17
                  17
                  17
                  17
                  17
                  17
                  17
                  17
                  17
                  17
                  17
                  17
                  17
                  17
                  17
                  17
                  17
                  17
                  17
                  17
                  17
                  17
                  17
                  17
                  17
                  17
                  17
                  17
                  17
                  17
                  17
                  17
                  17
                  17
                  17
                  17
                  17
                  17
                  17
                  17
                  17
                  17
                  17
                  17
                  17
                  17
                  17
                  17
                  17
                  17
                  17
                  17
                  17
                  17
                  17
                  17
                  17
                  17
                  17
                  17
                  17
                  17
                  17
                  17
                  17
                  17
                  17
                  17
                  17
                  17
                  17
                  17
                  17
                  17
                  17
                  17
                  17
                  17
                  17
                  17
                  17
                  17
                  17
                  17
                  17
                  17
                  17
                  17
                  17
                  17
                  17
                  17
                  17
                  17
                  17
                  17
                  17
                  17
                  17
                  17
                  17
                  17
                  17
                  17
                  17
                  17
                  17
                  17
                  17
                  17
                  17
                  17
                  17
                  17
                  17
                  17
                  17
                  17
                  17
                  17
                  17
                  17
                  17
                  17
                  17
                  17
                  17
                  17
                  17
                  17
                  17
                  17
                  17
                  17
                  17
                  17
                  17
                  17
                  17
                  17
                  17
                  17
                  17
                  17
                  17
                  17
                  17
                  17
                  17
                  17
                  17
                  17
                  17
                  17
                  17
                  17
                  17
                  17
                  17
                  17
                  17
                  17
                  17
                  17
                  17
                  17
                  17
                  17
                  17
                  17
                  17
                  17
                  17
                  17
                  17
                  17
                  17
                  17
                  17
                  17
                  17
                  17
                  17
                  17
                  17
                  17
                  17
                  17
                  17
                  17
                  17
                  17
                  17
                  17
                  17
                  17
                  17
                  17
                  17
                  17
                  17
                  17
                  17
                  17
                  18
                  18
                  18
                  18
                  18
                  18
                  18
                  18
                  18
                  18
                  18
                  18
                  18
                  18
                  18
                  18
                  18
                  18
                  18
                  18
                  18
                  18
                  18
                  18
                  18
                  18
                  18
                  18
                  18
                  18
                  18
                  18
                  18
                  18
                  18
                  18
                  18
                  18
                  18
                  18
                  18
                  18
                  18
                  18
                  18
                  18
                  18
                  18
                  18
                  18
                  18
                  18
                  18
                  18
                  18
                  18
                  18
                  18
                  18
                  18
                  18
                  18
                  18
                  18
                  18
                  18
                  18
                  18
                  18
                  18
                  18
                  18
                  18
                  18
                  18
                  18
                  18
                  18
                  18
                  18
                  18
                  18
                  18
                  18
                  18
                  18
                  18
                  18
                  18
                  18
                  18
                  18
                  18
                  18
                  18
                  18
                  18
                  18
                  18
                  18
                  18
                  18
                  18
                  18
                  18
                  18
                  18
                  18
                  18
                  18
                  18
                  18
                  18
                  18
                  18
                  18
                  18
                  18
                  18
                  18
                  18
                  18
                  18
                  18
                  18
                  18
                  18
                  18
                  18
                  18
                  18
                  18
                  18
                  18
                  18
                  18
                  18
                  18
                  18
                  18
                  18
                  18
                  18
                  18
                  18
                  18
                  18
                  18
                  18
                  18
                  18
                  18
                  18
                  18
                  18
                  18
  
SCALARS                 displacement_x  double 1
LOOKUP_TABLE default
         0.00000E+00
         0.00000E+00
         0.00000E+00
         0.00000E+00
         0.00000E+00
         0.00000E+00
         0.00000E+00
         0.00000E+00
         0.00000E+00
         0.00000E+00
         0.00000E+00
         0.00000E+00
         0.00000E+00
         0.00000E+00
         0.00000E+00
         0.00000E+00
         0.00000E+00
         0.00000E+00
         0.00000E+00
         0.00000E+00
         0.00000E+00
         0.00000E+00
         0.00000E+00
         0.00000E+00
         0.00000E+00
         0.00000E+00
         0.00000E+00
         0.00000E+00
         0.00000E+00
         0.00000E+00
         0.00000E+00
         0.00000E+00
         0.00000E+00
         0.00000E+00
         0.00000E+00
         0.00000E+00
         0.00000E+00
         0.00000E+00
         0.00000E+00
         0.00000E+00
         0.00000E+00
         0.00000E+00
         0.00000E+00
         0.00000E+00
         0.00000E+00
         0.00000E+00
         0.00000E+00
         0.00000E+00
         0.00000E+00
         0.00000E+00
         0.00000E+00
         0.00000E+00
         0.00000E+00
         0.00000E+00
         0.00000E+00
         0.00000E+00
         0.00000E+00
         0.00000E+00
         0.00000E+00
         0.00000E+00
         0.00000E+00
         0.00000E+00
         0.00000E+00
         0.00000E+00
         0.00000E+00
         0.00000E+00
         0.00000E+00
         0.00000E+00
         0.00000E+00
         0.00000E+00
         0.00000E+00
         0.00000E+00
         0.00000E+00
         0.00000E+00
         0.00000E+00
         0.00000E+00
         0.00000E+00
         0.00000E+00
         0.00000E+00
         0.00000E+00
         0.00000E+00
         0.00000E+00
         0.00000E+00
         0.00000E+00
         0.00000E+00
         0.00000E+00
         0.00000E+00
         0.00000E+00
         0.00000E+00
         0.00000E+00
         0.00000E+00
         0.00000E+00
         0.00000E+00
         0.00000E+00
         0.00000E+00
         0.00000E+00
         0.00000E+00
         0.00000E+00
         0.00000E+00
         0.00000E+00
         0.00000E+00
         0.00000E+00
         0.00000E+00
         0.00000E+00
         0.00000E+00
         0.00000E+00
         0.00000E+00
         0.00000E+00
         0.00000E+00
         0.00000E+00
         0.00000E+00
         0.00000E+00
         0.00000E+00
         0.00000E+00
         0.00000E+00
         0.00000E+00
         0.00000E+00
         0.00000E+00
         0.00000E+00
         0.00000E+00
         0.00000E+00
         0.00000E+00
         0.00000E+00
         0.00000E+00
         0.00000E+00
         0.00000E+00
         0.00000E+00
         0.00000E+00
         0.00000E+00
         0.00000E+00
         0.00000E+00
         0.00000E+00
         0.00000E+00
         0.00000E+00
         0.00000E+00
         0.00000E+00
         0.00000E+00
         0.00000E+00
         0.00000E+00
         0.00000E+00
         0.00000E+00
         0.00000E+00
         0.00000E+00
         0.00000E+00
         0.00000E+00
         0.00000E+00
         0.00000E+00
         0.00000E+00
         0.00000E+00
         0.00000E+00
         0.00000E+00
         0.00000E+00
         0.00000E+00
         0.00000E+00
         0.00000E+00
         0.00000E+00
         0.00000E+00
         0.00000E+00
         0.00000E+00
         0.00000E+00
         0.00000E+00
         0.00000E+00
         0.00000E+00
         0.00000E+00
         0.00000E+00
         0.00000E+00
         0.00000E+00
         0.00000E+00
         0.00000E+00
         0.00000E+00
         0.00000E+00
         0.00000E+00
         0.00000E+00
         0.00000E+00
         0.00000E+00
         0.00000E+00
         0.00000E+00
         0.00000E+00
         0.00000E+00
         0.00000E+00
         0.00000E+00
         0.00000E+00
         0.00000E+00
         0.00000E+00
         0.00000E+00
         0.00000E+00
         0.00000E+00
         0.00000E+00
         0.00000E+00
         0.00000E+00
         0.00000E+00
         0.00000E+00
         0.00000E+00
         0.00000E+00
         0.00000E+00
         0.00000E+00
         0.00000E+00
         0.00000E+00
         0.00000E+00
         0.00000E+00
         0.00000E+00
         0.00000E+00
         0.00000E+00
         0.00000E+00
         0.00000E+00
         0.00000E+00
         0.00000E+00
         0.00000E+00
         0.00000E+00
         0.00000E+00
         0.00000E+00
         0.00000E+00
         0.00000E+00
         0.00000E+00
         0.00000E+00
         0.00000E+00
         0.00000E+00
         0.00000E+00
         0.00000E+00
         0.00000E+00
         0.00000E+00
         0.00000E+00
         0.00000E+00
         0.00000E+00
         0.00000E+00
         0.00000E+00
         0.00000E+00
         0.00000E+00
         0.00000E+00
         0.00000E+00
         0.00000E+00
         0.00000E+00
         0.00000E+00
         0.00000E+00
         0.00000E+00
         0.00000E+00
         0.00000E+00
         0.00000E+00
         0.00000E+00
         0.00000E+00
         0.00000E+00
         0.00000E+00
         0.00000E+00
         0.00000E+00
         0.00000E+00
         0.00000E+00
         0.00000E+00
         0.00000E+00
         0.00000E+00
         0.00000E+00
         0.00000E+00
         0.00000E+00
         0.00000E+00
         0.00000E+00
         0.00000E+00
         0.00000E+00
         0.00000E+00
         0.00000E+00
         0.00000E+00
         0.00000E+00
         0.00000E+00
         0.00000E+00
         0.00000E+00
         0.00000E+00
         0.00000E+00
         0.00000E+00
         0.00000E+00
         0.00000E+00
         0.00000E+00
         0.00000E+00
         0.00000E+00
         0.00000E+00
         0.00000E+00
         0.00000E+00
         0.00000E+00
         0.00000E+00
         0.00000E+00
         0.00000E+00
         0.00000E+00
         0.00000E+00
         0.00000E+00
         0.00000E+00
         0.00000E+00
         0.00000E+00
         0.00000E+00
         0.00000E+00
         0.00000E+00
         0.00000E+00
         0.00000E+00
         0.00000E+00
         0.00000E+00
         0.00000E+00
         0.00000E+00
         0.00000E+00
         0.00000E+00
         0.00000E+00
         0.00000E+00
         0.00000E+00
         0.00000E+00
         0.00000E+00
         0.00000E+00
         0.00000E+00
         0.00000E+00
         0.00000E+00
         0.00000E+00
         0.00000E+00
         0.00000E+00
         0.00000E+00
         0.00000E+00
         0.00000E+00
         0.00000E+00
         0.00000E+00
         0.00000E+00
         0.00000E+00
         0.00000E+00
         0.00000E+00
         0.00000E+00
         0.00000E+00
         0.00000E+00
         0.00000E+00
         0.00000E+00
         0.00000E+00
         0.00000E+00
         0.00000E+00
         0.00000E+00
         0.00000E+00
         0.00000E+00
         0.00000E+00
         0.00000E+00
         0.00000E+00
         0.00000E+00
         0.00000E+00
         0.00000E+00
         0.00000E+00
         0.00000E+00
         0.00000E+00
         0.00000E+00
         0.00000E+00
         0.00000E+00
         0.00000E+00
         0.00000E+00
         0.00000E+00
         0.00000E+00
         0.00000E+00
         0.00000E+00
         0.00000E+00
         0.00000E+00
         0.00000E+00
         0.00000E+00
         0.00000E+00
         0.00000E+00
         0.00000E+00
         0.00000E+00
         0.00000E+00
         0.00000E+00
         0.00000E+00
         0.00000E+00
         0.00000E+00
         0.00000E+00
         0.00000E+00
         0.00000E+00
         0.00000E+00
         0.00000E+00
         0.00000E+00
         0.00000E+00
         0.00000E+00
         0.00000E+00
         0.00000E+00
         0.00000E+00
         0.00000E+00
         0.00000E+00
         0.00000E+00
         0.00000E+00
         0.00000E+00
         0.00000E+00
         0.00000E+00
         0.00000E+00
         0.00000E+00
         0.00000E+00
         0.00000E+00
         0.00000E+00
         0.00000E+00
         0.00000E+00
         0.00000E+00
         0.00000E+00
         0.00000E+00
         0.00000E+00
         0.00000E+00
         0.00000E+00
         0.00000E+00
         0.00000E+00
         0.00000E+00
         0.00000E+00
         0.00000E+00
         0.00000E+00
         0.00000E+00
         0.00000E+00
         0.00000E+00
         0.00000E+00
         0.00000E+00
         0.00000E+00
         0.00000E+00
         0.00000E+00
         0.00000E+00
         0.00000E+00
         0.00000E+00
         0.00000E+00
         0.00000E+00
         0.00000E+00
         0.00000E+00
         0.00000E+00
         0.00000E+00
         0.00000E+00
         0.00000E+00
         0.00000E+00
         0.00000E+00
         0.00000E+00
         0.00000E+00
         0.00000E+00
         0.00000E+00
         0.00000E+00
         0.00000E+00
         0.00000E+00
         0.00000E+00
         0.00000E+00
         0.00000E+00
         0.00000E+00
         0.00000E+00
         0.00000E+00
         0.00000E+00
         0.00000E+00
         0.00000E+00
         0.00000E+00
         0.00000E+00
         0.00000E+00
         0.00000E+00
         0.00000E+00
         0.00000E+00
         0.00000E+00
         0.00000E+00
         0.00000E+00
         0.00000E+00
         0.00000E+00
         0.00000E+00
         0.00000E+00
         0.00000E+00
         0.00000E+00
         0.00000E+00
         0.00000E+00
         0.00000E+00
         0.00000E+00
         0.00000E+00
         0.00000E+00
         0.00000E+00
         0.00000E+00
         0.00000E+00
         0.00000E+00
         0.00000E+00
         0.00000E+00
         0.00000E+00
         0.00000E+00
         0.00000E+00
         0.00000E+00
         0.00000E+00
         0.00000E+00
         0.00000E+00
         0.00000E+00
         0.00000E+00
         0.00000E+00
         0.00000E+00
         0.00000E+00
         0.00000E+00
         0.00000E+00
         0.00000E+00
         0.00000E+00
         0.00000E+00
         0.00000E+00
         0.00000E+00
         0.00000E+00
         0.00000E+00
         0.00000E+00
         0.00000E+00
         0.00000E+00
         0.00000E+00
         0.00000E+00
         0.00000E+00
         0.00000E+00
         0.00000E+00
         0.00000E+00
         0.00000E+00
         0.00000E+00
         0.00000E+00
         0.00000E+00
         0.00000E+00
         0.00000E+00
         0.00000E+00
         0.00000E+00
         0.00000E+00
         0.00000E+00
         0.00000E+00
         0.00000E+00
         0.00000E+00
         0.00000E+00
         0.00000E+00
         0.00000E+00
         0.00000E+00
         0.00000E+00
         0.00000E+00
         0.00000E+00
         0.00000E+00
         0.00000E+00
         0.00000E+00
         0.00000E+00
         0.00000E+00
         0.00000E+00
         0.00000E+00
         0.00000E+00
         0.00000E+00
         0.00000E+00
         0.00000E+00
         0.00000E+00
         0.00000E+00
         0.00000E+00
         0.00000E+00
         0.00000E+00
         0.00000E+00
         0.00000E+00
         0.00000E+00
         0.00000E+00
         0.00000E+00
         0.00000E+00
         0.00000E+00
         0.00000E+00
         0.00000E+00
         0.00000E+00
         0.00000E+00
         0.00000E+00
         0.00000E+00
         0.00000E+00
         0.00000E+00
         0.00000E+00
         0.00000E+00
         0.00000E+00
         0.00000E+00
         0.00000E+00
         0.00000E+00
         0.00000E+00
         0.00000E+00
         0.00000E+00
         0.00000E+00
         0.00000E+00
         0.00000E+00
         0.00000E+00
         0.00000E+00
         0.00000E+00
         0.00000E+00
         0.00000E+00
         0.00000E+00
         0.00000E+00
         0.00000E+00
         0.00000E+00
         0.00000E+00
         0.00000E+00
         0.00000E+00
         0.00000E+00
         0.00000E+00
         0.00000E+00
         0.00000E+00
         0.00000E+00
         0.00000E+00
         0.00000E+00
         0.00000E+00
         0.00000E+00
         0.00000E+00
         0.00000E+00
         0.00000E+00
         0.00000E+00
         0.00000E+00
         0.00000E+00
         0.00000E+00
         0.00000E+00
         0.00000E+00
         0.00000E+00
         0.00000E+00
         0.00000E+00
         0.00000E+00
         0.00000E+00
         0.00000E+00
         0.00000E+00
         0.00000E+00
         0.00000E+00
         0.00000E+00
         0.00000E+00
         0.00000E+00
         0.00000E+00
         0.00000E+00
         0.00000E+00
         0.00000E+00
         0.00000E+00
         0.00000E+00
         0.00000E+00
         0.00000E+00
         0.00000E+00
         0.00000E+00
         0.00000E+00
         0.00000E+00
         0.00000E+00
         0.00000E+00
         0.00000E+00
         0.00000E+00
         0.00000E+00
         0.00000E+00
         0.00000E+00
         0.00000E+00
         0.00000E+00
         0.00000E+00
         0.00000E+00
         0.00000E+00
         0.00000E+00
         0.00000E+00
         0.00000E+00
         0.00000E+00
         0.00000E+00
         0.00000E+00
         0.00000E+00
         0.00000E+00
         0.00000E+00
         0.00000E+00
         0.00000E+00
         0.00000E+00
         0.00000E+00
         0.00000E+00
         0.00000E+00
         0.00000E+00
         0.00000E+00
         0.00000E+00
         0.00000E+00
         0.00000E+00
         0.00000E+00
         0.00000E+00
         0.00000E+00
         0.00000E+00
         0.00000E+00
         0.00000E+00
         0.00000E+00
         0.00000E+00
         0.00000E+00
         0.00000E+00
         0.00000E+00
         0.00000E+00
         0.00000E+00
         0.00000E+00
         0.00000E+00
         0.00000E+00
         0.00000E+00
         0.00000E+00
         0.00000E+00
         0.00000E+00
         0.00000E+00
         0.00000E+00
         0.00000E+00
         0.00000E+00
         0.00000E+00
         0.00000E+00
         0.00000E+00
         0.00000E+00
         0.00000E+00
         0.00000E+00
         0.00000E+00
         0.00000E+00
         0.00000E+00
         0.00000E+00
         0.00000E+00
         0.00000E+00
         0.00000E+00
         0.00000E+00
         0.00000E+00
         0.00000E+00
         0.00000E+00
         0.00000E+00
         0.00000E+00
         0.00000E+00
         0.00000E+00
         0.00000E+00
         0.00000E+00
         0.00000E+00
         0.00000E+00
         0.00000E+00
         0.00000E+00
         0.00000E+00
         0.00000E+00
         0.00000E+00
         0.00000E+00
         0.00000E+00
         0.00000E+00
         0.00000E+00
         0.00000E+00
         0.00000E+00
         0.00000E+00
         0.00000E+00
         0.00000E+00
         0.00000E+00
         0.00000E+00
         0.00000E+00
         0.00000E+00
         0.00000E+00
         0.00000E+00
         0.00000E+00
         0.00000E+00
         0.00000E+00
         0.00000E+00
         0.00000E+00
         0.00000E+00
         0.00000E+00
         0.00000E+00
         0.00000E+00
         0.00000E+00
         0.00000E+00
         0.00000E+00
         0.00000E+00
         0.00000E+00
         0.00000E+00
         0.00000E+00
         0.00000E+00
         0.00000E+00
         0.00000E+00
         0.00000E+00
         0.00000E+00
         0.00000E+00
         0.00000E+00
         0.00000E+00
         0.00000E+00
         0.00000E+00
         0.00000E+00
         0.00000E+00
         0.00000E+00
         0.00000E+00
         0.00000E+00
         0.00000E+00
         0.00000E+00
         0.00000E+00
         0.00000E+00
         0.00000E+00
         0.00000E+00
         0.00000E+00
         0.00000E+00
         0.00000E+00
         0.00000E+00
         0.00000E+00
         0.00000E+00
         0.00000E+00
         0.00000E+00
         0.00000E+00
         0.00000E+00
         0.00000E+00
         0.00000E+00
         0.00000E+00
         0.00000E+00
         0.00000E+00
         0.00000E+00
         0.00000E+00
         0.00000E+00
         0.00000E+00
         0.00000E+00
         0.00000E+00
         0.00000E+00
         0.00000E+00
         0.00000E+00
         0.00000E+00
         0.00000E+00
         0.00000E+00
         0.00000E+00
         0.00000E+00
         0.00000E+00
         0.00000E+00
         0.00000E+00
         0.00000E+00
         0.00000E+00
         0.00000E+00
         0.00000E+00
         0.00000E+00
         0.00000E+00
         0.00000E+00
         0.00000E+00
         0.00000E+00
         0.00000E+00
         0.00000E+00
         0.00000E+00
         0.00000E+00
         0.00000E+00
         0.00000E+00
         0.00000E+00
         0.00000E+00
         0.00000E+00
         0.00000E+00
         0.00000E+00
         0.00000E+00
         0.00000E+00
         0.00000E+00
         0.00000E+00
         0.00000E+00
         0.00000E+00
         0.00000E+00
         0.00000E+00
         0.00000E+00
         0.00000E+00
         0.00000E+00
         0.00000E+00
         0.00000E+00
         0.00000E+00
         0.00000E+00
         0.00000E+00
         0.00000E+00
         0.00000E+00
         0.00000E+00
         0.00000E+00
         0.00000E+00
         0.00000E+00
         0.00000E+00
         0.00000E+00
         0.00000E+00
         0.00000E+00
         0.00000E+00
         0.00000E+00
         0.00000E+00
         0.00000E+00
         0.00000E+00
         0.00000E+00
         0.00000E+00
         0.00000E+00
         0.00000E+00
         0.00000E+00
         0.00000E+00
         0.00000E+00
         0.00000E+00
         0.00000E+00
         0.00000E+00
         0.00000E+00
         0.00000E+00
         0.00000E+00
         0.00000E+00
         0.00000E+00
         0.00000E+00
         0.00000E+00
         0.00000E+00
         0.00000E+00
         0.00000E+00
         0.00000E+00
         0.00000E+00
         0.00000E+00
         0.00000E+00
         0.00000E+00
         0.00000E+00
         0.00000E+00
         0.00000E+00
         0.00000E+00
         0.00000E+00
         0.00000E+00
         0.00000E+00
         0.00000E+00
         0.00000E+00
         0.00000E+00
         0.00000E+00
         0.00000E+00
         0.00000E+00
         0.00000E+00
         0.00000E+00
         0.00000E+00
         0.00000E+00
         0.00000E+00
         0.00000E+00
         0.00000E+00
         0.00000E+00
         0.00000E+00
         0.00000E+00
         0.00000E+00
         0.00000E+00
         0.00000E+00
         0.00000E+00
         0.00000E+00
         0.00000E+00
         0.00000E+00
         0.00000E+00
         0.00000E+00
         0.00000E+00
         0.00000E+00
         0.00000E+00
         0.00000E+00
         0.00000E+00
         0.00000E+00
         0.00000E+00
         0.00000E+00
         0.00000E+00
         0.00000E+00
         0.00000E+00
         0.00000E+00
         0.00000E+00
         0.00000E+00
         0.00000E+00
         0.00000E+00
         0.00000E+00
         0.00000E+00
         0.00000E+00
         0.00000E+00
         0.00000E+00
         0.00000E+00
         0.00000E+00
         0.00000E+00
         0.00000E+00
         0.00000E+00
         0.00000E+00
         0.00000E+00
         0.00000E+00
         0.00000E+00
         0.00000E+00
         0.00000E+00
         0.00000E+00
         0.00000E+00
         0.00000E+00
         0.00000E+00
         0.00000E+00
         0.00000E+00
         0.00000E+00
         0.00000E+00
         0.00000E+00
         0.00000E+00
         0.00000E+00
         0.00000E+00
         0.00000E+00
         0.00000E+00
         0.00000E+00
         0.00000E+00
         0.00000E+00
         0.00000E+00
         0.00000E+00
         0.00000E+00
         0.00000E+00
         0.00000E+00
         0.00000E+00
         0.00000E+00
         0.00000E+00
         0.00000E+00
         0.00000E+00
         0.00000E+00
         0.00000E+00
         0.00000E+00
         0.00000E+00
         0.00000E+00
         0.00000E+00
         0.00000E+00
         0.00000E+00
         0.00000E+00
         0.00000E+00
         0.00000E+00
         0.00000E+00
         0.00000E+00
         0.00000E+00
         0.00000E+00
         0.00000E+00
         0.00000E+00
         0.00000E+00
         0.00000E+00
         0.00000E+00
         0.00000E+00
         0.00000E+00
         0.00000E+00
         0.00000E+00
         0.00000E+00
         0.00000E+00
         0.00000E+00
         0.00000E+00
         0.00000E+00
         0.00000E+00
         0.00000E+00
         0.00000E+00
         0.00000E+00
         0.00000E+00
         0.00000E+00
         0.00000E+00
         0.00000E+00
         0.00000E+00
         0.00000E+00
         0.00000E+00
         0.00000E+00
         0.00000E+00
         0.00000E+00
         0.00000E+00
         0.00000E+00
         0.00000E+00
         0.00000E+00
         0.00000E+00
         0.00000E+00
         0.00000E+00
         0.00000E+00
         0.00000E+00
         0.00000E+00
         0.00000E+00
         0.00000E+00
         0.00000E+00
         0.00000E+00
         0.00000E+00
         0.00000E+00
         0.00000E+00
         0.00000E+00
         0.00000E+00
         0.00000E+00
         0.00000E+00
         0.00000E+00
         0.00000E+00
         0.00000E+00
         0.00000E+00
         0.00000E+00
         0.00000E+00
         0.00000E+00
         0.00000E+00
         0.00000E+00
         0.00000E+00
         0.00000E+00
         0.00000E+00
         0.00000E+00
         0.00000E+00
         0.00000E+00
         0.00000E+00
         0.00000E+00
         0.00000E+00
         0.00000E+00
         0.00000E+00
         0.00000E+00
         0.00000E+00
         0.00000E+00
         0.00000E+00
         0.00000E+00
         0.00000E+00
         0.00000E+00
         0.00000E+00
         0.00000E+00
         0.00000E+00
         0.00000E+00
         0.00000E+00
         0.00000E+00
         0.00000E+00
         0.00000E+00
         0.00000E+00
         0.00000E+00
         0.00000E+00
         0.00000E+00
         0.00000E+00
         0.00000E+00
         0.00000E+00
         0.00000E+00
         0.00000E+00
         0.00000E+00
         0.00000E+00
         0.00000E+00
         0.00000E+00
         0.00000E+00
         0.00000E+00
         0.00000E+00
         0.00000E+00
         0.00000E+00
         0.00000E+00
         0.00000E+00
         0.00000E+00
         0.00000E+00
         0.00000E+00
         0.00000E+00
         0.00000E+00
         0.00000E+00
         0.00000E+00
         0.00000E+00
         0.00000E+00
         0.00000E+00
         0.00000E+00
         0.00000E+00
         0.00000E+00
         0.00000E+00
         0.00000E+00
         0.00000E+00
         0.00000E+00
         0.00000E+00
         0.00000E+00
         0.00000E+00
         0.00000E+00
         0.00000E+00
         0.00000E+00
         0.00000E+00
         0.00000E+00
         0.00000E+00
         0.00000E+00
         0.00000E+00
         0.00000E+00
         0.00000E+00
         0.00000E+00
         0.00000E+00
         0.00000E+00
         0.00000E+00
         0.00000E+00
         0.00000E+00
         0.00000E+00
         0.00000E+00
         0.00000E+00
         0.00000E+00
         0.00000E+00
         0.00000E+00
         0.00000E+00
         0.00000E+00
         0.00000E+00
         0.00000E+00
         0.00000E+00
         0.00000E+00
         0.00000E+00
         0.00000E+00
         0.00000E+00
         0.00000E+00
         0.00000E+00
         0.00000E+00
         0.00000E+00
         0.00000E+00
         0.00000E+00
         0.00000E+00
         0.00000E+00
         0.00000E+00
         0.00000E+00
         0.00000E+00
         0.00000E+00
         0.00000E+00
         0.00000E+00
         0.00000E+00
         0.00000E+00
         0.00000E+00
         0.00000E+00
         0.00000E+00
         0.00000E+00
         0.00000E+00
         0.00000E+00
         0.00000E+00
         0.00000E+00
         0.00000E+00
         0.00000E+00
         0.00000E+00
         0.00000E+00
         0.00000E+00
         0.00000E+00
         0.00000E+00
         0.00000E+00
         0.00000E+00
         0.00000E+00
         0.00000E+00
         0.00000E+00
         0.00000E+00
         0.00000E+00
         0.00000E+00
         0.00000E+00
         0.00000E+00
         0.00000E+00
         0.00000E+00
         0.00000E+00
         0.00000E+00
         0.00000E+00
         0.00000E+00
         0.00000E+00
         0.00000E+00
         0.00000E+00
         0.00000E+00
         0.00000E+00
         0.00000E+00
         0.00000E+00
         0.00000E+00
         0.00000E+00
         0.00000E+00
         0.00000E+00
         0.00000E+00
         0.00000E+00
         0.00000E+00
         0.00000E+00
         0.00000E+00
         0.00000E+00
         0.00000E+00
         0.00000E+00
         0.00000E+00
         0.00000E+00
         0.00000E+00
         0.00000E+00
         0.00000E+00
         0.00000E+00
         0.00000E+00
         0.00000E+00
         0.00000E+00
         0.00000E+00
         0.00000E+00
         0.00000E+00
         0.00000E+00
         0.00000E+00
         0.00000E+00
         0.00000E+00
         0.00000E+00
         0.00000E+00
         0.00000E+00
         0.00000E+00
         0.00000E+00
         0.00000E+00
         0.00000E+00
         0.00000E+00
         0.00000E+00
         0.00000E+00
         0.00000E+00
         0.00000E+00
         0.00000E+00
         0.00000E+00
         0.00000E+00
         0.00000E+00
         0.00000E+00
         0.00000E+00
         0.00000E+00
         0.00000E+00
         0.00000E+00
         0.00000E+00
         0.00000E+00
         0.00000E+00
         0.00000E+00
         0.00000E+00
         0.00000E+00
         0.00000E+00
         0.00000E+00
         0.00000E+00
         0.00000E+00
         0.00000E+00
         0.00000E+00
         0.00000E+00
         0.00000E+00
         0.00000E+00
         0.00000E+00
         0.00000E+00
         0.00000E+00
         0.00000E+00
         0.00000E+00
         0.00000E+00
         0.00000E+00
         0.00000E+00
         0.00000E+00
         0.00000E+00
         0.00000E+00
         0.00000E+00
         0.00000E+00
         0.00000E+00
         0.00000E+00
         0.00000E+00
         0.00000E+00
         0.00000E+00
         0.00000E+00
         0.00000E+00
         0.00000E+00
         0.00000E+00
         0.00000E+00
         0.00000E+00
         0.00000E+00
         0.00000E+00
         0.00000E+00
         0.00000E+00
         0.00000E+00
         0.00000E+00
         0.00000E+00
         0.00000E+00
         0.00000E+00
         0.00000E+00
         0.00000E+00
         0.00000E+00
         0.00000E+00
         0.00000E+00
         0.00000E+00
         0.00000E+00
         0.00000E+00
         0.00000E+00
         0.00000E+00
         0.00000E+00
         0.00000E+00
         0.00000E+00
         0.00000E+00
         0.00000E+00
         0.00000E+00
         0.00000E+00
         0.00000E+00
         0.00000E+00
         0.00000E+00
         0.00000E+00
         0.00000E+00
         0.00000E+00
         0.00000E+00
         0.00000E+00
         0.00000E+00
         0.00000E+00
         0.00000E+00
         0.00000E+00
         0.00000E+00
         0.00000E+00
         0.00000E+00
         0.00000E+00
         0.00000E+00
         0.00000E+00
         0.00000E+00
         0.00000E+00
         0.00000E+00
         0.00000E+00
         0.00000E+00
         0.00000E+00
         0.00000E+00
         0.00000E+00
         0.00000E+00
         0.00000E+00
         0.00000E+00
         0.00000E+00
         0.00000E+00
         0.00000E+00
         0.00000E+00
         0.00000E+00
         0.00000E+00
         0.00000E+00
         0.00000E+00
         0.00000E+00
         0.00000E+00
         0.00000E+00
         0.00000E+00
         0.00000E+00
         0.00000E+00
         0.00000E+00
         0.00000E+00
         0.00000E+00
         0.00000E+00
         0.00000E+00
         0.00000E+00
         0.00000E+00
         0.00000E+00
         0.00000E+00
         0.00000E+00
         0.00000E+00
         0.00000E+00
         0.00000E+00
         0.00000E+00
         0.00000E+00
         0.00000E+00
         0.00000E+00
         0.00000E+00
         0.00000E+00
         0.00000E+00
         0.00000E+00
         0.00000E+00
         0.00000E+00
         0.00000E+00
         0.00000E+00
         0.00000E+00
         0.00000E+00
         0.00000E+00
         0.00000E+00
         0.00000E+00
         0.00000E+00
         0.00000E+00
         0.00000E+00
         0.00000E+00
         0.00000E+00
         0.00000E+00
         0.00000E+00
         0.00000E+00
         0.00000E+00
         0.00000E+00
         0.00000E+00
         0.00000E+00
         0.00000E+00
         0.00000E+00
         0.00000E+00
         0.00000E+00
         0.00000E+00
         0.00000E+00
         0.00000E+00
         0.00000E+00
         0.00000E+00
         0.00000E+00
         0.00000E+00
         0.00000E+00
         0.00000E+00
         0.00000E+00
         0.00000E+00
         0.00000E+00
         0.00000E+00
         0.00000E+00
         0.00000E+00
         0.00000E+00
         0.00000E+00
         0.00000E+00
         0.00000E+00
         0.00000E+00
         0.00000E+00
         0.00000E+00
         0.00000E+00
         0.00000E+00
         0.00000E+00
         0.00000E+00
         0.00000E+00
         0.00000E+00
         0.00000E+00
         0.00000E+00
         0.00000E+00
         0.00000E+00
         0.00000E+00
         0.00000E+00
         0.00000E+00
         0.00000E+00
         0.00000E+00
         0.00000E+00
         0.00000E+00
         0.00000E+00
         0.00000E+00
         0.00000E+00
         0.00000E+00
         0.00000E+00
         0.00000E+00
         0.00000E+00
         0.00000E+00
         0.00000E+00
         0.00000E+00
         0.00000E+00
         0.00000E+00
         0.00000E+00
         0.00000E+00
         0.00000E+00
         0.00000E+00
         0.00000E+00
         0.00000E+00
         0.00000E+00
         0.00000E+00
         0.00000E+00
         0.00000E+00
         0.00000E+00
         0.00000E+00
         0.00000E+00
         0.00000E+00
         0.00000E+00
         0.00000E+00
         0.00000E+00
         0.00000E+00
         0.00000E+00
         0.00000E+00
         0.00000E+00
         0.00000E+00
         0.00000E+00
         0.00000E+00
         0.00000E+00
         0.00000E+00
         0.00000E+00
         0.00000E+00
         0.00000E+00
         0.00000E+00
         0.00000E+00
         0.00000E+00
         0.00000E+00
         0.00000E+00
         0.00000E+00
         0.00000E+00
         0.00000E+00
         0.00000E+00
         0.00000E+00
         0.00000E+00
         0.00000E+00
         0.00000E+00
         0.00000E+00
         0.00000E+00
         0.00000E+00
         0.00000E+00
         0.00000E+00
         0.00000E+00
         0.00000E+00
         0.00000E+00
         0.00000E+00
         0.00000E+00
         0.00000E+00
         0.00000E+00
         0.00000E+00
         0.00000E+00
         0.00000E+00
         0.00000E+00
         0.00000E+00
         0.00000E+00
         0.00000E+00
         0.00000E+00
         0.00000E+00
         0.00000E+00
         0.00000E+00
         0.00000E+00
         0.00000E+00
         0.00000E+00
         0.00000E+00
         0.00000E+00
         0.00000E+00
         0.00000E+00
         0.00000E+00
         0.00000E+00
         0.00000E+00
         0.00000E+00
         0.00000E+00
         0.00000E+00
         0.00000E+00
         0.00000E+00
         0.00000E+00
         0.00000E+00
         0.00000E+00
         0.00000E+00
         0.00000E+00
         0.00000E+00
         0.00000E+00
         0.00000E+00
         0.00000E+00
         0.00000E+00
         0.00000E+00
         0.00000E+00
         0.00000E+00
         0.00000E+00
         0.00000E+00
         0.00000E+00
         0.00000E+00
         0.00000E+00
         0.00000E+00
         0.00000E+00
         0.00000E+00
         0.00000E+00
         0.00000E+00
         0.00000E+00
         0.00000E+00
         0.00000E+00
         0.00000E+00
         0.00000E+00
         0.00000E+00
         0.00000E+00
         0.00000E+00
         0.00000E+00
         0.00000E+00
         0.00000E+00
         0.00000E+00
         0.00000E+00
         0.00000E+00
         0.00000E+00
         0.00000E+00
         0.00000E+00
         0.00000E+00
         0.00000E+00
         0.00000E+00
         0.00000E+00
         0.00000E+00
         0.00000E+00
         0.00000E+00
         0.00000E+00
         0.00000E+00
         0.00000E+00
         0.00000E+00
         0.00000E+00
         0.00000E+00
         0.00000E+00
         0.00000E+00
         0.00000E+00
         0.00000E+00
         0.00000E+00
         0.00000E+00
         0.00000E+00
         0.00000E+00
         0.00000E+00
         0.00000E+00
         0.00000E+00
         0.00000E+00
         0.00000E+00
         0.00000E+00
         0.00000E+00
         0.00000E+00
         0.00000E+00
         0.00000E+00
         0.00000E+00
         0.00000E+00
         0.00000E+00
         0.00000E+00
         0.00000E+00
         0.00000E+00
         0.00000E+00
         0.00000E+00
         0.00000E+00
         0.00000E+00
         0.00000E+00
         0.00000E+00
         0.00000E+00
         0.00000E+00
         0.00000E+00
         0.00000E+00
         0.00000E+00
         0.00000E+00
         0.00000E+00
         0.00000E+00
         0.00000E+00
         0.00000E+00
         0.00000E+00
         0.00000E+00
         0.00000E+00
         0.00000E+00
         0.00000E+00
         0.00000E+00
         0.00000E+00
         0.00000E+00
         0.00000E+00
         0.00000E+00
         0.00000E+00
         0.00000E+00
         0.00000E+00
         0.00000E+00
         0.00000E+00
         0.00000E+00
         0.00000E+00
         0.00000E+00
         0.00000E+00
         0.00000E+00
         0.00000E+00
         0.00000E+00
         0.00000E+00
         0.00000E+00
         0.00000E+00
         0.00000E+00
         0.00000E+00
         0.00000E+00
         0.00000E+00
         0.00000E+00
         0.00000E+00
         0.00000E+00
         0.00000E+00
         0.00000E+00
         0.00000E+00
         0.00000E+00
         0.00000E+00
         0.00000E+00
         0.00000E+00
         0.00000E+00
         0.00000E+00
         0.00000E+00
         0.00000E+00
         0.00000E+00
         0.00000E+00
         0.00000E+00
         0.00000E+00
         0.00000E+00
         0.00000E+00
         0.00000E+00
         0.00000E+00
         0.00000E+00
         0.00000E+00
         0.00000E+00
         0.00000E+00
         0.00000E+00
         0.00000E+00
         0.00000E+00
         0.00000E+00
         0.00000E+00
         0.00000E+00
         0.00000E+00
         0.00000E+00
         0.00000E+00
         0.00000E+00
         0.00000E+00
         0.00000E+00
         0.00000E+00
         0.00000E+00
         0.00000E+00
         0.00000E+00
         0.00000E+00
         0.00000E+00
         0.00000E+00
         0.00000E+00
         0.00000E+00
         0.00000E+00
         0.00000E+00
         0.00000E+00
         0.00000E+00
         0.00000E+00
         0.00000E+00
         0.00000E+00
         0.00000E+00
         0.00000E+00
         0.00000E+00
         0.00000E+00
         0.00000E+00
         0.00000E+00
         0.00000E+00
         0.00000E+00
         0.00000E+00
         0.00000E+00
         0.00000E+00
         0.00000E+00
         0.00000E+00
         0.00000E+00
         0.00000E+00
         0.00000E+00
         0.00000E+00
         0.00000E+00
         0.00000E+00
         0.00000E+00
         0.00000E+00
         0.00000E+00
         0.00000E+00
         0.00000E+00
         0.00000E+00
         0.00000E+00
         0.00000E+00
         0.00000E+00
         0.00000E+00
         0.00000E+00
         0.00000E+00
         0.00000E+00
         0.00000E+00
         0.00000E+00
         0.00000E+00
         0.00000E+00
         0.00000E+00
         0.00000E+00
         0.00000E+00
         0.00000E+00
         0.00000E+00
         0.00000E+00
         0.00000E+00
         0.00000E+00
         0.00000E+00
         0.00000E+00
         0.00000E+00
         0.00000E+00
         0.00000E+00
         0.00000E+00
         0.00000E+00
         0.00000E+00
         0.00000E+00
         0.00000E+00
         0.00000E+00
         0.00000E+00
         0.00000E+00
         0.00000E+00
         0.00000E+00
         0.00000E+00
         0.00000E+00
         0.00000E+00
         0.00000E+00
         0.00000E+00
         0.00000E+00
         0.00000E+00
         0.00000E+00
         0.00000E+00
         0.00000E+00
         0.00000E+00
         0.00000E+00
         0.00000E+00
         0.00000E+00
         0.00000E+00
         0.00000E+00
         0.00000E+00
         0.00000E+00
         0.00000E+00
         0.00000E+00
         0.00000E+00
         0.00000E+00
         0.00000E+00
         0.00000E+00
         0.00000E+00
         0.00000E+00
         0.00000E+00
         0.00000E+00
         0.00000E+00
         0.00000E+00
         0.00000E+00
         0.00000E+00
         0.00000E+00
         0.00000E+00
         0.00000E+00
         0.00000E+00
         0.00000E+00
         0.00000E+00
         0.00000E+00
         0.00000E+00
         0.00000E+00
         0.00000E+00
         0.00000E+00
         0.00000E+00
         0.00000E+00
         0.00000E+00
         0.00000E+00
         0.00000E+00
         0.00000E+00
         0.00000E+00
         0.00000E+00
         0.00000E+00
         0.00000E+00
         0.00000E+00
         0.00000E+00
         0.00000E+00
         0.00000E+00
         0.00000E+00
         0.00000E+00
         0.00000E+00
         0.00000E+00
         0.00000E+00
         0.00000E+00
         0.00000E+00
         0.00000E+00
         0.00000E+00
         0.00000E+00
         0.00000E+00
         0.00000E+00
         0.00000E+00
         0.00000E+00
         0.00000E+00
         0.00000E+00
         0.00000E+00
         0.00000E+00
         0.00000E+00
         0.00000E+00
         0.00000E+00
         0.00000E+00
         0.00000E+00
         0.00000E+00
         0.00000E+00
         0.00000E+00
         0.00000E+00
         0.00000E+00
         0.00000E+00
         0.00000E+00
         0.00000E+00
         0.00000E+00
         0.00000E+00
         0.00000E+00
         0.00000E+00
         0.00000E+00
         0.00000E+00
         0.00000E+00
         0.00000E+00
         0.00000E+00
         0.00000E+00
         0.00000E+00
         0.00000E+00
         0.00000E+00
         0.00000E+00
         0.00000E+00
         0.00000E+00
         0.00000E+00
         0.00000E+00
         0.00000E+00
         0.00000E+00
         0.00000E+00
         0.00000E+00
         0.00000E+00
         0.00000E+00
         0.00000E+00
         0.00000E+00
         0.00000E+00
         0.00000E+00
         0.00000E+00
         0.00000E+00
         0.00000E+00
         0.00000E+00
         0.00000E+00
         0.00000E+00
         0.00000E+00
         0.00000E+00
         0.00000E+00
         0.00000E+00
         0.00000E+00
         0.00000E+00
         0.00000E+00
         0.00000E+00
         0.00000E+00
         0.00000E+00
         0.00000E+00
         0.00000E+00
         0.00000E+00
         0.00000E+00
         0.00000E+00
         0.00000E+00
         0.00000E+00
         0.00000E+00
         0.00000E+00
         0.00000E+00
         0.00000E+00
         0.00000E+00
         0.00000E+00
         0.00000E+00
         0.00000E+00
         0.00000E+00
         0.00000E+00
         0.00000E+00
         0.00000E+00
         0.00000E+00
         0.00000E+00
         0.00000E+00
         0.00000E+00
         0.00000E+00
         0.00000E+00
         0.00000E+00
         0.00000E+00
         0.00000E+00
         0.00000E+00
         0.00000E+00
         0.00000E+00
         0.00000E+00
         0.00000E+00
         0.00000E+00
         0.00000E+00
         0.00000E+00
         0.00000E+00
         0.00000E+00
         0.00000E+00
         0.00000E+00
         0.00000E+00
         0.00000E+00
         0.00000E+00
         0.00000E+00
         0.00000E+00
         0.00000E+00
         0.00000E+00
         0.00000E+00
         0.00000E+00
         0.00000E+00
         0.00000E+00
         0.00000E+00
         0.00000E+00
         0.00000E+00
         0.00000E+00
         0.00000E+00
         0.00000E+00
         0.00000E+00
         0.00000E+00
         0.00000E+00
         0.00000E+00
         0.00000E+00
         0.00000E+00
         0.00000E+00
         0.00000E+00
         0.00000E+00
         0.00000E+00
         0.00000E+00
         0.00000E+00
         0.00000E+00
         0.00000E+00
         0.00000E+00
         0.00000E+00
         0.00000E+00
         0.00000E+00
         0.00000E+00
         0.00000E+00
         0.00000E+00
         0.00000E+00
         0.00000E+00
         0.00000E+00
         0.00000E+00
  
SCALARS                 displacement_y  double 1
LOOKUP_TABLE default
         0.00000E+00
         0.00000E+00
         0.00000E+00
         0.00000E+00
         0.00000E+00
         0.00000E+00
         0.00000E+00
         0.00000E+00
         0.00000E+00
         0.00000E+00
         0.00000E+00
         0.00000E+00
         0.00000E+00
         0.00000E+00
         0.00000E+00
         0.00000E+00
         0.00000E+00
         0.00000E+00
         0.00000E+00
         0.00000E+00
         0.00000E+00
         0.00000E+00
         0.00000E+00
         0.00000E+00
         0.00000E+00
         0.00000E+00
         0.00000E+00
         0.00000E+00
         0.00000E+00
         0.00000E+00
         0.00000E+00
         0.00000E+00
         0.00000E+00
         0.00000E+00
         0.00000E+00
         0.00000E+00
         0.00000E+00
         0.00000E+00
         0.00000E+00
         0.00000E+00
         0.00000E+00
         0.00000E+00
         0.00000E+00
         0.00000E+00
         0.00000E+00
         0.00000E+00
         0.00000E+00
         0.00000E+00
         0.00000E+00
         0.00000E+00
         0.00000E+00
         0.00000E+00
         0.00000E+00
         0.00000E+00
         0.00000E+00
         0.00000E+00
         0.00000E+00
         0.00000E+00
         0.00000E+00
         0.00000E+00
         0.00000E+00
         0.00000E+00
         0.00000E+00
         0.00000E+00
         0.00000E+00
         0.00000E+00
         0.00000E+00
         0.00000E+00
         0.00000E+00
         0.00000E+00
         0.00000E+00
         0.00000E+00
         0.00000E+00
         0.00000E+00
         0.00000E+00
         0.00000E+00
         0.00000E+00
         0.00000E+00
         0.00000E+00
         0.00000E+00
         0.00000E+00
         0.00000E+00
         0.00000E+00
         0.00000E+00
         0.00000E+00
         0.00000E+00
         0.00000E+00
         0.00000E+00
         0.00000E+00
         0.00000E+00
         0.00000E+00
         0.00000E+00
         0.00000E+00
         0.00000E+00
         0.00000E+00
         0.00000E+00
         0.00000E+00
         0.00000E+00
         0.00000E+00
         0.00000E+00
         0.00000E+00
         0.00000E+00
         0.00000E+00
         0.00000E+00
         0.00000E+00
         0.00000E+00
         0.00000E+00
         0.00000E+00
         0.00000E+00
         0.00000E+00
         0.00000E+00
         0.00000E+00
         0.00000E+00
         0.00000E+00
         0.00000E+00
         0.00000E+00
         0.00000E+00
         0.00000E+00
         0.00000E+00
         0.00000E+00
         0.00000E+00
         0.00000E+00
         0.00000E+00
         0.00000E+00
         0.00000E+00
         0.00000E+00
         0.00000E+00
         0.00000E+00
         0.00000E+00
         0.00000E+00
         0.00000E+00
         0.00000E+00
         0.00000E+00
         0.00000E+00
         0.00000E+00
         0.00000E+00
         0.00000E+00
         0.00000E+00
         0.00000E+00
         0.00000E+00
         0.00000E+00
         0.00000E+00
         0.00000E+00
         0.00000E+00
         0.00000E+00
         0.00000E+00
         0.00000E+00
         0.00000E+00
         0.00000E+00
         0.00000E+00
         0.00000E+00
         0.00000E+00
         0.00000E+00
         0.00000E+00
         0.00000E+00
         0.00000E+00
         0.00000E+00
         0.00000E+00
         0.00000E+00
         0.00000E+00
         0.00000E+00
         0.00000E+00
         0.00000E+00
         0.00000E+00
         0.00000E+00
         0.00000E+00
         0.00000E+00
         0.00000E+00
         0.00000E+00
         0.00000E+00
         0.00000E+00
         0.00000E+00
         0.00000E+00
         0.00000E+00
         0.00000E+00
         0.00000E+00
         0.00000E+00
         0.00000E+00
         0.00000E+00
         0.00000E+00
         0.00000E+00
         0.00000E+00
         0.00000E+00
         0.00000E+00
         0.00000E+00
         0.00000E+00
         0.00000E+00
         0.00000E+00
         0.00000E+00
         0.00000E+00
         0.00000E+00
         0.00000E+00
         0.00000E+00
         0.00000E+00
         0.00000E+00
         0.00000E+00
         0.00000E+00
         0.00000E+00
         0.00000E+00
         0.00000E+00
         0.00000E+00
         0.00000E+00
         0.00000E+00
         0.00000E+00
         0.00000E+00
         0.00000E+00
         0.00000E+00
         0.00000E+00
         0.00000E+00
         0.00000E+00
         0.00000E+00
         0.00000E+00
         0.00000E+00
         0.00000E+00
         0.00000E+00
         0.00000E+00
         0.00000E+00
         0.00000E+00
         0.00000E+00
         0.00000E+00
         0.00000E+00
         0.00000E+00
         0.00000E+00
         0.00000E+00
         0.00000E+00
         0.00000E+00
         0.00000E+00
         0.00000E+00
         0.00000E+00
         0.00000E+00
         0.00000E+00
         0.00000E+00
         0.00000E+00
         0.00000E+00
         0.00000E+00
         0.00000E+00
         0.00000E+00
         0.00000E+00
         0.00000E+00
         0.00000E+00
         0.00000E+00
         0.00000E+00
         0.00000E+00
         0.00000E+00
         0.00000E+00
         0.00000E+00
         0.00000E+00
         0.00000E+00
         0.00000E+00
         0.00000E+00
         0.00000E+00
         0.00000E+00
         0.00000E+00
         0.00000E+00
         0.00000E+00
         0.00000E+00
         0.00000E+00
         0.00000E+00
         0.00000E+00
         0.00000E+00
         0.00000E+00
         0.00000E+00
         0.00000E+00
         0.00000E+00
         0.00000E+00
         0.00000E+00
         0.00000E+00
         0.00000E+00
         0.00000E+00
         0.00000E+00
         0.00000E+00
         0.00000E+00
         0.00000E+00
         0.00000E+00
         0.00000E+00
         0.00000E+00
         0.00000E+00
         0.00000E+00
         0.00000E+00
         0.00000E+00
         0.00000E+00
         0.00000E+00
         0.00000E+00
         0.00000E+00
         0.00000E+00
         0.00000E+00
         0.00000E+00
         0.00000E+00
         0.00000E+00
         0.00000E+00
         0.00000E+00
         0.00000E+00
         0.00000E+00
         0.00000E+00
         0.00000E+00
         0.00000E+00
         0.00000E+00
         0.00000E+00
         0.00000E+00
         0.00000E+00
         0.00000E+00
         0.00000E+00
         0.00000E+00
         0.00000E+00
         0.00000E+00
         0.00000E+00
         0.00000E+00
         0.00000E+00
         0.00000E+00
         0.00000E+00
         0.00000E+00
         0.00000E+00
         0.00000E+00
         0.00000E+00
         0.00000E+00
         0.00000E+00
         0.00000E+00
         0.00000E+00
         0.00000E+00
         0.00000E+00
         0.00000E+00
         0.00000E+00
         0.00000E+00
         0.00000E+00
         0.00000E+00
         0.00000E+00
         0.00000E+00
         0.00000E+00
         0.00000E+00
         0.00000E+00
         0.00000E+00
         0.00000E+00
         0.00000E+00
         0.00000E+00
         0.00000E+00
         0.00000E+00
         0.00000E+00
         0.00000E+00
         0.00000E+00
         0.00000E+00
         0.00000E+00
         0.00000E+00
         0.00000E+00
         0.00000E+00
         0.00000E+00
         0.00000E+00
         0.00000E+00
         0.00000E+00
         0.00000E+00
         0.00000E+00
         0.00000E+00
         0.00000E+00
         0.00000E+00
         0.00000E+00
         0.00000E+00
         0.00000E+00
         0.00000E+00
         0.00000E+00
         0.00000E+00
         0.00000E+00
         0.00000E+00
         0.00000E+00
         0.00000E+00
         0.00000E+00
         0.00000E+00
         0.00000E+00
         0.00000E+00
         0.00000E+00
         0.00000E+00
         0.00000E+00
         0.00000E+00
         0.00000E+00
         0.00000E+00
         0.00000E+00
         0.00000E+00
         0.00000E+00
         0.00000E+00
         0.00000E+00
         0.00000E+00
         0.00000E+00
         0.00000E+00
         0.00000E+00
         0.00000E+00
         0.00000E+00
         0.00000E+00
         0.00000E+00
         0.00000E+00
         0.00000E+00
         0.00000E+00
         0.00000E+00
         0.00000E+00
         0.00000E+00
         0.00000E+00
         0.00000E+00
         0.00000E+00
         0.00000E+00
         0.00000E+00
         0.00000E+00
         0.00000E+00
         0.00000E+00
         0.00000E+00
         0.00000E+00
         0.00000E+00
         0.00000E+00
         0.00000E+00
         0.00000E+00
         0.00000E+00
         0.00000E+00
         0.00000E+00
         0.00000E+00
         0.00000E+00
         0.00000E+00
         0.00000E+00
         0.00000E+00
         0.00000E+00
         0.00000E+00
         0.00000E+00
         0.00000E+00
         0.00000E+00
         0.00000E+00
         0.00000E+00
         0.00000E+00
         0.00000E+00
         0.00000E+00
         0.00000E+00
         0.00000E+00
         0.00000E+00
         0.00000E+00
         0.00000E+00
         0.00000E+00
         0.00000E+00
         0.00000E+00
         0.00000E+00
         0.00000E+00
         0.00000E+00
         0.00000E+00
         0.00000E+00
         0.00000E+00
         0.00000E+00
         0.00000E+00
         0.00000E+00
         0.00000E+00
         0.00000E+00
         0.00000E+00
         0.00000E+00
         0.00000E+00
         0.00000E+00
         0.00000E+00
         0.00000E+00
         0.00000E+00
         0.00000E+00
         0.00000E+00
         0.00000E+00
         0.00000E+00
         0.00000E+00
         0.00000E+00
         0.00000E+00
         0.00000E+00
         0.00000E+00
         0.00000E+00
         0.00000E+00
         0.00000E+00
         0.00000E+00
         0.00000E+00
         0.00000E+00
         0.00000E+00
         0.00000E+00
         0.00000E+00
         0.00000E+00
         0.00000E+00
         0.00000E+00
         0.00000E+00
         0.00000E+00
         0.00000E+00
         0.00000E+00
         0.00000E+00
         0.00000E+00
         0.00000E+00
         0.00000E+00
         0.00000E+00
         0.00000E+00
         0.00000E+00
         0.00000E+00
         0.00000E+00
         0.00000E+00
         0.00000E+00
         0.00000E+00
         0.00000E+00
         0.00000E+00
         0.00000E+00
         0.00000E+00
         0.00000E+00
         0.00000E+00
         0.00000E+00
         0.00000E+00
         0.00000E+00
         0.00000E+00
         0.00000E+00
         0.00000E+00
         0.00000E+00
         0.00000E+00
         0.00000E+00
         0.00000E+00
         0.00000E+00
         0.00000E+00
         0.00000E+00
         0.00000E+00
         0.00000E+00
         0.00000E+00
         0.00000E+00
         0.00000E+00
         0.00000E+00
         0.00000E+00
         0.00000E+00
         0.00000E+00
         0.00000E+00
         0.00000E+00
         0.00000E+00
         0.00000E+00
         0.00000E+00
         0.00000E+00
         0.00000E+00
         0.00000E+00
         0.00000E+00
         0.00000E+00
         0.00000E+00
         0.00000E+00
         0.00000E+00
         0.00000E+00
         0.00000E+00
         0.00000E+00
         0.00000E+00
         0.00000E+00
         0.00000E+00
         0.00000E+00
         0.00000E+00
         0.00000E+00
         0.00000E+00
         0.00000E+00
         0.00000E+00
         0.00000E+00
         0.00000E+00
         0.00000E+00
         0.00000E+00
         0.00000E+00
         0.00000E+00
         0.00000E+00
         0.00000E+00
         0.00000E+00
         0.00000E+00
         0.00000E+00
         0.00000E+00
         0.00000E+00
         0.00000E+00
         0.00000E+00
         0.00000E+00
         0.00000E+00
         0.00000E+00
         0.00000E+00
         0.00000E+00
         0.00000E+00
         0.00000E+00
         0.00000E+00
         0.00000E+00
         0.00000E+00
         0.00000E+00
         0.00000E+00
         0.00000E+00
         0.00000E+00
         0.00000E+00
         0.00000E+00
         0.00000E+00
         0.00000E+00
         0.00000E+00
         0.00000E+00
         0.00000E+00
         0.00000E+00
         0.00000E+00
         0.00000E+00
         0.00000E+00
         0.00000E+00
         0.00000E+00
         0.00000E+00
         0.00000E+00
         0.00000E+00
         0.00000E+00
         0.00000E+00
         0.00000E+00
         0.00000E+00
         0.00000E+00
         0.00000E+00
         0.00000E+00
         0.00000E+00
         0.00000E+00
         0.00000E+00
         0.00000E+00
         0.00000E+00
         0.00000E+00
         0.00000E+00
         0.00000E+00
         0.00000E+00
         0.00000E+00
         0.00000E+00
         0.00000E+00
         0.00000E+00
         0.00000E+00
         0.00000E+00
         0.00000E+00
         0.00000E+00
         0.00000E+00
         0.00000E+00
         0.00000E+00
         0.00000E+00
         0.00000E+00
         0.00000E+00
         0.00000E+00
         0.00000E+00
         0.00000E+00
         0.00000E+00
         0.00000E+00
         0.00000E+00
         0.00000E+00
         0.00000E+00
         0.00000E+00
         0.00000E+00
         0.00000E+00
         0.00000E+00
         0.00000E+00
         0.00000E+00
         0.00000E+00
         0.00000E+00
         0.00000E+00
         0.00000E+00
         0.00000E+00
         0.00000E+00
         0.00000E+00
         0.00000E+00
         0.00000E+00
         0.00000E+00
         0.00000E+00
         0.00000E+00
         0.00000E+00
         0.00000E+00
         0.00000E+00
         0.00000E+00
         0.00000E+00
         0.00000E+00
         0.00000E+00
         0.00000E+00
         0.00000E+00
         0.00000E+00
         0.00000E+00
         0.00000E+00
         0.00000E+00
         0.00000E+00
         0.00000E+00
         0.00000E+00
         0.00000E+00
         0.00000E+00
         0.00000E+00
         0.00000E+00
         0.00000E+00
         0.00000E+00
         0.00000E+00
         0.00000E+00
         0.00000E+00
         0.00000E+00
         0.00000E+00
         0.00000E+00
         0.00000E+00
         0.00000E+00
         0.00000E+00
         0.00000E+00
         0.00000E+00
         0.00000E+00
         0.00000E+00
         0.00000E+00
         0.00000E+00
         0.00000E+00
         0.00000E+00
         0.00000E+00
         0.00000E+00
         0.00000E+00
         0.00000E+00
         0.00000E+00
         0.00000E+00
         0.00000E+00
         0.00000E+00
         0.00000E+00
         0.00000E+00
         0.00000E+00
         0.00000E+00
         0.00000E+00
         0.00000E+00
         0.00000E+00
         0.00000E+00
         0.00000E+00
         0.00000E+00
         0.00000E+00
         0.00000E+00
         0.00000E+00
         0.00000E+00
         0.00000E+00
         0.00000E+00
         0.00000E+00
         0.00000E+00
         0.00000E+00
         0.00000E+00
         0.00000E+00
         0.00000E+00
         0.00000E+00
         0.00000E+00
         0.00000E+00
         0.00000E+00
         0.00000E+00
         0.00000E+00
         0.00000E+00
         0.00000E+00
         0.00000E+00
         0.00000E+00
         0.00000E+00
         0.00000E+00
         0.00000E+00
         0.00000E+00
         0.00000E+00
         0.00000E+00
         0.00000E+00
         0.00000E+00
         0.00000E+00
         0.00000E+00
         0.00000E+00
         0.00000E+00
         0.00000E+00
         0.00000E+00
         0.00000E+00
         0.00000E+00
         0.00000E+00
         0.00000E+00
         0.00000E+00
         0.00000E+00
         0.00000E+00
         0.00000E+00
         0.00000E+00
         0.00000E+00
         0.00000E+00
         0.00000E+00
         0.00000E+00
         0.00000E+00
         0.00000E+00
         0.00000E+00
         0.00000E+00
         0.00000E+00
         0.00000E+00
         0.00000E+00
         0.00000E+00
         0.00000E+00
         0.00000E+00
         0.00000E+00
         0.00000E+00
         0.00000E+00
         0.00000E+00
         0.00000E+00
         0.00000E+00
         0.00000E+00
         0.00000E+00
         0.00000E+00
         0.00000E+00
         0.00000E+00
         0.00000E+00
         0.00000E+00
         0.00000E+00
         0.00000E+00
         0.00000E+00
         0.00000E+00
         0.00000E+00
         0.00000E+00
         0.00000E+00
         0.00000E+00
         0.00000E+00
         0.00000E+00
         0.00000E+00
         0.00000E+00
         0.00000E+00
         0.00000E+00
         0.00000E+00
         0.00000E+00
         0.00000E+00
         0.00000E+00
         0.00000E+00
         0.00000E+00
         0.00000E+00
         0.00000E+00
         0.00000E+00
         0.00000E+00
         0.00000E+00
         0.00000E+00
         0.00000E+00
         0.00000E+00
         0.00000E+00
         0.00000E+00
         0.00000E+00
         0.00000E+00
         0.00000E+00
         0.00000E+00
         0.00000E+00
         0.00000E+00
         0.00000E+00
         0.00000E+00
         0.00000E+00
         0.00000E+00
         0.00000E+00
         0.00000E+00
         0.00000E+00
         0.00000E+00
         0.00000E+00
         0.00000E+00
         0.00000E+00
         0.00000E+00
         0.00000E+00
         0.00000E+00
         0.00000E+00
         0.00000E+00
         0.00000E+00
         0.00000E+00
         0.00000E+00
         0.00000E+00
         0.00000E+00
         0.00000E+00
         0.00000E+00
         0.00000E+00
         0.00000E+00
         0.00000E+00
         0.00000E+00
         0.00000E+00
         0.00000E+00
         0.00000E+00
         0.00000E+00
         0.00000E+00
         0.00000E+00
         0.00000E+00
         0.00000E+00
         0.00000E+00
         0.00000E+00
         0.00000E+00
         0.00000E+00
         0.00000E+00
         0.00000E+00
         0.00000E+00
         0.00000E+00
         0.00000E+00
         0.00000E+00
         0.00000E+00
         0.00000E+00
         0.00000E+00
         0.00000E+00
         0.00000E+00
         0.00000E+00
         0.00000E+00
         0.00000E+00
         0.00000E+00
         0.00000E+00
         0.00000E+00
         0.00000E+00
         0.00000E+00
         0.00000E+00
         0.00000E+00
         0.00000E+00
         0.00000E+00
         0.00000E+00
         0.00000E+00
         0.00000E+00
         0.00000E+00
         0.00000E+00
         0.00000E+00
         0.00000E+00
         0.00000E+00
         0.00000E+00
         0.00000E+00
         0.00000E+00
         0.00000E+00
         0.00000E+00
         0.00000E+00
         0.00000E+00
         0.00000E+00
         0.00000E+00
         0.00000E+00
         0.00000E+00
         0.00000E+00
         0.00000E+00
         0.00000E+00
         0.00000E+00
         0.00000E+00
         0.00000E+00
         0.00000E+00
         0.00000E+00
         0.00000E+00
         0.00000E+00
         0.00000E+00
         0.00000E+00
         0.00000E+00
         0.00000E+00
         0.00000E+00
         0.00000E+00
         0.00000E+00
         0.00000E+00
         0.00000E+00
         0.00000E+00
         0.00000E+00
         0.00000E+00
         0.00000E+00
         0.00000E+00
         0.00000E+00
         0.00000E+00
         0.00000E+00
         0.00000E+00
         0.00000E+00
         0.00000E+00
         0.00000E+00
         0.00000E+00
         0.00000E+00
         0.00000E+00
         0.00000E+00
         0.00000E+00
         0.00000E+00
         0.00000E+00
         0.00000E+00
         0.00000E+00
         0.00000E+00
         0.00000E+00
         0.00000E+00
         0.00000E+00
         0.00000E+00
         0.00000E+00
         0.00000E+00
         0.00000E+00
         0.00000E+00
         0.00000E+00
         0.00000E+00
         0.00000E+00
         0.00000E+00
         0.00000E+00
         0.00000E+00
         0.00000E+00
         0.00000E+00
         0.00000E+00
         0.00000E+00
         0.00000E+00
         0.00000E+00
         0.00000E+00
         0.00000E+00
         0.00000E+00
         0.00000E+00
         0.00000E+00
         0.00000E+00
         0.00000E+00
         0.00000E+00
         0.00000E+00
         0.00000E+00
         0.00000E+00
         0.00000E+00
         0.00000E+00
         0.00000E+00
         0.00000E+00
         0.00000E+00
         0.00000E+00
         0.00000E+00
         0.00000E+00
         0.00000E+00
         0.00000E+00
         0.00000E+00
         0.00000E+00
         0.00000E+00
         0.00000E+00
         0.00000E+00
         0.00000E+00
         0.00000E+00
         0.00000E+00
         0.00000E+00
         0.00000E+00
         0.00000E+00
         0.00000E+00
         0.00000E+00
         0.00000E+00
         0.00000E+00
         0.00000E+00
         0.00000E+00
         0.00000E+00
         0.00000E+00
         0.00000E+00
         0.00000E+00
         0.00000E+00
         0.00000E+00
         0.00000E+00
         0.00000E+00
         0.00000E+00
         0.00000E+00
         0.00000E+00
         0.00000E+00
         0.00000E+00
         0.00000E+00
         0.00000E+00
         0.00000E+00
         0.00000E+00
         0.00000E+00
         0.00000E+00
         0.00000E+00
         0.00000E+00
         0.00000E+00
         0.00000E+00
         0.00000E+00
         0.00000E+00
         0.00000E+00
         0.00000E+00
         0.00000E+00
         0.00000E+00
         0.00000E+00
         0.00000E+00
         0.00000E+00
         0.00000E+00
         0.00000E+00
         0.00000E+00
         0.00000E+00
         0.00000E+00
         0.00000E+00
         0.00000E+00
         0.00000E+00
         0.00000E+00
         0.00000E+00
         0.00000E+00
         0.00000E+00
         0.00000E+00
         0.00000E+00
         0.00000E+00
         0.00000E+00
         0.00000E+00
         0.00000E+00
         0.00000E+00
         0.00000E+00
         0.00000E+00
         0.00000E+00
         0.00000E+00
         0.00000E+00
         0.00000E+00
         0.00000E+00
         0.00000E+00
         0.00000E+00
         0.00000E+00
         0.00000E+00
         0.00000E+00
         0.00000E+00
         0.00000E+00
         0.00000E+00
         0.00000E+00
         0.00000E+00
         0.00000E+00
         0.00000E+00
         0.00000E+00
         0.00000E+00
         0.00000E+00
         0.00000E+00
         0.00000E+00
         0.00000E+00
         0.00000E+00
         0.00000E+00
         0.00000E+00
         0.00000E+00
         0.00000E+00
         0.00000E+00
         0.00000E+00
         0.00000E+00
         0.00000E+00
         0.00000E+00
         0.00000E+00
         0.00000E+00
         0.00000E+00
         0.00000E+00
         0.00000E+00
         0.00000E+00
         0.00000E+00
         0.00000E+00
         0.00000E+00
         0.00000E+00
         0.00000E+00
         0.00000E+00
         0.00000E+00
         0.00000E+00
         0.00000E+00
         0.00000E+00
         0.00000E+00
         0.00000E+00
         0.00000E+00
         0.00000E+00
         0.00000E+00
         0.00000E+00
         0.00000E+00
         0.00000E+00
         0.00000E+00
         0.00000E+00
         0.00000E+00
         0.00000E+00
         0.00000E+00
         0.00000E+00
         0.00000E+00
         0.00000E+00
         0.00000E+00
         0.00000E+00
         0.00000E+00
         0.00000E+00
         0.00000E+00
         0.00000E+00
         0.00000E+00
         0.00000E+00
         0.00000E+00
         0.00000E+00
         0.00000E+00
         0.00000E+00
         0.00000E+00
         0.00000E+00
         0.00000E+00
         0.00000E+00
         0.00000E+00
         0.00000E+00
         0.00000E+00
         0.00000E+00
         0.00000E+00
         0.00000E+00
         0.00000E+00
         0.00000E+00
         0.00000E+00
         0.00000E+00
         0.00000E+00
         0.00000E+00
         0.00000E+00
         0.00000E+00
         0.00000E+00
         0.00000E+00
         0.00000E+00
         0.00000E+00
         0.00000E+00
         0.00000E+00
         0.00000E+00
         0.00000E+00
         0.00000E+00
         0.00000E+00
         0.00000E+00
         0.00000E+00
         0.00000E+00
         0.00000E+00
         0.00000E+00
         0.00000E+00
         0.00000E+00
         0.00000E+00
         0.00000E+00
         0.00000E+00
         0.00000E+00
         0.00000E+00
         0.00000E+00
         0.00000E+00
         0.00000E+00
         0.00000E+00
         0.00000E+00
         0.00000E+00
         0.00000E+00
         0.00000E+00
         0.00000E+00
         0.00000E+00
         0.00000E+00
         0.00000E+00
         0.00000E+00
         0.00000E+00
         0.00000E+00
         0.00000E+00
         0.00000E+00
         0.00000E+00
         0.00000E+00
         0.00000E+00
         0.00000E+00
         0.00000E+00
         0.00000E+00
         0.00000E+00
         0.00000E+00
         0.00000E+00
         0.00000E+00
         0.00000E+00
         0.00000E+00
         0.00000E+00
         0.00000E+00
         0.00000E+00
         0.00000E+00
         0.00000E+00
         0.00000E+00
         0.00000E+00
         0.00000E+00
         0.00000E+00
         0.00000E+00
         0.00000E+00
         0.00000E+00
         0.00000E+00
         0.00000E+00
         0.00000E+00
         0.00000E+00
         0.00000E+00
         0.00000E+00
         0.00000E+00
         0.00000E+00
         0.00000E+00
         0.00000E+00
         0.00000E+00
         0.00000E+00
         0.00000E+00
         0.00000E+00
         0.00000E+00
         0.00000E+00
         0.00000E+00
         0.00000E+00
         0.00000E+00
         0.00000E+00
         0.00000E+00
         0.00000E+00
         0.00000E+00
         0.00000E+00
         0.00000E+00
         0.00000E+00
         0.00000E+00
         0.00000E+00
         0.00000E+00
         0.00000E+00
         0.00000E+00
         0.00000E+00
         0.00000E+00
         0.00000E+00
         0.00000E+00
         0.00000E+00
         0.00000E+00
         0.00000E+00
         0.00000E+00
         0.00000E+00
         0.00000E+00
         0.00000E+00
         0.00000E+00
         0.00000E+00
         0.00000E+00
         0.00000E+00
         0.00000E+00
         0.00000E+00
         0.00000E+00
         0.00000E+00
         0.00000E+00
         0.00000E+00
         0.00000E+00
         0.00000E+00
         0.00000E+00
         0.00000E+00
         0.00000E+00
         0.00000E+00
         0.00000E+00
         0.00000E+00
         0.00000E+00
         0.00000E+00
         0.00000E+00
         0.00000E+00
         0.00000E+00
         0.00000E+00
         0.00000E+00
         0.00000E+00
         0.00000E+00
         0.00000E+00
         0.00000E+00
         0.00000E+00
         0.00000E+00
         0.00000E+00
         0.00000E+00
         0.00000E+00
         0.00000E+00
         0.00000E+00
         0.00000E+00
         0.00000E+00
         0.00000E+00
         0.00000E+00
         0.00000E+00
         0.00000E+00
         0.00000E+00
         0.00000E+00
         0.00000E+00
         0.00000E+00
         0.00000E+00
         0.00000E+00
         0.00000E+00
         0.00000E+00
         0.00000E+00
         0.00000E+00
         0.00000E+00
         0.00000E+00
         0.00000E+00
         0.00000E+00
         0.00000E+00
         0.00000E+00
         0.00000E+00
         0.00000E+00
         0.00000E+00
         0.00000E+00
         0.00000E+00
         0.00000E+00
         0.00000E+00
         0.00000E+00
         0.00000E+00
         0.00000E+00
         0.00000E+00
         0.00000E+00
         0.00000E+00
         0.00000E+00
         0.00000E+00
         0.00000E+00
         0.00000E+00
         0.00000E+00
         0.00000E+00
         0.00000E+00
         0.00000E+00
         0.00000E+00
         0.00000E+00
         0.00000E+00
         0.00000E+00
         0.00000E+00
         0.00000E+00
         0.00000E+00
         0.00000E+00
         0.00000E+00
         0.00000E+00
         0.00000E+00
         0.00000E+00
         0.00000E+00
         0.00000E+00
         0.00000E+00
         0.00000E+00
         0.00000E+00
         0.00000E+00
         0.00000E+00
         0.00000E+00
         0.00000E+00
         0.00000E+00
         0.00000E+00
         0.00000E+00
         0.00000E+00
         0.00000E+00
         0.00000E+00
         0.00000E+00
         0.00000E+00
         0.00000E+00
         0.00000E+00
         0.00000E+00
         0.00000E+00
         0.00000E+00
         0.00000E+00
         0.00000E+00
         0.00000E+00
         0.00000E+00
         0.00000E+00
         0.00000E+00
         0.00000E+00
         0.00000E+00
         0.00000E+00
         0.00000E+00
         0.00000E+00
         0.00000E+00
         0.00000E+00
         0.00000E+00
         0.00000E+00
         0.00000E+00
         0.00000E+00
         0.00000E+00
         0.00000E+00
         0.00000E+00
         0.00000E+00
         0.00000E+00
         0.00000E+00
         0.00000E+00
         0.00000E+00
         0.00000E+00
         0.00000E+00
         0.00000E+00
         0.00000E+00
         0.00000E+00
         0.00000E+00
         0.00000E+00
         0.00000E+00
         0.00000E+00
         0.00000E+00
         0.00000E+00
         0.00000E+00
         0.00000E+00
         0.00000E+00
         0.00000E+00
         0.00000E+00
         0.00000E+00
         0.00000E+00
         0.00000E+00
         0.00000E+00
         0.00000E+00
         0.00000E+00
         0.00000E+00
         0.00000E+00
         0.00000E+00
         0.00000E+00
         0.00000E+00
         0.00000E+00
         0.00000E+00
         0.00000E+00
         0.00000E+00
         0.00000E+00
         0.00000E+00
         0.00000E+00
         0.00000E+00
         0.00000E+00
         0.00000E+00
         0.00000E+00
         0.00000E+00
         0.00000E+00
         0.00000E+00
         0.00000E+00
         0.00000E+00
         0.00000E+00
         0.00000E+00
         0.00000E+00
         0.00000E+00
         0.00000E+00
         0.00000E+00
         0.00000E+00
         0.00000E+00
         0.00000E+00
         0.00000E+00
         0.00000E+00
         0.00000E+00
         0.00000E+00
         0.00000E+00
         0.00000E+00
         0.00000E+00
         0.00000E+00
         0.00000E+00
         0.00000E+00
         0.00000E+00
         0.00000E+00
         0.00000E+00
         0.00000E+00
         0.00000E+00
         0.00000E+00
         0.00000E+00
         0.00000E+00
         0.00000E+00
         0.00000E+00
         0.00000E+00
         0.00000E+00
         0.00000E+00
         0.00000E+00
         0.00000E+00
         0.00000E+00
         0.00000E+00
         0.00000E+00
         0.00000E+00
         0.00000E+00
         0.00000E+00
         0.00000E+00
         0.00000E+00
         0.00000E+00
         0.00000E+00
         0.00000E+00
         0.00000E+00
         0.00000E+00
         0.00000E+00
         0.00000E+00
         0.00000E+00
         0.00000E+00
         0.00000E+00
         0.00000E+00
         0.00000E+00
         0.00000E+00
         0.00000E+00
         0.00000E+00
         0.00000E+00
         0.00000E+00
         0.00000E+00
         0.00000E+00
         0.00000E+00
         0.00000E+00
         0.00000E+00
         0.00000E+00
         0.00000E+00
         0.00000E+00
         0.00000E+00
         0.00000E+00
         0.00000E+00
         0.00000E+00
         0.00000E+00
         0.00000E+00
         0.00000E+00
         0.00000E+00
         0.00000E+00
         0.00000E+00
         0.00000E+00
         0.00000E+00
         0.00000E+00
         0.00000E+00
         0.00000E+00
         0.00000E+00
         0.00000E+00
         0.00000E+00
         0.00000E+00
         0.00000E+00
         0.00000E+00
         0.00000E+00
         0.00000E+00
         0.00000E+00
         0.00000E+00
         0.00000E+00
         0.00000E+00
         0.00000E+00
         0.00000E+00
         0.00000E+00
         0.00000E+00
         0.00000E+00
         0.00000E+00
         0.00000E+00
         0.00000E+00
         0.00000E+00
         0.00000E+00
         0.00000E+00
         0.00000E+00
         0.00000E+00
         0.00000E+00
         0.00000E+00
         0.00000E+00
         0.00000E+00
         0.00000E+00
         0.00000E+00
         0.00000E+00
         0.00000E+00
         0.00000E+00
         0.00000E+00
         0.00000E+00
         0.00000E+00
         0.00000E+00
         0.00000E+00
         0.00000E+00
         0.00000E+00
         0.00000E+00
         0.00000E+00
         0.00000E+00
         0.00000E+00
         0.00000E+00
         0.00000E+00
         0.00000E+00
         0.00000E+00
         0.00000E+00
         0.00000E+00
         0.00000E+00
         0.00000E+00
         0.00000E+00
         0.00000E+00
         0.00000E+00
         0.00000E+00
         0.00000E+00
         0.00000E+00
         0.00000E+00
         0.00000E+00
         0.00000E+00
         0.00000E+00
         0.00000E+00
         0.00000E+00
         0.00000E+00
         0.00000E+00
         0.00000E+00
         0.00000E+00
         0.00000E+00
         0.00000E+00
         0.00000E+00
         0.00000E+00
         0.00000E+00
         0.00000E+00
         0.00000E+00
         0.00000E+00
         0.00000E+00
         0.00000E+00
         0.00000E+00
         0.00000E+00
         0.00000E+00
         0.00000E+00
         0.00000E+00
         0.00000E+00
         0.00000E+00
         0.00000E+00
         0.00000E+00
         0.00000E+00
         0.00000E+00
         0.00000E+00
         0.00000E+00
         0.00000E+00
         0.00000E+00
         0.00000E+00
         0.00000E+00
         0.00000E+00
         0.00000E+00
         0.00000E+00
         0.00000E+00
         0.00000E+00
         0.00000E+00
         0.00000E+00
         0.00000E+00
         0.00000E+00
         0.00000E+00
         0.00000E+00
         0.00000E+00
         0.00000E+00
         0.00000E+00
         0.00000E+00
         0.00000E+00
         0.00000E+00
         0.00000E+00
         0.00000E+00
         0.00000E+00
         0.00000E+00
         0.00000E+00
         0.00000E+00
         0.00000E+00
         0.00000E+00
         0.00000E+00
         0.00000E+00
         0.00000E+00
         0.00000E+00
         0.00000E+00
         0.00000E+00
         0.00000E+00
         0.00000E+00
         0.00000E+00
         0.00000E+00
         0.00000E+00
         0.00000E+00
         0.00000E+00
         0.00000E+00
         0.00000E+00
         0.00000E+00
         0.00000E+00
         0.00000E+00
         0.00000E+00
         0.00000E+00
         0.00000E+00
         0.00000E+00
         0.00000E+00
         0.00000E+00
         0.00000E+00
         0.00000E+00
         0.00000E+00
         0.00000E+00
         0.00000E+00
         0.00000E+00
         0.00000E+00
         0.00000E+00
         0.00000E+00
         0.00000E+00
         0.00000E+00
         0.00000E+00
         0.00000E+00
         0.00000E+00
         0.00000E+00
         0.00000E+00
         0.00000E+00
         0.00000E+00
         0.00000E+00
         0.00000E+00
         0.00000E+00
         0.00000E+00
         0.00000E+00
         0.00000E+00
         0.00000E+00
         0.00000E+00
         0.00000E+00
         0.00000E+00
         0.00000E+00
         0.00000E+00
         0.00000E+00
         0.00000E+00
         0.00000E+00
         0.00000E+00
         0.00000E+00
         0.00000E+00
         0.00000E+00
         0.00000E+00
         0.00000E+00
         0.00000E+00
         0.00000E+00
         0.00000E+00
         0.00000E+00
         0.00000E+00
         0.00000E+00
         0.00000E+00
         0.00000E+00
         0.00000E+00
         0.00000E+00
         0.00000E+00
         0.00000E+00
         0.00000E+00
         0.00000E+00
         0.00000E+00
         0.00000E+00
         0.00000E+00
         0.00000E+00
         0.00000E+00
         0.00000E+00
         0.00000E+00
         0.00000E+00
         0.00000E+00
         0.00000E+00
         0.00000E+00
         0.00000E+00
         0.00000E+00
         0.00000E+00
         0.00000E+00
         0.00000E+00
         0.00000E+00
         0.00000E+00
         0.00000E+00
         0.00000E+00
         0.00000E+00
         0.00000E+00
         0.00000E+00
         0.00000E+00
         0.00000E+00
         0.00000E+00
         0.00000E+00
         0.00000E+00
         0.00000E+00
         0.00000E+00
         0.00000E+00
         0.00000E+00
         0.00000E+00
         0.00000E+00
         0.00000E+00
         0.00000E+00
         0.00000E+00
         0.00000E+00
         0.00000E+00
         0.00000E+00
         0.00000E+00
         0.00000E+00
         0.00000E+00
         0.00000E+00
         0.00000E+00
         0.00000E+00
         0.00000E+00
         0.00000E+00
         0.00000E+00
         0.00000E+00
         0.00000E+00
         0.00000E+00
         0.00000E+00
         0.00000E+00
         0.00000E+00
         0.00000E+00
         0.00000E+00
         0.00000E+00
         0.00000E+00
         0.00000E+00
         0.00000E+00
         0.00000E+00
         0.00000E+00
         0.00000E+00
         0.00000E+00
         0.00000E+00
         0.00000E+00
         0.00000E+00
         0.00000E+00
         0.00000E+00
         0.00000E+00
         0.00000E+00
         0.00000E+00
         0.00000E+00
         0.00000E+00
         0.00000E+00
         0.00000E+00
         0.00000E+00
         0.00000E+00
         0.00000E+00
         0.00000E+00
         0.00000E+00
         0.00000E+00
         0.00000E+00
         0.00000E+00
         0.00000E+00
         0.00000E+00
         0.00000E+00
         0.00000E+00
         0.00000E+00
         0.00000E+00
         0.00000E+00
         0.00000E+00
         0.00000E+00
         0.00000E+00
         0.00000E+00
         0.00000E+00
         0.00000E+00
         0.00000E+00
         0.00000E+00
         0.00000E+00
         0.00000E+00
         0.00000E+00
         0.00000E+00
         0.00000E+00
         0.00000E+00
         0.00000E+00
         0.00000E+00
         0.00000E+00
         0.00000E+00
         0.00000E+00
         0.00000E+00
         0.00000E+00
         0.00000E+00
         0.00000E+00
         0.00000E+00
         0.00000E+00
         0.00000E+00
         0.00000E+00
         0.00000E+00
         0.00000E+00
         0.00000E+00
         0.00000E+00
         0.00000E+00
         0.00000E+00
         0.00000E+00
         0.00000E+00
         0.00000E+00
         0.00000E+00
         0.00000E+00
         0.00000E+00
         0.00000E+00
         0.00000E+00
         0.00000E+00
         0.00000E+00
         0.00000E+00
         0.00000E+00
         0.00000E+00
         0.00000E+00
         0.00000E+00
         0.00000E+00
         0.00000E+00
         0.00000E+00
         0.00000E+00
         0.00000E+00
         0.00000E+00
         0.00000E+00
         0.00000E+00
         0.00000E+00
         0.00000E+00
         0.00000E+00
         0.00000E+00
         0.00000E+00
         0.00000E+00
         0.00000E+00
         0.00000E+00
         0.00000E+00
         0.00000E+00
         0.00000E+00
         0.00000E+00
         0.00000E+00
         0.00000E+00
         0.00000E+00
         0.00000E+00
         0.00000E+00
         0.00000E+00
         0.00000E+00
         0.00000E+00
         0.00000E+00
         0.00000E+00
         0.00000E+00
         0.00000E+00
         0.00000E+00
         0.00000E+00
         0.00000E+00
         0.00000E+00
         0.00000E+00
         0.00000E+00
         0.00000E+00
         0.00000E+00
         0.00000E+00
         0.00000E+00
         0.00000E+00
         0.00000E+00
         0.00000E+00
         0.00000E+00
         0.00000E+00
         0.00000E+00
         0.00000E+00
         0.00000E+00
         0.00000E+00
         0.00000E+00
         0.00000E+00
         0.00000E+00
         0.00000E+00
         0.00000E+00
         0.00000E+00
         0.00000E+00
         0.00000E+00
         0.00000E+00
         0.00000E+00
         0.00000E+00
         0.00000E+00
         0.00000E+00
         0.00000E+00
         0.00000E+00
         0.00000E+00
         0.00000E+00
         0.00000E+00
         0.00000E+00
         0.00000E+00
         0.00000E+00
         0.00000E+00
         0.00000E+00
         0.00000E+00
         0.00000E+00
         0.00000E+00
         0.00000E+00
         0.00000E+00
         0.00000E+00
         0.00000E+00
         0.00000E+00
         0.00000E+00
         0.00000E+00
         0.00000E+00
         0.00000E+00
         0.00000E+00
         0.00000E+00
         0.00000E+00
         0.00000E+00
         0.00000E+00
         0.00000E+00
         0.00000E+00
         0.00000E+00
         0.00000E+00
         0.00000E+00
         0.00000E+00
         0.00000E+00
         0.00000E+00
         0.00000E+00
         0.00000E+00
         0.00000E+00
         0.00000E+00
         0.00000E+00
         0.00000E+00
         0.00000E+00
         0.00000E+00
         0.00000E+00
         0.00000E+00
         0.00000E+00
  
SCALARS                 displacement_z  double 1
LOOKUP_TABLE default
        -0.13956E-01
        -0.13934E-01
        -0.13931E-01
        -0.13972E-01
        -0.85764E-16
        -0.96169E-16
        -0.92086E-16
        -0.83658E-16
        -0.13889E-01
        -0.13938E-01
        -0.86481E-16
        -0.83693E-16
        -0.13910E-01
        -0.13941E-01
        -0.10275E-15
        -0.96616E-16
        -0.13958E-01
        -0.13964E-01
        -0.75929E-16
        -0.84213E-16
        -0.13893E-01
        -0.13874E-01
        -0.13883E-01
        -0.10184E-15
        -0.88940E-16
        -0.91841E-16
        -0.13932E-01
        -0.13919E-01
        -0.97700E-16
        -0.82395E-16
        -0.13976E-01
        -0.13986E-01
        -0.13968E-01
        -0.83378E-16
        -0.77513E-16
        -0.75363E-16
        -0.13931E-01
        -0.13976E-01
        -0.88209E-16
        -0.80492E-16
        -0.13918E-01
        -0.13956E-01
        -0.76238E-16
        -0.67492E-16
        -0.13883E-01
        -0.13901E-01
        -0.83546E-16
        -0.93350E-16
        -0.13990E-01
        -0.81616E-16
        -0.13926E-01
        -0.95904E-16
        -0.13973E-01
        -0.86186E-16
        -0.13987E-01
        -0.82671E-16
        -0.13949E-01
        -0.13979E-01
        -0.84233E-16
        -0.82035E-16
        -0.13966E-01
        -0.13925E-01
        -0.84467E-16
        -0.95489E-16
        -0.13963E-01
        -0.81507E-16
        -0.13947E-01
        -0.88955E-16
        -0.13827E-01
        -0.13875E-01
        -0.85625E-16
        -0.89719E-16
        -0.13893E-01
        -0.90472E-16
        -0.13945E-01
        -0.71478E-16
        -0.13940E-01
        -0.69381E-16
        -0.13895E-01
        -0.73156E-16
        -0.13843E-01
        -0.13908E-01
        -0.69701E-16
        -0.72667E-16
        -0.13961E-01
        -0.67680E-16
        -0.13888E-01
        -0.88753E-16
        -0.13869E-01
        -0.90837E-16
        -0.13822E-01
        -0.13886E-01
        -0.87233E-16
        -0.88251E-16
        -0.13930E-01
        -0.80158E-16
        -0.13923E-01
        -0.79015E-16
        -0.13888E-01
        -0.84587E-16
        -0.13838E-01
        -0.13897E-01
        -0.82950E-16
        -0.85384E-16
        -0.13694E-01
        -0.13717E-01
        -0.64400E-16
        -0.60573E-16
        -0.13714E-01
        -0.61494E-16
        -0.13697E-01
        -0.58963E-16
        -0.13699E-01
        -0.58142E-16
        -0.13697E-01
        -0.54945E-16
        -0.13710E-01
        -0.48813E-16
        -0.13716E-01
        -0.43953E-16
        -0.13712E-01
        -0.43648E-16
        -0.13710E-01
        -0.47334E-16
        -0.13689E-01
        -0.49746E-16
        -0.13715E-01
        -0.45423E-16
        -0.13724E-01
        -0.40944E-16
        -0.13722E-01
        -0.40898E-16
        -0.13712E-01
        -0.45713E-16
        -0.13701E-01
        -0.52123E-16
        -0.13696E-01
        -0.55996E-16
        -0.13712E-01
        -0.60476E-16
        -0.13697E-01
        -0.64791E-16
        -0.13720E-01
        -0.59353E-16
        -0.13712E-01
        -0.52068E-16
        -0.13704E-01
        -0.51907E-16
        -0.13718E-01
        -0.56792E-16
        -0.13699E-01
        -0.60545E-16
        -0.13718E-01
        -0.57458E-16
        -0.13718E-01
        -0.55548E-16
        -0.19671E-01
        -0.19667E-01
        -0.19667E-01
        -0.19672E-01
        -0.19660E-01
        -0.19668E-01
        -0.19663E-01
        -0.19668E-01
        -0.19672E-01
        -0.19672E-01
        -0.19661E-01
        -0.19659E-01
        -0.19659E-01
        -0.19667E-01
        -0.19665E-01
        -0.19673E-01
        -0.19676E-01
        -0.19673E-01
        -0.19667E-01
        -0.19674E-01
        -0.19665E-01
        -0.19671E-01
        -0.19659E-01
        -0.19663E-01
        -0.19676E-01
        -0.19666E-01
        -0.19673E-01
        -0.19675E-01
        -0.19669E-01
        -0.19674E-01
        -0.19672E-01
        -0.19665E-01
        -0.19672E-01
        -0.19668E-01
        -0.19652E-01
        -0.19658E-01
        -0.19661E-01
        -0.19670E-01
        -0.19668E-01
        -0.19661E-01
        -0.19654E-01
        -0.19663E-01
        -0.19671E-01
        -0.19660E-01
        -0.19657E-01
        -0.19651E-01
        -0.19659E-01
        -0.19666E-01
        -0.19665E-01
        -0.19660E-01
        -0.19653E-01
        -0.19661E-01
        -0.19637E-01
        -0.19641E-01
        -0.19641E-01
        -0.19639E-01
        -0.19639E-01
        -0.19639E-01
        -0.19641E-01
        -0.19642E-01
        -0.19640E-01
        -0.19639E-01
        -0.19636E-01
        -0.19641E-01
        -0.19643E-01
        -0.19643E-01
        -0.19641E-01
        -0.19639E-01
        -0.19639E-01
        -0.19641E-01
        -0.19638E-01
        -0.19642E-01
        -0.19642E-01
        -0.19640E-01
        -0.19641E-01
        -0.19638E-01
        -0.19642E-01
        -0.19643E-01
        -0.20139E-01
        -0.20139E-01
        -0.20139E-01
        -0.20139E-01
        -0.20139E-01
        -0.20139E-01
        -0.20139E-01
        -0.20139E-01
        -0.20139E-01
        -0.20139E-01
        -0.20139E-01
        -0.20139E-01
        -0.20139E-01
        -0.20139E-01
        -0.20139E-01
        -0.20139E-01
        -0.20139E-01
        -0.20139E-01
        -0.20139E-01
        -0.20139E-01
        -0.20139E-01
        -0.20139E-01
        -0.20139E-01
        -0.20139E-01
        -0.20139E-01
        -0.20139E-01
        -0.20139E-01
        -0.20139E-01
        -0.20139E-01
        -0.20139E-01
        -0.20139E-01
        -0.20139E-01
        -0.20139E-01
        -0.20139E-01
        -0.20139E-01
        -0.20139E-01
        -0.20139E-01
        -0.20139E-01
        -0.20139E-01
        -0.20139E-01
        -0.20139E-01
        -0.20139E-01
        -0.20139E-01
        -0.20139E-01
        -0.20139E-01
        -0.20139E-01
        -0.20139E-01
        -0.20139E-01
        -0.20139E-01
        -0.20139E-01
        -0.20139E-01
        -0.20139E-01
        -0.20139E-01
        -0.20139E-01
        -0.20139E-01
        -0.20139E-01
        -0.20139E-01
        -0.20139E-01
        -0.20139E-01
        -0.20139E-01
        -0.20139E-01
        -0.20139E-01
        -0.20139E-01
        -0.20139E-01
        -0.20139E-01
        -0.20139E-01
        -0.20139E-01
        -0.20139E-01
        -0.20139E-01
        -0.20139E-01
        -0.20139E-01
        -0.20139E-01
        -0.20139E-01
        -0.20139E-01
        -0.20139E-01
        -0.20139E-01
        -0.20139E-01
        -0.20139E-01
        -0.20139E-01
        -0.20139E-01
        -0.20139E-01
        -0.20139E-01
        -0.20139E-01
        -0.20139E-01
        -0.20139E-01
        -0.20139E-01
        -0.20139E-01
        -0.20139E-01
        -0.20139E-01
        -0.20139E-01
        -0.20139E-01
        -0.20139E-01
        -0.20139E-01
        -0.20139E-01
        -0.20139E-01
        -0.20139E-01
        -0.20139E-01
        -0.20139E-01
        -0.20139E-01
        -0.20139E-01
        -0.20139E-01
        -0.20139E-01
        -0.20139E-01
        -0.20139E-01
        -0.20139E-01
        -0.20139E-01
        -0.20139E-01
        -0.20139E-01
        -0.20139E-01
        -0.20139E-01
        -0.20139E-01
        -0.20139E-01
        -0.20139E-01
        -0.20139E-01
        -0.20139E-01
        -0.20139E-01
        -0.20139E-01
        -0.20139E-01
        -0.20139E-01
        -0.20139E-01
        -0.20139E-01
        -0.20139E-01
        -0.20139E-01
        -0.20139E-01
        -0.20139E-01
        -0.20139E-01
        -0.20139E-01
        -0.20139E-01
        -0.20139E-01
        -0.20139E-01
        -0.20139E-01
        -0.20139E-01
        -0.20139E-01
        -0.20139E-01
        -0.20139E-01
        -0.20139E-01
        -0.20139E-01
        -0.20139E-01
        -0.20139E-01
        -0.20139E-01
        -0.20139E-01
        -0.20139E-01
        -0.20139E-01
        -0.20139E-01
        -0.20139E-01
        -0.20139E-01
        -0.20139E-01
        -0.20139E-01
        -0.20139E-01
        -0.20139E-01
        -0.20139E-01
        -0.20139E-01
        -0.20139E-01
        -0.20139E-01
        -0.20139E-01
        -0.20139E-01
        -0.20139E-01
        -0.20139E-01
        -0.20139E-01
        -0.20139E-01
        -0.20139E-01
        -0.20139E-01
        -0.20139E-01
        -0.20139E-01
        -0.20139E-01
        -0.20139E-01
        -0.20139E-01
        -0.20139E-01
        -0.20139E-01
        -0.20139E-01
        -0.20139E-01
        -0.20139E-01
        -0.20139E-01
        -0.20139E-01
        -0.20139E-01
        -0.20139E-01
        -0.20139E-01
        -0.20139E-01
        -0.20139E-01
        -0.20139E-01
        -0.20139E-01
        -0.20139E-01
        -0.20139E-01
        -0.20139E-01
        -0.20139E-01
        -0.20139E-01
        -0.20139E-01
        -0.20139E-01
        -0.20139E-01
        -0.20139E-01
        -0.20139E-01
        -0.20139E-01
        -0.20139E-01
        -0.20139E-01
        -0.20139E-01
        -0.20139E-01
        -0.20139E-01
        -0.20139E-01
        -0.20139E-01
        -0.20139E-01
        -0.20139E-01
        -0.20139E-01
        -0.20139E-01
        -0.20139E-01
        -0.20139E-01
        -0.20139E-01
        -0.20139E-01
        -0.20139E-01
        -0.20139E-01
        -0.20139E-01
        -0.20139E-01
        -0.20139E-01
        -0.20139E-01
        -0.20139E-01
        -0.20139E-01
        -0.20139E-01
        -0.20139E-01
        -0.20139E-01
        -0.20139E-01
        -0.20139E-01
        -0.20139E-01
        -0.20139E-01
        -0.20139E-01
        -0.20139E-01
        -0.20139E-01
        -0.20139E-01
        -0.20139E-01
        -0.20139E-01
        -0.20139E-01
        -0.20139E-01
        -0.20139E-01
        -0.20139E-01
        -0.20139E-01
        -0.20139E-01
        -0.20139E-01
        -0.20139E-01
        -0.20139E-01
        -0.20139E-01
        -0.20139E-01
        -0.20139E-01
        -0.20139E-01
        -0.20139E-01
        -0.20139E-01
        -0.20139E-01
        -0.20139E-01
        -0.20139E-01
        -0.20139E-01
        -0.20139E-01
        -0.20139E-01
        -0.20139E-01
        -0.20139E-01
        -0.20139E-01
        -0.20139E-01
        -0.20139E-01
        -0.20139E-01
        -0.20139E-01
        -0.20139E-01
        -0.20139E-01
        -0.20139E-01
        -0.20139E-01
        -0.20139E-01
        -0.20139E-01
        -0.20139E-01
        -0.20139E-01
        -0.20139E-01
        -0.20139E-01
        -0.20139E-01
        -0.20139E-01
        -0.20139E-01
        -0.20139E-01
        -0.20139E-01
        -0.20139E-01
        -0.20139E-01
        -0.20139E-01
        -0.20139E-01
        -0.20139E-01
        -0.20139E-01
        -0.20139E-01
        -0.20139E-01
        -0.20139E-01
        -0.20139E-01
        -0.20139E-01
        -0.20139E-01
        -0.20139E-01
        -0.20139E-01
        -0.20139E-01
        -0.20139E-01
        -0.20139E-01
        -0.20139E-01
        -0.20139E-01
        -0.20139E-01
        -0.20139E-01
        -0.20139E-01
        -0.20139E-01
        -0.20139E-01
        -0.20139E-01
        -0.20139E-01
        -0.20139E-01
        -0.20139E-01
        -0.20139E-01
        -0.20139E-01
        -0.20139E-01
        -0.20139E-01
        -0.20139E-01
        -0.20139E-01
        -0.20139E-01
        -0.20139E-01
        -0.20139E-01
        -0.20139E-01
        -0.20139E-01
        -0.20139E-01
        -0.20139E-01
        -0.20139E-01
        -0.20139E-01
        -0.20139E-01
        -0.20139E-01
        -0.20139E-01
        -0.20139E-01
        -0.20139E-01
        -0.20139E-01
        -0.20139E-01
        -0.20139E-01
        -0.20139E-01
        -0.20139E-01
        -0.20139E-01
        -0.20139E-01
        -0.20139E-01
        -0.20139E-01
        -0.20139E-01
        -0.20139E-01
        -0.20139E-01
        -0.20139E-01
        -0.20139E-01
        -0.20139E-01
        -0.20139E-01
        -0.20139E-01
        -0.20139E-01
        -0.20139E-01
        -0.20139E-01
        -0.20139E-01
        -0.20139E-01
        -0.20139E-01
        -0.20139E-01
        -0.20139E-01
        -0.20139E-01
        -0.20139E-01
        -0.20139E-01
        -0.20139E-01
        -0.20139E-01
        -0.20139E-01
        -0.20139E-01
        -0.20139E-01
        -0.20139E-01
        -0.20139E-01
        -0.20139E-01
        -0.20139E-01
        -0.20139E-01
        -0.20139E-01
        -0.20139E-01
        -0.20139E-01
        -0.20139E-01
        -0.20139E-01
        -0.20139E-01
        -0.20139E-01
        -0.20139E-01
        -0.20139E-01
        -0.20139E-01
        -0.20139E-01
        -0.20139E-01
        -0.20139E-01
        -0.20139E-01
        -0.20139E-01
        -0.20139E-01
        -0.20139E-01
        -0.20139E-01
        -0.20139E-01
        -0.20139E-01
        -0.20139E-01
        -0.20139E-01
        -0.20139E-01
        -0.20139E-01
        -0.20139E-01
        -0.20139E-01
        -0.20139E-01
        -0.20139E-01
        -0.20139E-01
        -0.20139E-01
        -0.20139E-01
        -0.20139E-01
        -0.20139E-01
        -0.20139E-01
        -0.20139E-01
        -0.20139E-01
        -0.20139E-01
        -0.20139E-01
        -0.20139E-01
        -0.20139E-01
        -0.20139E-01
        -0.20139E-01
        -0.20139E-01
        -0.20139E-01
        -0.20139E-01
        -0.20139E-01
        -0.20139E-01
        -0.20139E-01
        -0.20139E-01
        -0.20139E-01
        -0.20139E-01
        -0.20139E-01
        -0.20139E-01
        -0.20139E-01
        -0.20139E-01
        -0.20139E-01
        -0.20139E-01
        -0.20139E-01
        -0.20139E-01
        -0.20139E-01
        -0.20139E-01
        -0.20139E-01
        -0.20139E-01
        -0.20139E-01
        -0.20139E-01
        -0.20139E-01
        -0.20139E-01
        -0.20139E-01
        -0.20139E-01
        -0.20139E-01
        -0.20139E-01
        -0.20139E-01
        -0.20139E-01
        -0.20139E-01
        -0.20139E-01
        -0.20139E-01
        -0.20139E-01
        -0.20139E-01
        -0.20139E-01
        -0.20139E-01
        -0.20139E-01
        -0.20139E-01
        -0.20139E-01
        -0.20139E-01
        -0.20139E-01
        -0.20139E-01
        -0.20139E-01
        -0.20139E-01
        -0.20139E-01
        -0.20139E-01
        -0.20139E-01
        -0.20139E-01
        -0.20139E-01
        -0.20139E-01
        -0.20139E-01
        -0.20139E-01
        -0.20139E-01
        -0.20139E-01
        -0.20139E-01
        -0.20139E-01
        -0.20139E-01
        -0.20139E-01
        -0.20139E-01
        -0.20139E-01
        -0.20139E-01
        -0.20139E-01
        -0.20139E-01
        -0.20139E-01
        -0.20139E-01
        -0.20139E-01
        -0.20139E-01
        -0.20139E-01
        -0.20139E-01
        -0.20139E-01
        -0.20139E-01
        -0.20139E-01
        -0.20139E-01
        -0.20139E-01
        -0.20139E-01
        -0.20139E-01
        -0.20139E-01
        -0.20139E-01
        -0.20139E-01
        -0.20139E-01
        -0.20139E-01
        -0.20139E-01
        -0.20139E-01
        -0.20139E-01
        -0.20139E-01
        -0.20139E-01
        -0.20139E-01
        -0.20139E-01
        -0.20139E-01
        -0.20139E-01
        -0.20139E-01
        -0.20139E-01
        -0.20139E-01
        -0.20139E-01
        -0.20139E-01
        -0.20139E-01
        -0.20139E-01
        -0.20139E-01
        -0.20139E-01
        -0.20139E-01
        -0.20139E-01
        -0.20139E-01
        -0.20139E-01
        -0.20139E-01
        -0.20139E-01
        -0.20139E-01
        -0.20139E-01
        -0.20139E-01
        -0.20139E-01
        -0.20139E-01
        -0.20139E-01
        -0.20139E-01
        -0.20139E-01
        -0.20139E-01
        -0.20139E-01
        -0.20139E-01
        -0.20139E-01
        -0.20139E-01
        -0.20139E-01
        -0.20139E-01
        -0.20139E-01
        -0.20139E-01
        -0.20139E-01
        -0.20139E-01
        -0.20139E-01
        -0.20139E-01
        -0.20139E-01
        -0.20139E-01
        -0.20139E-01
        -0.20139E-01
        -0.20139E-01
        -0.20139E-01
        -0.20139E-01
        -0.20139E-01
        -0.20139E-01
        -0.20139E-01
        -0.20139E-01
        -0.20139E-01
        -0.20139E-01
        -0.20139E-01
        -0.20139E-01
        -0.20139E-01
        -0.20139E-01
        -0.20139E-01
        -0.20139E-01
        -0.20139E-01
        -0.20139E-01
        -0.20139E-01
        -0.20139E-01
        -0.20139E-01
        -0.20139E-01
        -0.20139E-01
        -0.20139E-01
        -0.20139E-01
        -0.20139E-01
        -0.20139E-01
        -0.20139E-01
        -0.20139E-01
        -0.20139E-01
        -0.20139E-01
        -0.20139E-01
        -0.20139E-01
        -0.20139E-01
        -0.20139E-01
        -0.20139E-01
        -0.20139E-01
        -0.20139E-01
        -0.20139E-01
        -0.20139E-01
        -0.20139E-01
        -0.20139E-01
        -0.20139E-01
        -0.20139E-01
        -0.20139E-01
        -0.20139E-01
        -0.20139E-01
        -0.20139E-01
        -0.20139E-01
        -0.20139E-01
        -0.20139E-01
        -0.20139E-01
        -0.20139E-01
        -0.20139E-01
        -0.20139E-01
        -0.20139E-01
        -0.20139E-01
        -0.20139E-01
        -0.20139E-01
        -0.20139E-01
        -0.20139E-01
        -0.20139E-01
        -0.20139E-01
        -0.20139E-01
        -0.20139E-01
        -0.20139E-01
        -0.20139E-01
        -0.20139E-01
        -0.20139E-01
        -0.20139E-01
        -0.20139E-01
        -0.20139E-01
        -0.20139E-01
        -0.20139E-01
        -0.20139E-01
        -0.20139E-01
        -0.20139E-01
        -0.20139E-01
        -0.20139E-01
        -0.20139E-01
        -0.20139E-01
        -0.20139E-01
        -0.20139E-01
        -0.20139E-01
        -0.20139E-01
        -0.20139E-01
        -0.20139E-01
        -0.20139E-01
        -0.20139E-01
        -0.20139E-01
        -0.20139E-01
        -0.20139E-01
        -0.20139E-01
        -0.20139E-01
        -0.20139E-01
        -0.20139E-01
        -0.20139E-01
        -0.20139E-01
        -0.20139E-01
        -0.20139E-01
        -0.20139E-01
        -0.20139E-01
        -0.20139E-01
        -0.20139E-01
        -0.20139E-01
        -0.20139E-01
        -0.20139E-01
        -0.20139E-01
        -0.20139E-01
        -0.20139E-01
        -0.20139E-01
        -0.20139E-01
        -0.20139E-01
        -0.20139E-01
        -0.20139E-01
        -0.20139E-01
        -0.20139E-01
        -0.20139E-01
        -0.20139E-01
        -0.20139E-01
        -0.20139E-01
        -0.20139E-01
        -0.20139E-01
        -0.20139E-01
        -0.20139E-01
        -0.20139E-01
        -0.20139E-01
        -0.20139E-01
        -0.20139E-01
        -0.20139E-01
        -0.20139E-01
        -0.20139E-01
        -0.20139E-01
        -0.20139E-01
        -0.20139E-01
        -0.20139E-01
        -0.20139E-01
        -0.20139E-01
        -0.20139E-01
        -0.20139E-01
        -0.20139E-01
        -0.20139E-01
        -0.20139E-01
        -0.20139E-01
        -0.20139E-01
        -0.20139E-01
        -0.20139E-01
        -0.20139E-01
        -0.20139E-01
        -0.20139E-01
        -0.20139E-01
        -0.20139E-01
        -0.20139E-01
        -0.20139E-01
        -0.20139E-01
        -0.20139E-01
        -0.20139E-01
        -0.20139E-01
        -0.20139E-01
        -0.20139E-01
        -0.20139E-01
        -0.20139E-01
        -0.20139E-01
        -0.20139E-01
        -0.20139E-01
        -0.20139E-01
        -0.20139E-01
        -0.20139E-01
        -0.20139E-01
        -0.20139E-01
        -0.20139E-01
        -0.20139E-01
        -0.20139E-01
        -0.20139E-01
        -0.20139E-01
        -0.20139E-01
        -0.20139E-01
        -0.20139E-01
        -0.20139E-01
        -0.20139E-01
        -0.20139E-01
        -0.20139E-01
        -0.20139E-01
        -0.20139E-01
        -0.20139E-01
        -0.20139E-01
        -0.20139E-01
        -0.20139E-01
        -0.20139E-01
        -0.20139E-01
        -0.20139E-01
        -0.20139E-01
        -0.20139E-01
        -0.20139E-01
        -0.20139E-01
        -0.20139E-01
        -0.20139E-01
        -0.20139E-01
        -0.20139E-01
        -0.20139E-01
        -0.20139E-01
        -0.20139E-01
        -0.20139E-01
        -0.20139E-01
        -0.20139E-01
        -0.20139E-01
        -0.20139E-01
        -0.20139E-01
        -0.20139E-01
        -0.20139E-01
        -0.20139E-01
        -0.20139E-01
        -0.20139E-01
        -0.20139E-01
        -0.20139E-01
        -0.20139E-01
        -0.20139E-01
        -0.20139E-01
        -0.20139E-01
        -0.20139E-01
        -0.20139E-01
        -0.20139E-01
        -0.20139E-01
        -0.20139E-01
        -0.20139E-01
        -0.20139E-01
        -0.20139E-01
        -0.20139E-01
        -0.20139E-01
        -0.20139E-01
        -0.20139E-01
        -0.20139E-01
        -0.20139E-01
        -0.20139E-01
        -0.20139E-01
        -0.20139E-01
        -0.20139E-01
        -0.20139E-01
        -0.20139E-01
        -0.20139E-01
        -0.20139E-01
        -0.20139E-01
        -0.20139E-01
        -0.20139E-01
        -0.20139E-01
        -0.20139E-01
        -0.20139E-01
        -0.20139E-01
        -0.20139E-01
        -0.20139E-01
        -0.20139E-01
        -0.20139E-01
        -0.20139E-01
        -0.20139E-01
        -0.20139E-01
        -0.20139E-01
        -0.20139E-01
        -0.20139E-01
        -0.20139E-01
        -0.20139E-01
        -0.20139E-01
        -0.20139E-01
        -0.20139E-01
        -0.20139E-01
        -0.20139E-01
        -0.20139E-01
        -0.20139E-01
        -0.20139E-01
        -0.20139E-01
        -0.20139E-01
        -0.20139E-01
        -0.20139E-01
        -0.20139E-01
        -0.20139E-01
        -0.20139E-01
        -0.20139E-01
        -0.20139E-01
        -0.20139E-01
        -0.20139E-01
        -0.20139E-01
        -0.20139E-01
        -0.20139E-01
        -0.20139E-01
        -0.20139E-01
        -0.20139E-01
        -0.20139E-01
        -0.20139E-01
        -0.20139E-01
        -0.20139E-01
        -0.20139E-01
        -0.20139E-01
        -0.20139E-01
        -0.20139E-01
        -0.20139E-01
        -0.20139E-01
        -0.20139E-01
        -0.20139E-01
        -0.20139E-01
        -0.20139E-01
        -0.20139E-01
        -0.20139E-01
        -0.20139E-01
        -0.20139E-01
        -0.20139E-01
        -0.20139E-01
        -0.20139E-01
        -0.20139E-01
        -0.20139E-01
        -0.20139E-01
        -0.20139E-01
        -0.20139E-01
        -0.20139E-01
        -0.20139E-01
        -0.20139E-01
        -0.20139E-01
        -0.20139E-01
        -0.20139E-01
        -0.20139E-01
        -0.20139E-01
        -0.20139E-01
        -0.20139E-01
        -0.20139E-01
        -0.20139E-01
        -0.20139E-01
        -0.20139E-01
        -0.20139E-01
        -0.20139E-01
        -0.20139E-01
        -0.20139E-01
        -0.20139E-01
        -0.20139E-01
        -0.20139E-01
        -0.20139E-01
        -0.20139E-01
        -0.20139E-01
        -0.20139E-01
        -0.20139E-01
        -0.20139E-01
        -0.20139E-01
        -0.20139E-01
        -0.20139E-01
        -0.20139E-01
        -0.20139E-01
        -0.20139E-01
        -0.20139E-01
        -0.20139E-01
        -0.20139E-01
        -0.20139E-01
        -0.20139E-01
        -0.20139E-01
        -0.20139E-01
        -0.20139E-01
        -0.20139E-01
        -0.20139E-01
        -0.20139E-01
        -0.20139E-01
        -0.20139E-01
        -0.20139E-01
        -0.20139E-01
        -0.20139E-01
        -0.20139E-01
        -0.20139E-01
        -0.20139E-01
        -0.20139E-01
        -0.20139E-01
        -0.20139E-01
        -0.20139E-01
        -0.20139E-01
        -0.20139E-01
        -0.20139E-01
        -0.20139E-01
        -0.20139E-01
        -0.20139E-01
        -0.20139E-01
        -0.20139E-01
        -0.20139E-01
        -0.20139E-01
        -0.20139E-01
        -0.20139E-01
        -0.20139E-01
        -0.20139E-01
        -0.20139E-01
        -0.20139E-01
        -0.20139E-01
        -0.20139E-01
        -0.20139E-01
        -0.20139E-01
        -0.20139E-01
        -0.20139E-01
        -0.20139E-01
        -0.20139E-01
        -0.20139E-01
        -0.20139E-01
        -0.20139E-01
        -0.20139E-01
        -0.20139E-01
        -0.20139E-01
        -0.20139E-01
        -0.20139E-01
        -0.20139E-01
        -0.20139E-01
        -0.20139E-01
        -0.20139E-01
        -0.20139E-01
        -0.20139E-01
        -0.20139E-01
        -0.20139E-01
        -0.20139E-01
        -0.20139E-01
        -0.20139E-01
        -0.20139E-01
        -0.20139E-01
        -0.20139E-01
        -0.20139E-01
        -0.20139E-01
        -0.20139E-01
        -0.20139E-01
        -0.20139E-01
        -0.20139E-01
        -0.20139E-01
        -0.20139E-01
        -0.20139E-01
        -0.20139E-01
        -0.20139E-01
        -0.20139E-01
        -0.20139E-01
        -0.20139E-01
        -0.20139E-01
        -0.20139E-01
        -0.20139E-01
        -0.20139E-01
        -0.20139E-01
        -0.20139E-01
        -0.20139E-01
        -0.20139E-01
        -0.20139E-01
        -0.20139E-01
        -0.20139E-01
        -0.20139E-01
        -0.20139E-01
        -0.20139E-01
        -0.20139E-01
        -0.20139E-01
        -0.20139E-01
        -0.20139E-01
        -0.20139E-01
        -0.20139E-01
        -0.20139E-01
        -0.20139E-01
        -0.20139E-01
        -0.20139E-01
        -0.20139E-01
        -0.20139E-01
        -0.20139E-01
        -0.20139E-01
        -0.20139E-01
        -0.20139E-01
        -0.20139E-01
        -0.20139E-01
        -0.20139E-01
        -0.20139E-01
        -0.20139E-01
        -0.20139E-01
        -0.20139E-01
        -0.20139E-01
        -0.20139E-01
        -0.20139E-01
        -0.20139E-01
        -0.20139E-01
        -0.20139E-01
        -0.20139E-01
        -0.20139E-01
        -0.20139E-01
        -0.20139E-01
        -0.20139E-01
        -0.20139E-01
        -0.20139E-01
        -0.20139E-01
        -0.20139E-01
        -0.20139E-01
        -0.20139E-01
        -0.20139E-01
        -0.20139E-01
        -0.20139E-01
        -0.20139E-01
        -0.20139E-01
        -0.20139E-01
        -0.20139E-01
        -0.20139E-01
        -0.20139E-01
        -0.20139E-01
        -0.20139E-01
        -0.20139E-01
        -0.20139E-01
        -0.20139E-01
        -0.20139E-01
        -0.20139E-01
        -0.20139E-01
        -0.20139E-01
        -0.20139E-01
        -0.20139E-01
        -0.20139E-01
        -0.20139E-01
        -0.20139E-01
        -0.20139E-01
        -0.20139E-01
        -0.20139E-01
        -0.20139E-01
        -0.20139E-01
        -0.20139E-01
        -0.20139E-01
        -0.20139E-01
        -0.20139E-01
        -0.20139E-01
        -0.20139E-01
        -0.20139E-01
        -0.20139E-01
        -0.20139E-01
        -0.20139E-01
        -0.20139E-01
        -0.20139E-01
        -0.20139E-01
        -0.20139E-01
        -0.20139E-01
        -0.20139E-01
        -0.20139E-01
        -0.20139E-01
        -0.20139E-01
        -0.20139E-01
        -0.20139E-01
        -0.20139E-01
        -0.20139E-01
        -0.20139E-01
        -0.20139E-01
        -0.20139E-01
        -0.20139E-01
        -0.20139E-01
        -0.20139E-01
        -0.20139E-01
        -0.20139E-01
        -0.20139E-01
        -0.20139E-01
        -0.20139E-01
        -0.20139E-01
        -0.20139E-01
        -0.20139E-01
        -0.20139E-01
        -0.20139E-01
        -0.20139E-01
        -0.20139E-01
        -0.20139E-01
        -0.20139E-01
        -0.20139E-01
        -0.20139E-01
        -0.20139E-01
        -0.20139E-01
        -0.20139E-01
        -0.20139E-01
        -0.20139E-01
        -0.20139E-01
        -0.20139E-01
        -0.20139E-01
        -0.20139E-01
        -0.20139E-01
        -0.20139E-01
        -0.20139E-01
        -0.20139E-01
        -0.20139E-01
        -0.20139E-01
        -0.20139E-01
        -0.20139E-01
        -0.20139E-01
        -0.20139E-01
        -0.20139E-01
        -0.20139E-01
        -0.20139E-01
        -0.20139E-01
        -0.20139E-01
        -0.20139E-01
        -0.20139E-01
        -0.20139E-01
        -0.20139E-01
        -0.20139E-01
        -0.20139E-01
        -0.20139E-01
        -0.20139E-01
        -0.20139E-01
        -0.20139E-01
        -0.20139E-01
        -0.20139E-01
        -0.20139E-01
        -0.20139E-01
        -0.20139E-01
        -0.20139E-01
        -0.20139E-01
        -0.20139E-01
        -0.20139E-01
        -0.20139E-01
        -0.20139E-01
        -0.20139E-01
        -0.20139E-01
        -0.20139E-01
        -0.20139E-01
        -0.20139E-01
        -0.20139E-01
        -0.20139E-01
        -0.20139E-01
        -0.20139E-01
        -0.20139E-01
        -0.20139E-01
        -0.20139E-01
        -0.20139E-01
        -0.20139E-01
        -0.20139E-01
        -0.20139E-01
        -0.20139E-01
        -0.20139E-01
        -0.20139E-01
        -0.20139E-01
        -0.20139E-01
        -0.20139E-01
        -0.20139E-01
        -0.20139E-01
        -0.20139E-01
        -0.20139E-01
        -0.20139E-01
        -0.20139E-01
        -0.20139E-01
        -0.20139E-01
        -0.20139E-01
        -0.20139E-01
        -0.20139E-01
        -0.20139E-01
        -0.20139E-01
        -0.20139E-01
        -0.20139E-01
        -0.20139E-01
        -0.20139E-01
        -0.20139E-01
        -0.20139E-01
        -0.20139E-01
        -0.20139E-01
        -0.20139E-01
        -0.20139E-01
        -0.20139E-01
        -0.20139E-01
        -0.20139E-01
        -0.20139E-01
        -0.20139E-01
        -0.20139E-01
        -0.20139E-01
        -0.20139E-01
        -0.20139E-01
        -0.20139E-01
        -0.20139E-01
        -0.20139E-01
        -0.20139E-01
        -0.20139E-01
        -0.20139E-01
        -0.20139E-01
        -0.20139E-01
        -0.20139E-01
        -0.20139E-01
        -0.20139E-01
        -0.20139E-01
        -0.20139E-01
        -0.20139E-01
        -0.20139E-01
        -0.20139E-01
        -0.20139E-01
        -0.20139E-01
        -0.20139E-01
        -0.20139E-01
        -0.20139E-01
        -0.20139E-01
        -0.20139E-01
        -0.20139E-01
        -0.20139E-01
        -0.20139E-01
        -0.20139E-01
        -0.20139E-01
        -0.20139E-01
        -0.20139E-01
        -0.20139E-01
        -0.20139E-01
        -0.20139E-01
        -0.20139E-01
        -0.20139E-01
        -0.20139E-01
        -0.20139E-01
        -0.20139E-01
        -0.20139E-01
        -0.20139E-01
        -0.20139E-01
        -0.20139E-01
        -0.20139E-01
        -0.20139E-01
        -0.20139E-01
        -0.20139E-01
        -0.20139E-01
        -0.20139E-01
        -0.20139E-01
        -0.20139E-01
        -0.20139E-01
        -0.20139E-01
        -0.20139E-01
        -0.20139E-01
        -0.20139E-01
        -0.20139E-01
        -0.20139E-01
        -0.20139E-01
        -0.20139E-01
        -0.20139E-01
        -0.20139E-01
        -0.20139E-01
        -0.20139E-01
        -0.20139E-01
        -0.20139E-01
        -0.20139E-01
        -0.20139E-01
        -0.20139E-01
        -0.20139E-01
        -0.20139E-01
        -0.20139E-01
        -0.20139E-01
        -0.20139E-01
        -0.20139E-01
        -0.20139E-01
        -0.20139E-01
        -0.20139E-01
        -0.20139E-01
        -0.20139E-01
        -0.20139E-01
        -0.20139E-01
        -0.20139E-01
        -0.20139E-01
        -0.20139E-01
        -0.20139E-01
        -0.20139E-01
        -0.20139E-01
        -0.20139E-01
        -0.20139E-01
        -0.20139E-01
        -0.20139E-01
        -0.20139E-01
        -0.20139E-01
        -0.20139E-01
        -0.20139E-01
        -0.20139E-01
        -0.20139E-01
        -0.20139E-01
        -0.20139E-01
        -0.20139E-01
        -0.20139E-01
        -0.20139E-01
        -0.20139E-01
        -0.20139E-01
        -0.20139E-01
        -0.20139E-01
        -0.20139E-01
        -0.20139E-01
        -0.20139E-01
        -0.20139E-01
        -0.20139E-01
        -0.20139E-01
        -0.20139E-01
        -0.20139E-01
        -0.20139E-01
        -0.20139E-01
        -0.20139E-01
        -0.20139E-01
        -0.20139E-01
        -0.20139E-01
        -0.20139E-01
        -0.20139E-01
        -0.20139E-01
        -0.20139E-01
        -0.20139E-01
        -0.20139E-01
        -0.20139E-01
        -0.20139E-01
        -0.20139E-01
        -0.20139E-01
        -0.20139E-01
        -0.20139E-01
        -0.20139E-01
        -0.20139E-01
        -0.20139E-01
        -0.20139E-01
        -0.20139E-01
        -0.20139E-01
        -0.20139E-01
        -0.20139E-01
        -0.20139E-01
        -0.20139E-01
        -0.20139E-01
        -0.20139E-01
        -0.20139E-01
        -0.20139E-01
        -0.20139E-01
        -0.20139E-01
        -0.20139E-01
        -0.20139E-01
        -0.20139E-01
        -0.20139E-01
        -0.20139E-01
        -0.20139E-01
        -0.20139E-01
        -0.20139E-01
        -0.20139E-01
        -0.20139E-01
        -0.20139E-01
        -0.20139E-01
        -0.20139E-01
        -0.20139E-01
        -0.20139E-01
        -0.20139E-01
        -0.20139E-01
        -0.20139E-01
        -0.20139E-01
        -0.20139E-01
        -0.20139E-01
        -0.20139E-01
        -0.20139E-01
        -0.20139E-01
        -0.20139E-01
        -0.20139E-01
        -0.20139E-01
        -0.20139E-01
        -0.20139E-01
        -0.20139E-01
        -0.20139E-01
        -0.20139E-01
        -0.20139E-01
        -0.20139E-01
        -0.20139E-01
        -0.20139E-01
        -0.20139E-01
        -0.20139E-01
        -0.20139E-01
        -0.20139E-01
        -0.20139E-01
        -0.20139E-01
        -0.20139E-01
        -0.20139E-01
        -0.20139E-01
        -0.20139E-01
        -0.20139E-01
        -0.20139E-01
        -0.20139E-01
        -0.20139E-01
        -0.20139E-01
        -0.20139E-01
        -0.20139E-01
        -0.20139E-01
        -0.20139E-01
        -0.20139E-01
        -0.20139E-01
        -0.20139E-01
        -0.20139E-01
        -0.20139E-01
        -0.20139E-01
        -0.20139E-01
        -0.20139E-01
        -0.20139E-01
        -0.20139E-01
        -0.20139E-01
        -0.20139E-01
        -0.20139E-01
        -0.20139E-01
        -0.20139E-01
        -0.20139E-01
        -0.20139E-01
        -0.20139E-01
        -0.20139E-01
        -0.20139E-01
        -0.20139E-01
        -0.20139E-01
        -0.20139E-01
        -0.20139E-01
        -0.20139E-01
        -0.20139E-01
        -0.20139E-01
        -0.20139E-01
        -0.20139E-01
        -0.20139E-01
        -0.20139E-01
        -0.20139E-01
        -0.20139E-01
        -0.20139E-01
        -0.20139E-01
        -0.20139E-01
        -0.20139E-01
        -0.20139E-01
        -0.20139E-01
        -0.20139E-01
        -0.20139E-01
        -0.20139E-01
        -0.20139E-01
        -0.20139E-01
        -0.20139E-01
        -0.20139E-01
        -0.20139E-01
        -0.20139E-01
        -0.20139E-01
        -0.20139E-01
        -0.20139E-01
        -0.20139E-01
        -0.20139E-01
        -0.20139E-01
        -0.20139E-01
        -0.20139E-01
        -0.20139E-01
        -0.20139E-01
        -0.20139E-01
        -0.20139E-01
        -0.20139E-01
        -0.20139E-01
        -0.20139E-01
        -0.20139E-01
        -0.20139E-01
        -0.20139E-01
        -0.20139E-01
        -0.20139E-01
        -0.20139E-01
        -0.20139E-01
        -0.20139E-01
        -0.20139E-01
        -0.20139E-01
        -0.20139E-01
        -0.20139E-01
        -0.20139E-01
        -0.20139E-01
        -0.20139E-01
        -0.20139E-01
        -0.20139E-01
        -0.20139E-01
        -0.20139E-01
        -0.20139E-01
        -0.20139E-01
        -0.20139E-01
        -0.20139E-01
        -0.20139E-01
        -0.20139E-01
        -0.20139E-01
        -0.20139E-01
        -0.20139E-01
        -0.20139E-01
        -0.20139E-01
        -0.20139E-01
        -0.20139E-01
        -0.20139E-01
        -0.20139E-01
        -0.20139E-01
        -0.20139E-01
        -0.20139E-01
        -0.20139E-01
        -0.20139E-01
        -0.20139E-01
        -0.20139E-01
        -0.20139E-01
        -0.20139E-01
        -0.20139E-01
        -0.20139E-01
        -0.20139E-01
        -0.20139E-01
        -0.20139E-01
        -0.20139E-01
        -0.20139E-01
        -0.20139E-01
        -0.20139E-01
        -0.20139E-01
        -0.20139E-01
        -0.20139E-01
        -0.20139E-01
        -0.20139E-01
        -0.20139E-01
        -0.20139E-01
        -0.20139E-01
        -0.20139E-01
        -0.20139E-01
        -0.20139E-01
        -0.20139E-01
        -0.20139E-01
        -0.20139E-01
        -0.20139E-01
        -0.20139E-01
        -0.20139E-01
        -0.20139E-01
        -0.20139E-01
        -0.20139E-01
        -0.20139E-01
        -0.20139E-01
        -0.20139E-01
        -0.20139E-01
        -0.20139E-01
        -0.20139E-01
        -0.20139E-01
        -0.20139E-01
        -0.20139E-01
        -0.20139E-01
        -0.20139E-01
        -0.20139E-01
        -0.20139E-01
        -0.20139E-01
        -0.20139E-01
        -0.20139E-01
        -0.20139E-01
        -0.20139E-01
        -0.20139E-01
        -0.20139E-01
        -0.20139E-01
        -0.20139E-01
        -0.20139E-01
        -0.20139E-01
        -0.20139E-01
        -0.20139E-01
        -0.20139E-01
        -0.20139E-01
        -0.20139E-01
        -0.20139E-01
        -0.20139E-01
        -0.20139E-01
        -0.20139E-01
        -0.20139E-01
        -0.20139E-01
        -0.20139E-01
        -0.20139E-01
        -0.20139E-01
        -0.20139E-01
        -0.20139E-01
        -0.20139E-01
        -0.20139E-01
        -0.20139E-01
        -0.20139E-01
        -0.20139E-01
        -0.20139E-01
        -0.20139E-01
        -0.20139E-01
        -0.20139E-01
        -0.20139E-01
        -0.20139E-01
        -0.20139E-01
        -0.20139E-01
        -0.20139E-01
        -0.20139E-01
        -0.20139E-01
        -0.20139E-01
        -0.20139E-01
        -0.20139E-01
        -0.20139E-01
        -0.20139E-01
        -0.20139E-01
        -0.20139E-01
        -0.20139E-01
        -0.20139E-01
        -0.20139E-01
        -0.20139E-01
        -0.20139E-01
        -0.20139E-01
        -0.20139E-01
        -0.20139E-01
        -0.20139E-01
        -0.20139E-01
        -0.20139E-01
        -0.20139E-01
        -0.20139E-01
        -0.20139E-01
        -0.20139E-01
        -0.20139E-01
        -0.20139E-01
        -0.20139E-01
        -0.20139E-01
        -0.20139E-01
        -0.20139E-01
        -0.20139E-01
        -0.20139E-01
        -0.20139E-01
        -0.20139E-01
        -0.20139E-01
        -0.20139E-01
        -0.20139E-01
        -0.20139E-01
        -0.20139E-01
        -0.20139E-01
        -0.20139E-01
        -0.20139E-01
        -0.20139E-01
        -0.20139E-01
        -0.20139E-01
        -0.20139E-01
        -0.20139E-01
        -0.20139E-01
        -0.20139E-01
        -0.20139E-01
        -0.20139E-01
        -0.20139E-01
        -0.20139E-01
        -0.20139E-01
        -0.20139E-01
        -0.20139E-01
        -0.20139E-01
        -0.20139E-01
        -0.20139E-01
        -0.20139E-01
        -0.20139E-01
        -0.20139E-01
        -0.20139E-01
        -0.20139E-01
        -0.20139E-01
        -0.20139E-01
        -0.20139E-01
        -0.20139E-01
        -0.20139E-01
        -0.20139E-01
        -0.20139E-01
        -0.20139E-01
        -0.20139E-01
        -0.20139E-01
        -0.20139E-01
        -0.20139E-01
        -0.20139E-01
        -0.20139E-01
        -0.20139E-01
        -0.20139E-01
        -0.20139E-01
        -0.20139E-01
        -0.20139E-01
        -0.20139E-01
        -0.20139E-01
        -0.20139E-01
        -0.20139E-01
        -0.20139E-01
        -0.20139E-01
        -0.20139E-01
        -0.20139E-01
        -0.20139E-01
        -0.20139E-01
        -0.20139E-01
        -0.20139E-01
        -0.20139E-01
        -0.20139E-01
        -0.20139E-01
        -0.20139E-01
        -0.20139E-01
        -0.20139E-01
        -0.20139E-01
        -0.20139E-01
        -0.20139E-01
        -0.20139E-01
        -0.20139E-01
        -0.20139E-01
        -0.20139E-01
        -0.20139E-01
        -0.20139E-01
        -0.20139E-01
        -0.20139E-01
        -0.20139E-01
        -0.20139E-01
        -0.20139E-01
        -0.20139E-01
        -0.20139E-01
        -0.20139E-01
        -0.20139E-01
        -0.20139E-01
        -0.20139E-01
        -0.20139E-01
        -0.20139E-01
        -0.20139E-01
        -0.20139E-01
        -0.20139E-01
        -0.20139E-01
        -0.20139E-01
        -0.20139E-01
        -0.20139E-01
        -0.20139E-01
        -0.20139E-01
        -0.20139E-01
        -0.20139E-01
        -0.20139E-01
        -0.20139E-01
        -0.20139E-01
        -0.20139E-01
        -0.20139E-01
        -0.20139E-01
        -0.20139E-01
  
SCALARS                     velocity_x  double 1
LOOKUP_TABLE default
         0.00000E+00
         0.00000E+00
         0.00000E+00
         0.00000E+00
         0.00000E+00
         0.00000E+00
         0.00000E+00
         0.00000E+00
         0.00000E+00
         0.00000E+00
         0.00000E+00
         0.00000E+00
         0.00000E+00
         0.00000E+00
         0.00000E+00
         0.00000E+00
         0.00000E+00
         0.00000E+00
         0.00000E+00
         0.00000E+00
         0.00000E+00
         0.00000E+00
         0.00000E+00
         0.00000E+00
         0.00000E+00
         0.00000E+00
         0.00000E+00
         0.00000E+00
         0.00000E+00
         0.00000E+00
         0.00000E+00
         0.00000E+00
         0.00000E+00
         0.00000E+00
         0.00000E+00
         0.00000E+00
         0.00000E+00
         0.00000E+00
         0.00000E+00
         0.00000E+00
         0.00000E+00
         0.00000E+00
         0.00000E+00
         0.00000E+00
         0.00000E+00
         0.00000E+00
         0.00000E+00
         0.00000E+00
         0.00000E+00
         0.00000E+00
         0.00000E+00
         0.00000E+00
         0.00000E+00
         0.00000E+00
         0.00000E+00
         0.00000E+00
         0.00000E+00
         0.00000E+00
         0.00000E+00
         0.00000E+00
         0.00000E+00
         0.00000E+00
         0.00000E+00
         0.00000E+00
         0.00000E+00
         0.00000E+00
         0.00000E+00
         0.00000E+00
         0.00000E+00
         0.00000E+00
         0.00000E+00
         0.00000E+00
         0.00000E+00
         0.00000E+00
         0.00000E+00
         0.00000E+00
         0.00000E+00
         0.00000E+00
         0.00000E+00
         0.00000E+00
         0.00000E+00
         0.00000E+00
         0.00000E+00
         0.00000E+00
         0.00000E+00
         0.00000E+00
         0.00000E+00
         0.00000E+00
         0.00000E+00
         0.00000E+00
         0.00000E+00
         0.00000E+00
         0.00000E+00
         0.00000E+00
         0.00000E+00
         0.00000E+00
         0.00000E+00
         0.00000E+00
         0.00000E+00
         0.00000E+00
         0.00000E+00
         0.00000E+00
         0.00000E+00
         0.00000E+00
         0.00000E+00
         0.00000E+00
         0.00000E+00
         0.00000E+00
         0.00000E+00
         0.00000E+00
         0.00000E+00
         0.00000E+00
         0.00000E+00
         0.00000E+00
         0.00000E+00
         0.00000E+00
         0.00000E+00
         0.00000E+00
         0.00000E+00
         0.00000E+00
         0.00000E+00
         0.00000E+00
         0.00000E+00
         0.00000E+00
         0.00000E+00
         0.00000E+00
         0.00000E+00
         0.00000E+00
         0.00000E+00
         0.00000E+00
         0.00000E+00
         0.00000E+00
         0.00000E+00
         0.00000E+00
         0.00000E+00
         0.00000E+00
         0.00000E+00
         0.00000E+00
         0.00000E+00
         0.00000E+00
         0.00000E+00
         0.00000E+00
         0.00000E+00
         0.00000E+00
         0.00000E+00
         0.00000E+00
         0.00000E+00
         0.00000E+00
         0.00000E+00
         0.00000E+00
         0.00000E+00
         0.00000E+00
         0.00000E+00
         0.00000E+00
         0.00000E+00
         0.00000E+00
         0.00000E+00
         0.00000E+00
         0.00000E+00
         0.00000E+00
         0.00000E+00
         0.00000E+00
         0.00000E+00
         0.00000E+00
         0.00000E+00
         0.00000E+00
         0.00000E+00
         0.00000E+00
         0.00000E+00
         0.00000E+00
         0.00000E+00
         0.00000E+00
         0.00000E+00
         0.00000E+00
         0.00000E+00
         0.00000E+00
         0.00000E+00
         0.00000E+00
         0.00000E+00
         0.00000E+00
         0.00000E+00
         0.00000E+00
         0.00000E+00
         0.00000E+00
         0.00000E+00
         0.00000E+00
         0.00000E+00
         0.00000E+00
         0.00000E+00
         0.00000E+00
         0.00000E+00
         0.00000E+00
         0.00000E+00
         0.00000E+00
         0.00000E+00
         0.00000E+00
         0.00000E+00
         0.00000E+00
         0.00000E+00
         0.00000E+00
         0.00000E+00
         0.00000E+00
         0.00000E+00
         0.00000E+00
         0.00000E+00
         0.00000E+00
         0.00000E+00
         0.00000E+00
         0.00000E+00
         0.00000E+00
         0.00000E+00
         0.00000E+00
         0.00000E+00
         0.00000E+00
         0.00000E+00
         0.00000E+00
         0.00000E+00
         0.00000E+00
         0.00000E+00
         0.00000E+00
         0.00000E+00
         0.00000E+00
         0.00000E+00
         0.00000E+00
         0.00000E+00
         0.00000E+00
         0.00000E+00
         0.00000E+00
         0.00000E+00
         0.00000E+00
         0.00000E+00
         0.00000E+00
         0.00000E+00
         0.00000E+00
         0.00000E+00
         0.00000E+00
         0.00000E+00
         0.00000E+00
         0.00000E+00
         0.00000E+00
         0.00000E+00
         0.00000E+00
         0.00000E+00
         0.00000E+00
         0.00000E+00
         0.00000E+00
         0.00000E+00
         0.00000E+00
         0.00000E+00
         0.00000E+00
         0.00000E+00
         0.00000E+00
         0.00000E+00
         0.00000E+00
         0.00000E+00
         0.00000E+00
         0.00000E+00
         0.00000E+00
         0.00000E+00
         0.00000E+00
         0.00000E+00
         0.00000E+00
         0.00000E+00
         0.00000E+00
         0.00000E+00
         0.00000E+00
         0.00000E+00
         0.00000E+00
         0.00000E+00
         0.00000E+00
         0.00000E+00
         0.00000E+00
         0.00000E+00
         0.00000E+00
         0.00000E+00
         0.00000E+00
         0.00000E+00
         0.00000E+00
         0.00000E+00
         0.00000E+00
         0.00000E+00
         0.00000E+00
         0.00000E+00
         0.00000E+00
         0.00000E+00
         0.00000E+00
         0.00000E+00
         0.00000E+00
         0.00000E+00
         0.00000E+00
         0.00000E+00
         0.00000E+00
         0.00000E+00
         0.00000E+00
         0.00000E+00
         0.00000E+00
         0.00000E+00
         0.00000E+00
         0.00000E+00
         0.00000E+00
         0.00000E+00
         0.00000E+00
         0.00000E+00
         0.00000E+00
         0.00000E+00
         0.00000E+00
         0.00000E+00
         0.00000E+00
         0.00000E+00
         0.00000E+00
         0.00000E+00
         0.00000E+00
         0.00000E+00
         0.00000E+00
         0.00000E+00
         0.00000E+00
         0.00000E+00
         0.00000E+00
         0.00000E+00
         0.00000E+00
         0.00000E+00
         0.00000E+00
         0.00000E+00
         0.00000E+00
         0.00000E+00
         0.00000E+00
         0.00000E+00
         0.00000E+00
         0.00000E+00
         0.00000E+00
         0.00000E+00
         0.00000E+00
         0.00000E+00
         0.00000E+00
         0.00000E+00
         0.00000E+00
         0.00000E+00
         0.00000E+00
         0.00000E+00
         0.00000E+00
         0.00000E+00
         0.00000E+00
         0.00000E+00
         0.00000E+00
         0.00000E+00
         0.00000E+00
         0.00000E+00
         0.00000E+00
         0.00000E+00
         0.00000E+00
         0.00000E+00
         0.00000E+00
         0.00000E+00
         0.00000E+00
         0.00000E+00
         0.00000E+00
         0.00000E+00
         0.00000E+00
         0.00000E+00
         0.00000E+00
         0.00000E+00
         0.00000E+00
         0.00000E+00
         0.00000E+00
         0.00000E+00
         0.00000E+00
         0.00000E+00
         0.00000E+00
         0.00000E+00
         0.00000E+00
         0.00000E+00
         0.00000E+00
         0.00000E+00
         0.00000E+00
         0.00000E+00
         0.00000E+00
         0.00000E+00
         0.00000E+00
         0.00000E+00
         0.00000E+00
         0.00000E+00
         0.00000E+00
         0.00000E+00
         0.00000E+00
         0.00000E+00
         0.00000E+00
         0.00000E+00
         0.00000E+00
         0.00000E+00
         0.00000E+00
         0.00000E+00
         0.00000E+00
         0.00000E+00
         0.00000E+00
         0.00000E+00
         0.00000E+00
         0.00000E+00
         0.00000E+00
         0.00000E+00
         0.00000E+00
         0.00000E+00
         0.00000E+00
         0.00000E+00
         0.00000E+00
         0.00000E+00
         0.00000E+00
         0.00000E+00
         0.00000E+00
         0.00000E+00
         0.00000E+00
         0.00000E+00
         0.00000E+00
         0.00000E+00
         0.00000E+00
         0.00000E+00
         0.00000E+00
         0.00000E+00
         0.00000E+00
         0.00000E+00
         0.00000E+00
         0.00000E+00
         0.00000E+00
         0.00000E+00
         0.00000E+00
         0.00000E+00
         0.00000E+00
         0.00000E+00
         0.00000E+00
         0.00000E+00
         0.00000E+00
         0.00000E+00
         0.00000E+00
         0.00000E+00
         0.00000E+00
         0.00000E+00
         0.00000E+00
         0.00000E+00
         0.00000E+00
         0.00000E+00
         0.00000E+00
         0.00000E+00
         0.00000E+00
         0.00000E+00
         0.00000E+00
         0.00000E+00
         0.00000E+00
         0.00000E+00
         0.00000E+00
         0.00000E+00
         0.00000E+00
         0.00000E+00
         0.00000E+00
         0.00000E+00
         0.00000E+00
         0.00000E+00
         0.00000E+00
         0.00000E+00
         0.00000E+00
         0.00000E+00
         0.00000E+00
         0.00000E+00
         0.00000E+00
         0.00000E+00
         0.00000E+00
         0.00000E+00
         0.00000E+00
         0.00000E+00
         0.00000E+00
         0.00000E+00
         0.00000E+00
         0.00000E+00
         0.00000E+00
         0.00000E+00
         0.00000E+00
         0.00000E+00
         0.00000E+00
         0.00000E+00
         0.00000E+00
         0.00000E+00
         0.00000E+00
         0.00000E+00
         0.00000E+00
         0.00000E+00
         0.00000E+00
         0.00000E+00
         0.00000E+00
         0.00000E+00
         0.00000E+00
         0.00000E+00
         0.00000E+00
         0.00000E+00
         0.00000E+00
         0.00000E+00
         0.00000E+00
         0.00000E+00
         0.00000E+00
         0.00000E+00
         0.00000E+00
         0.00000E+00
         0.00000E+00
         0.00000E+00
         0.00000E+00
         0.00000E+00
         0.00000E+00
         0.00000E+00
         0.00000E+00
         0.00000E+00
         0.00000E+00
         0.00000E+00
         0.00000E+00
         0.00000E+00
         0.00000E+00
         0.00000E+00
         0.00000E+00
         0.00000E+00
         0.00000E+00
         0.00000E+00
         0.00000E+00
         0.00000E+00
         0.00000E+00
         0.00000E+00
         0.00000E+00
         0.00000E+00
         0.00000E+00
         0.00000E+00
         0.00000E+00
         0.00000E+00
         0.00000E+00
         0.00000E+00
         0.00000E+00
         0.00000E+00
         0.00000E+00
         0.00000E+00
         0.00000E+00
         0.00000E+00
         0.00000E+00
         0.00000E+00
         0.00000E+00
         0.00000E+00
         0.00000E+00
         0.00000E+00
         0.00000E+00
         0.00000E+00
         0.00000E+00
         0.00000E+00
         0.00000E+00
         0.00000E+00
         0.00000E+00
         0.00000E+00
         0.00000E+00
         0.00000E+00
         0.00000E+00
         0.00000E+00
         0.00000E+00
         0.00000E+00
         0.00000E+00
         0.00000E+00
         0.00000E+00
         0.00000E+00
         0.00000E+00
         0.00000E+00
         0.00000E+00
         0.00000E+00
         0.00000E+00
         0.00000E+00
         0.00000E+00
         0.00000E+00
         0.00000E+00
         0.00000E+00
         0.00000E+00
         0.00000E+00
         0.00000E+00
         0.00000E+00
         0.00000E+00
         0.00000E+00
         0.00000E+00
         0.00000E+00
         0.00000E+00
         0.00000E+00
         0.00000E+00
         0.00000E+00
         0.00000E+00
         0.00000E+00
         0.00000E+00
         0.00000E+00
         0.00000E+00
         0.00000E+00
         0.00000E+00
         0.00000E+00
         0.00000E+00
         0.00000E+00
         0.00000E+00
         0.00000E+00
         0.00000E+00
         0.00000E+00
         0.00000E+00
         0.00000E+00
         0.00000E+00
         0.00000E+00
         0.00000E+00
         0.00000E+00
         0.00000E+00
         0.00000E+00
         0.00000E+00
         0.00000E+00
         0.00000E+00
         0.00000E+00
         0.00000E+00
         0.00000E+00
         0.00000E+00
         0.00000E+00
         0.00000E+00
         0.00000E+00
         0.00000E+00
         0.00000E+00
         0.00000E+00
         0.00000E+00
         0.00000E+00
         0.00000E+00
         0.00000E+00
         0.00000E+00
         0.00000E+00
         0.00000E+00
         0.00000E+00
         0.00000E+00
         0.00000E+00
         0.00000E+00
         0.00000E+00
         0.00000E+00
         0.00000E+00
         0.00000E+00
         0.00000E+00
         0.00000E+00
         0.00000E+00
         0.00000E+00
         0.00000E+00
         0.00000E+00
         0.00000E+00
         0.00000E+00
         0.00000E+00
         0.00000E+00
         0.00000E+00
         0.00000E+00
         0.00000E+00
         0.00000E+00
         0.00000E+00
         0.00000E+00
         0.00000E+00
         0.00000E+00
         0.00000E+00
         0.00000E+00
         0.00000E+00
         0.00000E+00
         0.00000E+00
         0.00000E+00
         0.00000E+00
         0.00000E+00
         0.00000E+00
         0.00000E+00
         0.00000E+00
         0.00000E+00
         0.00000E+00
         0.00000E+00
         0.00000E+00
         0.00000E+00
         0.00000E+00
         0.00000E+00
         0.00000E+00
         0.00000E+00
         0.00000E+00
         0.00000E+00
         0.00000E+00
         0.00000E+00
         0.00000E+00
         0.00000E+00
         0.00000E+00
         0.00000E+00
         0.00000E+00
         0.00000E+00
         0.00000E+00
         0.00000E+00
         0.00000E+00
         0.00000E+00
         0.00000E+00
         0.00000E+00
         0.00000E+00
         0.00000E+00
         0.00000E+00
         0.00000E+00
         0.00000E+00
         0.00000E+00
         0.00000E+00
         0.00000E+00
         0.00000E+00
         0.00000E+00
         0.00000E+00
         0.00000E+00
         0.00000E+00
         0.00000E+00
         0.00000E+00
         0.00000E+00
         0.00000E+00
         0.00000E+00
         0.00000E+00
         0.00000E+00
         0.00000E+00
         0.00000E+00
         0.00000E+00
         0.00000E+00
         0.00000E+00
         0.00000E+00
         0.00000E+00
         0.00000E+00
         0.00000E+00
         0.00000E+00
         0.00000E+00
         0.00000E+00
         0.00000E+00
         0.00000E+00
         0.00000E+00
         0.00000E+00
         0.00000E+00
         0.00000E+00
         0.00000E+00
         0.00000E+00
         0.00000E+00
         0.00000E+00
         0.00000E+00
         0.00000E+00
         0.00000E+00
         0.00000E+00
         0.00000E+00
         0.00000E+00
         0.00000E+00
         0.00000E+00
         0.00000E+00
         0.00000E+00
         0.00000E+00
         0.00000E+00
         0.00000E+00
         0.00000E+00
         0.00000E+00
         0.00000E+00
         0.00000E+00
         0.00000E+00
         0.00000E+00
         0.00000E+00
         0.00000E+00
         0.00000E+00
         0.00000E+00
         0.00000E+00
         0.00000E+00
         0.00000E+00
         0.00000E+00
         0.00000E+00
         0.00000E+00
         0.00000E+00
         0.00000E+00
         0.00000E+00
         0.00000E+00
         0.00000E+00
         0.00000E+00
         0.00000E+00
         0.00000E+00
         0.00000E+00
         0.00000E+00
         0.00000E+00
         0.00000E+00
         0.00000E+00
         0.00000E+00
         0.00000E+00
         0.00000E+00
         0.00000E+00
         0.00000E+00
         0.00000E+00
         0.00000E+00
         0.00000E+00
         0.00000E+00
         0.00000E+00
         0.00000E+00
         0.00000E+00
         0.00000E+00
         0.00000E+00
         0.00000E+00
         0.00000E+00
         0.00000E+00
         0.00000E+00
         0.00000E+00
         0.00000E+00
         0.00000E+00
         0.00000E+00
         0.00000E+00
         0.00000E+00
         0.00000E+00
         0.00000E+00
         0.00000E+00
         0.00000E+00
         0.00000E+00
         0.00000E+00
         0.00000E+00
         0.00000E+00
         0.00000E+00
         0.00000E+00
         0.00000E+00
         0.00000E+00
         0.00000E+00
         0.00000E+00
         0.00000E+00
         0.00000E+00
         0.00000E+00
         0.00000E+00
         0.00000E+00
         0.00000E+00
         0.00000E+00
         0.00000E+00
         0.00000E+00
         0.00000E+00
         0.00000E+00
         0.00000E+00
         0.00000E+00
         0.00000E+00
         0.00000E+00
         0.00000E+00
         0.00000E+00
         0.00000E+00
         0.00000E+00
         0.00000E+00
         0.00000E+00
         0.00000E+00
         0.00000E+00
         0.00000E+00
         0.00000E+00
         0.00000E+00
         0.00000E+00
         0.00000E+00
         0.00000E+00
         0.00000E+00
         0.00000E+00
         0.00000E+00
         0.00000E+00
         0.00000E+00
         0.00000E+00
         0.00000E+00
         0.00000E+00
         0.00000E+00
         0.00000E+00
         0.00000E+00
         0.00000E+00
         0.00000E+00
         0.00000E+00
         0.00000E+00
         0.00000E+00
         0.00000E+00
         0.00000E+00
         0.00000E+00
         0.00000E+00
         0.00000E+00
         0.00000E+00
         0.00000E+00
         0.00000E+00
         0.00000E+00
         0.00000E+00
         0.00000E+00
         0.00000E+00
         0.00000E+00
         0.00000E+00
         0.00000E+00
         0.00000E+00
         0.00000E+00
         0.00000E+00
         0.00000E+00
         0.00000E+00
         0.00000E+00
         0.00000E+00
         0.00000E+00
         0.00000E+00
         0.00000E+00
         0.00000E+00
         0.00000E+00
         0.00000E+00
         0.00000E+00
         0.00000E+00
         0.00000E+00
         0.00000E+00
         0.00000E+00
         0.00000E+00
         0.00000E+00
         0.00000E+00
         0.00000E+00
         0.00000E+00
         0.00000E+00
         0.00000E+00
         0.00000E+00
         0.00000E+00
         0.00000E+00
         0.00000E+00
         0.00000E+00
         0.00000E+00
         0.00000E+00
         0.00000E+00
         0.00000E+00
         0.00000E+00
         0.00000E+00
         0.00000E+00
         0.00000E+00
         0.00000E+00
         0.00000E+00
         0.00000E+00
         0.00000E+00
         0.00000E+00
         0.00000E+00
         0.00000E+00
         0.00000E+00
         0.00000E+00
         0.00000E+00
         0.00000E+00
         0.00000E+00
         0.00000E+00
         0.00000E+00
         0.00000E+00
         0.00000E+00
         0.00000E+00
         0.00000E+00
         0.00000E+00
         0.00000E+00
         0.00000E+00
         0.00000E+00
         0.00000E+00
         0.00000E+00
         0.00000E+00
         0.00000E+00
         0.00000E+00
         0.00000E+00
         0.00000E+00
         0.00000E+00
         0.00000E+00
         0.00000E+00
         0.00000E+00
         0.00000E+00
         0.00000E+00
         0.00000E+00
         0.00000E+00
         0.00000E+00
         0.00000E+00
         0.00000E+00
         0.00000E+00
         0.00000E+00
         0.00000E+00
         0.00000E+00
         0.00000E+00
         0.00000E+00
         0.00000E+00
         0.00000E+00
         0.00000E+00
         0.00000E+00
         0.00000E+00
         0.00000E+00
         0.00000E+00
         0.00000E+00
         0.00000E+00
         0.00000E+00
         0.00000E+00
         0.00000E+00
         0.00000E+00
         0.00000E+00
         0.00000E+00
         0.00000E+00
         0.00000E+00
         0.00000E+00
         0.00000E+00
         0.00000E+00
         0.00000E+00
         0.00000E+00
         0.00000E+00
         0.00000E+00
         0.00000E+00
         0.00000E+00
         0.00000E+00
         0.00000E+00
         0.00000E+00
         0.00000E+00
         0.00000E+00
         0.00000E+00
         0.00000E+00
         0.00000E+00
         0.00000E+00
         0.00000E+00
         0.00000E+00
         0.00000E+00
         0.00000E+00
         0.00000E+00
         0.00000E+00
         0.00000E+00
         0.00000E+00
         0.00000E+00
         0.00000E+00
         0.00000E+00
         0.00000E+00
         0.00000E+00
         0.00000E+00
         0.00000E+00
         0.00000E+00
         0.00000E+00
         0.00000E+00
         0.00000E+00
         0.00000E+00
         0.00000E+00
         0.00000E+00
         0.00000E+00
         0.00000E+00
         0.00000E+00
         0.00000E+00
         0.00000E+00
         0.00000E+00
         0.00000E+00
         0.00000E+00
         0.00000E+00
         0.00000E+00
         0.00000E+00
         0.00000E+00
         0.00000E+00
         0.00000E+00
         0.00000E+00
         0.00000E+00
         0.00000E+00
         0.00000E+00
         0.00000E+00
         0.00000E+00
         0.00000E+00
         0.00000E+00
         0.00000E+00
         0.00000E+00
         0.00000E+00
         0.00000E+00
         0.00000E+00
         0.00000E+00
         0.00000E+00
         0.00000E+00
         0.00000E+00
         0.00000E+00
         0.00000E+00
         0.00000E+00
         0.00000E+00
         0.00000E+00
         0.00000E+00
         0.00000E+00
         0.00000E+00
         0.00000E+00
         0.00000E+00
         0.00000E+00
         0.00000E+00
         0.00000E+00
         0.00000E+00
         0.00000E+00
         0.00000E+00
         0.00000E+00
         0.00000E+00
         0.00000E+00
         0.00000E+00
         0.00000E+00
         0.00000E+00
         0.00000E+00
         0.00000E+00
         0.00000E+00
         0.00000E+00
         0.00000E+00
         0.00000E+00
         0.00000E+00
         0.00000E+00
         0.00000E+00
         0.00000E+00
         0.00000E+00
         0.00000E+00
         0.00000E+00
         0.00000E+00
         0.00000E+00
         0.00000E+00
         0.00000E+00
         0.00000E+00
         0.00000E+00
         0.00000E+00
         0.00000E+00
         0.00000E+00
         0.00000E+00
         0.00000E+00
         0.00000E+00
         0.00000E+00
         0.00000E+00
         0.00000E+00
         0.00000E+00
         0.00000E+00
         0.00000E+00
         0.00000E+00
         0.00000E+00
         0.00000E+00
         0.00000E+00
         0.00000E+00
         0.00000E+00
         0.00000E+00
         0.00000E+00
         0.00000E+00
         0.00000E+00
         0.00000E+00
         0.00000E+00
         0.00000E+00
         0.00000E+00
         0.00000E+00
         0.00000E+00
         0.00000E+00
         0.00000E+00
         0.00000E+00
         0.00000E+00
         0.00000E+00
         0.00000E+00
         0.00000E+00
         0.00000E+00
         0.00000E+00
         0.00000E+00
         0.00000E+00
         0.00000E+00
         0.00000E+00
         0.00000E+00
         0.00000E+00
         0.00000E+00
         0.00000E+00
         0.00000E+00
         0.00000E+00
         0.00000E+00
         0.00000E+00
         0.00000E+00
         0.00000E+00
         0.00000E+00
         0.00000E+00
         0.00000E+00
         0.00000E+00
         0.00000E+00
         0.00000E+00
         0.00000E+00
         0.00000E+00
         0.00000E+00
         0.00000E+00
         0.00000E+00
         0.00000E+00
         0.00000E+00
         0.00000E+00
         0.00000E+00
         0.00000E+00
         0.00000E+00
         0.00000E+00
         0.00000E+00
         0.00000E+00
         0.00000E+00
         0.00000E+00
         0.00000E+00
         0.00000E+00
         0.00000E+00
         0.00000E+00
         0.00000E+00
         0.00000E+00
         0.00000E+00
         0.00000E+00
         0.00000E+00
         0.00000E+00
         0.00000E+00
         0.00000E+00
         0.00000E+00
         0.00000E+00
         0.00000E+00
         0.00000E+00
         0.00000E+00
         0.00000E+00
         0.00000E+00
         0.00000E+00
         0.00000E+00
         0.00000E+00
         0.00000E+00
         0.00000E+00
         0.00000E+00
         0.00000E+00
         0.00000E+00
         0.00000E+00
         0.00000E+00
         0.00000E+00
         0.00000E+00
         0.00000E+00
         0.00000E+00
         0.00000E+00
         0.00000E+00
         0.00000E+00
         0.00000E+00
         0.00000E+00
         0.00000E+00
         0.00000E+00
         0.00000E+00
         0.00000E+00
         0.00000E+00
         0.00000E+00
         0.00000E+00
         0.00000E+00
         0.00000E+00
         0.00000E+00
         0.00000E+00
         0.00000E+00
         0.00000E+00
         0.00000E+00
         0.00000E+00
         0.00000E+00
         0.00000E+00
         0.00000E+00
         0.00000E+00
         0.00000E+00
         0.00000E+00
         0.00000E+00
         0.00000E+00
         0.00000E+00
         0.00000E+00
         0.00000E+00
         0.00000E+00
         0.00000E+00
         0.00000E+00
         0.00000E+00
         0.00000E+00
         0.00000E+00
         0.00000E+00
         0.00000E+00
         0.00000E+00
         0.00000E+00
         0.00000E+00
         0.00000E+00
         0.00000E+00
         0.00000E+00
         0.00000E+00
         0.00000E+00
         0.00000E+00
         0.00000E+00
         0.00000E+00
         0.00000E+00
         0.00000E+00
         0.00000E+00
         0.00000E+00
         0.00000E+00
         0.00000E+00
         0.00000E+00
         0.00000E+00
         0.00000E+00
         0.00000E+00
         0.00000E+00
         0.00000E+00
         0.00000E+00
         0.00000E+00
         0.00000E+00
         0.00000E+00
         0.00000E+00
         0.00000E+00
         0.00000E+00
         0.00000E+00
         0.00000E+00
         0.00000E+00
         0.00000E+00
         0.00000E+00
         0.00000E+00
         0.00000E+00
         0.00000E+00
         0.00000E+00
         0.00000E+00
         0.00000E+00
         0.00000E+00
         0.00000E+00
         0.00000E+00
         0.00000E+00
         0.00000E+00
         0.00000E+00
         0.00000E+00
         0.00000E+00
         0.00000E+00
         0.00000E+00
         0.00000E+00
         0.00000E+00
         0.00000E+00
         0.00000E+00
         0.00000E+00
         0.00000E+00
         0.00000E+00
         0.00000E+00
         0.00000E+00
         0.00000E+00
         0.00000E+00
         0.00000E+00
         0.00000E+00
         0.00000E+00
         0.00000E+00
         0.00000E+00
         0.00000E+00
         0.00000E+00
         0.00000E+00
         0.00000E+00
         0.00000E+00
         0.00000E+00
         0.00000E+00
         0.00000E+00
         0.00000E+00
         0.00000E+00
         0.00000E+00
         0.00000E+00
         0.00000E+00
         0.00000E+00
         0.00000E+00
         0.00000E+00
         0.00000E+00
         0.00000E+00
         0.00000E+00
         0.00000E+00
         0.00000E+00
         0.00000E+00
         0.00000E+00
         0.00000E+00
         0.00000E+00
         0.00000E+00
         0.00000E+00
         0.00000E+00
         0.00000E+00
         0.00000E+00
         0.00000E+00
         0.00000E+00
         0.00000E+00
         0.00000E+00
         0.00000E+00
         0.00000E+00
         0.00000E+00
         0.00000E+00
         0.00000E+00
         0.00000E+00
         0.00000E+00
         0.00000E+00
         0.00000E+00
         0.00000E+00
         0.00000E+00
         0.00000E+00
         0.00000E+00
         0.00000E+00
         0.00000E+00
         0.00000E+00
         0.00000E+00
         0.00000E+00
         0.00000E+00
         0.00000E+00
         0.00000E+00
         0.00000E+00
         0.00000E+00
         0.00000E+00
         0.00000E+00
         0.00000E+00
         0.00000E+00
         0.00000E+00
         0.00000E+00
         0.00000E+00
         0.00000E+00
         0.00000E+00
         0.00000E+00
         0.00000E+00
         0.00000E+00
         0.00000E+00
         0.00000E+00
         0.00000E+00
         0.00000E+00
         0.00000E+00
         0.00000E+00
         0.00000E+00
         0.00000E+00
         0.00000E+00
         0.00000E+00
         0.00000E+00
         0.00000E+00
         0.00000E+00
         0.00000E+00
         0.00000E+00
         0.00000E+00
         0.00000E+00
         0.00000E+00
         0.00000E+00
         0.00000E+00
         0.00000E+00
         0.00000E+00
         0.00000E+00
         0.00000E+00
         0.00000E+00
         0.00000E+00
         0.00000E+00
         0.00000E+00
         0.00000E+00
         0.00000E+00
         0.00000E+00
         0.00000E+00
         0.00000E+00
         0.00000E+00
         0.00000E+00
         0.00000E+00
         0.00000E+00
         0.00000E+00
         0.00000E+00
         0.00000E+00
         0.00000E+00
         0.00000E+00
         0.00000E+00
         0.00000E+00
         0.00000E+00
         0.00000E+00
         0.00000E+00
         0.00000E+00
         0.00000E+00
         0.00000E+00
         0.00000E+00
         0.00000E+00
         0.00000E+00
         0.00000E+00
         0.00000E+00
         0.00000E+00
         0.00000E+00
         0.00000E+00
         0.00000E+00
         0.00000E+00
         0.00000E+00
         0.00000E+00
         0.00000E+00
         0.00000E+00
         0.00000E+00
         0.00000E+00
         0.00000E+00
         0.00000E+00
         0.00000E+00
         0.00000E+00
         0.00000E+00
         0.00000E+00
         0.00000E+00
         0.00000E+00
         0.00000E+00
         0.00000E+00
         0.00000E+00
         0.00000E+00
         0.00000E+00
         0.00000E+00
         0.00000E+00
         0.00000E+00
         0.00000E+00
         0.00000E+00
         0.00000E+00
         0.00000E+00
         0.00000E+00
         0.00000E+00
         0.00000E+00
         0.00000E+00
         0.00000E+00
         0.00000E+00
         0.00000E+00
         0.00000E+00
         0.00000E+00
         0.00000E+00
         0.00000E+00
         0.00000E+00
         0.00000E+00
         0.00000E+00
         0.00000E+00
         0.00000E+00
         0.00000E+00
         0.00000E+00
         0.00000E+00
         0.00000E+00
         0.00000E+00
         0.00000E+00
         0.00000E+00
         0.00000E+00
         0.00000E+00
         0.00000E+00
         0.00000E+00
         0.00000E+00
         0.00000E+00
         0.00000E+00
         0.00000E+00
         0.00000E+00
         0.00000E+00
         0.00000E+00
         0.00000E+00
         0.00000E+00
         0.00000E+00
         0.00000E+00
         0.00000E+00
         0.00000E+00
         0.00000E+00
         0.00000E+00
         0.00000E+00
         0.00000E+00
         0.00000E+00
         0.00000E+00
         0.00000E+00
         0.00000E+00
         0.00000E+00
         0.00000E+00
         0.00000E+00
         0.00000E+00
         0.00000E+00
         0.00000E+00
         0.00000E+00
         0.00000E+00
         0.00000E+00
         0.00000E+00
         0.00000E+00
         0.00000E+00
         0.00000E+00
         0.00000E+00
         0.00000E+00
         0.00000E+00
         0.00000E+00
         0.00000E+00
         0.00000E+00
         0.00000E+00
         0.00000E+00
         0.00000E+00
         0.00000E+00
         0.00000E+00
         0.00000E+00
         0.00000E+00
         0.00000E+00
         0.00000E+00
         0.00000E+00
         0.00000E+00
         0.00000E+00
         0.00000E+00
         0.00000E+00
         0.00000E+00
         0.00000E+00
         0.00000E+00
         0.00000E+00
         0.00000E+00
         0.00000E+00
         0.00000E+00
         0.00000E+00
         0.00000E+00
         0.00000E+00
         0.00000E+00
         0.00000E+00
         0.00000E+00
         0.00000E+00
         0.00000E+00
         0.00000E+00
         0.00000E+00
         0.00000E+00
         0.00000E+00
         0.00000E+00
         0.00000E+00
         0.00000E+00
         0.00000E+00
         0.00000E+00
         0.00000E+00
         0.00000E+00
         0.00000E+00
         0.00000E+00
         0.00000E+00
         0.00000E+00
         0.00000E+00
         0.00000E+00
         0.00000E+00
         0.00000E+00
         0.00000E+00
         0.00000E+00
         0.00000E+00
         0.00000E+00
         0.00000E+00
         0.00000E+00
         0.00000E+00
         0.00000E+00
         0.00000E+00
         0.00000E+00
         0.00000E+00
         0.00000E+00
         0.00000E+00
         0.00000E+00
         0.00000E+00
         0.00000E+00
         0.00000E+00
         0.00000E+00
         0.00000E+00
         0.00000E+00
         0.00000E+00
         0.00000E+00
         0.00000E+00
         0.00000E+00
         0.00000E+00
         0.00000E+00
         0.00000E+00
         0.00000E+00
         0.00000E+00
         0.00000E+00
         0.00000E+00
         0.00000E+00
         0.00000E+00
         0.00000E+00
         0.00000E+00
         0.00000E+00
         0.00000E+00
         0.00000E+00
         0.00000E+00
         0.00000E+00
         0.00000E+00
         0.00000E+00
         0.00000E+00
         0.00000E+00
         0.00000E+00
         0.00000E+00
         0.00000E+00
         0.00000E+00
         0.00000E+00
         0.00000E+00
         0.00000E+00
         0.00000E+00
         0.00000E+00
         0.00000E+00
         0.00000E+00
         0.00000E+00
         0.00000E+00
         0.00000E+00
         0.00000E+00
         0.00000E+00
         0.00000E+00
         0.00000E+00
         0.00000E+00
         0.00000E+00
         0.00000E+00
         0.00000E+00
         0.00000E+00
         0.00000E+00
         0.00000E+00
         0.00000E+00
         0.00000E+00
         0.00000E+00
         0.00000E+00
         0.00000E+00
         0.00000E+00
         0.00000E+00
         0.00000E+00
         0.00000E+00
         0.00000E+00
         0.00000E+00
         0.00000E+00
         0.00000E+00
         0.00000E+00
         0.00000E+00
         0.00000E+00
         0.00000E+00
         0.00000E+00
         0.00000E+00
         0.00000E+00
         0.00000E+00
         0.00000E+00
         0.00000E+00
         0.00000E+00
         0.00000E+00
         0.00000E+00
         0.00000E+00
         0.00000E+00
         0.00000E+00
         0.00000E+00
         0.00000E+00
         0.00000E+00
         0.00000E+00
         0.00000E+00
         0.00000E+00
         0.00000E+00
         0.00000E+00
         0.00000E+00
         0.00000E+00
         0.00000E+00
         0.00000E+00
         0.00000E+00
         0.00000E+00
         0.00000E+00
         0.00000E+00
         0.00000E+00
         0.00000E+00
         0.00000E+00
         0.00000E+00
         0.00000E+00
         0.00000E+00
         0.00000E+00
         0.00000E+00
         0.00000E+00
         0.00000E+00
         0.00000E+00
         0.00000E+00
         0.00000E+00
         0.00000E+00
         0.00000E+00
         0.00000E+00
         0.00000E+00
         0.00000E+00
         0.00000E+00
         0.00000E+00
         0.00000E+00
         0.00000E+00
         0.00000E+00
         0.00000E+00
         0.00000E+00
         0.00000E+00
         0.00000E+00
         0.00000E+00
         0.00000E+00
         0.00000E+00
         0.00000E+00
         0.00000E+00
         0.00000E+00
         0.00000E+00
         0.00000E+00
         0.00000E+00
         0.00000E+00
         0.00000E+00
         0.00000E+00
         0.00000E+00
         0.00000E+00
         0.00000E+00
         0.00000E+00
         0.00000E+00
         0.00000E+00
         0.00000E+00
         0.00000E+00
         0.00000E+00
         0.00000E+00
         0.00000E+00
         0.00000E+00
         0.00000E+00
         0.00000E+00
         0.00000E+00
         0.00000E+00
         0.00000E+00
         0.00000E+00
         0.00000E+00
         0.00000E+00
         0.00000E+00
         0.00000E+00
         0.00000E+00
         0.00000E+00
         0.00000E+00
         0.00000E+00
         0.00000E+00
         0.00000E+00
         0.00000E+00
         0.00000E+00
         0.00000E+00
         0.00000E+00
         0.00000E+00
         0.00000E+00
         0.00000E+00
         0.00000E+00
         0.00000E+00
         0.00000E+00
         0.00000E+00
         0.00000E+00
         0.00000E+00
         0.00000E+00
         0.00000E+00
         0.00000E+00
         0.00000E+00
         0.00000E+00
         0.00000E+00
         0.00000E+00
         0.00000E+00
         0.00000E+00
         0.00000E+00
         0.00000E+00
         0.00000E+00
         0.00000E+00
         0.00000E+00
         0.00000E+00
         0.00000E+00
         0.00000E+00
         0.00000E+00
         0.00000E+00
         0.00000E+00
         0.00000E+00
         0.00000E+00
         0.00000E+00
         0.00000E+00
         0.00000E+00
         0.00000E+00
         0.00000E+00
         0.00000E+00
         0.00000E+00
         0.00000E+00
         0.00000E+00
         0.00000E+00
         0.00000E+00
         0.00000E+00
         0.00000E+00
         0.00000E+00
         0.00000E+00
         0.00000E+00
         0.00000E+00
         0.00000E+00
         0.00000E+00
         0.00000E+00
         0.00000E+00
         0.00000E+00
         0.00000E+00
         0.00000E+00
         0.00000E+00
         0.00000E+00
         0.00000E+00
         0.00000E+00
         0.00000E+00
         0.00000E+00
         0.00000E+00
         0.00000E+00
         0.00000E+00
         0.00000E+00
         0.00000E+00
         0.00000E+00
         0.00000E+00
         0.00000E+00
         0.00000E+00
         0.00000E+00
         0.00000E+00
         0.00000E+00
         0.00000E+00
         0.00000E+00
         0.00000E+00
         0.00000E+00
         0.00000E+00
         0.00000E+00
         0.00000E+00
         0.00000E+00
         0.00000E+00
         0.00000E+00
         0.00000E+00
         0.00000E+00
         0.00000E+00
         0.00000E+00
         0.00000E+00
         0.00000E+00
         0.00000E+00
         0.00000E+00
         0.00000E+00
         0.00000E+00
         0.00000E+00
         0.00000E+00
         0.00000E+00
         0.00000E+00
         0.00000E+00
         0.00000E+00
         0.00000E+00
         0.00000E+00
         0.00000E+00
         0.00000E+00
         0.00000E+00
         0.00000E+00
         0.00000E+00
         0.00000E+00
         0.00000E+00
         0.00000E+00
         0.00000E+00
         0.00000E+00
         0.00000E+00
         0.00000E+00
         0.00000E+00
         0.00000E+00
         0.00000E+00
         0.00000E+00
         0.00000E+00
         0.00000E+00
         0.00000E+00
         0.00000E+00
         0.00000E+00
         0.00000E+00
         0.00000E+00
         0.00000E+00
         0.00000E+00
         0.00000E+00
         0.00000E+00
         0.00000E+00
         0.00000E+00
         0.00000E+00
         0.00000E+00
         0.00000E+00
         0.00000E+00
         0.00000E+00
         0.00000E+00
         0.00000E+00
         0.00000E+00
         0.00000E+00
         0.00000E+00
         0.00000E+00
         0.00000E+00
         0.00000E+00
         0.00000E+00
         0.00000E+00
         0.00000E+00
         0.00000E+00
         0.00000E+00
         0.00000E+00
         0.00000E+00
         0.00000E+00
         0.00000E+00
         0.00000E+00
         0.00000E+00
         0.00000E+00
         0.00000E+00
         0.00000E+00
         0.00000E+00
         0.00000E+00
         0.00000E+00
         0.00000E+00
         0.00000E+00
         0.00000E+00
         0.00000E+00
         0.00000E+00
         0.00000E+00
         0.00000E+00
         0.00000E+00
         0.00000E+00
         0.00000E+00
         0.00000E+00
         0.00000E+00
         0.00000E+00
         0.00000E+00
         0.00000E+00
         0.00000E+00
         0.00000E+00
         0.00000E+00
         0.00000E+00
         0.00000E+00
         0.00000E+00
         0.00000E+00
         0.00000E+00
         0.00000E+00
         0.00000E+00
         0.00000E+00
         0.00000E+00
         0.00000E+00
         0.00000E+00
         0.00000E+00
         0.00000E+00
         0.00000E+00
         0.00000E+00
         0.00000E+00
         0.00000E+00
         0.00000E+00
         0.00000E+00
         0.00000E+00
         0.00000E+00
         0.00000E+00
         0.00000E+00
         0.00000E+00
         0.00000E+00
  
SCALARS                     velocity_y  double 1
LOOKUP_TABLE default
         0.00000E+00
         0.00000E+00
         0.00000E+00
         0.00000E+00
         0.00000E+00
         0.00000E+00
         0.00000E+00
         0.00000E+00
         0.00000E+00
         0.00000E+00
         0.00000E+00
         0.00000E+00
         0.00000E+00
         0.00000E+00
         0.00000E+00
         0.00000E+00
         0.00000E+00
         0.00000E+00
         0.00000E+00
         0.00000E+00
         0.00000E+00
         0.00000E+00
         0.00000E+00
         0.00000E+00
         0.00000E+00
         0.00000E+00
         0.00000E+00
         0.00000E+00
         0.00000E+00
         0.00000E+00
         0.00000E+00
         0.00000E+00
         0.00000E+00
         0.00000E+00
         0.00000E+00
         0.00000E+00
         0.00000E+00
         0.00000E+00
         0.00000E+00
         0.00000E+00
         0.00000E+00
         0.00000E+00
         0.00000E+00
         0.00000E+00
         0.00000E+00
         0.00000E+00
         0.00000E+00
         0.00000E+00
         0.00000E+00
         0.00000E+00
         0.00000E+00
         0.00000E+00
         0.00000E+00
         0.00000E+00
         0.00000E+00
         0.00000E+00
         0.00000E+00
         0.00000E+00
         0.00000E+00
         0.00000E+00
         0.00000E+00
         0.00000E+00
         0.00000E+00
         0.00000E+00
         0.00000E+00
         0.00000E+00
         0.00000E+00
         0.00000E+00
         0.00000E+00
         0.00000E+00
         0.00000E+00
         0.00000E+00
         0.00000E+00
         0.00000E+00
         0.00000E+00
         0.00000E+00
         0.00000E+00
         0.00000E+00
         0.00000E+00
         0.00000E+00
         0.00000E+00
         0.00000E+00
         0.00000E+00
         0.00000E+00
         0.00000E+00
         0.00000E+00
         0.00000E+00
         0.00000E+00
         0.00000E+00
         0.00000E+00
         0.00000E+00
         0.00000E+00
         0.00000E+00
         0.00000E+00
         0.00000E+00
         0.00000E+00
         0.00000E+00
         0.00000E+00
         0.00000E+00
         0.00000E+00
         0.00000E+00
         0.00000E+00
         0.00000E+00
         0.00000E+00
         0.00000E+00
         0.00000E+00
         0.00000E+00
         0.00000E+00
         0.00000E+00
         0.00000E+00
         0.00000E+00
         0.00000E+00
         0.00000E+00
         0.00000E+00
         0.00000E+00
         0.00000E+00
         0.00000E+00
         0.00000E+00
         0.00000E+00
         0.00000E+00
         0.00000E+00
         0.00000E+00
         0.00000E+00
         0.00000E+00
         0.00000E+00
         0.00000E+00
         0.00000E+00
         0.00000E+00
         0.00000E+00
         0.00000E+00
         0.00000E+00
         0.00000E+00
         0.00000E+00
         0.00000E+00
         0.00000E+00
         0.00000E+00
         0.00000E+00
         0.00000E+00
         0.00000E+00
         0.00000E+00
         0.00000E+00
         0.00000E+00
         0.00000E+00
         0.00000E+00
         0.00000E+00
         0.00000E+00
         0.00000E+00
         0.00000E+00
         0.00000E+00
         0.00000E+00
         0.00000E+00
         0.00000E+00
         0.00000E+00
         0.00000E+00
         0.00000E+00
         0.00000E+00
         0.00000E+00
         0.00000E+00
         0.00000E+00
         0.00000E+00
         0.00000E+00
         0.00000E+00
         0.00000E+00
         0.00000E+00
         0.00000E+00
         0.00000E+00
         0.00000E+00
         0.00000E+00
         0.00000E+00
         0.00000E+00
         0.00000E+00
         0.00000E+00
         0.00000E+00
         0.00000E+00
         0.00000E+00
         0.00000E+00
         0.00000E+00
         0.00000E+00
         0.00000E+00
         0.00000E+00
         0.00000E+00
         0.00000E+00
         0.00000E+00
         0.00000E+00
         0.00000E+00
         0.00000E+00
         0.00000E+00
         0.00000E+00
         0.00000E+00
         0.00000E+00
         0.00000E+00
         0.00000E+00
         0.00000E+00
         0.00000E+00
         0.00000E+00
         0.00000E+00
         0.00000E+00
         0.00000E+00
         0.00000E+00
         0.00000E+00
         0.00000E+00
         0.00000E+00
         0.00000E+00
         0.00000E+00
         0.00000E+00
         0.00000E+00
         0.00000E+00
         0.00000E+00
         0.00000E+00
         0.00000E+00
         0.00000E+00
         0.00000E+00
         0.00000E+00
         0.00000E+00
         0.00000E+00
         0.00000E+00
         0.00000E+00
         0.00000E+00
         0.00000E+00
         0.00000E+00
         0.00000E+00
         0.00000E+00
         0.00000E+00
         0.00000E+00
         0.00000E+00
         0.00000E+00
         0.00000E+00
         0.00000E+00
         0.00000E+00
         0.00000E+00
         0.00000E+00
         0.00000E+00
         0.00000E+00
         0.00000E+00
         0.00000E+00
         0.00000E+00
         0.00000E+00
         0.00000E+00
         0.00000E+00
         0.00000E+00
         0.00000E+00
         0.00000E+00
         0.00000E+00
         0.00000E+00
         0.00000E+00
         0.00000E+00
         0.00000E+00
         0.00000E+00
         0.00000E+00
         0.00000E+00
         0.00000E+00
         0.00000E+00
         0.00000E+00
         0.00000E+00
         0.00000E+00
         0.00000E+00
         0.00000E+00
         0.00000E+00
         0.00000E+00
         0.00000E+00
         0.00000E+00
         0.00000E+00
         0.00000E+00
         0.00000E+00
         0.00000E+00
         0.00000E+00
         0.00000E+00
         0.00000E+00
         0.00000E+00
         0.00000E+00
         0.00000E+00
         0.00000E+00
         0.00000E+00
         0.00000E+00
         0.00000E+00
         0.00000E+00
         0.00000E+00
         0.00000E+00
         0.00000E+00
         0.00000E+00
         0.00000E+00
         0.00000E+00
         0.00000E+00
         0.00000E+00
         0.00000E+00
         0.00000E+00
         0.00000E+00
         0.00000E+00
         0.00000E+00
         0.00000E+00
         0.00000E+00
         0.00000E+00
         0.00000E+00
         0.00000E+00
         0.00000E+00
         0.00000E+00
         0.00000E+00
         0.00000E+00
         0.00000E+00
         0.00000E+00
         0.00000E+00
         0.00000E+00
         0.00000E+00
         0.00000E+00
         0.00000E+00
         0.00000E+00
         0.00000E+00
         0.00000E+00
         0.00000E+00
         0.00000E+00
         0.00000E+00
         0.00000E+00
         0.00000E+00
         0.00000E+00
         0.00000E+00
         0.00000E+00
         0.00000E+00
         0.00000E+00
         0.00000E+00
         0.00000E+00
         0.00000E+00
         0.00000E+00
         0.00000E+00
         0.00000E+00
         0.00000E+00
         0.00000E+00
         0.00000E+00
         0.00000E+00
         0.00000E+00
         0.00000E+00
         0.00000E+00
         0.00000E+00
         0.00000E+00
         0.00000E+00
         0.00000E+00
         0.00000E+00
         0.00000E+00
         0.00000E+00
         0.00000E+00
         0.00000E+00
         0.00000E+00
         0.00000E+00
         0.00000E+00
         0.00000E+00
         0.00000E+00
         0.00000E+00
         0.00000E+00
         0.00000E+00
         0.00000E+00
         0.00000E+00
         0.00000E+00
         0.00000E+00
         0.00000E+00
         0.00000E+00
         0.00000E+00
         0.00000E+00
         0.00000E+00
         0.00000E+00
         0.00000E+00
         0.00000E+00
         0.00000E+00
         0.00000E+00
         0.00000E+00
         0.00000E+00
         0.00000E+00
         0.00000E+00
         0.00000E+00
         0.00000E+00
         0.00000E+00
         0.00000E+00
         0.00000E+00
         0.00000E+00
         0.00000E+00
         0.00000E+00
         0.00000E+00
         0.00000E+00
         0.00000E+00
         0.00000E+00
         0.00000E+00
         0.00000E+00
         0.00000E+00
         0.00000E+00
         0.00000E+00
         0.00000E+00
         0.00000E+00
         0.00000E+00
         0.00000E+00
         0.00000E+00
         0.00000E+00
         0.00000E+00
         0.00000E+00
         0.00000E+00
         0.00000E+00
         0.00000E+00
         0.00000E+00
         0.00000E+00
         0.00000E+00
         0.00000E+00
         0.00000E+00
         0.00000E+00
         0.00000E+00
         0.00000E+00
         0.00000E+00
         0.00000E+00
         0.00000E+00
         0.00000E+00
         0.00000E+00
         0.00000E+00
         0.00000E+00
         0.00000E+00
         0.00000E+00
         0.00000E+00
         0.00000E+00
         0.00000E+00
         0.00000E+00
         0.00000E+00
         0.00000E+00
         0.00000E+00
         0.00000E+00
         0.00000E+00
         0.00000E+00
         0.00000E+00
         0.00000E+00
         0.00000E+00
         0.00000E+00
         0.00000E+00
         0.00000E+00
         0.00000E+00
         0.00000E+00
         0.00000E+00
         0.00000E+00
         0.00000E+00
         0.00000E+00
         0.00000E+00
         0.00000E+00
         0.00000E+00
         0.00000E+00
         0.00000E+00
         0.00000E+00
         0.00000E+00
         0.00000E+00
         0.00000E+00
         0.00000E+00
         0.00000E+00
         0.00000E+00
         0.00000E+00
         0.00000E+00
         0.00000E+00
         0.00000E+00
         0.00000E+00
         0.00000E+00
         0.00000E+00
         0.00000E+00
         0.00000E+00
         0.00000E+00
         0.00000E+00
         0.00000E+00
         0.00000E+00
         0.00000E+00
         0.00000E+00
         0.00000E+00
         0.00000E+00
         0.00000E+00
         0.00000E+00
         0.00000E+00
         0.00000E+00
         0.00000E+00
         0.00000E+00
         0.00000E+00
         0.00000E+00
         0.00000E+00
         0.00000E+00
         0.00000E+00
         0.00000E+00
         0.00000E+00
         0.00000E+00
         0.00000E+00
         0.00000E+00
         0.00000E+00
         0.00000E+00
         0.00000E+00
         0.00000E+00
         0.00000E+00
         0.00000E+00
         0.00000E+00
         0.00000E+00
         0.00000E+00
         0.00000E+00
         0.00000E+00
         0.00000E+00
         0.00000E+00
         0.00000E+00
         0.00000E+00
         0.00000E+00
         0.00000E+00
         0.00000E+00
         0.00000E+00
         0.00000E+00
         0.00000E+00
         0.00000E+00
         0.00000E+00
         0.00000E+00
         0.00000E+00
         0.00000E+00
         0.00000E+00
         0.00000E+00
         0.00000E+00
         0.00000E+00
         0.00000E+00
         0.00000E+00
         0.00000E+00
         0.00000E+00
         0.00000E+00
         0.00000E+00
         0.00000E+00
         0.00000E+00
         0.00000E+00
         0.00000E+00
         0.00000E+00
         0.00000E+00
         0.00000E+00
         0.00000E+00
         0.00000E+00
         0.00000E+00
         0.00000E+00
         0.00000E+00
         0.00000E+00
         0.00000E+00
         0.00000E+00
         0.00000E+00
         0.00000E+00
         0.00000E+00
         0.00000E+00
         0.00000E+00
         0.00000E+00
         0.00000E+00
         0.00000E+00
         0.00000E+00
         0.00000E+00
         0.00000E+00
         0.00000E+00
         0.00000E+00
         0.00000E+00
         0.00000E+00
         0.00000E+00
         0.00000E+00
         0.00000E+00
         0.00000E+00
         0.00000E+00
         0.00000E+00
         0.00000E+00
         0.00000E+00
         0.00000E+00
         0.00000E+00
         0.00000E+00
         0.00000E+00
         0.00000E+00
         0.00000E+00
         0.00000E+00
         0.00000E+00
         0.00000E+00
         0.00000E+00
         0.00000E+00
         0.00000E+00
         0.00000E+00
         0.00000E+00
         0.00000E+00
         0.00000E+00
         0.00000E+00
         0.00000E+00
         0.00000E+00
         0.00000E+00
         0.00000E+00
         0.00000E+00
         0.00000E+00
         0.00000E+00
         0.00000E+00
         0.00000E+00
         0.00000E+00
         0.00000E+00
         0.00000E+00
         0.00000E+00
         0.00000E+00
         0.00000E+00
         0.00000E+00
         0.00000E+00
         0.00000E+00
         0.00000E+00
         0.00000E+00
         0.00000E+00
         0.00000E+00
         0.00000E+00
         0.00000E+00
         0.00000E+00
         0.00000E+00
         0.00000E+00
         0.00000E+00
         0.00000E+00
         0.00000E+00
         0.00000E+00
         0.00000E+00
         0.00000E+00
         0.00000E+00
         0.00000E+00
         0.00000E+00
         0.00000E+00
         0.00000E+00
         0.00000E+00
         0.00000E+00
         0.00000E+00
         0.00000E+00
         0.00000E+00
         0.00000E+00
         0.00000E+00
         0.00000E+00
         0.00000E+00
         0.00000E+00
         0.00000E+00
         0.00000E+00
         0.00000E+00
         0.00000E+00
         0.00000E+00
         0.00000E+00
         0.00000E+00
         0.00000E+00
         0.00000E+00
         0.00000E+00
         0.00000E+00
         0.00000E+00
         0.00000E+00
         0.00000E+00
         0.00000E+00
         0.00000E+00
         0.00000E+00
         0.00000E+00
         0.00000E+00
         0.00000E+00
         0.00000E+00
         0.00000E+00
         0.00000E+00
         0.00000E+00
         0.00000E+00
         0.00000E+00
         0.00000E+00
         0.00000E+00
         0.00000E+00
         0.00000E+00
         0.00000E+00
         0.00000E+00
         0.00000E+00
         0.00000E+00
         0.00000E+00
         0.00000E+00
         0.00000E+00
         0.00000E+00
         0.00000E+00
         0.00000E+00
         0.00000E+00
         0.00000E+00
         0.00000E+00
         0.00000E+00
         0.00000E+00
         0.00000E+00
         0.00000E+00
         0.00000E+00
         0.00000E+00
         0.00000E+00
         0.00000E+00
         0.00000E+00
         0.00000E+00
         0.00000E+00
         0.00000E+00
         0.00000E+00
         0.00000E+00
         0.00000E+00
         0.00000E+00
         0.00000E+00
         0.00000E+00
         0.00000E+00
         0.00000E+00
         0.00000E+00
         0.00000E+00
         0.00000E+00
         0.00000E+00
         0.00000E+00
         0.00000E+00
         0.00000E+00
         0.00000E+00
         0.00000E+00
         0.00000E+00
         0.00000E+00
         0.00000E+00
         0.00000E+00
         0.00000E+00
         0.00000E+00
         0.00000E+00
         0.00000E+00
         0.00000E+00
         0.00000E+00
         0.00000E+00
         0.00000E+00
         0.00000E+00
         0.00000E+00
         0.00000E+00
         0.00000E+00
         0.00000E+00
         0.00000E+00
         0.00000E+00
         0.00000E+00
         0.00000E+00
         0.00000E+00
         0.00000E+00
         0.00000E+00
         0.00000E+00
         0.00000E+00
         0.00000E+00
         0.00000E+00
         0.00000E+00
         0.00000E+00
         0.00000E+00
         0.00000E+00
         0.00000E+00
         0.00000E+00
         0.00000E+00
         0.00000E+00
         0.00000E+00
         0.00000E+00
         0.00000E+00
         0.00000E+00
         0.00000E+00
         0.00000E+00
         0.00000E+00
         0.00000E+00
         0.00000E+00
         0.00000E+00
         0.00000E+00
         0.00000E+00
         0.00000E+00
         0.00000E+00
         0.00000E+00
         0.00000E+00
         0.00000E+00
         0.00000E+00
         0.00000E+00
         0.00000E+00
         0.00000E+00
         0.00000E+00
         0.00000E+00
         0.00000E+00
         0.00000E+00
         0.00000E+00
         0.00000E+00
         0.00000E+00
         0.00000E+00
         0.00000E+00
         0.00000E+00
         0.00000E+00
         0.00000E+00
         0.00000E+00
         0.00000E+00
         0.00000E+00
         0.00000E+00
         0.00000E+00
         0.00000E+00
         0.00000E+00
         0.00000E+00
         0.00000E+00
         0.00000E+00
         0.00000E+00
         0.00000E+00
         0.00000E+00
         0.00000E+00
         0.00000E+00
         0.00000E+00
         0.00000E+00
         0.00000E+00
         0.00000E+00
         0.00000E+00
         0.00000E+00
         0.00000E+00
         0.00000E+00
         0.00000E+00
         0.00000E+00
         0.00000E+00
         0.00000E+00
         0.00000E+00
         0.00000E+00
         0.00000E+00
         0.00000E+00
         0.00000E+00
         0.00000E+00
         0.00000E+00
         0.00000E+00
         0.00000E+00
         0.00000E+00
         0.00000E+00
         0.00000E+00
         0.00000E+00
         0.00000E+00
         0.00000E+00
         0.00000E+00
         0.00000E+00
         0.00000E+00
         0.00000E+00
         0.00000E+00
         0.00000E+00
         0.00000E+00
         0.00000E+00
         0.00000E+00
         0.00000E+00
         0.00000E+00
         0.00000E+00
         0.00000E+00
         0.00000E+00
         0.00000E+00
         0.00000E+00
         0.00000E+00
         0.00000E+00
         0.00000E+00
         0.00000E+00
         0.00000E+00
         0.00000E+00
         0.00000E+00
         0.00000E+00
         0.00000E+00
         0.00000E+00
         0.00000E+00
         0.00000E+00
         0.00000E+00
         0.00000E+00
         0.00000E+00
         0.00000E+00
         0.00000E+00
         0.00000E+00
         0.00000E+00
         0.00000E+00
         0.00000E+00
         0.00000E+00
         0.00000E+00
         0.00000E+00
         0.00000E+00
         0.00000E+00
         0.00000E+00
         0.00000E+00
         0.00000E+00
         0.00000E+00
         0.00000E+00
         0.00000E+00
         0.00000E+00
         0.00000E+00
         0.00000E+00
         0.00000E+00
         0.00000E+00
         0.00000E+00
         0.00000E+00
         0.00000E+00
         0.00000E+00
         0.00000E+00
         0.00000E+00
         0.00000E+00
         0.00000E+00
         0.00000E+00
         0.00000E+00
         0.00000E+00
         0.00000E+00
         0.00000E+00
         0.00000E+00
         0.00000E+00
         0.00000E+00
         0.00000E+00
         0.00000E+00
         0.00000E+00
         0.00000E+00
         0.00000E+00
         0.00000E+00
         0.00000E+00
         0.00000E+00
         0.00000E+00
         0.00000E+00
         0.00000E+00
         0.00000E+00
         0.00000E+00
         0.00000E+00
         0.00000E+00
         0.00000E+00
         0.00000E+00
         0.00000E+00
         0.00000E+00
         0.00000E+00
         0.00000E+00
         0.00000E+00
         0.00000E+00
         0.00000E+00
         0.00000E+00
         0.00000E+00
         0.00000E+00
         0.00000E+00
         0.00000E+00
         0.00000E+00
         0.00000E+00
         0.00000E+00
         0.00000E+00
         0.00000E+00
         0.00000E+00
         0.00000E+00
         0.00000E+00
         0.00000E+00
         0.00000E+00
         0.00000E+00
         0.00000E+00
         0.00000E+00
         0.00000E+00
         0.00000E+00
         0.00000E+00
         0.00000E+00
         0.00000E+00
         0.00000E+00
         0.00000E+00
         0.00000E+00
         0.00000E+00
         0.00000E+00
         0.00000E+00
         0.00000E+00
         0.00000E+00
         0.00000E+00
         0.00000E+00
         0.00000E+00
         0.00000E+00
         0.00000E+00
         0.00000E+00
         0.00000E+00
         0.00000E+00
         0.00000E+00
         0.00000E+00
         0.00000E+00
         0.00000E+00
         0.00000E+00
         0.00000E+00
         0.00000E+00
         0.00000E+00
         0.00000E+00
         0.00000E+00
         0.00000E+00
         0.00000E+00
         0.00000E+00
         0.00000E+00
         0.00000E+00
         0.00000E+00
         0.00000E+00
         0.00000E+00
         0.00000E+00
         0.00000E+00
         0.00000E+00
         0.00000E+00
         0.00000E+00
         0.00000E+00
         0.00000E+00
         0.00000E+00
         0.00000E+00
         0.00000E+00
         0.00000E+00
         0.00000E+00
         0.00000E+00
         0.00000E+00
         0.00000E+00
         0.00000E+00
         0.00000E+00
         0.00000E+00
         0.00000E+00
         0.00000E+00
         0.00000E+00
         0.00000E+00
         0.00000E+00
         0.00000E+00
         0.00000E+00
         0.00000E+00
         0.00000E+00
         0.00000E+00
         0.00000E+00
         0.00000E+00
         0.00000E+00
         0.00000E+00
         0.00000E+00
         0.00000E+00
         0.00000E+00
         0.00000E+00
         0.00000E+00
         0.00000E+00
         0.00000E+00
         0.00000E+00
         0.00000E+00
         0.00000E+00
         0.00000E+00
         0.00000E+00
         0.00000E+00
         0.00000E+00
         0.00000E+00
         0.00000E+00
         0.00000E+00
         0.00000E+00
         0.00000E+00
         0.00000E+00
         0.00000E+00
         0.00000E+00
         0.00000E+00
         0.00000E+00
         0.00000E+00
         0.00000E+00
         0.00000E+00
         0.00000E+00
         0.00000E+00
         0.00000E+00
         0.00000E+00
         0.00000E+00
         0.00000E+00
         0.00000E+00
         0.00000E+00
         0.00000E+00
         0.00000E+00
         0.00000E+00
         0.00000E+00
         0.00000E+00
         0.00000E+00
         0.00000E+00
         0.00000E+00
         0.00000E+00
         0.00000E+00
         0.00000E+00
         0.00000E+00
         0.00000E+00
         0.00000E+00
         0.00000E+00
         0.00000E+00
         0.00000E+00
         0.00000E+00
         0.00000E+00
         0.00000E+00
         0.00000E+00
         0.00000E+00
         0.00000E+00
         0.00000E+00
         0.00000E+00
         0.00000E+00
         0.00000E+00
         0.00000E+00
         0.00000E+00
         0.00000E+00
         0.00000E+00
         0.00000E+00
         0.00000E+00
         0.00000E+00
         0.00000E+00
         0.00000E+00
         0.00000E+00
         0.00000E+00
         0.00000E+00
         0.00000E+00
         0.00000E+00
         0.00000E+00
         0.00000E+00
         0.00000E+00
         0.00000E+00
         0.00000E+00
         0.00000E+00
         0.00000E+00
         0.00000E+00
         0.00000E+00
         0.00000E+00
         0.00000E+00
         0.00000E+00
         0.00000E+00
         0.00000E+00
         0.00000E+00
         0.00000E+00
         0.00000E+00
         0.00000E+00
         0.00000E+00
         0.00000E+00
         0.00000E+00
         0.00000E+00
         0.00000E+00
         0.00000E+00
         0.00000E+00
         0.00000E+00
         0.00000E+00
         0.00000E+00
         0.00000E+00
         0.00000E+00
         0.00000E+00
         0.00000E+00
         0.00000E+00
         0.00000E+00
         0.00000E+00
         0.00000E+00
         0.00000E+00
         0.00000E+00
         0.00000E+00
         0.00000E+00
         0.00000E+00
         0.00000E+00
         0.00000E+00
         0.00000E+00
         0.00000E+00
         0.00000E+00
         0.00000E+00
         0.00000E+00
         0.00000E+00
         0.00000E+00
         0.00000E+00
         0.00000E+00
         0.00000E+00
         0.00000E+00
         0.00000E+00
         0.00000E+00
         0.00000E+00
         0.00000E+00
         0.00000E+00
         0.00000E+00
         0.00000E+00
         0.00000E+00
         0.00000E+00
         0.00000E+00
         0.00000E+00
         0.00000E+00
         0.00000E+00
         0.00000E+00
         0.00000E+00
         0.00000E+00
         0.00000E+00
         0.00000E+00
         0.00000E+00
         0.00000E+00
         0.00000E+00
         0.00000E+00
         0.00000E+00
         0.00000E+00
         0.00000E+00
         0.00000E+00
         0.00000E+00
         0.00000E+00
         0.00000E+00
         0.00000E+00
         0.00000E+00
         0.00000E+00
         0.00000E+00
         0.00000E+00
         0.00000E+00
         0.00000E+00
         0.00000E+00
         0.00000E+00
         0.00000E+00
         0.00000E+00
         0.00000E+00
         0.00000E+00
         0.00000E+00
         0.00000E+00
         0.00000E+00
         0.00000E+00
         0.00000E+00
         0.00000E+00
         0.00000E+00
         0.00000E+00
         0.00000E+00
         0.00000E+00
         0.00000E+00
         0.00000E+00
         0.00000E+00
         0.00000E+00
         0.00000E+00
         0.00000E+00
         0.00000E+00
         0.00000E+00
         0.00000E+00
         0.00000E+00
         0.00000E+00
         0.00000E+00
         0.00000E+00
         0.00000E+00
         0.00000E+00
         0.00000E+00
         0.00000E+00
         0.00000E+00
         0.00000E+00
         0.00000E+00
         0.00000E+00
         0.00000E+00
         0.00000E+00
         0.00000E+00
         0.00000E+00
         0.00000E+00
         0.00000E+00
         0.00000E+00
         0.00000E+00
         0.00000E+00
         0.00000E+00
         0.00000E+00
         0.00000E+00
         0.00000E+00
         0.00000E+00
         0.00000E+00
         0.00000E+00
         0.00000E+00
         0.00000E+00
         0.00000E+00
         0.00000E+00
         0.00000E+00
         0.00000E+00
         0.00000E+00
         0.00000E+00
         0.00000E+00
         0.00000E+00
         0.00000E+00
         0.00000E+00
         0.00000E+00
         0.00000E+00
         0.00000E+00
         0.00000E+00
         0.00000E+00
         0.00000E+00
         0.00000E+00
         0.00000E+00
         0.00000E+00
         0.00000E+00
         0.00000E+00
         0.00000E+00
         0.00000E+00
         0.00000E+00
         0.00000E+00
         0.00000E+00
         0.00000E+00
         0.00000E+00
         0.00000E+00
         0.00000E+00
         0.00000E+00
         0.00000E+00
         0.00000E+00
         0.00000E+00
         0.00000E+00
         0.00000E+00
         0.00000E+00
         0.00000E+00
         0.00000E+00
         0.00000E+00
         0.00000E+00
         0.00000E+00
         0.00000E+00
         0.00000E+00
         0.00000E+00
         0.00000E+00
         0.00000E+00
         0.00000E+00
         0.00000E+00
         0.00000E+00
         0.00000E+00
         0.00000E+00
         0.00000E+00
         0.00000E+00
         0.00000E+00
         0.00000E+00
         0.00000E+00
         0.00000E+00
         0.00000E+00
         0.00000E+00
         0.00000E+00
         0.00000E+00
         0.00000E+00
         0.00000E+00
         0.00000E+00
         0.00000E+00
         0.00000E+00
         0.00000E+00
         0.00000E+00
         0.00000E+00
         0.00000E+00
         0.00000E+00
         0.00000E+00
         0.00000E+00
         0.00000E+00
         0.00000E+00
         0.00000E+00
         0.00000E+00
         0.00000E+00
         0.00000E+00
         0.00000E+00
         0.00000E+00
         0.00000E+00
         0.00000E+00
         0.00000E+00
         0.00000E+00
         0.00000E+00
         0.00000E+00
         0.00000E+00
         0.00000E+00
         0.00000E+00
         0.00000E+00
         0.00000E+00
         0.00000E+00
         0.00000E+00
         0.00000E+00
         0.00000E+00
         0.00000E+00
         0.00000E+00
         0.00000E+00
         0.00000E+00
         0.00000E+00
         0.00000E+00
         0.00000E+00
         0.00000E+00
         0.00000E+00
         0.00000E+00
         0.00000E+00
         0.00000E+00
         0.00000E+00
         0.00000E+00
         0.00000E+00
         0.00000E+00
         0.00000E+00
         0.00000E+00
         0.00000E+00
         0.00000E+00
         0.00000E+00
         0.00000E+00
         0.00000E+00
         0.00000E+00
         0.00000E+00
         0.00000E+00
         0.00000E+00
         0.00000E+00
         0.00000E+00
         0.00000E+00
         0.00000E+00
         0.00000E+00
         0.00000E+00
         0.00000E+00
         0.00000E+00
         0.00000E+00
         0.00000E+00
         0.00000E+00
         0.00000E+00
         0.00000E+00
         0.00000E+00
         0.00000E+00
         0.00000E+00
         0.00000E+00
         0.00000E+00
         0.00000E+00
         0.00000E+00
         0.00000E+00
         0.00000E+00
         0.00000E+00
         0.00000E+00
         0.00000E+00
         0.00000E+00
         0.00000E+00
         0.00000E+00
         0.00000E+00
         0.00000E+00
         0.00000E+00
         0.00000E+00
         0.00000E+00
         0.00000E+00
         0.00000E+00
         0.00000E+00
         0.00000E+00
         0.00000E+00
         0.00000E+00
         0.00000E+00
         0.00000E+00
         0.00000E+00
         0.00000E+00
         0.00000E+00
         0.00000E+00
         0.00000E+00
         0.00000E+00
         0.00000E+00
         0.00000E+00
         0.00000E+00
         0.00000E+00
         0.00000E+00
         0.00000E+00
         0.00000E+00
         0.00000E+00
         0.00000E+00
         0.00000E+00
         0.00000E+00
         0.00000E+00
         0.00000E+00
         0.00000E+00
         0.00000E+00
         0.00000E+00
         0.00000E+00
         0.00000E+00
         0.00000E+00
         0.00000E+00
         0.00000E+00
         0.00000E+00
         0.00000E+00
         0.00000E+00
         0.00000E+00
         0.00000E+00
         0.00000E+00
         0.00000E+00
         0.00000E+00
         0.00000E+00
         0.00000E+00
         0.00000E+00
         0.00000E+00
         0.00000E+00
         0.00000E+00
         0.00000E+00
         0.00000E+00
         0.00000E+00
         0.00000E+00
         0.00000E+00
         0.00000E+00
         0.00000E+00
         0.00000E+00
         0.00000E+00
         0.00000E+00
         0.00000E+00
         0.00000E+00
         0.00000E+00
         0.00000E+00
         0.00000E+00
         0.00000E+00
         0.00000E+00
         0.00000E+00
         0.00000E+00
         0.00000E+00
         0.00000E+00
         0.00000E+00
         0.00000E+00
         0.00000E+00
         0.00000E+00
         0.00000E+00
         0.00000E+00
         0.00000E+00
         0.00000E+00
         0.00000E+00
         0.00000E+00
         0.00000E+00
         0.00000E+00
         0.00000E+00
         0.00000E+00
         0.00000E+00
         0.00000E+00
         0.00000E+00
         0.00000E+00
         0.00000E+00
         0.00000E+00
         0.00000E+00
         0.00000E+00
         0.00000E+00
         0.00000E+00
         0.00000E+00
         0.00000E+00
         0.00000E+00
         0.00000E+00
         0.00000E+00
         0.00000E+00
         0.00000E+00
         0.00000E+00
         0.00000E+00
         0.00000E+00
         0.00000E+00
         0.00000E+00
         0.00000E+00
         0.00000E+00
         0.00000E+00
         0.00000E+00
         0.00000E+00
         0.00000E+00
         0.00000E+00
         0.00000E+00
         0.00000E+00
         0.00000E+00
         0.00000E+00
         0.00000E+00
         0.00000E+00
         0.00000E+00
         0.00000E+00
         0.00000E+00
         0.00000E+00
         0.00000E+00
         0.00000E+00
         0.00000E+00
         0.00000E+00
         0.00000E+00
         0.00000E+00
         0.00000E+00
         0.00000E+00
         0.00000E+00
         0.00000E+00
         0.00000E+00
         0.00000E+00
         0.00000E+00
         0.00000E+00
         0.00000E+00
         0.00000E+00
         0.00000E+00
         0.00000E+00
         0.00000E+00
         0.00000E+00
         0.00000E+00
         0.00000E+00
         0.00000E+00
         0.00000E+00
         0.00000E+00
         0.00000E+00
         0.00000E+00
         0.00000E+00
         0.00000E+00
         0.00000E+00
         0.00000E+00
         0.00000E+00
         0.00000E+00
         0.00000E+00
         0.00000E+00
         0.00000E+00
         0.00000E+00
         0.00000E+00
         0.00000E+00
         0.00000E+00
         0.00000E+00
         0.00000E+00
         0.00000E+00
         0.00000E+00
         0.00000E+00
         0.00000E+00
         0.00000E+00
         0.00000E+00
         0.00000E+00
         0.00000E+00
         0.00000E+00
         0.00000E+00
         0.00000E+00
         0.00000E+00
         0.00000E+00
         0.00000E+00
         0.00000E+00
         0.00000E+00
         0.00000E+00
         0.00000E+00
         0.00000E+00
         0.00000E+00
         0.00000E+00
         0.00000E+00
         0.00000E+00
         0.00000E+00
         0.00000E+00
         0.00000E+00
         0.00000E+00
         0.00000E+00
         0.00000E+00
         0.00000E+00
         0.00000E+00
         0.00000E+00
         0.00000E+00
         0.00000E+00
         0.00000E+00
         0.00000E+00
         0.00000E+00
         0.00000E+00
         0.00000E+00
         0.00000E+00
         0.00000E+00
         0.00000E+00
         0.00000E+00
         0.00000E+00
         0.00000E+00
         0.00000E+00
         0.00000E+00
         0.00000E+00
         0.00000E+00
         0.00000E+00
         0.00000E+00
         0.00000E+00
         0.00000E+00
         0.00000E+00
         0.00000E+00
         0.00000E+00
         0.00000E+00
         0.00000E+00
         0.00000E+00
         0.00000E+00
         0.00000E+00
         0.00000E+00
         0.00000E+00
         0.00000E+00
         0.00000E+00
         0.00000E+00
         0.00000E+00
         0.00000E+00
         0.00000E+00
         0.00000E+00
         0.00000E+00
         0.00000E+00
         0.00000E+00
         0.00000E+00
         0.00000E+00
         0.00000E+00
         0.00000E+00
         0.00000E+00
         0.00000E+00
         0.00000E+00
         0.00000E+00
         0.00000E+00
         0.00000E+00
         0.00000E+00
         0.00000E+00
         0.00000E+00
         0.00000E+00
         0.00000E+00
         0.00000E+00
         0.00000E+00
         0.00000E+00
         0.00000E+00
         0.00000E+00
         0.00000E+00
         0.00000E+00
         0.00000E+00
         0.00000E+00
         0.00000E+00
         0.00000E+00
         0.00000E+00
         0.00000E+00
         0.00000E+00
         0.00000E+00
         0.00000E+00
         0.00000E+00
         0.00000E+00
         0.00000E+00
         0.00000E+00
         0.00000E+00
         0.00000E+00
         0.00000E+00
         0.00000E+00
         0.00000E+00
         0.00000E+00
         0.00000E+00
         0.00000E+00
         0.00000E+00
         0.00000E+00
         0.00000E+00
         0.00000E+00
         0.00000E+00
         0.00000E+00
         0.00000E+00
         0.00000E+00
         0.00000E+00
         0.00000E+00
         0.00000E+00
         0.00000E+00
         0.00000E+00
         0.00000E+00
         0.00000E+00
         0.00000E+00
         0.00000E+00
         0.00000E+00
         0.00000E+00
         0.00000E+00
         0.00000E+00
         0.00000E+00
         0.00000E+00
         0.00000E+00
         0.00000E+00
         0.00000E+00
         0.00000E+00
         0.00000E+00
         0.00000E+00
         0.00000E+00
         0.00000E+00
         0.00000E+00
         0.00000E+00
         0.00000E+00
         0.00000E+00
         0.00000E+00
         0.00000E+00
         0.00000E+00
         0.00000E+00
         0.00000E+00
         0.00000E+00
         0.00000E+00
         0.00000E+00
         0.00000E+00
         0.00000E+00
         0.00000E+00
         0.00000E+00
         0.00000E+00
         0.00000E+00
         0.00000E+00
         0.00000E+00
         0.00000E+00
         0.00000E+00
         0.00000E+00
         0.00000E+00
         0.00000E+00
         0.00000E+00
         0.00000E+00
         0.00000E+00
         0.00000E+00
         0.00000E+00
         0.00000E+00
         0.00000E+00
         0.00000E+00
         0.00000E+00
         0.00000E+00
         0.00000E+00
         0.00000E+00
         0.00000E+00
         0.00000E+00
         0.00000E+00
         0.00000E+00
         0.00000E+00
         0.00000E+00
         0.00000E+00
         0.00000E+00
         0.00000E+00
         0.00000E+00
         0.00000E+00
         0.00000E+00
         0.00000E+00
         0.00000E+00
         0.00000E+00
         0.00000E+00
         0.00000E+00
         0.00000E+00
         0.00000E+00
         0.00000E+00
         0.00000E+00
         0.00000E+00
         0.00000E+00
         0.00000E+00
         0.00000E+00
         0.00000E+00
         0.00000E+00
         0.00000E+00
         0.00000E+00
         0.00000E+00
         0.00000E+00
         0.00000E+00
         0.00000E+00
         0.00000E+00
         0.00000E+00
         0.00000E+00
         0.00000E+00
         0.00000E+00
         0.00000E+00
         0.00000E+00
         0.00000E+00
         0.00000E+00
         0.00000E+00
         0.00000E+00
         0.00000E+00
         0.00000E+00
         0.00000E+00
         0.00000E+00
         0.00000E+00
         0.00000E+00
         0.00000E+00
         0.00000E+00
         0.00000E+00
         0.00000E+00
         0.00000E+00
         0.00000E+00
         0.00000E+00
         0.00000E+00
         0.00000E+00
         0.00000E+00
         0.00000E+00
         0.00000E+00
         0.00000E+00
         0.00000E+00
         0.00000E+00
         0.00000E+00
         0.00000E+00
         0.00000E+00
         0.00000E+00
         0.00000E+00
         0.00000E+00
         0.00000E+00
         0.00000E+00
         0.00000E+00
         0.00000E+00
         0.00000E+00
         0.00000E+00
         0.00000E+00
         0.00000E+00
         0.00000E+00
         0.00000E+00
         0.00000E+00
         0.00000E+00
         0.00000E+00
         0.00000E+00
         0.00000E+00
         0.00000E+00
         0.00000E+00
         0.00000E+00
         0.00000E+00
         0.00000E+00
         0.00000E+00
         0.00000E+00
         0.00000E+00
         0.00000E+00
         0.00000E+00
         0.00000E+00
         0.00000E+00
         0.00000E+00
         0.00000E+00
         0.00000E+00
         0.00000E+00
         0.00000E+00
         0.00000E+00
         0.00000E+00
         0.00000E+00
         0.00000E+00
         0.00000E+00
         0.00000E+00
         0.00000E+00
         0.00000E+00
         0.00000E+00
         0.00000E+00
         0.00000E+00
         0.00000E+00
         0.00000E+00
         0.00000E+00
         0.00000E+00
         0.00000E+00
         0.00000E+00
         0.00000E+00
         0.00000E+00
         0.00000E+00
         0.00000E+00
         0.00000E+00
         0.00000E+00
         0.00000E+00
         0.00000E+00
         0.00000E+00
         0.00000E+00
         0.00000E+00
         0.00000E+00
         0.00000E+00
         0.00000E+00
         0.00000E+00
         0.00000E+00
         0.00000E+00
         0.00000E+00
         0.00000E+00
         0.00000E+00
         0.00000E+00
         0.00000E+00
         0.00000E+00
         0.00000E+00
         0.00000E+00
         0.00000E+00
         0.00000E+00
         0.00000E+00
         0.00000E+00
         0.00000E+00
         0.00000E+00
         0.00000E+00
         0.00000E+00
         0.00000E+00
         0.00000E+00
         0.00000E+00
         0.00000E+00
         0.00000E+00
         0.00000E+00
         0.00000E+00
         0.00000E+00
         0.00000E+00
         0.00000E+00
         0.00000E+00
         0.00000E+00
         0.00000E+00
         0.00000E+00
         0.00000E+00
         0.00000E+00
         0.00000E+00
         0.00000E+00
         0.00000E+00
         0.00000E+00
         0.00000E+00
         0.00000E+00
         0.00000E+00
         0.00000E+00
         0.00000E+00
         0.00000E+00
         0.00000E+00
         0.00000E+00
         0.00000E+00
         0.00000E+00
         0.00000E+00
         0.00000E+00
         0.00000E+00
         0.00000E+00
         0.00000E+00
         0.00000E+00
         0.00000E+00
         0.00000E+00
         0.00000E+00
         0.00000E+00
         0.00000E+00
         0.00000E+00
         0.00000E+00
         0.00000E+00
         0.00000E+00
         0.00000E+00
         0.00000E+00
         0.00000E+00
         0.00000E+00
         0.00000E+00
         0.00000E+00
         0.00000E+00
         0.00000E+00
         0.00000E+00
         0.00000E+00
         0.00000E+00
         0.00000E+00
         0.00000E+00
         0.00000E+00
         0.00000E+00
         0.00000E+00
         0.00000E+00
         0.00000E+00
         0.00000E+00
         0.00000E+00
         0.00000E+00
         0.00000E+00
         0.00000E+00
         0.00000E+00
         0.00000E+00
         0.00000E+00
         0.00000E+00
         0.00000E+00
         0.00000E+00
         0.00000E+00
         0.00000E+00
         0.00000E+00
         0.00000E+00
         0.00000E+00
         0.00000E+00
         0.00000E+00
         0.00000E+00
         0.00000E+00
         0.00000E+00
         0.00000E+00
         0.00000E+00
         0.00000E+00
         0.00000E+00
  
SCALARS                     velocity_z  double 1
LOOKUP_TABLE default
        -0.37300E+03
        -0.37300E+03
        -0.37300E+03
        -0.37300E+03
         0.00000E+00
         0.00000E+00
         0.00000E+00
         0.00000E+00
        -0.37300E+03
        -0.37300E+03
         0.00000E+00
         0.00000E+00
        -0.37300E+03
        -0.37300E+03
         0.00000E+00
         0.00000E+00
        -0.37300E+03
        -0.37300E+03
         0.00000E+00
         0.00000E+00
        -0.37300E+03
        -0.37300E+03
        -0.37300E+03
         0.00000E+00
         0.00000E+00
         0.00000E+00
        -0.37300E+03
        -0.37300E+03
         0.00000E+00
         0.00000E+00
        -0.37300E+03
        -0.37300E+03
        -0.37300E+03
         0.00000E+00
         0.00000E+00
         0.00000E+00
        -0.37300E+03
        -0.37300E+03
         0.00000E+00
         0.00000E+00
        -0.37300E+03
        -0.37300E+03
         0.00000E+00
         0.00000E+00
        -0.37300E+03
        -0.37300E+03
         0.00000E+00
         0.00000E+00
        -0.37300E+03
         0.00000E+00
        -0.37300E+03
         0.00000E+00
        -0.37300E+03
         0.00000E+00
        -0.37300E+03
         0.00000E+00
        -0.37300E+03
        -0.37300E+03
         0.00000E+00
         0.00000E+00
        -0.37300E+03
        -0.37300E+03
         0.00000E+00
         0.00000E+00
        -0.37300E+03
         0.00000E+00
        -0.37300E+03
         0.00000E+00
        -0.37300E+03
        -0.37300E+03
         0.00000E+00
         0.00000E+00
        -0.37300E+03
         0.00000E+00
        -0.37300E+03
         0.00000E+00
        -0.37300E+03
         0.00000E+00
        -0.37300E+03
         0.00000E+00
        -0.37300E+03
        -0.37300E+03
         0.00000E+00
         0.00000E+00
        -0.37300E+03
         0.00000E+00
        -0.37300E+03
         0.00000E+00
        -0.37300E+03
         0.00000E+00
        -0.37300E+03
        -0.37300E+03
         0.00000E+00
         0.00000E+00
        -0.37300E+03
         0.00000E+00
        -0.37300E+03
         0.00000E+00
        -0.37300E+03
         0.00000E+00
        -0.37300E+03
        -0.37300E+03
         0.00000E+00
         0.00000E+00
        -0.37300E+03
        -0.37300E+03
         0.00000E+00
         0.00000E+00
        -0.37300E+03
         0.00000E+00
        -0.37300E+03
         0.00000E+00
        -0.37300E+03
         0.00000E+00
        -0.37300E+03
         0.00000E+00
        -0.37300E+03
         0.00000E+00
        -0.37300E+03
         0.00000E+00
        -0.37300E+03
         0.00000E+00
        -0.37300E+03
         0.00000E+00
        -0.37300E+03
         0.00000E+00
        -0.37300E+03
         0.00000E+00
        -0.37300E+03
         0.00000E+00
        -0.37300E+03
         0.00000E+00
        -0.37300E+03
         0.00000E+00
        -0.37300E+03
         0.00000E+00
        -0.37300E+03
         0.00000E+00
        -0.37300E+03
         0.00000E+00
        -0.37300E+03
         0.00000E+00
        -0.37300E+03
         0.00000E+00
        -0.37300E+03
         0.00000E+00
        -0.37300E+03
         0.00000E+00
        -0.37300E+03
         0.00000E+00
        -0.37300E+03
         0.00000E+00
        -0.37300E+03
         0.00000E+00
        -0.37300E+03
         0.00000E+00
        -0.37300E+03
        -0.37300E+03
        -0.37300E+03
        -0.37300E+03
        -0.37300E+03
        -0.37300E+03
        -0.37300E+03
        -0.37300E+03
        -0.37300E+03
        -0.37300E+03
        -0.37300E+03
        -0.37300E+03
        -0.37300E+03
        -0.37300E+03
        -0.37300E+03
        -0.37300E+03
        -0.37300E+03
        -0.37300E+03
        -0.37300E+03
        -0.37300E+03
        -0.37300E+03
        -0.37300E+03
        -0.37300E+03
        -0.37300E+03
        -0.37300E+03
        -0.37300E+03
        -0.37300E+03
        -0.37300E+03
        -0.37300E+03
        -0.37300E+03
        -0.37300E+03
        -0.37300E+03
        -0.37300E+03
        -0.37300E+03
        -0.37300E+03
        -0.37300E+03
        -0.37300E+03
        -0.37300E+03
        -0.37300E+03
        -0.37300E+03
        -0.37300E+03
        -0.37300E+03
        -0.37300E+03
        -0.37300E+03
        -0.37300E+03
        -0.37300E+03
        -0.37300E+03
        -0.37300E+03
        -0.37300E+03
        -0.37300E+03
        -0.37300E+03
        -0.37300E+03
        -0.37300E+03
        -0.37300E+03
        -0.37300E+03
        -0.37300E+03
        -0.37300E+03
        -0.37300E+03
        -0.37300E+03
        -0.37300E+03
        -0.37300E+03
        -0.37300E+03
        -0.37300E+03
        -0.37300E+03
        -0.37300E+03
        -0.37300E+03
        -0.37300E+03
        -0.37300E+03
        -0.37300E+03
        -0.37300E+03
        -0.37300E+03
        -0.37300E+03
        -0.37300E+03
        -0.37300E+03
        -0.37300E+03
        -0.37300E+03
        -0.37300E+03
        -0.37300E+03
        -0.37300E+03
        -0.37300E+03
        -0.37300E+03
        -0.37300E+03
        -0.37300E+03
        -0.37300E+03
        -0.37300E+03
        -0.37300E+03
        -0.37300E+03
        -0.37300E+03
        -0.37300E+03
        -0.37300E+03
        -0.37300E+03
        -0.37300E+03
        -0.37300E+03
        -0.37300E+03
        -0.37300E+03
        -0.37300E+03
        -0.37300E+03
        -0.37300E+03
        -0.37300E+03
        -0.37300E+03
        -0.37300E+03
        -0.37300E+03
        -0.37300E+03
        -0.37300E+03
        -0.37300E+03
        -0.37300E+03
        -0.37300E+03
        -0.37300E+03
        -0.37300E+03
        -0.37300E+03
        -0.37300E+03
        -0.37300E+03
        -0.37300E+03
        -0.37300E+03
        -0.37300E+03
        -0.37300E+03
        -0.37300E+03
        -0.37300E+03
        -0.37300E+03
        -0.37300E+03
        -0.37300E+03
        -0.37300E+03
        -0.37300E+03
        -0.37300E+03
        -0.37300E+03
        -0.37300E+03
        -0.37300E+03
        -0.37300E+03
        -0.37300E+03
        -0.37300E+03
        -0.37300E+03
        -0.37300E+03
        -0.37300E+03
        -0.37300E+03
        -0.37300E+03
        -0.37300E+03
        -0.37300E+03
        -0.37300E+03
        -0.37300E+03
        -0.37300E+03
        -0.37300E+03
        -0.37300E+03
        -0.37300E+03
        -0.37300E+03
        -0.37300E+03
        -0.37300E+03
        -0.37300E+03
        -0.37300E+03
        -0.37300E+03
        -0.37300E+03
        -0.37300E+03
        -0.37300E+03
        -0.37300E+03
        -0.37300E+03
        -0.37300E+03
        -0.37300E+03
        -0.37300E+03
        -0.37300E+03
        -0.37300E+03
        -0.37300E+03
        -0.37300E+03
        -0.37300E+03
        -0.37300E+03
        -0.37300E+03
        -0.37300E+03
        -0.37300E+03
        -0.37300E+03
        -0.37300E+03
        -0.37300E+03
        -0.37300E+03
        -0.37300E+03
        -0.37300E+03
        -0.37300E+03
        -0.37300E+03
        -0.37300E+03
        -0.37300E+03
        -0.37300E+03
        -0.37300E+03
        -0.37300E+03
        -0.37300E+03
        -0.37300E+03
        -0.37300E+03
        -0.37300E+03
        -0.37300E+03
        -0.37300E+03
        -0.37300E+03
        -0.37300E+03
        -0.37300E+03
        -0.37300E+03
        -0.37300E+03
        -0.37300E+03
        -0.37300E+03
        -0.37300E+03
        -0.37300E+03
        -0.37300E+03
        -0.37300E+03
        -0.37300E+03
        -0.37300E+03
        -0.37300E+03
        -0.37300E+03
        -0.37300E+03
        -0.37300E+03
        -0.37300E+03
        -0.37300E+03
        -0.37300E+03
        -0.37300E+03
        -0.37300E+03
        -0.37300E+03
        -0.37300E+03
        -0.37300E+03
        -0.37300E+03
        -0.37300E+03
        -0.37300E+03
        -0.37300E+03
        -0.37300E+03
        -0.37300E+03
        -0.37300E+03
        -0.37300E+03
        -0.37300E+03
        -0.37300E+03
        -0.37300E+03
        -0.37300E+03
        -0.37300E+03
        -0.37300E+03
        -0.37300E+03
        -0.37300E+03
        -0.37300E+03
        -0.37300E+03
        -0.37300E+03
        -0.37300E+03
        -0.37300E+03
        -0.37300E+03
        -0.37300E+03
        -0.37300E+03
        -0.37300E+03
        -0.37300E+03
        -0.37300E+03
        -0.37300E+03
        -0.37300E+03
        -0.37300E+03
        -0.37300E+03
        -0.37300E+03
        -0.37300E+03
        -0.37300E+03
        -0.37300E+03
        -0.37300E+03
        -0.37300E+03
        -0.37300E+03
        -0.37300E+03
        -0.37300E+03
        -0.37300E+03
        -0.37300E+03
        -0.37300E+03
        -0.37300E+03
        -0.37300E+03
        -0.37300E+03
        -0.37300E+03
        -0.37300E+03
        -0.37300E+03
        -0.37300E+03
        -0.37300E+03
        -0.37300E+03
        -0.37300E+03
        -0.37300E+03
        -0.37300E+03
        -0.37300E+03
        -0.37300E+03
        -0.37300E+03
        -0.37300E+03
        -0.37300E+03
        -0.37300E+03
        -0.37300E+03
        -0.37300E+03
        -0.37300E+03
        -0.37300E+03
        -0.37300E+03
        -0.37300E+03
        -0.37300E+03
        -0.37300E+03
        -0.37300E+03
        -0.37300E+03
        -0.37300E+03
        -0.37300E+03
        -0.37300E+03
        -0.37300E+03
        -0.37300E+03
        -0.37300E+03
        -0.37300E+03
        -0.37300E+03
        -0.37300E+03
        -0.37300E+03
        -0.37300E+03
        -0.37300E+03
        -0.37300E+03
        -0.37300E+03
        -0.37300E+03
        -0.37300E+03
        -0.37300E+03
        -0.37300E+03
        -0.37300E+03
        -0.37300E+03
        -0.37300E+03
        -0.37300E+03
        -0.37300E+03
        -0.37300E+03
        -0.37300E+03
        -0.37300E+03
        -0.37300E+03
        -0.37300E+03
        -0.37300E+03
        -0.37300E+03
        -0.37300E+03
        -0.37300E+03
        -0.37300E+03
        -0.37300E+03
        -0.37300E+03
        -0.37300E+03
        -0.37300E+03
        -0.37300E+03
        -0.37300E+03
        -0.37300E+03
        -0.37300E+03
        -0.37300E+03
        -0.37300E+03
        -0.37300E+03
        -0.37300E+03
        -0.37300E+03
        -0.37300E+03
        -0.37300E+03
        -0.37300E+03
        -0.37300E+03
        -0.37300E+03
        -0.37300E+03
        -0.37300E+03
        -0.37300E+03
        -0.37300E+03
        -0.37300E+03
        -0.37300E+03
        -0.37300E+03
        -0.37300E+03
        -0.37300E+03
        -0.37300E+03
        -0.37300E+03
        -0.37300E+03
        -0.37300E+03
        -0.37300E+03
        -0.37300E+03
        -0.37300E+03
        -0.37300E+03
        -0.37300E+03
        -0.37300E+03
        -0.37300E+03
        -0.37300E+03
        -0.37300E+03
        -0.37300E+03
        -0.37300E+03
        -0.37300E+03
        -0.37300E+03
        -0.37300E+03
        -0.37300E+03
        -0.37300E+03
        -0.37300E+03
        -0.37300E+03
        -0.37300E+03
        -0.37300E+03
        -0.37300E+03
        -0.37300E+03
        -0.37300E+03
        -0.37300E+03
        -0.37300E+03
        -0.37300E+03
        -0.37300E+03
        -0.37300E+03
        -0.37300E+03
        -0.37300E+03
        -0.37300E+03
        -0.37300E+03
        -0.37300E+03
        -0.37300E+03
        -0.37300E+03
        -0.37300E+03
        -0.37300E+03
        -0.37300E+03
        -0.37300E+03
        -0.37300E+03
        -0.37300E+03
        -0.37300E+03
        -0.37300E+03
        -0.37300E+03
        -0.37300E+03
        -0.37300E+03
        -0.37300E+03
        -0.37300E+03
        -0.37300E+03
        -0.37300E+03
        -0.37300E+03
        -0.37300E+03
        -0.37300E+03
        -0.37300E+03
        -0.37300E+03
        -0.37300E+03
        -0.37300E+03
        -0.37300E+03
        -0.37300E+03
        -0.37300E+03
        -0.37300E+03
        -0.37300E+03
        -0.37300E+03
        -0.37300E+03
        -0.37300E+03
        -0.37300E+03
        -0.37300E+03
        -0.37300E+03
        -0.37300E+03
        -0.37300E+03
        -0.37300E+03
        -0.37300E+03
        -0.37300E+03
        -0.37300E+03
        -0.37300E+03
        -0.37300E+03
        -0.37300E+03
        -0.37300E+03
        -0.37300E+03
        -0.37300E+03
        -0.37300E+03
        -0.37300E+03
        -0.37300E+03
        -0.37300E+03
        -0.37300E+03
        -0.37300E+03
        -0.37300E+03
        -0.37300E+03
        -0.37300E+03
        -0.37300E+03
        -0.37300E+03
        -0.37300E+03
        -0.37300E+03
        -0.37300E+03
        -0.37300E+03
        -0.37300E+03
        -0.37300E+03
        -0.37300E+03
        -0.37300E+03
        -0.37300E+03
        -0.37300E+03
        -0.37300E+03
        -0.37300E+03
        -0.37300E+03
        -0.37300E+03
        -0.37300E+03
        -0.37300E+03
        -0.37300E+03
        -0.37300E+03
        -0.37300E+03
        -0.37300E+03
        -0.37300E+03
        -0.37300E+03
        -0.37300E+03
        -0.37300E+03
        -0.37300E+03
        -0.37300E+03
        -0.37300E+03
        -0.37300E+03
        -0.37300E+03
        -0.37300E+03
        -0.37300E+03
        -0.37300E+03
        -0.37300E+03
        -0.37300E+03
        -0.37300E+03
        -0.37300E+03
        -0.37300E+03
        -0.37300E+03
        -0.37300E+03
        -0.37300E+03
        -0.37300E+03
        -0.37300E+03
        -0.37300E+03
        -0.37300E+03
        -0.37300E+03
        -0.37300E+03
        -0.37300E+03
        -0.37300E+03
        -0.37300E+03
        -0.37300E+03
        -0.37300E+03
        -0.37300E+03
        -0.37300E+03
        -0.37300E+03
        -0.37300E+03
        -0.37300E+03
        -0.37300E+03
        -0.37300E+03
        -0.37300E+03
        -0.37300E+03
        -0.37300E+03
        -0.37300E+03
        -0.37300E+03
        -0.37300E+03
        -0.37300E+03
        -0.37300E+03
        -0.37300E+03
        -0.37300E+03
        -0.37300E+03
        -0.37300E+03
        -0.37300E+03
        -0.37300E+03
        -0.37300E+03
        -0.37300E+03
        -0.37300E+03
        -0.37300E+03
        -0.37300E+03
        -0.37300E+03
        -0.37300E+03
        -0.37300E+03
        -0.37300E+03
        -0.37300E+03
        -0.37300E+03
        -0.37300E+03
        -0.37300E+03
        -0.37300E+03
        -0.37300E+03
        -0.37300E+03
        -0.37300E+03
        -0.37300E+03
        -0.37300E+03
        -0.37300E+03
        -0.37300E+03
        -0.37300E+03
        -0.37300E+03
        -0.37300E+03
        -0.37300E+03
        -0.37300E+03
        -0.37300E+03
        -0.37300E+03
        -0.37300E+03
        -0.37300E+03
        -0.37300E+03
        -0.37300E+03
        -0.37300E+03
        -0.37300E+03
        -0.37300E+03
        -0.37300E+03
        -0.37300E+03
        -0.37300E+03
        -0.37300E+03
        -0.37300E+03
        -0.37300E+03
        -0.37300E+03
        -0.37300E+03
        -0.37300E+03
        -0.37300E+03
        -0.37300E+03
        -0.37300E+03
        -0.37300E+03
        -0.37300E+03
        -0.37300E+03
        -0.37300E+03
        -0.37300E+03
        -0.37300E+03
        -0.37300E+03
        -0.37300E+03
        -0.37300E+03
        -0.37300E+03
        -0.37300E+03
        -0.37300E+03
        -0.37300E+03
        -0.37300E+03
        -0.37300E+03
        -0.37300E+03
        -0.37300E+03
        -0.37300E+03
        -0.37300E+03
        -0.37300E+03
        -0.37300E+03
        -0.37300E+03
        -0.37300E+03
        -0.37300E+03
        -0.37300E+03
        -0.37300E+03
        -0.37300E+03
        -0.37300E+03
        -0.37300E+03
        -0.37300E+03
        -0.37300E+03
        -0.37300E+03
        -0.37300E+03
        -0.37300E+03
        -0.37300E+03
        -0.37300E+03
        -0.37300E+03
        -0.37300E+03
        -0.37300E+03
        -0.37300E+03
        -0.37300E+03
        -0.37300E+03
        -0.37300E+03
        -0.37300E+03
        -0.37300E+03
        -0.37300E+03
        -0.37300E+03
        -0.37300E+03
        -0.37300E+03
        -0.37300E+03
        -0.37300E+03
        -0.37300E+03
        -0.37300E+03
        -0.37300E+03
        -0.37300E+03
        -0.37300E+03
        -0.37300E+03
        -0.37300E+03
        -0.37300E+03
        -0.37300E+03
        -0.37300E+03
        -0.37300E+03
        -0.37300E+03
        -0.37300E+03
        -0.37300E+03
        -0.37300E+03
        -0.37300E+03
        -0.37300E+03
        -0.37300E+03
        -0.37300E+03
        -0.37300E+03
        -0.37300E+03
        -0.37300E+03
        -0.37300E+03
        -0.37300E+03
        -0.37300E+03
        -0.37300E+03
        -0.37300E+03
        -0.37300E+03
        -0.37300E+03
        -0.37300E+03
        -0.37300E+03
        -0.37300E+03
        -0.37300E+03
        -0.37300E+03
        -0.37300E+03
        -0.37300E+03
        -0.37300E+03
        -0.37300E+03
        -0.37300E+03
        -0.37300E+03
        -0.37300E+03
        -0.37300E+03
        -0.37300E+03
        -0.37300E+03
        -0.37300E+03
        -0.37300E+03
        -0.37300E+03
        -0.37300E+03
        -0.37300E+03
        -0.37300E+03
        -0.37300E+03
        -0.37300E+03
        -0.37300E+03
        -0.37300E+03
        -0.37300E+03
        -0.37300E+03
        -0.37300E+03
        -0.37300E+03
        -0.37300E+03
        -0.37300E+03
        -0.37300E+03
        -0.37300E+03
        -0.37300E+03
        -0.37300E+03
        -0.37300E+03
        -0.37300E+03
        -0.37300E+03
        -0.37300E+03
        -0.37300E+03
        -0.37300E+03
        -0.37300E+03
        -0.37300E+03
        -0.37300E+03
        -0.37300E+03
        -0.37300E+03
        -0.37300E+03
        -0.37300E+03
        -0.37300E+03
        -0.37300E+03
        -0.37300E+03
        -0.37300E+03
        -0.37300E+03
        -0.37300E+03
        -0.37300E+03
        -0.37300E+03
        -0.37300E+03
        -0.37300E+03
        -0.37300E+03
        -0.37300E+03
        -0.37300E+03
        -0.37300E+03
        -0.37300E+03
        -0.37300E+03
        -0.37300E+03
        -0.37300E+03
        -0.37300E+03
        -0.37300E+03
        -0.37300E+03
        -0.37300E+03
        -0.37300E+03
        -0.37300E+03
        -0.37300E+03
        -0.37300E+03
        -0.37300E+03
        -0.37300E+03
        -0.37300E+03
        -0.37300E+03
        -0.37300E+03
        -0.37300E+03
        -0.37300E+03
        -0.37300E+03
        -0.37300E+03
        -0.37300E+03
        -0.37300E+03
        -0.37300E+03
        -0.37300E+03
        -0.37300E+03
        -0.37300E+03
        -0.37300E+03
        -0.37300E+03
        -0.37300E+03
        -0.37300E+03
        -0.37300E+03
        -0.37300E+03
        -0.37300E+03
        -0.37300E+03
        -0.37300E+03
        -0.37300E+03
        -0.37300E+03
        -0.37300E+03
        -0.37300E+03
        -0.37300E+03
        -0.37300E+03
        -0.37300E+03
        -0.37300E+03
        -0.37300E+03
        -0.37300E+03
        -0.37300E+03
        -0.37300E+03
        -0.37300E+03
        -0.37300E+03
        -0.37300E+03
        -0.37300E+03
        -0.37300E+03
        -0.37300E+03
        -0.37300E+03
        -0.37300E+03
        -0.37300E+03
        -0.37300E+03
        -0.37300E+03
        -0.37300E+03
        -0.37300E+03
        -0.37300E+03
        -0.37300E+03
        -0.37300E+03
        -0.37300E+03
        -0.37300E+03
        -0.37300E+03
        -0.37300E+03
        -0.37300E+03
        -0.37300E+03
        -0.37300E+03
        -0.37300E+03
        -0.37300E+03
        -0.37300E+03
        -0.37300E+03
        -0.37300E+03
        -0.37300E+03
        -0.37300E+03
        -0.37300E+03
        -0.37300E+03
        -0.37300E+03
        -0.37300E+03
        -0.37300E+03
        -0.37300E+03
        -0.37300E+03
        -0.37300E+03
        -0.37300E+03
        -0.37300E+03
        -0.37300E+03
        -0.37300E+03
        -0.37300E+03
        -0.37300E+03
        -0.37300E+03
        -0.37300E+03
        -0.37300E+03
        -0.37300E+03
        -0.37300E+03
        -0.37300E+03
        -0.37300E+03
        -0.37300E+03
        -0.37300E+03
        -0.37300E+03
        -0.37300E+03
        -0.37300E+03
        -0.37300E+03
        -0.37300E+03
        -0.37300E+03
        -0.37300E+03
        -0.37300E+03
        -0.37300E+03
        -0.37300E+03
        -0.37300E+03
        -0.37300E+03
        -0.37300E+03
        -0.37300E+03
        -0.37300E+03
        -0.37300E+03
        -0.37300E+03
        -0.37300E+03
        -0.37300E+03
        -0.37300E+03
        -0.37300E+03
        -0.37300E+03
        -0.37300E+03
        -0.37300E+03
        -0.37300E+03
        -0.37300E+03
        -0.37300E+03
        -0.37300E+03
        -0.37300E+03
        -0.37300E+03
        -0.37300E+03
        -0.37300E+03
        -0.37300E+03
        -0.37300E+03
        -0.37300E+03
        -0.37300E+03
        -0.37300E+03
        -0.37300E+03
        -0.37300E+03
        -0.37300E+03
        -0.37300E+03
        -0.37300E+03
        -0.37300E+03
        -0.37300E+03
        -0.37300E+03
        -0.37300E+03
        -0.37300E+03
        -0.37300E+03
        -0.37300E+03
        -0.37300E+03
        -0.37300E+03
        -0.37300E+03
        -0.37300E+03
        -0.37300E+03
        -0.37300E+03
        -0.37300E+03
        -0.37300E+03
        -0.37300E+03
        -0.37300E+03
        -0.37300E+03
        -0.37300E+03
        -0.37300E+03
        -0.37300E+03
        -0.37300E+03
        -0.37300E+03
        -0.37300E+03
        -0.37300E+03
        -0.37300E+03
        -0.37300E+03
        -0.37300E+03
        -0.37300E+03
        -0.37300E+03
        -0.37300E+03
        -0.37300E+03
        -0.37300E+03
        -0.37300E+03
        -0.37300E+03
        -0.37300E+03
        -0.37300E+03
        -0.37300E+03
        -0.37300E+03
        -0.37300E+03
        -0.37300E+03
        -0.37300E+03
        -0.37300E+03
        -0.37300E+03
        -0.37300E+03
        -0.37300E+03
        -0.37300E+03
        -0.37300E+03
        -0.37300E+03
        -0.37300E+03
        -0.37300E+03
        -0.37300E+03
        -0.37300E+03
        -0.37300E+03
        -0.37300E+03
        -0.37300E+03
        -0.37300E+03
        -0.37300E+03
        -0.37300E+03
        -0.37300E+03
        -0.37300E+03
        -0.37300E+03
        -0.37300E+03
        -0.37300E+03
        -0.37300E+03
        -0.37300E+03
        -0.37300E+03
        -0.37300E+03
        -0.37300E+03
        -0.37300E+03
        -0.37300E+03
        -0.37300E+03
        -0.37300E+03
        -0.37300E+03
        -0.37300E+03
        -0.37300E+03
        -0.37300E+03
        -0.37300E+03
        -0.37300E+03
        -0.37300E+03
        -0.37300E+03
        -0.37300E+03
        -0.37300E+03
        -0.37300E+03
        -0.37300E+03
        -0.37300E+03
        -0.37300E+03
        -0.37300E+03
        -0.37300E+03
        -0.37300E+03
        -0.37300E+03
        -0.37300E+03
        -0.37300E+03
        -0.37300E+03
        -0.37300E+03
        -0.37300E+03
        -0.37300E+03
        -0.37300E+03
        -0.37300E+03
        -0.37300E+03
        -0.37300E+03
        -0.37300E+03
        -0.37300E+03
        -0.37300E+03
        -0.37300E+03
        -0.37300E+03
        -0.37300E+03
        -0.37300E+03
        -0.37300E+03
        -0.37300E+03
        -0.37300E+03
        -0.37300E+03
        -0.37300E+03
        -0.37300E+03
        -0.37300E+03
        -0.37300E+03
        -0.37300E+03
        -0.37300E+03
        -0.37300E+03
        -0.37300E+03
        -0.37300E+03
        -0.37300E+03
        -0.37300E+03
        -0.37300E+03
        -0.37300E+03
        -0.37300E+03
        -0.37300E+03
        -0.37300E+03
        -0.37300E+03
        -0.37300E+03
        -0.37300E+03
        -0.37300E+03
        -0.37300E+03
        -0.37300E+03
        -0.37300E+03
        -0.37300E+03
        -0.37300E+03
        -0.37300E+03
        -0.37300E+03
        -0.37300E+03
        -0.37300E+03
        -0.37300E+03
        -0.37300E+03
        -0.37300E+03
        -0.37300E+03
        -0.37300E+03
        -0.37300E+03
        -0.37300E+03
        -0.37300E+03
        -0.37300E+03
        -0.37300E+03
        -0.37300E+03
        -0.37300E+03
        -0.37300E+03
        -0.37300E+03
        -0.37300E+03
        -0.37300E+03
        -0.37300E+03
        -0.37300E+03
        -0.37300E+03
        -0.37300E+03
        -0.37300E+03
        -0.37300E+03
        -0.37300E+03
        -0.37300E+03
        -0.37300E+03
        -0.37300E+03
        -0.37300E+03
        -0.37300E+03
        -0.37300E+03
        -0.37300E+03
        -0.37300E+03
        -0.37300E+03
        -0.37300E+03
        -0.37300E+03
        -0.37300E+03
        -0.37300E+03
        -0.37300E+03
        -0.37300E+03
        -0.37300E+03
        -0.37300E+03
        -0.37300E+03
        -0.37300E+03
        -0.37300E+03
        -0.37300E+03
        -0.37300E+03
        -0.37300E+03
        -0.37300E+03
        -0.37300E+03
        -0.37300E+03
        -0.37300E+03
        -0.37300E+03
        -0.37300E+03
        -0.37300E+03
        -0.37300E+03
        -0.37300E+03
        -0.37300E+03
        -0.37300E+03
        -0.37300E+03
        -0.37300E+03
        -0.37300E+03
        -0.37300E+03
        -0.37300E+03
        -0.37300E+03
        -0.37300E+03
        -0.37300E+03
        -0.37300E+03
        -0.37300E+03
        -0.37300E+03
        -0.37300E+03
        -0.37300E+03
        -0.37300E+03
        -0.37300E+03
        -0.37300E+03
        -0.37300E+03
        -0.37300E+03
        -0.37300E+03
        -0.37300E+03
        -0.37300E+03
        -0.37300E+03
        -0.37300E+03
        -0.37300E+03
        -0.37300E+03
        -0.37300E+03
        -0.37300E+03
        -0.37300E+03
        -0.37300E+03
        -0.37300E+03
        -0.37300E+03
        -0.37300E+03
        -0.37300E+03
        -0.37300E+03
        -0.37300E+03
        -0.37300E+03
        -0.37300E+03
        -0.37300E+03
        -0.37300E+03
        -0.37300E+03
        -0.37300E+03
        -0.37300E+03
        -0.37300E+03
        -0.37300E+03
        -0.37300E+03
        -0.37300E+03
        -0.37300E+03
        -0.37300E+03
        -0.37300E+03
        -0.37300E+03
        -0.37300E+03
        -0.37300E+03
        -0.37300E+03
        -0.37300E+03
        -0.37300E+03
        -0.37300E+03
        -0.37300E+03
        -0.37300E+03
        -0.37300E+03
        -0.37300E+03
        -0.37300E+03
        -0.37300E+03
        -0.37300E+03
        -0.37300E+03
        -0.37300E+03
        -0.37300E+03
        -0.37300E+03
        -0.37300E+03
        -0.37300E+03
        -0.37300E+03
        -0.37300E+03
        -0.37300E+03
        -0.37300E+03
        -0.37300E+03
        -0.37300E+03
        -0.37300E+03
        -0.37300E+03
        -0.37300E+03
        -0.37300E+03
        -0.37300E+03
        -0.37300E+03
        -0.37300E+03
        -0.37300E+03
        -0.37300E+03
        -0.37300E+03
        -0.37300E+03
        -0.37300E+03
        -0.37300E+03
        -0.37300E+03
        -0.37300E+03
        -0.37300E+03
        -0.37300E+03
        -0.37300E+03
        -0.37300E+03
        -0.37300E+03
        -0.37300E+03
        -0.37300E+03
        -0.37300E+03
        -0.37300E+03
        -0.37300E+03
        -0.37300E+03
        -0.37300E+03
        -0.37300E+03
        -0.37300E+03
        -0.37300E+03
        -0.37300E+03
        -0.37300E+03
        -0.37300E+03
        -0.37300E+03
        -0.37300E+03
        -0.37300E+03
        -0.37300E+03
        -0.37300E+03
        -0.37300E+03
        -0.37300E+03
        -0.37300E+03
        -0.37300E+03
        -0.37300E+03
        -0.37300E+03
        -0.37300E+03
        -0.37300E+03
        -0.37300E+03
        -0.37300E+03
        -0.37300E+03
        -0.37300E+03
        -0.37300E+03
        -0.37300E+03
        -0.37300E+03
        -0.37300E+03
        -0.37300E+03
        -0.37300E+03
        -0.37300E+03
        -0.37300E+03
        -0.37300E+03
        -0.37300E+03
        -0.37300E+03
        -0.37300E+03
        -0.37300E+03
        -0.37300E+03
        -0.37300E+03
        -0.37300E+03
        -0.37300E+03
        -0.37300E+03
        -0.37300E+03
        -0.37300E+03
        -0.37300E+03
        -0.37300E+03
        -0.37300E+03
        -0.37300E+03
        -0.37300E+03
        -0.37300E+03
        -0.37300E+03
        -0.37300E+03
        -0.37300E+03
        -0.37300E+03
        -0.37300E+03
        -0.37300E+03
        -0.37300E+03
        -0.37300E+03
        -0.37300E+03
        -0.37300E+03
        -0.37300E+03
        -0.37300E+03
        -0.37300E+03
        -0.37300E+03
        -0.37300E+03
        -0.37300E+03
        -0.37300E+03
        -0.37300E+03
        -0.37300E+03
        -0.37300E+03
        -0.37300E+03
        -0.37300E+03
        -0.37300E+03
        -0.37300E+03
        -0.37300E+03
        -0.37300E+03
        -0.37300E+03
        -0.37300E+03
        -0.37300E+03
        -0.37300E+03
        -0.37300E+03
        -0.37300E+03
        -0.37300E+03
        -0.37300E+03
        -0.37300E+03
        -0.37300E+03
        -0.37300E+03
        -0.37300E+03
        -0.37300E+03
        -0.37300E+03
        -0.37300E+03
        -0.37300E+03
        -0.37300E+03
        -0.37300E+03
        -0.37300E+03
        -0.37300E+03
        -0.37300E+03
        -0.37300E+03
        -0.37300E+03
        -0.37300E+03
        -0.37300E+03
        -0.37300E+03
        -0.37300E+03
        -0.37300E+03
        -0.37300E+03
        -0.37300E+03
        -0.37300E+03
        -0.37300E+03
        -0.37300E+03
        -0.37300E+03
        -0.37300E+03
        -0.37300E+03
        -0.37300E+03
        -0.37300E+03
        -0.37300E+03
        -0.37300E+03
        -0.37300E+03
        -0.37300E+03
        -0.37300E+03
        -0.37300E+03
        -0.37300E+03
        -0.37300E+03
        -0.37300E+03
        -0.37300E+03
        -0.37300E+03
        -0.37300E+03
        -0.37300E+03
        -0.37300E+03
        -0.37300E+03
        -0.37300E+03
        -0.37300E+03
        -0.37300E+03
        -0.37300E+03
        -0.37300E+03
        -0.37300E+03
        -0.37300E+03
        -0.37300E+03
        -0.37300E+03
        -0.37300E+03
        -0.37300E+03
        -0.37300E+03
        -0.37300E+03
        -0.37300E+03
        -0.37300E+03
        -0.37300E+03
        -0.37300E+03
        -0.37300E+03
        -0.37300E+03
        -0.37300E+03
        -0.37300E+03
        -0.37300E+03
        -0.37300E+03
        -0.37300E+03
        -0.37300E+03
        -0.37300E+03
        -0.37300E+03
        -0.37300E+03
        -0.37300E+03
        -0.37300E+03
        -0.37300E+03
        -0.37300E+03
        -0.37300E+03
        -0.37300E+03
        -0.37300E+03
        -0.37300E+03
        -0.37300E+03
        -0.37300E+03
        -0.37300E+03
        -0.37300E+03
        -0.37300E+03
        -0.37300E+03
        -0.37300E+03
        -0.37300E+03
        -0.37300E+03
        -0.37300E+03
        -0.37300E+03
        -0.37300E+03
        -0.37300E+03
        -0.37300E+03
        -0.37300E+03
        -0.37300E+03
        -0.37300E+03
        -0.37300E+03
        -0.37300E+03
        -0.37300E+03
        -0.37300E+03
        -0.37300E+03
        -0.37300E+03
        -0.37300E+03
        -0.37300E+03
        -0.37300E+03
        -0.37300E+03
        -0.37300E+03
        -0.37300E+03
        -0.37300E+03
        -0.37300E+03
        -0.37300E+03
        -0.37300E+03
        -0.37300E+03
        -0.37300E+03
        -0.37300E+03
        -0.37300E+03
        -0.37300E+03
        -0.37300E+03
        -0.37300E+03
        -0.37300E+03
        -0.37300E+03
        -0.37300E+03
        -0.37300E+03
        -0.37300E+03
        -0.37300E+03
        -0.37300E+03
        -0.37300E+03
        -0.37300E+03
        -0.37300E+03
        -0.37300E+03
        -0.37300E+03
        -0.37300E+03
        -0.37300E+03
        -0.37300E+03
        -0.37300E+03
        -0.37300E+03
        -0.37300E+03
        -0.37300E+03
        -0.37300E+03
        -0.37300E+03
        -0.37300E+03
        -0.37300E+03
        -0.37300E+03
        -0.37300E+03
        -0.37300E+03
        -0.37300E+03
        -0.37300E+03
        -0.37300E+03
        -0.37300E+03
        -0.37300E+03
        -0.37300E+03
        -0.37300E+03
        -0.37300E+03
        -0.37300E+03
        -0.37300E+03
        -0.37300E+03
        -0.37300E+03
        -0.37300E+03
        -0.37300E+03
        -0.37300E+03
        -0.37300E+03
        -0.37300E+03
        -0.37300E+03
        -0.37300E+03
        -0.37300E+03
        -0.37300E+03
        -0.37300E+03
        -0.37300E+03
        -0.37300E+03
        -0.37300E+03
        -0.37300E+03
        -0.37300E+03
        -0.37300E+03
        -0.37300E+03
        -0.37300E+03
        -0.37300E+03
        -0.37300E+03
        -0.37300E+03
        -0.37300E+03
        -0.37300E+03
        -0.37300E+03
        -0.37300E+03
        -0.37300E+03
        -0.37300E+03
        -0.37300E+03
        -0.37300E+03
        -0.37300E+03
        -0.37300E+03
        -0.37300E+03
        -0.37300E+03
        -0.37300E+03
        -0.37300E+03
        -0.37300E+03
        -0.37300E+03
        -0.37300E+03
        -0.37300E+03
        -0.37300E+03
        -0.37300E+03
        -0.37300E+03
        -0.37300E+03
        -0.37300E+03
        -0.37300E+03
        -0.37300E+03
        -0.37300E+03
        -0.37300E+03
        -0.37300E+03
        -0.37300E+03
        -0.37300E+03
        -0.37300E+03
        -0.37300E+03
        -0.37300E+03
        -0.37300E+03
        -0.37300E+03
        -0.37300E+03
        -0.37300E+03
        -0.37300E+03
        -0.37300E+03
        -0.37300E+03
        -0.37300E+03
        -0.37300E+03
        -0.37300E+03
        -0.37300E+03
        -0.37300E+03
        -0.37300E+03
        -0.37300E+03
        -0.37300E+03
        -0.37300E+03
        -0.37300E+03
        -0.37300E+03
        -0.37300E+03
        -0.37300E+03
        -0.37300E+03
        -0.37300E+03
        -0.37300E+03
        -0.37300E+03
        -0.37300E+03
        -0.37300E+03
        -0.37300E+03
        -0.37300E+03
        -0.37300E+03
        -0.37300E+03
        -0.37300E+03
        -0.37300E+03
        -0.37300E+03
        -0.37300E+03
        -0.37300E+03
        -0.37300E+03
        -0.37300E+03
        -0.37300E+03
        -0.37300E+03
        -0.37300E+03
        -0.37300E+03
        -0.37300E+03
        -0.37300E+03
        -0.37300E+03
        -0.37300E+03
        -0.37300E+03
        -0.37300E+03
        -0.37300E+03
        -0.37300E+03
        -0.37300E+03
        -0.37300E+03
        -0.37300E+03
        -0.37300E+03
        -0.37300E+03
        -0.37300E+03
        -0.37300E+03
        -0.37300E+03
        -0.37300E+03
        -0.37300E+03
        -0.37300E+03
        -0.37300E+03
        -0.37300E+03
        -0.37300E+03
        -0.37300E+03
        -0.37300E+03
        -0.37300E+03
        -0.37300E+03
        -0.37300E+03
        -0.37300E+03
        -0.37300E+03
        -0.37300E+03
        -0.37300E+03
        -0.37300E+03
        -0.37300E+03
        -0.37300E+03
        -0.37300E+03
        -0.37300E+03
        -0.37300E+03
        -0.37300E+03
        -0.37300E+03
        -0.37300E+03
        -0.37300E+03
        -0.37300E+03
        -0.37300E+03
        -0.37300E+03
        -0.37300E+03
        -0.37300E+03
        -0.37300E+03
        -0.37300E+03
        -0.37300E+03
        -0.37300E+03
        -0.37300E+03
        -0.37300E+03
        -0.37300E+03
        -0.37300E+03
        -0.37300E+03
        -0.37300E+03
        -0.37300E+03
        -0.37300E+03
        -0.37300E+03
        -0.37300E+03
        -0.37300E+03
        -0.37300E+03
        -0.37300E+03
        -0.37300E+03
        -0.37300E+03
        -0.37300E+03
        -0.37300E+03
        -0.37300E+03
        -0.37300E+03
        -0.37300E+03
        -0.37300E+03
        -0.37300E+03
        -0.37300E+03
        -0.37300E+03
        -0.37300E+03
        -0.37300E+03
        -0.37300E+03
        -0.37300E+03
        -0.37300E+03
        -0.37300E+03
        -0.37300E+03
        -0.37300E+03
        -0.37300E+03
        -0.37300E+03
        -0.37300E+03
        -0.37300E+03
        -0.37300E+03
        -0.37300E+03
        -0.37300E+03
        -0.37300E+03
        -0.37300E+03
        -0.37300E+03
        -0.37300E+03
        -0.37300E+03
        -0.37300E+03
        -0.37300E+03
        -0.37300E+03
        -0.37300E+03
        -0.37300E+03
        -0.37300E+03
        -0.37300E+03
        -0.37300E+03
        -0.37300E+03
        -0.37300E+03
        -0.37300E+03
        -0.37300E+03
        -0.37300E+03
        -0.37300E+03
        -0.37300E+03
        -0.37300E+03
        -0.37300E+03
        -0.37300E+03
        -0.37300E+03
        -0.37300E+03
        -0.37300E+03
        -0.37300E+03
        -0.37300E+03
        -0.37300E+03
        -0.37300E+03
        -0.37300E+03
        -0.37300E+03
        -0.37300E+03
        -0.37300E+03
        -0.37300E+03
        -0.37300E+03
        -0.37300E+03
        -0.37300E+03
        -0.37300E+03
        -0.37300E+03
        -0.37300E+03
        -0.37300E+03
        -0.37300E+03
        -0.37300E+03
        -0.37300E+03
        -0.37300E+03
        -0.37300E+03
        -0.37300E+03
        -0.37300E+03
        -0.37300E+03
        -0.37300E+03
        -0.37300E+03
        -0.37300E+03
        -0.37300E+03
        -0.37300E+03
        -0.37300E+03
        -0.37300E+03
        -0.37300E+03
        -0.37300E+03
        -0.37300E+03
        -0.37300E+03
        -0.37300E+03
        -0.37300E+03
        -0.37300E+03
        -0.37300E+03
        -0.37300E+03
        -0.37300E+03
        -0.37300E+03
        -0.37300E+03
        -0.37300E+03
        -0.37300E+03
        -0.37300E+03
        -0.37300E+03
        -0.37300E+03
        -0.37300E+03
        -0.37300E+03
        -0.37300E+03
        -0.37300E+03
        -0.37300E+03
        -0.37300E+03
        -0.37300E+03
        -0.37300E+03
        -0.37300E+03
        -0.37300E+03
        -0.37300E+03
        -0.37300E+03
        -0.37300E+03
        -0.37300E+03
        -0.37300E+03
        -0.37300E+03
        -0.37300E+03
        -0.37300E+03
        -0.37300E+03
        -0.37300E+03
        -0.37300E+03
        -0.37300E+03
        -0.37300E+03
        -0.37300E+03
        -0.37300E+03
        -0.37300E+03
        -0.37300E+03
        -0.37300E+03
        -0.37300E+03
        -0.37300E+03
        -0.37300E+03
        -0.37300E+03
        -0.37300E+03
        -0.37300E+03
        -0.37300E+03
        -0.37300E+03
        -0.37300E+03
        -0.37300E+03
        -0.37300E+03
        -0.37300E+03
        -0.37300E+03
        -0.37300E+03
        -0.37300E+03
        -0.37300E+03
        -0.37300E+03
        -0.37300E+03
        -0.37300E+03
        -0.37300E+03
        -0.37300E+03
        -0.37300E+03
        -0.37300E+03
        -0.37300E+03
        -0.37300E+03
        -0.37300E+03
        -0.37300E+03
        -0.37300E+03
        -0.37300E+03
        -0.37300E+03
        -0.37300E+03
        -0.37300E+03
        -0.37300E+03
        -0.37300E+03
        -0.37300E+03
        -0.37300E+03
        -0.37300E+03
        -0.37300E+03
        -0.37300E+03
        -0.37300E+03
        -0.37300E+03
        -0.37300E+03
        -0.37300E+03
        -0.37300E+03
        -0.37300E+03
        -0.37300E+03
        -0.37300E+03
        -0.37300E+03
        -0.37300E+03
        -0.37300E+03
        -0.37300E+03
        -0.37300E+03
        -0.37300E+03
        -0.37300E+03
        -0.37300E+03
        -0.37300E+03
        -0.37300E+03
        -0.37300E+03
        -0.37300E+03
        -0.37300E+03
        -0.37300E+03
        -0.37300E+03
        -0.37300E+03
        -0.37300E+03
        -0.37300E+03
        -0.37300E+03
        -0.37300E+03
        -0.37300E+03
        -0.37300E+03
        -0.37300E+03
        -0.37300E+03
        -0.37300E+03
        -0.37300E+03
        -0.37300E+03
        -0.37300E+03
        -0.37300E+03
        -0.37300E+03
        -0.37300E+03
        -0.37300E+03
        -0.37300E+03
        -0.37300E+03
        -0.37300E+03
        -0.37300E+03
        -0.37300E+03
        -0.37300E+03
        -0.37300E+03
        -0.37300E+03
        -0.37300E+03
        -0.37300E+03
        -0.37300E+03
        -0.37300E+03
        -0.37300E+03
        -0.37300E+03
        -0.37300E+03
        -0.37300E+03
        -0.37300E+03
        -0.37300E+03
        -0.37300E+03
        -0.37300E+03
        -0.37300E+03
        -0.37300E+03
        -0.37300E+03
        -0.37300E+03
        -0.37300E+03
        -0.37300E+03
        -0.37300E+03
        -0.37300E+03
        -0.37300E+03
        -0.37300E+03
        -0.37300E+03
        -0.37300E+03
        -0.37300E+03
        -0.37300E+03
        -0.37300E+03
        -0.37300E+03
        -0.37300E+03
        -0.37300E+03
        -0.37300E+03
        -0.37300E+03
        -0.37300E+03
        -0.37300E+03
        -0.37300E+03
        -0.37300E+03
        -0.37300E+03
        -0.37300E+03
        -0.37300E+03
  
SCALARS                 acceleration_x  double 1
LOOKUP_TABLE default
         0.00000E+00
         0.00000E+00
         0.00000E+00
         0.00000E+00
         0.00000E+00
         0.00000E+00
         0.00000E+00
         0.00000E+00
         0.00000E+00
         0.00000E+00
         0.00000E+00
         0.00000E+00
         0.00000E+00
         0.00000E+00
         0.00000E+00
         0.00000E+00
         0.00000E+00
         0.00000E+00
         0.00000E+00
         0.00000E+00
         0.00000E+00
         0.00000E+00
         0.00000E+00
         0.00000E+00
         0.00000E+00
         0.00000E+00
         0.00000E+00
         0.00000E+00
         0.00000E+00
         0.00000E+00
         0.00000E+00
         0.00000E+00
         0.00000E+00
         0.00000E+00
         0.00000E+00
         0.00000E+00
         0.00000E+00
         0.00000E+00
         0.00000E+00
         0.00000E+00
         0.00000E+00
         0.00000E+00
         0.00000E+00
         0.00000E+00
         0.00000E+00
         0.00000E+00
         0.00000E+00
         0.00000E+00
         0.00000E+00
         0.00000E+00
         0.00000E+00
         0.00000E+00
         0.00000E+00
         0.00000E+00
         0.00000E+00
         0.00000E+00
         0.00000E+00
         0.00000E+00
         0.00000E+00
         0.00000E+00
         0.00000E+00
         0.00000E+00
         0.00000E+00
         0.00000E+00
         0.00000E+00
         0.00000E+00
         0.00000E+00
         0.00000E+00
         0.00000E+00
         0.00000E+00
         0.00000E+00
         0.00000E+00
         0.00000E+00
         0.00000E+00
         0.00000E+00
         0.00000E+00
         0.00000E+00
         0.00000E+00
         0.00000E+00
         0.00000E+00
         0.00000E+00
         0.00000E+00
         0.00000E+00
         0.00000E+00
         0.00000E+00
         0.00000E+00
         0.00000E+00
         0.00000E+00
         0.00000E+00
         0.00000E+00
         0.00000E+00
         0.00000E+00
         0.00000E+00
         0.00000E+00
         0.00000E+00
         0.00000E+00
         0.00000E+00
         0.00000E+00
         0.00000E+00
         0.00000E+00
         0.00000E+00
         0.00000E+00
         0.00000E+00
         0.00000E+00
         0.00000E+00
         0.00000E+00
         0.00000E+00
         0.00000E+00
         0.00000E+00
         0.00000E+00
         0.00000E+00
         0.00000E+00
         0.00000E+00
         0.00000E+00
         0.00000E+00
         0.00000E+00
         0.00000E+00
         0.00000E+00
         0.00000E+00
         0.00000E+00
         0.00000E+00
         0.00000E+00
         0.00000E+00
         0.00000E+00
         0.00000E+00
         0.00000E+00
         0.00000E+00
         0.00000E+00
         0.00000E+00
         0.00000E+00
         0.00000E+00
         0.00000E+00
         0.00000E+00
         0.00000E+00
         0.00000E+00
         0.00000E+00
         0.00000E+00
         0.00000E+00
         0.00000E+00
         0.00000E+00
         0.00000E+00
         0.00000E+00
         0.00000E+00
         0.00000E+00
         0.00000E+00
         0.00000E+00
         0.00000E+00
         0.00000E+00
         0.00000E+00
         0.00000E+00
         0.00000E+00
         0.00000E+00
         0.00000E+00
         0.00000E+00
         0.00000E+00
         0.00000E+00
         0.00000E+00
         0.00000E+00
         0.00000E+00
         0.00000E+00
         0.00000E+00
         0.00000E+00
         0.00000E+00
         0.00000E+00
         0.00000E+00
         0.00000E+00
         0.00000E+00
         0.00000E+00
         0.00000E+00
         0.00000E+00
         0.00000E+00
         0.00000E+00
         0.00000E+00
         0.00000E+00
         0.00000E+00
         0.00000E+00
         0.00000E+00
         0.00000E+00
         0.00000E+00
         0.00000E+00
         0.00000E+00
         0.00000E+00
         0.00000E+00
         0.00000E+00
         0.00000E+00
         0.00000E+00
         0.00000E+00
         0.00000E+00
         0.00000E+00
         0.00000E+00
         0.00000E+00
         0.00000E+00
         0.00000E+00
         0.00000E+00
         0.00000E+00
         0.00000E+00
         0.00000E+00
         0.00000E+00
         0.00000E+00
         0.00000E+00
         0.00000E+00
         0.00000E+00
         0.00000E+00
         0.00000E+00
         0.00000E+00
         0.00000E+00
         0.00000E+00
         0.00000E+00
         0.00000E+00
         0.00000E+00
         0.00000E+00
         0.00000E+00
         0.00000E+00
         0.00000E+00
         0.00000E+00
         0.00000E+00
         0.00000E+00
         0.00000E+00
         0.00000E+00
         0.00000E+00
         0.00000E+00
         0.00000E+00
         0.00000E+00
         0.00000E+00
         0.00000E+00
         0.00000E+00
         0.00000E+00
         0.00000E+00
         0.00000E+00
         0.00000E+00
         0.00000E+00
         0.00000E+00
         0.00000E+00
         0.00000E+00
         0.00000E+00
         0.00000E+00
         0.00000E+00
         0.00000E+00
         0.00000E+00
         0.00000E+00
         0.00000E+00
         0.00000E+00
         0.00000E+00
         0.00000E+00
         0.00000E+00
         0.00000E+00
         0.00000E+00
         0.00000E+00
         0.00000E+00
         0.00000E+00
         0.00000E+00
         0.00000E+00
         0.00000E+00
         0.00000E+00
         0.00000E+00
         0.00000E+00
         0.00000E+00
         0.00000E+00
         0.00000E+00
         0.00000E+00
         0.00000E+00
         0.00000E+00
         0.00000E+00
         0.00000E+00
         0.00000E+00
         0.00000E+00
         0.00000E+00
         0.00000E+00
         0.00000E+00
         0.00000E+00
         0.00000E+00
         0.00000E+00
         0.00000E+00
         0.00000E+00
         0.00000E+00
         0.00000E+00
         0.00000E+00
         0.00000E+00
         0.00000E+00
         0.00000E+00
         0.00000E+00
         0.00000E+00
         0.00000E+00
         0.00000E+00
         0.00000E+00
         0.00000E+00
         0.00000E+00
         0.00000E+00
         0.00000E+00
         0.00000E+00
         0.00000E+00
         0.00000E+00
         0.00000E+00
         0.00000E+00
         0.00000E+00
         0.00000E+00
         0.00000E+00
         0.00000E+00
         0.00000E+00
         0.00000E+00
         0.00000E+00
         0.00000E+00
         0.00000E+00
         0.00000E+00
         0.00000E+00
         0.00000E+00
         0.00000E+00
         0.00000E+00
         0.00000E+00
         0.00000E+00
         0.00000E+00
         0.00000E+00
         0.00000E+00
         0.00000E+00
         0.00000E+00
         0.00000E+00
         0.00000E+00
         0.00000E+00
         0.00000E+00
         0.00000E+00
         0.00000E+00
         0.00000E+00
         0.00000E+00
         0.00000E+00
         0.00000E+00
         0.00000E+00
         0.00000E+00
         0.00000E+00
         0.00000E+00
         0.00000E+00
         0.00000E+00
         0.00000E+00
         0.00000E+00
         0.00000E+00
         0.00000E+00
         0.00000E+00
         0.00000E+00
         0.00000E+00
         0.00000E+00
         0.00000E+00
         0.00000E+00
         0.00000E+00
         0.00000E+00
         0.00000E+00
         0.00000E+00
         0.00000E+00
         0.00000E+00
         0.00000E+00
         0.00000E+00
         0.00000E+00
         0.00000E+00
         0.00000E+00
         0.00000E+00
         0.00000E+00
         0.00000E+00
         0.00000E+00
         0.00000E+00
         0.00000E+00
         0.00000E+00
         0.00000E+00
         0.00000E+00
         0.00000E+00
         0.00000E+00
         0.00000E+00
         0.00000E+00
         0.00000E+00
         0.00000E+00
         0.00000E+00
         0.00000E+00
         0.00000E+00
         0.00000E+00
         0.00000E+00
         0.00000E+00
         0.00000E+00
         0.00000E+00
         0.00000E+00
         0.00000E+00
         0.00000E+00
         0.00000E+00
         0.00000E+00
         0.00000E+00
         0.00000E+00
         0.00000E+00
         0.00000E+00
         0.00000E+00
         0.00000E+00
         0.00000E+00
         0.00000E+00
         0.00000E+00
         0.00000E+00
         0.00000E+00
         0.00000E+00
         0.00000E+00
         0.00000E+00
         0.00000E+00
         0.00000E+00
         0.00000E+00
         0.00000E+00
         0.00000E+00
         0.00000E+00
         0.00000E+00
         0.00000E+00
         0.00000E+00
         0.00000E+00
         0.00000E+00
         0.00000E+00
         0.00000E+00
         0.00000E+00
         0.00000E+00
         0.00000E+00
         0.00000E+00
         0.00000E+00
         0.00000E+00
         0.00000E+00
         0.00000E+00
         0.00000E+00
         0.00000E+00
         0.00000E+00
         0.00000E+00
         0.00000E+00
         0.00000E+00
         0.00000E+00
         0.00000E+00
         0.00000E+00
         0.00000E+00
         0.00000E+00
         0.00000E+00
         0.00000E+00
         0.00000E+00
         0.00000E+00
         0.00000E+00
         0.00000E+00
         0.00000E+00
         0.00000E+00
         0.00000E+00
         0.00000E+00
         0.00000E+00
         0.00000E+00
         0.00000E+00
         0.00000E+00
         0.00000E+00
         0.00000E+00
         0.00000E+00
         0.00000E+00
         0.00000E+00
         0.00000E+00
         0.00000E+00
         0.00000E+00
         0.00000E+00
         0.00000E+00
         0.00000E+00
         0.00000E+00
         0.00000E+00
         0.00000E+00
         0.00000E+00
         0.00000E+00
         0.00000E+00
         0.00000E+00
         0.00000E+00
         0.00000E+00
         0.00000E+00
         0.00000E+00
         0.00000E+00
         0.00000E+00
         0.00000E+00
         0.00000E+00
         0.00000E+00
         0.00000E+00
         0.00000E+00
         0.00000E+00
         0.00000E+00
         0.00000E+00
         0.00000E+00
         0.00000E+00
         0.00000E+00
         0.00000E+00
         0.00000E+00
         0.00000E+00
         0.00000E+00
         0.00000E+00
         0.00000E+00
         0.00000E+00
         0.00000E+00
         0.00000E+00
         0.00000E+00
         0.00000E+00
         0.00000E+00
         0.00000E+00
         0.00000E+00
         0.00000E+00
         0.00000E+00
         0.00000E+00
         0.00000E+00
         0.00000E+00
         0.00000E+00
         0.00000E+00
         0.00000E+00
         0.00000E+00
         0.00000E+00
         0.00000E+00
         0.00000E+00
         0.00000E+00
         0.00000E+00
         0.00000E+00
         0.00000E+00
         0.00000E+00
         0.00000E+00
         0.00000E+00
         0.00000E+00
         0.00000E+00
         0.00000E+00
         0.00000E+00
         0.00000E+00
         0.00000E+00
         0.00000E+00
         0.00000E+00
         0.00000E+00
         0.00000E+00
         0.00000E+00
         0.00000E+00
         0.00000E+00
         0.00000E+00
         0.00000E+00
         0.00000E+00
         0.00000E+00
         0.00000E+00
         0.00000E+00
         0.00000E+00
         0.00000E+00
         0.00000E+00
         0.00000E+00
         0.00000E+00
         0.00000E+00
         0.00000E+00
         0.00000E+00
         0.00000E+00
         0.00000E+00
         0.00000E+00
         0.00000E+00
         0.00000E+00
         0.00000E+00
         0.00000E+00
         0.00000E+00
         0.00000E+00
         0.00000E+00
         0.00000E+00
         0.00000E+00
         0.00000E+00
         0.00000E+00
         0.00000E+00
         0.00000E+00
         0.00000E+00
         0.00000E+00
         0.00000E+00
         0.00000E+00
         0.00000E+00
         0.00000E+00
         0.00000E+00
         0.00000E+00
         0.00000E+00
         0.00000E+00
         0.00000E+00
         0.00000E+00
         0.00000E+00
         0.00000E+00
         0.00000E+00
         0.00000E+00
         0.00000E+00
         0.00000E+00
         0.00000E+00
         0.00000E+00
         0.00000E+00
         0.00000E+00
         0.00000E+00
         0.00000E+00
         0.00000E+00
         0.00000E+00
         0.00000E+00
         0.00000E+00
         0.00000E+00
         0.00000E+00
         0.00000E+00
         0.00000E+00
         0.00000E+00
         0.00000E+00
         0.00000E+00
         0.00000E+00
         0.00000E+00
         0.00000E+00
         0.00000E+00
         0.00000E+00
         0.00000E+00
         0.00000E+00
         0.00000E+00
         0.00000E+00
         0.00000E+00
         0.00000E+00
         0.00000E+00
         0.00000E+00
         0.00000E+00
         0.00000E+00
         0.00000E+00
         0.00000E+00
         0.00000E+00
         0.00000E+00
         0.00000E+00
         0.00000E+00
         0.00000E+00
         0.00000E+00
         0.00000E+00
         0.00000E+00
         0.00000E+00
         0.00000E+00
         0.00000E+00
         0.00000E+00
         0.00000E+00
         0.00000E+00
         0.00000E+00
         0.00000E+00
         0.00000E+00
         0.00000E+00
         0.00000E+00
         0.00000E+00
         0.00000E+00
         0.00000E+00
         0.00000E+00
         0.00000E+00
         0.00000E+00
         0.00000E+00
         0.00000E+00
         0.00000E+00
         0.00000E+00
         0.00000E+00
         0.00000E+00
         0.00000E+00
         0.00000E+00
         0.00000E+00
         0.00000E+00
         0.00000E+00
         0.00000E+00
         0.00000E+00
         0.00000E+00
         0.00000E+00
         0.00000E+00
         0.00000E+00
         0.00000E+00
         0.00000E+00
         0.00000E+00
         0.00000E+00
         0.00000E+00
         0.00000E+00
         0.00000E+00
         0.00000E+00
         0.00000E+00
         0.00000E+00
         0.00000E+00
         0.00000E+00
         0.00000E+00
         0.00000E+00
         0.00000E+00
         0.00000E+00
         0.00000E+00
         0.00000E+00
         0.00000E+00
         0.00000E+00
         0.00000E+00
         0.00000E+00
         0.00000E+00
         0.00000E+00
         0.00000E+00
         0.00000E+00
         0.00000E+00
         0.00000E+00
         0.00000E+00
         0.00000E+00
         0.00000E+00
         0.00000E+00
         0.00000E+00
         0.00000E+00
         0.00000E+00
         0.00000E+00
         0.00000E+00
         0.00000E+00
         0.00000E+00
         0.00000E+00
         0.00000E+00
         0.00000E+00
         0.00000E+00
         0.00000E+00
         0.00000E+00
         0.00000E+00
         0.00000E+00
         0.00000E+00
         0.00000E+00
         0.00000E+00
         0.00000E+00
         0.00000E+00
         0.00000E+00
         0.00000E+00
         0.00000E+00
         0.00000E+00
         0.00000E+00
         0.00000E+00
         0.00000E+00
         0.00000E+00
         0.00000E+00
         0.00000E+00
         0.00000E+00
         0.00000E+00
         0.00000E+00
         0.00000E+00
         0.00000E+00
         0.00000E+00
         0.00000E+00
         0.00000E+00
         0.00000E+00
         0.00000E+00
         0.00000E+00
         0.00000E+00
         0.00000E+00
         0.00000E+00
         0.00000E+00
         0.00000E+00
         0.00000E+00
         0.00000E+00
         0.00000E+00
         0.00000E+00
         0.00000E+00
         0.00000E+00
         0.00000E+00
         0.00000E+00
         0.00000E+00
         0.00000E+00
         0.00000E+00
         0.00000E+00
         0.00000E+00
         0.00000E+00
         0.00000E+00
         0.00000E+00
         0.00000E+00
         0.00000E+00
         0.00000E+00
         0.00000E+00
         0.00000E+00
         0.00000E+00
         0.00000E+00
         0.00000E+00
         0.00000E+00
         0.00000E+00
         0.00000E+00
         0.00000E+00
         0.00000E+00
         0.00000E+00
         0.00000E+00
         0.00000E+00
         0.00000E+00
         0.00000E+00
         0.00000E+00
         0.00000E+00
         0.00000E+00
         0.00000E+00
         0.00000E+00
         0.00000E+00
         0.00000E+00
         0.00000E+00
         0.00000E+00
         0.00000E+00
         0.00000E+00
         0.00000E+00
         0.00000E+00
         0.00000E+00
         0.00000E+00
         0.00000E+00
         0.00000E+00
         0.00000E+00
         0.00000E+00
         0.00000E+00
         0.00000E+00
         0.00000E+00
         0.00000E+00
         0.00000E+00
         0.00000E+00
         0.00000E+00
         0.00000E+00
         0.00000E+00
         0.00000E+00
         0.00000E+00
         0.00000E+00
         0.00000E+00
         0.00000E+00
         0.00000E+00
         0.00000E+00
         0.00000E+00
         0.00000E+00
         0.00000E+00
         0.00000E+00
         0.00000E+00
         0.00000E+00
         0.00000E+00
         0.00000E+00
         0.00000E+00
         0.00000E+00
         0.00000E+00
         0.00000E+00
         0.00000E+00
         0.00000E+00
         0.00000E+00
         0.00000E+00
         0.00000E+00
         0.00000E+00
         0.00000E+00
         0.00000E+00
         0.00000E+00
         0.00000E+00
         0.00000E+00
         0.00000E+00
         0.00000E+00
         0.00000E+00
         0.00000E+00
         0.00000E+00
         0.00000E+00
         0.00000E+00
         0.00000E+00
         0.00000E+00
         0.00000E+00
         0.00000E+00
         0.00000E+00
         0.00000E+00
         0.00000E+00
         0.00000E+00
         0.00000E+00
         0.00000E+00
         0.00000E+00
         0.00000E+00
         0.00000E+00
         0.00000E+00
         0.00000E+00
         0.00000E+00
         0.00000E+00
         0.00000E+00
         0.00000E+00
         0.00000E+00
         0.00000E+00
         0.00000E+00
         0.00000E+00
         0.00000E+00
         0.00000E+00
         0.00000E+00
         0.00000E+00
         0.00000E+00
         0.00000E+00
         0.00000E+00
         0.00000E+00
         0.00000E+00
         0.00000E+00
         0.00000E+00
         0.00000E+00
         0.00000E+00
         0.00000E+00
         0.00000E+00
         0.00000E+00
         0.00000E+00
         0.00000E+00
         0.00000E+00
         0.00000E+00
         0.00000E+00
         0.00000E+00
         0.00000E+00
         0.00000E+00
         0.00000E+00
         0.00000E+00
         0.00000E+00
         0.00000E+00
         0.00000E+00
         0.00000E+00
         0.00000E+00
         0.00000E+00
         0.00000E+00
         0.00000E+00
         0.00000E+00
         0.00000E+00
         0.00000E+00
         0.00000E+00
         0.00000E+00
         0.00000E+00
         0.00000E+00
         0.00000E+00
         0.00000E+00
         0.00000E+00
         0.00000E+00
         0.00000E+00
         0.00000E+00
         0.00000E+00
         0.00000E+00
         0.00000E+00
         0.00000E+00
         0.00000E+00
         0.00000E+00
         0.00000E+00
         0.00000E+00
         0.00000E+00
         0.00000E+00
         0.00000E+00
         0.00000E+00
         0.00000E+00
         0.00000E+00
         0.00000E+00
         0.00000E+00
         0.00000E+00
         0.00000E+00
         0.00000E+00
         0.00000E+00
         0.00000E+00
         0.00000E+00
         0.00000E+00
         0.00000E+00
         0.00000E+00
         0.00000E+00
         0.00000E+00
         0.00000E+00
         0.00000E+00
         0.00000E+00
         0.00000E+00
         0.00000E+00
         0.00000E+00
         0.00000E+00
         0.00000E+00
         0.00000E+00
         0.00000E+00
         0.00000E+00
         0.00000E+00
         0.00000E+00
         0.00000E+00
         0.00000E+00
         0.00000E+00
         0.00000E+00
         0.00000E+00
         0.00000E+00
         0.00000E+00
         0.00000E+00
         0.00000E+00
         0.00000E+00
         0.00000E+00
         0.00000E+00
         0.00000E+00
         0.00000E+00
         0.00000E+00
         0.00000E+00
         0.00000E+00
         0.00000E+00
         0.00000E+00
         0.00000E+00
         0.00000E+00
         0.00000E+00
         0.00000E+00
         0.00000E+00
         0.00000E+00
         0.00000E+00
         0.00000E+00
         0.00000E+00
         0.00000E+00
         0.00000E+00
         0.00000E+00
         0.00000E+00
         0.00000E+00
         0.00000E+00
         0.00000E+00
         0.00000E+00
         0.00000E+00
         0.00000E+00
         0.00000E+00
         0.00000E+00
         0.00000E+00
         0.00000E+00
         0.00000E+00
         0.00000E+00
         0.00000E+00
         0.00000E+00
         0.00000E+00
         0.00000E+00
         0.00000E+00
         0.00000E+00
         0.00000E+00
         0.00000E+00
         0.00000E+00
         0.00000E+00
         0.00000E+00
         0.00000E+00
         0.00000E+00
         0.00000E+00
         0.00000E+00
         0.00000E+00
         0.00000E+00
         0.00000E+00
         0.00000E+00
         0.00000E+00
         0.00000E+00
         0.00000E+00
         0.00000E+00
         0.00000E+00
         0.00000E+00
         0.00000E+00
         0.00000E+00
         0.00000E+00
         0.00000E+00
         0.00000E+00
         0.00000E+00
         0.00000E+00
         0.00000E+00
         0.00000E+00
         0.00000E+00
         0.00000E+00
         0.00000E+00
         0.00000E+00
         0.00000E+00
         0.00000E+00
         0.00000E+00
         0.00000E+00
         0.00000E+00
         0.00000E+00
         0.00000E+00
         0.00000E+00
         0.00000E+00
         0.00000E+00
         0.00000E+00
         0.00000E+00
         0.00000E+00
         0.00000E+00
         0.00000E+00
         0.00000E+00
         0.00000E+00
         0.00000E+00
         0.00000E+00
         0.00000E+00
         0.00000E+00
         0.00000E+00
         0.00000E+00
         0.00000E+00
         0.00000E+00
         0.00000E+00
         0.00000E+00
         0.00000E+00
         0.00000E+00
         0.00000E+00
         0.00000E+00
         0.00000E+00
         0.00000E+00
         0.00000E+00
         0.00000E+00
         0.00000E+00
         0.00000E+00
         0.00000E+00
         0.00000E+00
         0.00000E+00
         0.00000E+00
         0.00000E+00
         0.00000E+00
         0.00000E+00
         0.00000E+00
         0.00000E+00
         0.00000E+00
         0.00000E+00
         0.00000E+00
         0.00000E+00
         0.00000E+00
         0.00000E+00
         0.00000E+00
         0.00000E+00
         0.00000E+00
         0.00000E+00
         0.00000E+00
         0.00000E+00
         0.00000E+00
         0.00000E+00
         0.00000E+00
         0.00000E+00
         0.00000E+00
         0.00000E+00
         0.00000E+00
         0.00000E+00
         0.00000E+00
         0.00000E+00
         0.00000E+00
         0.00000E+00
         0.00000E+00
         0.00000E+00
         0.00000E+00
         0.00000E+00
         0.00000E+00
         0.00000E+00
         0.00000E+00
         0.00000E+00
         0.00000E+00
         0.00000E+00
         0.00000E+00
         0.00000E+00
         0.00000E+00
         0.00000E+00
         0.00000E+00
         0.00000E+00
         0.00000E+00
         0.00000E+00
         0.00000E+00
         0.00000E+00
         0.00000E+00
         0.00000E+00
         0.00000E+00
         0.00000E+00
         0.00000E+00
         0.00000E+00
         0.00000E+00
         0.00000E+00
         0.00000E+00
         0.00000E+00
         0.00000E+00
         0.00000E+00
         0.00000E+00
         0.00000E+00
         0.00000E+00
         0.00000E+00
         0.00000E+00
         0.00000E+00
         0.00000E+00
         0.00000E+00
         0.00000E+00
         0.00000E+00
         0.00000E+00
         0.00000E+00
         0.00000E+00
         0.00000E+00
         0.00000E+00
         0.00000E+00
         0.00000E+00
         0.00000E+00
         0.00000E+00
         0.00000E+00
         0.00000E+00
         0.00000E+00
         0.00000E+00
         0.00000E+00
         0.00000E+00
         0.00000E+00
         0.00000E+00
         0.00000E+00
         0.00000E+00
         0.00000E+00
         0.00000E+00
         0.00000E+00
         0.00000E+00
         0.00000E+00
         0.00000E+00
         0.00000E+00
         0.00000E+00
         0.00000E+00
         0.00000E+00
         0.00000E+00
         0.00000E+00
         0.00000E+00
         0.00000E+00
         0.00000E+00
         0.00000E+00
         0.00000E+00
         0.00000E+00
         0.00000E+00
         0.00000E+00
         0.00000E+00
         0.00000E+00
         0.00000E+00
         0.00000E+00
         0.00000E+00
         0.00000E+00
         0.00000E+00
         0.00000E+00
         0.00000E+00
         0.00000E+00
         0.00000E+00
         0.00000E+00
         0.00000E+00
         0.00000E+00
         0.00000E+00
         0.00000E+00
         0.00000E+00
         0.00000E+00
         0.00000E+00
         0.00000E+00
         0.00000E+00
         0.00000E+00
         0.00000E+00
         0.00000E+00
         0.00000E+00
         0.00000E+00
         0.00000E+00
         0.00000E+00
         0.00000E+00
         0.00000E+00
         0.00000E+00
         0.00000E+00
         0.00000E+00
         0.00000E+00
         0.00000E+00
         0.00000E+00
         0.00000E+00
         0.00000E+00
         0.00000E+00
         0.00000E+00
         0.00000E+00
         0.00000E+00
         0.00000E+00
         0.00000E+00
         0.00000E+00
         0.00000E+00
         0.00000E+00
         0.00000E+00
         0.00000E+00
         0.00000E+00
         0.00000E+00
         0.00000E+00
         0.00000E+00
         0.00000E+00
         0.00000E+00
         0.00000E+00
         0.00000E+00
         0.00000E+00
         0.00000E+00
         0.00000E+00
         0.00000E+00
         0.00000E+00
         0.00000E+00
         0.00000E+00
         0.00000E+00
         0.00000E+00
         0.00000E+00
         0.00000E+00
         0.00000E+00
         0.00000E+00
         0.00000E+00
         0.00000E+00
         0.00000E+00
         0.00000E+00
         0.00000E+00
         0.00000E+00
         0.00000E+00
         0.00000E+00
         0.00000E+00
         0.00000E+00
         0.00000E+00
         0.00000E+00
         0.00000E+00
         0.00000E+00
         0.00000E+00
         0.00000E+00
         0.00000E+00
         0.00000E+00
         0.00000E+00
         0.00000E+00
         0.00000E+00
         0.00000E+00
         0.00000E+00
         0.00000E+00
         0.00000E+00
         0.00000E+00
         0.00000E+00
         0.00000E+00
         0.00000E+00
         0.00000E+00
         0.00000E+00
         0.00000E+00
         0.00000E+00
         0.00000E+00
         0.00000E+00
         0.00000E+00
         0.00000E+00
         0.00000E+00
         0.00000E+00
         0.00000E+00
         0.00000E+00
         0.00000E+00
         0.00000E+00
         0.00000E+00
         0.00000E+00
         0.00000E+00
         0.00000E+00
         0.00000E+00
         0.00000E+00
         0.00000E+00
         0.00000E+00
         0.00000E+00
         0.00000E+00
         0.00000E+00
         0.00000E+00
         0.00000E+00
         0.00000E+00
         0.00000E+00
         0.00000E+00
         0.00000E+00
         0.00000E+00
         0.00000E+00
         0.00000E+00
         0.00000E+00
         0.00000E+00
         0.00000E+00
         0.00000E+00
         0.00000E+00
         0.00000E+00
         0.00000E+00
         0.00000E+00
         0.00000E+00
         0.00000E+00
         0.00000E+00
         0.00000E+00
         0.00000E+00
         0.00000E+00
         0.00000E+00
         0.00000E+00
         0.00000E+00
         0.00000E+00
         0.00000E+00
         0.00000E+00
         0.00000E+00
         0.00000E+00
         0.00000E+00
         0.00000E+00
         0.00000E+00
         0.00000E+00
         0.00000E+00
         0.00000E+00
         0.00000E+00
         0.00000E+00
         0.00000E+00
         0.00000E+00
         0.00000E+00
         0.00000E+00
         0.00000E+00
         0.00000E+00
         0.00000E+00
         0.00000E+00
         0.00000E+00
         0.00000E+00
         0.00000E+00
         0.00000E+00
         0.00000E+00
         0.00000E+00
         0.00000E+00
         0.00000E+00
         0.00000E+00
         0.00000E+00
         0.00000E+00
         0.00000E+00
         0.00000E+00
         0.00000E+00
         0.00000E+00
         0.00000E+00
         0.00000E+00
         0.00000E+00
         0.00000E+00
         0.00000E+00
         0.00000E+00
         0.00000E+00
         0.00000E+00
         0.00000E+00
         0.00000E+00
         0.00000E+00
         0.00000E+00
         0.00000E+00
         0.00000E+00
         0.00000E+00
         0.00000E+00
         0.00000E+00
         0.00000E+00
         0.00000E+00
         0.00000E+00
         0.00000E+00
         0.00000E+00
         0.00000E+00
         0.00000E+00
         0.00000E+00
         0.00000E+00
         0.00000E+00
         0.00000E+00
         0.00000E+00
         0.00000E+00
         0.00000E+00
         0.00000E+00
         0.00000E+00
         0.00000E+00
         0.00000E+00
         0.00000E+00
         0.00000E+00
         0.00000E+00
         0.00000E+00
         0.00000E+00
         0.00000E+00
         0.00000E+00
         0.00000E+00
         0.00000E+00
         0.00000E+00
         0.00000E+00
         0.00000E+00
         0.00000E+00
         0.00000E+00
         0.00000E+00
         0.00000E+00
         0.00000E+00
         0.00000E+00
         0.00000E+00
         0.00000E+00
         0.00000E+00
         0.00000E+00
         0.00000E+00
         0.00000E+00
         0.00000E+00
         0.00000E+00
         0.00000E+00
         0.00000E+00
         0.00000E+00
         0.00000E+00
         0.00000E+00
         0.00000E+00
         0.00000E+00
         0.00000E+00
         0.00000E+00
         0.00000E+00
         0.00000E+00
         0.00000E+00
         0.00000E+00
         0.00000E+00
         0.00000E+00
         0.00000E+00
         0.00000E+00
         0.00000E+00
         0.00000E+00
         0.00000E+00
         0.00000E+00
         0.00000E+00
         0.00000E+00
         0.00000E+00
         0.00000E+00
         0.00000E+00
         0.00000E+00
         0.00000E+00
         0.00000E+00
         0.00000E+00
         0.00000E+00
         0.00000E+00
         0.00000E+00
         0.00000E+00
         0.00000E+00
         0.00000E+00
         0.00000E+00
         0.00000E+00
         0.00000E+00
         0.00000E+00
         0.00000E+00
         0.00000E+00
         0.00000E+00
         0.00000E+00
         0.00000E+00
         0.00000E+00
         0.00000E+00
         0.00000E+00
         0.00000E+00
         0.00000E+00
         0.00000E+00
         0.00000E+00
         0.00000E+00
         0.00000E+00
         0.00000E+00
         0.00000E+00
         0.00000E+00
         0.00000E+00
         0.00000E+00
         0.00000E+00
         0.00000E+00
         0.00000E+00
         0.00000E+00
         0.00000E+00
         0.00000E+00
         0.00000E+00
         0.00000E+00
         0.00000E+00
         0.00000E+00
         0.00000E+00
         0.00000E+00
         0.00000E+00
         0.00000E+00
         0.00000E+00
         0.00000E+00
         0.00000E+00
         0.00000E+00
         0.00000E+00
         0.00000E+00
         0.00000E+00
         0.00000E+00
         0.00000E+00
         0.00000E+00
         0.00000E+00
         0.00000E+00
         0.00000E+00
         0.00000E+00
         0.00000E+00
         0.00000E+00
         0.00000E+00
         0.00000E+00
         0.00000E+00
         0.00000E+00
         0.00000E+00
         0.00000E+00
         0.00000E+00
         0.00000E+00
         0.00000E+00
         0.00000E+00
         0.00000E+00
         0.00000E+00
         0.00000E+00
         0.00000E+00
         0.00000E+00
         0.00000E+00
         0.00000E+00
         0.00000E+00
         0.00000E+00
         0.00000E+00
         0.00000E+00
         0.00000E+00
         0.00000E+00
         0.00000E+00
         0.00000E+00
         0.00000E+00
         0.00000E+00
         0.00000E+00
         0.00000E+00
         0.00000E+00
         0.00000E+00
         0.00000E+00
         0.00000E+00
         0.00000E+00
         0.00000E+00
         0.00000E+00
         0.00000E+00
         0.00000E+00
         0.00000E+00
         0.00000E+00
         0.00000E+00
         0.00000E+00
         0.00000E+00
         0.00000E+00
         0.00000E+00
         0.00000E+00
         0.00000E+00
         0.00000E+00
         0.00000E+00
         0.00000E+00
         0.00000E+00
         0.00000E+00
         0.00000E+00
         0.00000E+00
         0.00000E+00
         0.00000E+00
         0.00000E+00
         0.00000E+00
         0.00000E+00
         0.00000E+00
         0.00000E+00
         0.00000E+00
         0.00000E+00
         0.00000E+00
         0.00000E+00
         0.00000E+00
         0.00000E+00
         0.00000E+00
         0.00000E+00
         0.00000E+00
         0.00000E+00
         0.00000E+00
         0.00000E+00
         0.00000E+00
         0.00000E+00
         0.00000E+00
         0.00000E+00
         0.00000E+00
         0.00000E+00
         0.00000E+00
         0.00000E+00
         0.00000E+00
         0.00000E+00
         0.00000E+00
         0.00000E+00
         0.00000E+00
         0.00000E+00
         0.00000E+00
         0.00000E+00
         0.00000E+00
         0.00000E+00
         0.00000E+00
         0.00000E+00
         0.00000E+00
         0.00000E+00
         0.00000E+00
         0.00000E+00
         0.00000E+00
         0.00000E+00
         0.00000E+00
         0.00000E+00
         0.00000E+00
         0.00000E+00
         0.00000E+00
         0.00000E+00
         0.00000E+00
         0.00000E+00
         0.00000E+00
         0.00000E+00
         0.00000E+00
         0.00000E+00
         0.00000E+00
         0.00000E+00
         0.00000E+00
         0.00000E+00
         0.00000E+00
         0.00000E+00
         0.00000E+00
         0.00000E+00
         0.00000E+00
         0.00000E+00
         0.00000E+00
         0.00000E+00
         0.00000E+00
         0.00000E+00
         0.00000E+00
         0.00000E+00
         0.00000E+00
         0.00000E+00
         0.00000E+00
         0.00000E+00
         0.00000E+00
         0.00000E+00
         0.00000E+00
         0.00000E+00
         0.00000E+00
         0.00000E+00
         0.00000E+00
         0.00000E+00
         0.00000E+00
         0.00000E+00
         0.00000E+00
         0.00000E+00
         0.00000E+00
         0.00000E+00
         0.00000E+00
         0.00000E+00
         0.00000E+00
         0.00000E+00
         0.00000E+00
         0.00000E+00
         0.00000E+00
         0.00000E+00
         0.00000E+00
         0.00000E+00
         0.00000E+00
         0.00000E+00
         0.00000E+00
         0.00000E+00
         0.00000E+00
         0.00000E+00
         0.00000E+00
         0.00000E+00
         0.00000E+00
         0.00000E+00
         0.00000E+00
         0.00000E+00
         0.00000E+00
         0.00000E+00
         0.00000E+00
         0.00000E+00
         0.00000E+00
         0.00000E+00
         0.00000E+00
         0.00000E+00
         0.00000E+00
         0.00000E+00
         0.00000E+00
         0.00000E+00
         0.00000E+00
         0.00000E+00
         0.00000E+00
         0.00000E+00
         0.00000E+00
         0.00000E+00
         0.00000E+00
         0.00000E+00
         0.00000E+00
         0.00000E+00
         0.00000E+00
         0.00000E+00
         0.00000E+00
         0.00000E+00
         0.00000E+00
         0.00000E+00
         0.00000E+00
         0.00000E+00
         0.00000E+00
         0.00000E+00
         0.00000E+00
         0.00000E+00
         0.00000E+00
         0.00000E+00
         0.00000E+00
         0.00000E+00
         0.00000E+00
         0.00000E+00
         0.00000E+00
         0.00000E+00
         0.00000E+00
         0.00000E+00
         0.00000E+00
         0.00000E+00
         0.00000E+00
         0.00000E+00
         0.00000E+00
         0.00000E+00
         0.00000E+00
         0.00000E+00
         0.00000E+00
         0.00000E+00
         0.00000E+00
         0.00000E+00
         0.00000E+00
         0.00000E+00
         0.00000E+00
         0.00000E+00
         0.00000E+00
         0.00000E+00
         0.00000E+00
         0.00000E+00
         0.00000E+00
         0.00000E+00
         0.00000E+00
         0.00000E+00
         0.00000E+00
         0.00000E+00
         0.00000E+00
         0.00000E+00
         0.00000E+00
         0.00000E+00
         0.00000E+00
         0.00000E+00
         0.00000E+00
         0.00000E+00
         0.00000E+00
         0.00000E+00
         0.00000E+00
         0.00000E+00
         0.00000E+00
         0.00000E+00
         0.00000E+00
         0.00000E+00
         0.00000E+00
         0.00000E+00
         0.00000E+00
         0.00000E+00
         0.00000E+00
         0.00000E+00
         0.00000E+00
         0.00000E+00
         0.00000E+00
         0.00000E+00
         0.00000E+00
         0.00000E+00
         0.00000E+00
         0.00000E+00
         0.00000E+00
         0.00000E+00
         0.00000E+00
         0.00000E+00
         0.00000E+00
         0.00000E+00
         0.00000E+00
         0.00000E+00
         0.00000E+00
         0.00000E+00
         0.00000E+00
         0.00000E+00
         0.00000E+00
         0.00000E+00
         0.00000E+00
         0.00000E+00
         0.00000E+00
         0.00000E+00
         0.00000E+00
         0.00000E+00
         0.00000E+00
         0.00000E+00
         0.00000E+00
         0.00000E+00
         0.00000E+00
         0.00000E+00
         0.00000E+00
         0.00000E+00
         0.00000E+00
         0.00000E+00
         0.00000E+00
         0.00000E+00
         0.00000E+00
         0.00000E+00
         0.00000E+00
         0.00000E+00
         0.00000E+00
         0.00000E+00
         0.00000E+00
         0.00000E+00
         0.00000E+00
         0.00000E+00
         0.00000E+00
         0.00000E+00
         0.00000E+00
         0.00000E+00
         0.00000E+00
         0.00000E+00
         0.00000E+00
         0.00000E+00
         0.00000E+00
         0.00000E+00
         0.00000E+00
         0.00000E+00
         0.00000E+00
         0.00000E+00
         0.00000E+00
         0.00000E+00
         0.00000E+00
         0.00000E+00
         0.00000E+00
         0.00000E+00
         0.00000E+00
         0.00000E+00
         0.00000E+00
         0.00000E+00
         0.00000E+00
         0.00000E+00
         0.00000E+00
         0.00000E+00
         0.00000E+00
         0.00000E+00
         0.00000E+00
         0.00000E+00
         0.00000E+00
         0.00000E+00
         0.00000E+00
         0.00000E+00
         0.00000E+00
         0.00000E+00
         0.00000E+00
         0.00000E+00
         0.00000E+00
         0.00000E+00
         0.00000E+00
         0.00000E+00
         0.00000E+00
         0.00000E+00
         0.00000E+00
         0.00000E+00
         0.00000E+00
         0.00000E+00
         0.00000E+00
         0.00000E+00
         0.00000E+00
         0.00000E+00
         0.00000E+00
         0.00000E+00
         0.00000E+00
         0.00000E+00
         0.00000E+00
         0.00000E+00
         0.00000E+00
         0.00000E+00
         0.00000E+00
         0.00000E+00
         0.00000E+00
         0.00000E+00
         0.00000E+00
         0.00000E+00
         0.00000E+00
         0.00000E+00
         0.00000E+00
         0.00000E+00
         0.00000E+00
         0.00000E+00
         0.00000E+00
         0.00000E+00
         0.00000E+00
         0.00000E+00
         0.00000E+00
         0.00000E+00
         0.00000E+00
         0.00000E+00
         0.00000E+00
         0.00000E+00
         0.00000E+00
         0.00000E+00
         0.00000E+00
         0.00000E+00
         0.00000E+00
         0.00000E+00
         0.00000E+00
         0.00000E+00
         0.00000E+00
         0.00000E+00
         0.00000E+00
         0.00000E+00
         0.00000E+00
         0.00000E+00
         0.00000E+00
         0.00000E+00
         0.00000E+00
         0.00000E+00
         0.00000E+00
         0.00000E+00
         0.00000E+00
         0.00000E+00
         0.00000E+00
         0.00000E+00
         0.00000E+00
         0.00000E+00
         0.00000E+00
         0.00000E+00
         0.00000E+00
         0.00000E+00
         0.00000E+00
         0.00000E+00
         0.00000E+00
         0.00000E+00
         0.00000E+00
         0.00000E+00
         0.00000E+00
         0.00000E+00
         0.00000E+00
         0.00000E+00
         0.00000E+00
         0.00000E+00
         0.00000E+00
         0.00000E+00
         0.00000E+00
         0.00000E+00
         0.00000E+00
         0.00000E+00
         0.00000E+00
         0.00000E+00
         0.00000E+00
         0.00000E+00
         0.00000E+00
         0.00000E+00
         0.00000E+00
         0.00000E+00
  
SCALARS                 acceleration_y  double 1
LOOKUP_TABLE default
         0.00000E+00
         0.00000E+00
         0.00000E+00
         0.00000E+00
         0.00000E+00
         0.00000E+00
         0.00000E+00
         0.00000E+00
         0.00000E+00
         0.00000E+00
         0.00000E+00
         0.00000E+00
         0.00000E+00
         0.00000E+00
         0.00000E+00
         0.00000E+00
         0.00000E+00
         0.00000E+00
         0.00000E+00
         0.00000E+00
         0.00000E+00
         0.00000E+00
         0.00000E+00
         0.00000E+00
         0.00000E+00
         0.00000E+00
         0.00000E+00
         0.00000E+00
         0.00000E+00
         0.00000E+00
         0.00000E+00
         0.00000E+00
         0.00000E+00
         0.00000E+00
         0.00000E+00
         0.00000E+00
         0.00000E+00
         0.00000E+00
         0.00000E+00
         0.00000E+00
         0.00000E+00
         0.00000E+00
         0.00000E+00
         0.00000E+00
         0.00000E+00
         0.00000E+00
         0.00000E+00
         0.00000E+00
         0.00000E+00
         0.00000E+00
         0.00000E+00
         0.00000E+00
         0.00000E+00
         0.00000E+00
         0.00000E+00
         0.00000E+00
         0.00000E+00
         0.00000E+00
         0.00000E+00
         0.00000E+00
         0.00000E+00
         0.00000E+00
         0.00000E+00
         0.00000E+00
         0.00000E+00
         0.00000E+00
         0.00000E+00
         0.00000E+00
         0.00000E+00
         0.00000E+00
         0.00000E+00
         0.00000E+00
         0.00000E+00
         0.00000E+00
         0.00000E+00
         0.00000E+00
         0.00000E+00
         0.00000E+00
         0.00000E+00
         0.00000E+00
         0.00000E+00
         0.00000E+00
         0.00000E+00
         0.00000E+00
         0.00000E+00
         0.00000E+00
         0.00000E+00
         0.00000E+00
         0.00000E+00
         0.00000E+00
         0.00000E+00
         0.00000E+00
         0.00000E+00
         0.00000E+00
         0.00000E+00
         0.00000E+00
         0.00000E+00
         0.00000E+00
         0.00000E+00
         0.00000E+00
         0.00000E+00
         0.00000E+00
         0.00000E+00
         0.00000E+00
         0.00000E+00
         0.00000E+00
         0.00000E+00
         0.00000E+00
         0.00000E+00
         0.00000E+00
         0.00000E+00
         0.00000E+00
         0.00000E+00
         0.00000E+00
         0.00000E+00
         0.00000E+00
         0.00000E+00
         0.00000E+00
         0.00000E+00
         0.00000E+00
         0.00000E+00
         0.00000E+00
         0.00000E+00
         0.00000E+00
         0.00000E+00
         0.00000E+00
         0.00000E+00
         0.00000E+00
         0.00000E+00
         0.00000E+00
         0.00000E+00
         0.00000E+00
         0.00000E+00
         0.00000E+00
         0.00000E+00
         0.00000E+00
         0.00000E+00
         0.00000E+00
         0.00000E+00
         0.00000E+00
         0.00000E+00
         0.00000E+00
         0.00000E+00
         0.00000E+00
         0.00000E+00
         0.00000E+00
         0.00000E+00
         0.00000E+00
         0.00000E+00
         0.00000E+00
         0.00000E+00
         0.00000E+00
         0.00000E+00
         0.00000E+00
         0.00000E+00
         0.00000E+00
         0.00000E+00
         0.00000E+00
         0.00000E+00
         0.00000E+00
         0.00000E+00
         0.00000E+00
         0.00000E+00
         0.00000E+00
         0.00000E+00
         0.00000E+00
         0.00000E+00
         0.00000E+00
         0.00000E+00
         0.00000E+00
         0.00000E+00
         0.00000E+00
         0.00000E+00
         0.00000E+00
         0.00000E+00
         0.00000E+00
         0.00000E+00
         0.00000E+00
         0.00000E+00
         0.00000E+00
         0.00000E+00
         0.00000E+00
         0.00000E+00
         0.00000E+00
         0.00000E+00
         0.00000E+00
         0.00000E+00
         0.00000E+00
         0.00000E+00
         0.00000E+00
         0.00000E+00
         0.00000E+00
         0.00000E+00
         0.00000E+00
         0.00000E+00
         0.00000E+00
         0.00000E+00
         0.00000E+00
         0.00000E+00
         0.00000E+00
         0.00000E+00
         0.00000E+00
         0.00000E+00
         0.00000E+00
         0.00000E+00
         0.00000E+00
         0.00000E+00
         0.00000E+00
         0.00000E+00
         0.00000E+00
         0.00000E+00
         0.00000E+00
         0.00000E+00
         0.00000E+00
         0.00000E+00
         0.00000E+00
         0.00000E+00
         0.00000E+00
         0.00000E+00
         0.00000E+00
         0.00000E+00
         0.00000E+00
         0.00000E+00
         0.00000E+00
         0.00000E+00
         0.00000E+00
         0.00000E+00
         0.00000E+00
         0.00000E+00
         0.00000E+00
         0.00000E+00
         0.00000E+00
         0.00000E+00
         0.00000E+00
         0.00000E+00
         0.00000E+00
         0.00000E+00
         0.00000E+00
         0.00000E+00
         0.00000E+00
         0.00000E+00
         0.00000E+00
         0.00000E+00
         0.00000E+00
         0.00000E+00
         0.00000E+00
         0.00000E+00
         0.00000E+00
         0.00000E+00
         0.00000E+00
         0.00000E+00
         0.00000E+00
         0.00000E+00
         0.00000E+00
         0.00000E+00
         0.00000E+00
         0.00000E+00
         0.00000E+00
         0.00000E+00
         0.00000E+00
         0.00000E+00
         0.00000E+00
         0.00000E+00
         0.00000E+00
         0.00000E+00
         0.00000E+00
         0.00000E+00
         0.00000E+00
         0.00000E+00
         0.00000E+00
         0.00000E+00
         0.00000E+00
         0.00000E+00
         0.00000E+00
         0.00000E+00
         0.00000E+00
         0.00000E+00
         0.00000E+00
         0.00000E+00
         0.00000E+00
         0.00000E+00
         0.00000E+00
         0.00000E+00
         0.00000E+00
         0.00000E+00
         0.00000E+00
         0.00000E+00
         0.00000E+00
         0.00000E+00
         0.00000E+00
         0.00000E+00
         0.00000E+00
         0.00000E+00
         0.00000E+00
         0.00000E+00
         0.00000E+00
         0.00000E+00
         0.00000E+00
         0.00000E+00
         0.00000E+00
         0.00000E+00
         0.00000E+00
         0.00000E+00
         0.00000E+00
         0.00000E+00
         0.00000E+00
         0.00000E+00
         0.00000E+00
         0.00000E+00
         0.00000E+00
         0.00000E+00
         0.00000E+00
         0.00000E+00
         0.00000E+00
         0.00000E+00
         0.00000E+00
         0.00000E+00
         0.00000E+00
         0.00000E+00
         0.00000E+00
         0.00000E+00
         0.00000E+00
         0.00000E+00
         0.00000E+00
         0.00000E+00
         0.00000E+00
         0.00000E+00
         0.00000E+00
         0.00000E+00
         0.00000E+00
         0.00000E+00
         0.00000E+00
         0.00000E+00
         0.00000E+00
         0.00000E+00
         0.00000E+00
         0.00000E+00
         0.00000E+00
         0.00000E+00
         0.00000E+00
         0.00000E+00
         0.00000E+00
         0.00000E+00
         0.00000E+00
         0.00000E+00
         0.00000E+00
         0.00000E+00
         0.00000E+00
         0.00000E+00
         0.00000E+00
         0.00000E+00
         0.00000E+00
         0.00000E+00
         0.00000E+00
         0.00000E+00
         0.00000E+00
         0.00000E+00
         0.00000E+00
         0.00000E+00
         0.00000E+00
         0.00000E+00
         0.00000E+00
         0.00000E+00
         0.00000E+00
         0.00000E+00
         0.00000E+00
         0.00000E+00
         0.00000E+00
         0.00000E+00
         0.00000E+00
         0.00000E+00
         0.00000E+00
         0.00000E+00
         0.00000E+00
         0.00000E+00
         0.00000E+00
         0.00000E+00
         0.00000E+00
         0.00000E+00
         0.00000E+00
         0.00000E+00
         0.00000E+00
         0.00000E+00
         0.00000E+00
         0.00000E+00
         0.00000E+00
         0.00000E+00
         0.00000E+00
         0.00000E+00
         0.00000E+00
         0.00000E+00
         0.00000E+00
         0.00000E+00
         0.00000E+00
         0.00000E+00
         0.00000E+00
         0.00000E+00
         0.00000E+00
         0.00000E+00
         0.00000E+00
         0.00000E+00
         0.00000E+00
         0.00000E+00
         0.00000E+00
         0.00000E+00
         0.00000E+00
         0.00000E+00
         0.00000E+00
         0.00000E+00
         0.00000E+00
         0.00000E+00
         0.00000E+00
         0.00000E+00
         0.00000E+00
         0.00000E+00
         0.00000E+00
         0.00000E+00
         0.00000E+00
         0.00000E+00
         0.00000E+00
         0.00000E+00
         0.00000E+00
         0.00000E+00
         0.00000E+00
         0.00000E+00
         0.00000E+00
         0.00000E+00
         0.00000E+00
         0.00000E+00
         0.00000E+00
         0.00000E+00
         0.00000E+00
         0.00000E+00
         0.00000E+00
         0.00000E+00
         0.00000E+00
         0.00000E+00
         0.00000E+00
         0.00000E+00
         0.00000E+00
         0.00000E+00
         0.00000E+00
         0.00000E+00
         0.00000E+00
         0.00000E+00
         0.00000E+00
         0.00000E+00
         0.00000E+00
         0.00000E+00
         0.00000E+00
         0.00000E+00
         0.00000E+00
         0.00000E+00
         0.00000E+00
         0.00000E+00
         0.00000E+00
         0.00000E+00
         0.00000E+00
         0.00000E+00
         0.00000E+00
         0.00000E+00
         0.00000E+00
         0.00000E+00
         0.00000E+00
         0.00000E+00
         0.00000E+00
         0.00000E+00
         0.00000E+00
         0.00000E+00
         0.00000E+00
         0.00000E+00
         0.00000E+00
         0.00000E+00
         0.00000E+00
         0.00000E+00
         0.00000E+00
         0.00000E+00
         0.00000E+00
         0.00000E+00
         0.00000E+00
         0.00000E+00
         0.00000E+00
         0.00000E+00
         0.00000E+00
         0.00000E+00
         0.00000E+00
         0.00000E+00
         0.00000E+00
         0.00000E+00
         0.00000E+00
         0.00000E+00
         0.00000E+00
         0.00000E+00
         0.00000E+00
         0.00000E+00
         0.00000E+00
         0.00000E+00
         0.00000E+00
         0.00000E+00
         0.00000E+00
         0.00000E+00
         0.00000E+00
         0.00000E+00
         0.00000E+00
         0.00000E+00
         0.00000E+00
         0.00000E+00
         0.00000E+00
         0.00000E+00
         0.00000E+00
         0.00000E+00
         0.00000E+00
         0.00000E+00
         0.00000E+00
         0.00000E+00
         0.00000E+00
         0.00000E+00
         0.00000E+00
         0.00000E+00
         0.00000E+00
         0.00000E+00
         0.00000E+00
         0.00000E+00
         0.00000E+00
         0.00000E+00
         0.00000E+00
         0.00000E+00
         0.00000E+00
         0.00000E+00
         0.00000E+00
         0.00000E+00
         0.00000E+00
         0.00000E+00
         0.00000E+00
         0.00000E+00
         0.00000E+00
         0.00000E+00
         0.00000E+00
         0.00000E+00
         0.00000E+00
         0.00000E+00
         0.00000E+00
         0.00000E+00
         0.00000E+00
         0.00000E+00
         0.00000E+00
         0.00000E+00
         0.00000E+00
         0.00000E+00
         0.00000E+00
         0.00000E+00
         0.00000E+00
         0.00000E+00
         0.00000E+00
         0.00000E+00
         0.00000E+00
         0.00000E+00
         0.00000E+00
         0.00000E+00
         0.00000E+00
         0.00000E+00
         0.00000E+00
         0.00000E+00
         0.00000E+00
         0.00000E+00
         0.00000E+00
         0.00000E+00
         0.00000E+00
         0.00000E+00
         0.00000E+00
         0.00000E+00
         0.00000E+00
         0.00000E+00
         0.00000E+00
         0.00000E+00
         0.00000E+00
         0.00000E+00
         0.00000E+00
         0.00000E+00
         0.00000E+00
         0.00000E+00
         0.00000E+00
         0.00000E+00
         0.00000E+00
         0.00000E+00
         0.00000E+00
         0.00000E+00
         0.00000E+00
         0.00000E+00
         0.00000E+00
         0.00000E+00
         0.00000E+00
         0.00000E+00
         0.00000E+00
         0.00000E+00
         0.00000E+00
         0.00000E+00
         0.00000E+00
         0.00000E+00
         0.00000E+00
         0.00000E+00
         0.00000E+00
         0.00000E+00
         0.00000E+00
         0.00000E+00
         0.00000E+00
         0.00000E+00
         0.00000E+00
         0.00000E+00
         0.00000E+00
         0.00000E+00
         0.00000E+00
         0.00000E+00
         0.00000E+00
         0.00000E+00
         0.00000E+00
         0.00000E+00
         0.00000E+00
         0.00000E+00
         0.00000E+00
         0.00000E+00
         0.00000E+00
         0.00000E+00
         0.00000E+00
         0.00000E+00
         0.00000E+00
         0.00000E+00
         0.00000E+00
         0.00000E+00
         0.00000E+00
         0.00000E+00
         0.00000E+00
         0.00000E+00
         0.00000E+00
         0.00000E+00
         0.00000E+00
         0.00000E+00
         0.00000E+00
         0.00000E+00
         0.00000E+00
         0.00000E+00
         0.00000E+00
         0.00000E+00
         0.00000E+00
         0.00000E+00
         0.00000E+00
         0.00000E+00
         0.00000E+00
         0.00000E+00
         0.00000E+00
         0.00000E+00
         0.00000E+00
         0.00000E+00
         0.00000E+00
         0.00000E+00
         0.00000E+00
         0.00000E+00
         0.00000E+00
         0.00000E+00
         0.00000E+00
         0.00000E+00
         0.00000E+00
         0.00000E+00
         0.00000E+00
         0.00000E+00
         0.00000E+00
         0.00000E+00
         0.00000E+00
         0.00000E+00
         0.00000E+00
         0.00000E+00
         0.00000E+00
         0.00000E+00
         0.00000E+00
         0.00000E+00
         0.00000E+00
         0.00000E+00
         0.00000E+00
         0.00000E+00
         0.00000E+00
         0.00000E+00
         0.00000E+00
         0.00000E+00
         0.00000E+00
         0.00000E+00
         0.00000E+00
         0.00000E+00
         0.00000E+00
         0.00000E+00
         0.00000E+00
         0.00000E+00
         0.00000E+00
         0.00000E+00
         0.00000E+00
         0.00000E+00
         0.00000E+00
         0.00000E+00
         0.00000E+00
         0.00000E+00
         0.00000E+00
         0.00000E+00
         0.00000E+00
         0.00000E+00
         0.00000E+00
         0.00000E+00
         0.00000E+00
         0.00000E+00
         0.00000E+00
         0.00000E+00
         0.00000E+00
         0.00000E+00
         0.00000E+00
         0.00000E+00
         0.00000E+00
         0.00000E+00
         0.00000E+00
         0.00000E+00
         0.00000E+00
         0.00000E+00
         0.00000E+00
         0.00000E+00
         0.00000E+00
         0.00000E+00
         0.00000E+00
         0.00000E+00
         0.00000E+00
         0.00000E+00
         0.00000E+00
         0.00000E+00
         0.00000E+00
         0.00000E+00
         0.00000E+00
         0.00000E+00
         0.00000E+00
         0.00000E+00
         0.00000E+00
         0.00000E+00
         0.00000E+00
         0.00000E+00
         0.00000E+00
         0.00000E+00
         0.00000E+00
         0.00000E+00
         0.00000E+00
         0.00000E+00
         0.00000E+00
         0.00000E+00
         0.00000E+00
         0.00000E+00
         0.00000E+00
         0.00000E+00
         0.00000E+00
         0.00000E+00
         0.00000E+00
         0.00000E+00
         0.00000E+00
         0.00000E+00
         0.00000E+00
         0.00000E+00
         0.00000E+00
         0.00000E+00
         0.00000E+00
         0.00000E+00
         0.00000E+00
         0.00000E+00
         0.00000E+00
         0.00000E+00
         0.00000E+00
         0.00000E+00
         0.00000E+00
         0.00000E+00
         0.00000E+00
         0.00000E+00
         0.00000E+00
         0.00000E+00
         0.00000E+00
         0.00000E+00
         0.00000E+00
         0.00000E+00
         0.00000E+00
         0.00000E+00
         0.00000E+00
         0.00000E+00
         0.00000E+00
         0.00000E+00
         0.00000E+00
         0.00000E+00
         0.00000E+00
         0.00000E+00
         0.00000E+00
         0.00000E+00
         0.00000E+00
         0.00000E+00
         0.00000E+00
         0.00000E+00
         0.00000E+00
         0.00000E+00
         0.00000E+00
         0.00000E+00
         0.00000E+00
         0.00000E+00
         0.00000E+00
         0.00000E+00
         0.00000E+00
         0.00000E+00
         0.00000E+00
         0.00000E+00
         0.00000E+00
         0.00000E+00
         0.00000E+00
         0.00000E+00
         0.00000E+00
         0.00000E+00
         0.00000E+00
         0.00000E+00
         0.00000E+00
         0.00000E+00
         0.00000E+00
         0.00000E+00
         0.00000E+00
         0.00000E+00
         0.00000E+00
         0.00000E+00
         0.00000E+00
         0.00000E+00
         0.00000E+00
         0.00000E+00
         0.00000E+00
         0.00000E+00
         0.00000E+00
         0.00000E+00
         0.00000E+00
         0.00000E+00
         0.00000E+00
         0.00000E+00
         0.00000E+00
         0.00000E+00
         0.00000E+00
         0.00000E+00
         0.00000E+00
         0.00000E+00
         0.00000E+00
         0.00000E+00
         0.00000E+00
         0.00000E+00
         0.00000E+00
         0.00000E+00
         0.00000E+00
         0.00000E+00
         0.00000E+00
         0.00000E+00
         0.00000E+00
         0.00000E+00
         0.00000E+00
         0.00000E+00
         0.00000E+00
         0.00000E+00
         0.00000E+00
         0.00000E+00
         0.00000E+00
         0.00000E+00
         0.00000E+00
         0.00000E+00
         0.00000E+00
         0.00000E+00
         0.00000E+00
         0.00000E+00
         0.00000E+00
         0.00000E+00
         0.00000E+00
         0.00000E+00
         0.00000E+00
         0.00000E+00
         0.00000E+00
         0.00000E+00
         0.00000E+00
         0.00000E+00
         0.00000E+00
         0.00000E+00
         0.00000E+00
         0.00000E+00
         0.00000E+00
         0.00000E+00
         0.00000E+00
         0.00000E+00
         0.00000E+00
         0.00000E+00
         0.00000E+00
         0.00000E+00
         0.00000E+00
         0.00000E+00
         0.00000E+00
         0.00000E+00
         0.00000E+00
         0.00000E+00
         0.00000E+00
         0.00000E+00
         0.00000E+00
         0.00000E+00
         0.00000E+00
         0.00000E+00
         0.00000E+00
         0.00000E+00
         0.00000E+00
         0.00000E+00
         0.00000E+00
         0.00000E+00
         0.00000E+00
         0.00000E+00
         0.00000E+00
         0.00000E+00
         0.00000E+00
         0.00000E+00
         0.00000E+00
         0.00000E+00
         0.00000E+00
         0.00000E+00
         0.00000E+00
         0.00000E+00
         0.00000E+00
         0.00000E+00
         0.00000E+00
         0.00000E+00
         0.00000E+00
         0.00000E+00
         0.00000E+00
         0.00000E+00
         0.00000E+00
         0.00000E+00
         0.00000E+00
         0.00000E+00
         0.00000E+00
         0.00000E+00
         0.00000E+00
         0.00000E+00
         0.00000E+00
         0.00000E+00
         0.00000E+00
         0.00000E+00
         0.00000E+00
         0.00000E+00
         0.00000E+00
         0.00000E+00
         0.00000E+00
         0.00000E+00
         0.00000E+00
         0.00000E+00
         0.00000E+00
         0.00000E+00
         0.00000E+00
         0.00000E+00
         0.00000E+00
         0.00000E+00
         0.00000E+00
         0.00000E+00
         0.00000E+00
         0.00000E+00
         0.00000E+00
         0.00000E+00
         0.00000E+00
         0.00000E+00
         0.00000E+00
         0.00000E+00
         0.00000E+00
         0.00000E+00
         0.00000E+00
         0.00000E+00
         0.00000E+00
         0.00000E+00
         0.00000E+00
         0.00000E+00
         0.00000E+00
         0.00000E+00
         0.00000E+00
         0.00000E+00
         0.00000E+00
         0.00000E+00
         0.00000E+00
         0.00000E+00
         0.00000E+00
         0.00000E+00
         0.00000E+00
         0.00000E+00
         0.00000E+00
         0.00000E+00
         0.00000E+00
         0.00000E+00
         0.00000E+00
         0.00000E+00
         0.00000E+00
         0.00000E+00
         0.00000E+00
         0.00000E+00
         0.00000E+00
         0.00000E+00
         0.00000E+00
         0.00000E+00
         0.00000E+00
         0.00000E+00
         0.00000E+00
         0.00000E+00
         0.00000E+00
         0.00000E+00
         0.00000E+00
         0.00000E+00
         0.00000E+00
         0.00000E+00
         0.00000E+00
         0.00000E+00
         0.00000E+00
         0.00000E+00
         0.00000E+00
         0.00000E+00
         0.00000E+00
         0.00000E+00
         0.00000E+00
         0.00000E+00
         0.00000E+00
         0.00000E+00
         0.00000E+00
         0.00000E+00
         0.00000E+00
         0.00000E+00
         0.00000E+00
         0.00000E+00
         0.00000E+00
         0.00000E+00
         0.00000E+00
         0.00000E+00
         0.00000E+00
         0.00000E+00
         0.00000E+00
         0.00000E+00
         0.00000E+00
         0.00000E+00
         0.00000E+00
         0.00000E+00
         0.00000E+00
         0.00000E+00
         0.00000E+00
         0.00000E+00
         0.00000E+00
         0.00000E+00
         0.00000E+00
         0.00000E+00
         0.00000E+00
         0.00000E+00
         0.00000E+00
         0.00000E+00
         0.00000E+00
         0.00000E+00
         0.00000E+00
         0.00000E+00
         0.00000E+00
         0.00000E+00
         0.00000E+00
         0.00000E+00
         0.00000E+00
         0.00000E+00
         0.00000E+00
         0.00000E+00
         0.00000E+00
         0.00000E+00
         0.00000E+00
         0.00000E+00
         0.00000E+00
         0.00000E+00
         0.00000E+00
         0.00000E+00
         0.00000E+00
         0.00000E+00
         0.00000E+00
         0.00000E+00
         0.00000E+00
         0.00000E+00
         0.00000E+00
         0.00000E+00
         0.00000E+00
         0.00000E+00
         0.00000E+00
         0.00000E+00
         0.00000E+00
         0.00000E+00
         0.00000E+00
         0.00000E+00
         0.00000E+00
         0.00000E+00
         0.00000E+00
         0.00000E+00
         0.00000E+00
         0.00000E+00
         0.00000E+00
         0.00000E+00
         0.00000E+00
         0.00000E+00
         0.00000E+00
         0.00000E+00
         0.00000E+00
         0.00000E+00
         0.00000E+00
         0.00000E+00
         0.00000E+00
         0.00000E+00
         0.00000E+00
         0.00000E+00
         0.00000E+00
         0.00000E+00
         0.00000E+00
         0.00000E+00
         0.00000E+00
         0.00000E+00
         0.00000E+00
         0.00000E+00
         0.00000E+00
         0.00000E+00
         0.00000E+00
         0.00000E+00
         0.00000E+00
         0.00000E+00
         0.00000E+00
         0.00000E+00
         0.00000E+00
         0.00000E+00
         0.00000E+00
         0.00000E+00
         0.00000E+00
         0.00000E+00
         0.00000E+00
         0.00000E+00
         0.00000E+00
         0.00000E+00
         0.00000E+00
         0.00000E+00
         0.00000E+00
         0.00000E+00
         0.00000E+00
         0.00000E+00
         0.00000E+00
         0.00000E+00
         0.00000E+00
         0.00000E+00
         0.00000E+00
         0.00000E+00
         0.00000E+00
         0.00000E+00
         0.00000E+00
         0.00000E+00
         0.00000E+00
         0.00000E+00
         0.00000E+00
         0.00000E+00
         0.00000E+00
         0.00000E+00
         0.00000E+00
         0.00000E+00
         0.00000E+00
         0.00000E+00
         0.00000E+00
         0.00000E+00
         0.00000E+00
         0.00000E+00
         0.00000E+00
         0.00000E+00
         0.00000E+00
         0.00000E+00
         0.00000E+00
         0.00000E+00
         0.00000E+00
         0.00000E+00
         0.00000E+00
         0.00000E+00
         0.00000E+00
         0.00000E+00
         0.00000E+00
         0.00000E+00
         0.00000E+00
         0.00000E+00
         0.00000E+00
         0.00000E+00
         0.00000E+00
         0.00000E+00
         0.00000E+00
         0.00000E+00
         0.00000E+00
         0.00000E+00
         0.00000E+00
         0.00000E+00
         0.00000E+00
         0.00000E+00
         0.00000E+00
         0.00000E+00
         0.00000E+00
         0.00000E+00
         0.00000E+00
         0.00000E+00
         0.00000E+00
         0.00000E+00
         0.00000E+00
         0.00000E+00
         0.00000E+00
         0.00000E+00
         0.00000E+00
         0.00000E+00
         0.00000E+00
         0.00000E+00
         0.00000E+00
         0.00000E+00
         0.00000E+00
         0.00000E+00
         0.00000E+00
         0.00000E+00
         0.00000E+00
         0.00000E+00
         0.00000E+00
         0.00000E+00
         0.00000E+00
         0.00000E+00
         0.00000E+00
         0.00000E+00
         0.00000E+00
         0.00000E+00
         0.00000E+00
         0.00000E+00
         0.00000E+00
         0.00000E+00
         0.00000E+00
         0.00000E+00
         0.00000E+00
         0.00000E+00
         0.00000E+00
         0.00000E+00
         0.00000E+00
         0.00000E+00
         0.00000E+00
         0.00000E+00
         0.00000E+00
         0.00000E+00
         0.00000E+00
         0.00000E+00
         0.00000E+00
         0.00000E+00
         0.00000E+00
         0.00000E+00
         0.00000E+00
         0.00000E+00
         0.00000E+00
         0.00000E+00
         0.00000E+00
         0.00000E+00
         0.00000E+00
         0.00000E+00
         0.00000E+00
         0.00000E+00
         0.00000E+00
         0.00000E+00
         0.00000E+00
         0.00000E+00
         0.00000E+00
         0.00000E+00
         0.00000E+00
         0.00000E+00
         0.00000E+00
         0.00000E+00
         0.00000E+00
         0.00000E+00
         0.00000E+00
         0.00000E+00
         0.00000E+00
         0.00000E+00
         0.00000E+00
         0.00000E+00
         0.00000E+00
         0.00000E+00
         0.00000E+00
         0.00000E+00
         0.00000E+00
         0.00000E+00
         0.00000E+00
         0.00000E+00
         0.00000E+00
         0.00000E+00
         0.00000E+00
         0.00000E+00
         0.00000E+00
         0.00000E+00
         0.00000E+00
         0.00000E+00
         0.00000E+00
         0.00000E+00
         0.00000E+00
         0.00000E+00
         0.00000E+00
         0.00000E+00
         0.00000E+00
         0.00000E+00
         0.00000E+00
         0.00000E+00
         0.00000E+00
         0.00000E+00
         0.00000E+00
         0.00000E+00
         0.00000E+00
         0.00000E+00
         0.00000E+00
         0.00000E+00
         0.00000E+00
         0.00000E+00
         0.00000E+00
         0.00000E+00
         0.00000E+00
         0.00000E+00
         0.00000E+00
         0.00000E+00
         0.00000E+00
         0.00000E+00
         0.00000E+00
         0.00000E+00
         0.00000E+00
         0.00000E+00
         0.00000E+00
         0.00000E+00
         0.00000E+00
         0.00000E+00
         0.00000E+00
         0.00000E+00
         0.00000E+00
         0.00000E+00
         0.00000E+00
         0.00000E+00
         0.00000E+00
         0.00000E+00
         0.00000E+00
         0.00000E+00
         0.00000E+00
         0.00000E+00
         0.00000E+00
         0.00000E+00
         0.00000E+00
         0.00000E+00
         0.00000E+00
         0.00000E+00
         0.00000E+00
         0.00000E+00
         0.00000E+00
         0.00000E+00
         0.00000E+00
         0.00000E+00
         0.00000E+00
         0.00000E+00
         0.00000E+00
         0.00000E+00
         0.00000E+00
         0.00000E+00
         0.00000E+00
         0.00000E+00
         0.00000E+00
         0.00000E+00
         0.00000E+00
         0.00000E+00
         0.00000E+00
         0.00000E+00
         0.00000E+00
         0.00000E+00
         0.00000E+00
         0.00000E+00
         0.00000E+00
         0.00000E+00
         0.00000E+00
         0.00000E+00
         0.00000E+00
         0.00000E+00
         0.00000E+00
         0.00000E+00
         0.00000E+00
         0.00000E+00
         0.00000E+00
         0.00000E+00
         0.00000E+00
         0.00000E+00
         0.00000E+00
         0.00000E+00
         0.00000E+00
         0.00000E+00
         0.00000E+00
         0.00000E+00
         0.00000E+00
         0.00000E+00
         0.00000E+00
         0.00000E+00
         0.00000E+00
         0.00000E+00
         0.00000E+00
         0.00000E+00
         0.00000E+00
         0.00000E+00
         0.00000E+00
         0.00000E+00
         0.00000E+00
         0.00000E+00
         0.00000E+00
         0.00000E+00
         0.00000E+00
         0.00000E+00
         0.00000E+00
         0.00000E+00
         0.00000E+00
         0.00000E+00
         0.00000E+00
         0.00000E+00
         0.00000E+00
         0.00000E+00
         0.00000E+00
         0.00000E+00
         0.00000E+00
         0.00000E+00
         0.00000E+00
         0.00000E+00
         0.00000E+00
         0.00000E+00
         0.00000E+00
         0.00000E+00
         0.00000E+00
         0.00000E+00
         0.00000E+00
         0.00000E+00
         0.00000E+00
         0.00000E+00
         0.00000E+00
         0.00000E+00
         0.00000E+00
         0.00000E+00
         0.00000E+00
         0.00000E+00
         0.00000E+00
         0.00000E+00
         0.00000E+00
         0.00000E+00
         0.00000E+00
         0.00000E+00
         0.00000E+00
         0.00000E+00
         0.00000E+00
         0.00000E+00
         0.00000E+00
         0.00000E+00
         0.00000E+00
         0.00000E+00
         0.00000E+00
         0.00000E+00
         0.00000E+00
         0.00000E+00
         0.00000E+00
         0.00000E+00
         0.00000E+00
         0.00000E+00
         0.00000E+00
         0.00000E+00
         0.00000E+00
         0.00000E+00
         0.00000E+00
         0.00000E+00
         0.00000E+00
         0.00000E+00
         0.00000E+00
         0.00000E+00
         0.00000E+00
         0.00000E+00
         0.00000E+00
         0.00000E+00
         0.00000E+00
         0.00000E+00
         0.00000E+00
         0.00000E+00
         0.00000E+00
         0.00000E+00
         0.00000E+00
         0.00000E+00
         0.00000E+00
         0.00000E+00
         0.00000E+00
         0.00000E+00
         0.00000E+00
         0.00000E+00
         0.00000E+00
         0.00000E+00
         0.00000E+00
         0.00000E+00
         0.00000E+00
         0.00000E+00
         0.00000E+00
         0.00000E+00
         0.00000E+00
         0.00000E+00
         0.00000E+00
         0.00000E+00
         0.00000E+00
         0.00000E+00
         0.00000E+00
         0.00000E+00
         0.00000E+00
         0.00000E+00
         0.00000E+00
         0.00000E+00
         0.00000E+00
         0.00000E+00
         0.00000E+00
         0.00000E+00
         0.00000E+00
         0.00000E+00
         0.00000E+00
         0.00000E+00
         0.00000E+00
         0.00000E+00
         0.00000E+00
         0.00000E+00
         0.00000E+00
         0.00000E+00
         0.00000E+00
         0.00000E+00
         0.00000E+00
         0.00000E+00
         0.00000E+00
         0.00000E+00
         0.00000E+00
         0.00000E+00
         0.00000E+00
         0.00000E+00
         0.00000E+00
         0.00000E+00
         0.00000E+00
         0.00000E+00
         0.00000E+00
         0.00000E+00
         0.00000E+00
         0.00000E+00
         0.00000E+00
         0.00000E+00
         0.00000E+00
         0.00000E+00
         0.00000E+00
         0.00000E+00
         0.00000E+00
         0.00000E+00
         0.00000E+00
         0.00000E+00
         0.00000E+00
         0.00000E+00
         0.00000E+00
         0.00000E+00
         0.00000E+00
         0.00000E+00
         0.00000E+00
         0.00000E+00
         0.00000E+00
         0.00000E+00
         0.00000E+00
         0.00000E+00
         0.00000E+00
         0.00000E+00
         0.00000E+00
         0.00000E+00
         0.00000E+00
         0.00000E+00
         0.00000E+00
         0.00000E+00
         0.00000E+00
         0.00000E+00
         0.00000E+00
         0.00000E+00
         0.00000E+00
         0.00000E+00
         0.00000E+00
         0.00000E+00
         0.00000E+00
         0.00000E+00
         0.00000E+00
         0.00000E+00
         0.00000E+00
         0.00000E+00
         0.00000E+00
         0.00000E+00
         0.00000E+00
         0.00000E+00
         0.00000E+00
         0.00000E+00
         0.00000E+00
         0.00000E+00
         0.00000E+00
         0.00000E+00
         0.00000E+00
         0.00000E+00
         0.00000E+00
         0.00000E+00
         0.00000E+00
         0.00000E+00
         0.00000E+00
         0.00000E+00
         0.00000E+00
         0.00000E+00
         0.00000E+00
         0.00000E+00
         0.00000E+00
         0.00000E+00
         0.00000E+00
         0.00000E+00
         0.00000E+00
         0.00000E+00
         0.00000E+00
         0.00000E+00
         0.00000E+00
         0.00000E+00
         0.00000E+00
         0.00000E+00
         0.00000E+00
         0.00000E+00
         0.00000E+00
         0.00000E+00
         0.00000E+00
         0.00000E+00
         0.00000E+00
         0.00000E+00
         0.00000E+00
         0.00000E+00
         0.00000E+00
         0.00000E+00
         0.00000E+00
         0.00000E+00
         0.00000E+00
         0.00000E+00
         0.00000E+00
         0.00000E+00
         0.00000E+00
         0.00000E+00
         0.00000E+00
         0.00000E+00
         0.00000E+00
         0.00000E+00
         0.00000E+00
         0.00000E+00
         0.00000E+00
         0.00000E+00
         0.00000E+00
         0.00000E+00
         0.00000E+00
         0.00000E+00
         0.00000E+00
         0.00000E+00
         0.00000E+00
         0.00000E+00
         0.00000E+00
         0.00000E+00
         0.00000E+00
         0.00000E+00
         0.00000E+00
         0.00000E+00
         0.00000E+00
         0.00000E+00
         0.00000E+00
         0.00000E+00
         0.00000E+00
         0.00000E+00
         0.00000E+00
         0.00000E+00
         0.00000E+00
         0.00000E+00
         0.00000E+00
         0.00000E+00
         0.00000E+00
         0.00000E+00
         0.00000E+00
         0.00000E+00
         0.00000E+00
         0.00000E+00
         0.00000E+00
         0.00000E+00
         0.00000E+00
         0.00000E+00
         0.00000E+00
         0.00000E+00
         0.00000E+00
         0.00000E+00
         0.00000E+00
         0.00000E+00
         0.00000E+00
         0.00000E+00
         0.00000E+00
         0.00000E+00
         0.00000E+00
         0.00000E+00
         0.00000E+00
         0.00000E+00
         0.00000E+00
         0.00000E+00
         0.00000E+00
         0.00000E+00
         0.00000E+00
         0.00000E+00
         0.00000E+00
         0.00000E+00
         0.00000E+00
         0.00000E+00
         0.00000E+00
         0.00000E+00
         0.00000E+00
         0.00000E+00
         0.00000E+00
         0.00000E+00
         0.00000E+00
         0.00000E+00
         0.00000E+00
         0.00000E+00
         0.00000E+00
         0.00000E+00
         0.00000E+00
         0.00000E+00
         0.00000E+00
         0.00000E+00
         0.00000E+00
         0.00000E+00
         0.00000E+00
         0.00000E+00
         0.00000E+00
         0.00000E+00
         0.00000E+00
         0.00000E+00
         0.00000E+00
         0.00000E+00
         0.00000E+00
         0.00000E+00
         0.00000E+00
         0.00000E+00
         0.00000E+00
         0.00000E+00
         0.00000E+00
         0.00000E+00
         0.00000E+00
         0.00000E+00
         0.00000E+00
         0.00000E+00
         0.00000E+00
         0.00000E+00
         0.00000E+00
         0.00000E+00
         0.00000E+00
         0.00000E+00
         0.00000E+00
         0.00000E+00
         0.00000E+00
         0.00000E+00
         0.00000E+00
         0.00000E+00
         0.00000E+00
         0.00000E+00
         0.00000E+00
         0.00000E+00
         0.00000E+00
         0.00000E+00
         0.00000E+00
         0.00000E+00
         0.00000E+00
         0.00000E+00
         0.00000E+00
         0.00000E+00
         0.00000E+00
         0.00000E+00
         0.00000E+00
         0.00000E+00
         0.00000E+00
         0.00000E+00
         0.00000E+00
         0.00000E+00
         0.00000E+00
         0.00000E+00
         0.00000E+00
         0.00000E+00
         0.00000E+00
         0.00000E+00
         0.00000E+00
         0.00000E+00
         0.00000E+00
         0.00000E+00
         0.00000E+00
         0.00000E+00
         0.00000E+00
         0.00000E+00
         0.00000E+00
         0.00000E+00
         0.00000E+00
         0.00000E+00
         0.00000E+00
         0.00000E+00
         0.00000E+00
         0.00000E+00
         0.00000E+00
         0.00000E+00
         0.00000E+00
         0.00000E+00
         0.00000E+00
         0.00000E+00
         0.00000E+00
         0.00000E+00
         0.00000E+00
         0.00000E+00
         0.00000E+00
         0.00000E+00
         0.00000E+00
         0.00000E+00
         0.00000E+00
         0.00000E+00
         0.00000E+00
         0.00000E+00
         0.00000E+00
         0.00000E+00
         0.00000E+00
         0.00000E+00
         0.00000E+00
         0.00000E+00
         0.00000E+00
         0.00000E+00
         0.00000E+00
         0.00000E+00
         0.00000E+00
         0.00000E+00
         0.00000E+00
         0.00000E+00
         0.00000E+00
         0.00000E+00
         0.00000E+00
         0.00000E+00
         0.00000E+00
         0.00000E+00
         0.00000E+00
         0.00000E+00
         0.00000E+00
         0.00000E+00
         0.00000E+00
         0.00000E+00
         0.00000E+00
         0.00000E+00
         0.00000E+00
         0.00000E+00
         0.00000E+00
         0.00000E+00
         0.00000E+00
         0.00000E+00
         0.00000E+00
         0.00000E+00
         0.00000E+00
         0.00000E+00
         0.00000E+00
         0.00000E+00
         0.00000E+00
         0.00000E+00
         0.00000E+00
         0.00000E+00
         0.00000E+00
         0.00000E+00
         0.00000E+00
         0.00000E+00
         0.00000E+00
         0.00000E+00
         0.00000E+00
         0.00000E+00
         0.00000E+00
         0.00000E+00
         0.00000E+00
         0.00000E+00
         0.00000E+00
         0.00000E+00
         0.00000E+00
         0.00000E+00
         0.00000E+00
         0.00000E+00
         0.00000E+00
         0.00000E+00
         0.00000E+00
         0.00000E+00
         0.00000E+00
         0.00000E+00
         0.00000E+00
         0.00000E+00
         0.00000E+00
         0.00000E+00
         0.00000E+00
         0.00000E+00
         0.00000E+00
         0.00000E+00
         0.00000E+00
         0.00000E+00
         0.00000E+00
         0.00000E+00
         0.00000E+00
         0.00000E+00
         0.00000E+00
         0.00000E+00
         0.00000E+00
         0.00000E+00
         0.00000E+00
         0.00000E+00
         0.00000E+00
         0.00000E+00
         0.00000E+00
         0.00000E+00
         0.00000E+00
         0.00000E+00
         0.00000E+00
         0.00000E+00
         0.00000E+00
         0.00000E+00
         0.00000E+00
         0.00000E+00
         0.00000E+00
         0.00000E+00
         0.00000E+00
         0.00000E+00
         0.00000E+00
         0.00000E+00
         0.00000E+00
         0.00000E+00
         0.00000E+00
         0.00000E+00
         0.00000E+00
         0.00000E+00
         0.00000E+00
         0.00000E+00
         0.00000E+00
         0.00000E+00
         0.00000E+00
         0.00000E+00
         0.00000E+00
         0.00000E+00
         0.00000E+00
         0.00000E+00
         0.00000E+00
         0.00000E+00
         0.00000E+00
         0.00000E+00
         0.00000E+00
         0.00000E+00
         0.00000E+00
         0.00000E+00
         0.00000E+00
         0.00000E+00
         0.00000E+00
         0.00000E+00
         0.00000E+00
         0.00000E+00
         0.00000E+00
         0.00000E+00
         0.00000E+00
  
SCALARS                 acceleration_z  double 1
LOOKUP_TABLE default
         0.00000E+00
         0.00000E+00
         0.00000E+00
         0.00000E+00
         0.00000E+00
         0.00000E+00
         0.00000E+00
         0.00000E+00
         0.00000E+00
         0.00000E+00
         0.00000E+00
         0.00000E+00
         0.00000E+00
         0.00000E+00
         0.00000E+00
         0.00000E+00
         0.00000E+00
         0.00000E+00
         0.00000E+00
         0.00000E+00
         0.00000E+00
         0.00000E+00
         0.00000E+00
         0.00000E+00
         0.00000E+00
         0.00000E+00
         0.00000E+00
         0.00000E+00
         0.00000E+00
         0.00000E+00
         0.00000E+00
         0.00000E+00
         0.00000E+00
         0.00000E+00
         0.00000E+00
         0.00000E+00
         0.00000E+00
         0.00000E+00
         0.00000E+00
         0.00000E+00
         0.00000E+00
         0.00000E+00
         0.00000E+00
         0.00000E+00
         0.00000E+00
         0.00000E+00
         0.00000E+00
         0.00000E+00
         0.00000E+00
         0.00000E+00
         0.00000E+00
         0.00000E+00
         0.00000E+00
         0.00000E+00
         0.00000E+00
         0.00000E+00
         0.00000E+00
         0.00000E+00
         0.00000E+00
         0.00000E+00
         0.00000E+00
         0.00000E+00
         0.00000E+00
         0.00000E+00
         0.00000E+00
         0.00000E+00
         0.00000E+00
         0.00000E+00
         0.00000E+00
         0.00000E+00
         0.00000E+00
         0.00000E+00
         0.00000E+00
         0.00000E+00
         0.00000E+00
         0.00000E+00
         0.00000E+00
         0.00000E+00
         0.00000E+00
         0.00000E+00
         0.00000E+00
         0.00000E+00
         0.00000E+00
         0.00000E+00
         0.00000E+00
         0.00000E+00
         0.00000E+00
         0.00000E+00
         0.00000E+00
         0.00000E+00
         0.00000E+00
         0.00000E+00
         0.00000E+00
         0.00000E+00
         0.00000E+00
         0.00000E+00
         0.00000E+00
         0.00000E+00
         0.00000E+00
         0.00000E+00
         0.00000E+00
         0.00000E+00
         0.00000E+00
         0.00000E+00
         0.00000E+00
         0.00000E+00
         0.00000E+00
         0.00000E+00
         0.00000E+00
         0.00000E+00
         0.00000E+00
         0.00000E+00
         0.00000E+00
         0.00000E+00
         0.00000E+00
         0.00000E+00
         0.00000E+00
         0.00000E+00
         0.00000E+00
         0.00000E+00
         0.00000E+00
         0.00000E+00
         0.00000E+00
         0.00000E+00
         0.00000E+00
         0.00000E+00
         0.00000E+00
         0.00000E+00
         0.00000E+00
         0.00000E+00
         0.00000E+00
         0.00000E+00
         0.00000E+00
         0.00000E+00
         0.00000E+00
         0.00000E+00
         0.00000E+00
         0.00000E+00
         0.00000E+00
         0.00000E+00
         0.00000E+00
         0.00000E+00
         0.00000E+00
         0.00000E+00
         0.00000E+00
         0.00000E+00
         0.00000E+00
         0.00000E+00
         0.00000E+00
         0.00000E+00
         0.00000E+00
         0.00000E+00
         0.00000E+00
         0.00000E+00
         0.00000E+00
         0.00000E+00
         0.00000E+00
         0.00000E+00
         0.00000E+00
         0.00000E+00
         0.00000E+00
         0.00000E+00
         0.00000E+00
         0.00000E+00
         0.00000E+00
         0.00000E+00
         0.00000E+00
         0.00000E+00
         0.00000E+00
         0.00000E+00
         0.00000E+00
         0.00000E+00
         0.00000E+00
         0.00000E+00
         0.00000E+00
         0.00000E+00
         0.00000E+00
         0.00000E+00
         0.00000E+00
         0.00000E+00
         0.00000E+00
         0.00000E+00
         0.00000E+00
         0.00000E+00
         0.00000E+00
         0.00000E+00
         0.00000E+00
         0.00000E+00
         0.00000E+00
         0.00000E+00
         0.00000E+00
         0.00000E+00
         0.00000E+00
         0.00000E+00
         0.00000E+00
         0.00000E+00
         0.00000E+00
         0.00000E+00
         0.00000E+00
         0.00000E+00
         0.00000E+00
         0.00000E+00
         0.00000E+00
         0.00000E+00
         0.00000E+00
         0.00000E+00
         0.00000E+00
         0.00000E+00
         0.00000E+00
         0.00000E+00
         0.00000E+00
         0.00000E+00
         0.00000E+00
         0.00000E+00
         0.00000E+00
         0.00000E+00
         0.00000E+00
         0.00000E+00
         0.00000E+00
         0.00000E+00
         0.00000E+00
         0.00000E+00
         0.00000E+00
         0.00000E+00
         0.00000E+00
         0.00000E+00
         0.00000E+00
         0.00000E+00
         0.00000E+00
         0.00000E+00
         0.00000E+00
         0.00000E+00
         0.00000E+00
         0.00000E+00
         0.00000E+00
         0.00000E+00
         0.00000E+00
         0.00000E+00
         0.00000E+00
         0.00000E+00
         0.00000E+00
         0.00000E+00
         0.00000E+00
         0.00000E+00
         0.00000E+00
         0.00000E+00
         0.00000E+00
         0.00000E+00
         0.00000E+00
         0.00000E+00
         0.00000E+00
         0.00000E+00
         0.00000E+00
         0.00000E+00
         0.00000E+00
         0.00000E+00
         0.00000E+00
         0.00000E+00
         0.00000E+00
         0.00000E+00
         0.00000E+00
         0.00000E+00
         0.00000E+00
         0.00000E+00
         0.00000E+00
         0.00000E+00
         0.00000E+00
         0.00000E+00
         0.00000E+00
         0.00000E+00
         0.00000E+00
         0.00000E+00
         0.00000E+00
         0.00000E+00
         0.00000E+00
         0.00000E+00
         0.00000E+00
         0.00000E+00
         0.00000E+00
         0.00000E+00
         0.00000E+00
         0.00000E+00
         0.00000E+00
         0.00000E+00
         0.00000E+00
         0.00000E+00
         0.00000E+00
         0.00000E+00
         0.00000E+00
         0.00000E+00
         0.00000E+00
         0.00000E+00
         0.00000E+00
         0.00000E+00
         0.00000E+00
         0.00000E+00
         0.00000E+00
         0.00000E+00
         0.00000E+00
         0.00000E+00
         0.00000E+00
         0.00000E+00
         0.00000E+00
         0.00000E+00
         0.00000E+00
         0.00000E+00
         0.00000E+00
         0.00000E+00
         0.00000E+00
         0.00000E+00
         0.00000E+00
         0.00000E+00
         0.00000E+00
         0.00000E+00
         0.00000E+00
         0.00000E+00
         0.00000E+00
         0.00000E+00
         0.00000E+00
         0.00000E+00
         0.00000E+00
         0.00000E+00
         0.00000E+00
         0.00000E+00
         0.00000E+00
         0.00000E+00
         0.00000E+00
         0.00000E+00
         0.00000E+00
         0.00000E+00
         0.00000E+00
         0.00000E+00
         0.00000E+00
         0.00000E+00
         0.00000E+00
         0.00000E+00
         0.00000E+00
         0.00000E+00
         0.00000E+00
         0.00000E+00
         0.00000E+00
         0.00000E+00
         0.00000E+00
         0.00000E+00
         0.00000E+00
         0.00000E+00
         0.00000E+00
         0.00000E+00
         0.00000E+00
         0.00000E+00
         0.00000E+00
         0.00000E+00
         0.00000E+00
         0.00000E+00
         0.00000E+00
         0.00000E+00
         0.00000E+00
         0.00000E+00
         0.00000E+00
         0.00000E+00
         0.00000E+00
         0.00000E+00
         0.00000E+00
         0.00000E+00
         0.00000E+00
         0.00000E+00
         0.00000E+00
         0.00000E+00
         0.00000E+00
         0.00000E+00
         0.00000E+00
         0.00000E+00
         0.00000E+00
         0.00000E+00
         0.00000E+00
         0.00000E+00
         0.00000E+00
         0.00000E+00
         0.00000E+00
         0.00000E+00
         0.00000E+00
         0.00000E+00
         0.00000E+00
         0.00000E+00
         0.00000E+00
         0.00000E+00
         0.00000E+00
         0.00000E+00
         0.00000E+00
         0.00000E+00
         0.00000E+00
         0.00000E+00
         0.00000E+00
         0.00000E+00
         0.00000E+00
         0.00000E+00
         0.00000E+00
         0.00000E+00
         0.00000E+00
         0.00000E+00
         0.00000E+00
         0.00000E+00
         0.00000E+00
         0.00000E+00
         0.00000E+00
         0.00000E+00
         0.00000E+00
         0.00000E+00
         0.00000E+00
         0.00000E+00
         0.00000E+00
         0.00000E+00
         0.00000E+00
         0.00000E+00
         0.00000E+00
         0.00000E+00
         0.00000E+00
         0.00000E+00
         0.00000E+00
         0.00000E+00
         0.00000E+00
         0.00000E+00
         0.00000E+00
         0.00000E+00
         0.00000E+00
         0.00000E+00
         0.00000E+00
         0.00000E+00
         0.00000E+00
         0.00000E+00
         0.00000E+00
         0.00000E+00
         0.00000E+00
         0.00000E+00
         0.00000E+00
         0.00000E+00
         0.00000E+00
         0.00000E+00
         0.00000E+00
         0.00000E+00
         0.00000E+00
         0.00000E+00
         0.00000E+00
         0.00000E+00
         0.00000E+00
         0.00000E+00
         0.00000E+00
         0.00000E+00
         0.00000E+00
         0.00000E+00
         0.00000E+00
         0.00000E+00
         0.00000E+00
         0.00000E+00
         0.00000E+00
         0.00000E+00
         0.00000E+00
         0.00000E+00
         0.00000E+00
         0.00000E+00
         0.00000E+00
         0.00000E+00
         0.00000E+00
         0.00000E+00
         0.00000E+00
         0.00000E+00
         0.00000E+00
         0.00000E+00
         0.00000E+00
         0.00000E+00
         0.00000E+00
         0.00000E+00
         0.00000E+00
         0.00000E+00
         0.00000E+00
         0.00000E+00
         0.00000E+00
         0.00000E+00
         0.00000E+00
         0.00000E+00
         0.00000E+00
         0.00000E+00
         0.00000E+00
         0.00000E+00
         0.00000E+00
         0.00000E+00
         0.00000E+00
         0.00000E+00
         0.00000E+00
         0.00000E+00
         0.00000E+00
         0.00000E+00
         0.00000E+00
         0.00000E+00
         0.00000E+00
         0.00000E+00
         0.00000E+00
         0.00000E+00
         0.00000E+00
         0.00000E+00
         0.00000E+00
         0.00000E+00
         0.00000E+00
         0.00000E+00
         0.00000E+00
         0.00000E+00
         0.00000E+00
         0.00000E+00
         0.00000E+00
         0.00000E+00
         0.00000E+00
         0.00000E+00
         0.00000E+00
         0.00000E+00
         0.00000E+00
         0.00000E+00
         0.00000E+00
         0.00000E+00
         0.00000E+00
         0.00000E+00
         0.00000E+00
         0.00000E+00
         0.00000E+00
         0.00000E+00
         0.00000E+00
         0.00000E+00
         0.00000E+00
         0.00000E+00
         0.00000E+00
         0.00000E+00
         0.00000E+00
         0.00000E+00
         0.00000E+00
         0.00000E+00
         0.00000E+00
         0.00000E+00
         0.00000E+00
         0.00000E+00
         0.00000E+00
         0.00000E+00
         0.00000E+00
         0.00000E+00
         0.00000E+00
         0.00000E+00
         0.00000E+00
         0.00000E+00
         0.00000E+00
         0.00000E+00
         0.00000E+00
         0.00000E+00
         0.00000E+00
         0.00000E+00
         0.00000E+00
         0.00000E+00
         0.00000E+00
         0.00000E+00
         0.00000E+00
         0.00000E+00
         0.00000E+00
         0.00000E+00
         0.00000E+00
         0.00000E+00
         0.00000E+00
         0.00000E+00
         0.00000E+00
         0.00000E+00
         0.00000E+00
         0.00000E+00
         0.00000E+00
         0.00000E+00
         0.00000E+00
         0.00000E+00
         0.00000E+00
         0.00000E+00
         0.00000E+00
         0.00000E+00
         0.00000E+00
         0.00000E+00
         0.00000E+00
         0.00000E+00
         0.00000E+00
         0.00000E+00
         0.00000E+00
         0.00000E+00
         0.00000E+00
         0.00000E+00
         0.00000E+00
         0.00000E+00
         0.00000E+00
         0.00000E+00
         0.00000E+00
         0.00000E+00
         0.00000E+00
         0.00000E+00
         0.00000E+00
         0.00000E+00
         0.00000E+00
         0.00000E+00
         0.00000E+00
         0.00000E+00
         0.00000E+00
         0.00000E+00
         0.00000E+00
         0.00000E+00
         0.00000E+00
         0.00000E+00
         0.00000E+00
         0.00000E+00
         0.00000E+00
         0.00000E+00
         0.00000E+00
         0.00000E+00
         0.00000E+00
         0.00000E+00
         0.00000E+00
         0.00000E+00
         0.00000E+00
         0.00000E+00
         0.00000E+00
         0.00000E+00
         0.00000E+00
         0.00000E+00
         0.00000E+00
         0.00000E+00
         0.00000E+00
         0.00000E+00
         0.00000E+00
         0.00000E+00
         0.00000E+00
         0.00000E+00
         0.00000E+00
         0.00000E+00
         0.00000E+00
         0.00000E+00
         0.00000E+00
         0.00000E+00
         0.00000E+00
         0.00000E+00
         0.00000E+00
         0.00000E+00
         0.00000E+00
         0.00000E+00
         0.00000E+00
         0.00000E+00
         0.00000E+00
         0.00000E+00
         0.00000E+00
         0.00000E+00
         0.00000E+00
         0.00000E+00
         0.00000E+00
         0.00000E+00
         0.00000E+00
         0.00000E+00
         0.00000E+00
         0.00000E+00
         0.00000E+00
         0.00000E+00
         0.00000E+00
         0.00000E+00
         0.00000E+00
         0.00000E+00
         0.00000E+00
         0.00000E+00
         0.00000E+00
         0.00000E+00
         0.00000E+00
         0.00000E+00
         0.00000E+00
         0.00000E+00
         0.00000E+00
         0.00000E+00
         0.00000E+00
         0.00000E+00
         0.00000E+00
         0.00000E+00
         0.00000E+00
         0.00000E+00
         0.00000E+00
         0.00000E+00
         0.00000E+00
         0.00000E+00
         0.00000E+00
         0.00000E+00
         0.00000E+00
         0.00000E+00
         0.00000E+00
         0.00000E+00
         0.00000E+00
         0.00000E+00
         0.00000E+00
         0.00000E+00
         0.00000E+00
         0.00000E+00
         0.00000E+00
         0.00000E+00
         0.00000E+00
         0.00000E+00
         0.00000E+00
         0.00000E+00
         0.00000E+00
         0.00000E+00
         0.00000E+00
         0.00000E+00
         0.00000E+00
         0.00000E+00
         0.00000E+00
         0.00000E+00
         0.00000E+00
         0.00000E+00
         0.00000E+00
         0.00000E+00
         0.00000E+00
         0.00000E+00
         0.00000E+00
         0.00000E+00
         0.00000E+00
         0.00000E+00
         0.00000E+00
         0.00000E+00
         0.00000E+00
         0.00000E+00
         0.00000E+00
         0.00000E+00
         0.00000E+00
         0.00000E+00
         0.00000E+00
         0.00000E+00
         0.00000E+00
         0.00000E+00
         0.00000E+00
         0.00000E+00
         0.00000E+00
         0.00000E+00
         0.00000E+00
         0.00000E+00
         0.00000E+00
         0.00000E+00
         0.00000E+00
         0.00000E+00
         0.00000E+00
         0.00000E+00
         0.00000E+00
         0.00000E+00
         0.00000E+00
         0.00000E+00
         0.00000E+00
         0.00000E+00
         0.00000E+00
         0.00000E+00
         0.00000E+00
         0.00000E+00
         0.00000E+00
         0.00000E+00
         0.00000E+00
         0.00000E+00
         0.00000E+00
         0.00000E+00
         0.00000E+00
         0.00000E+00
         0.00000E+00
         0.00000E+00
         0.00000E+00
         0.00000E+00
         0.00000E+00
         0.00000E+00
         0.00000E+00
         0.00000E+00
         0.00000E+00
         0.00000E+00
         0.00000E+00
         0.00000E+00
         0.00000E+00
         0.00000E+00
         0.00000E+00
         0.00000E+00
         0.00000E+00
         0.00000E+00
         0.00000E+00
         0.00000E+00
         0.00000E+00
         0.00000E+00
         0.00000E+00
         0.00000E+00
         0.00000E+00
         0.00000E+00
         0.00000E+00
         0.00000E+00
         0.00000E+00
         0.00000E+00
         0.00000E+00
         0.00000E+00
         0.00000E+00
         0.00000E+00
         0.00000E+00
         0.00000E+00
         0.00000E+00
         0.00000E+00
         0.00000E+00
         0.00000E+00
         0.00000E+00
         0.00000E+00
         0.00000E+00
         0.00000E+00
         0.00000E+00
         0.00000E+00
         0.00000E+00
         0.00000E+00
         0.00000E+00
         0.00000E+00
         0.00000E+00
         0.00000E+00
         0.00000E+00
         0.00000E+00
         0.00000E+00
         0.00000E+00
         0.00000E+00
         0.00000E+00
         0.00000E+00
         0.00000E+00
         0.00000E+00
         0.00000E+00
         0.00000E+00
         0.00000E+00
         0.00000E+00
         0.00000E+00
         0.00000E+00
         0.00000E+00
         0.00000E+00
         0.00000E+00
         0.00000E+00
         0.00000E+00
         0.00000E+00
         0.00000E+00
         0.00000E+00
         0.00000E+00
         0.00000E+00
         0.00000E+00
         0.00000E+00
         0.00000E+00
         0.00000E+00
         0.00000E+00
         0.00000E+00
         0.00000E+00
         0.00000E+00
         0.00000E+00
         0.00000E+00
         0.00000E+00
         0.00000E+00
         0.00000E+00
         0.00000E+00
         0.00000E+00
         0.00000E+00
         0.00000E+00
         0.00000E+00
         0.00000E+00
         0.00000E+00
         0.00000E+00
         0.00000E+00
         0.00000E+00
         0.00000E+00
         0.00000E+00
         0.00000E+00
         0.00000E+00
         0.00000E+00
         0.00000E+00
         0.00000E+00
         0.00000E+00
         0.00000E+00
         0.00000E+00
         0.00000E+00
         0.00000E+00
         0.00000E+00
         0.00000E+00
         0.00000E+00
         0.00000E+00
         0.00000E+00
         0.00000E+00
         0.00000E+00
         0.00000E+00
         0.00000E+00
         0.00000E+00
         0.00000E+00
         0.00000E+00
         0.00000E+00
         0.00000E+00
         0.00000E+00
         0.00000E+00
         0.00000E+00
         0.00000E+00
         0.00000E+00
         0.00000E+00
         0.00000E+00
         0.00000E+00
         0.00000E+00
         0.00000E+00
         0.00000E+00
         0.00000E+00
         0.00000E+00
         0.00000E+00
         0.00000E+00
         0.00000E+00
         0.00000E+00
         0.00000E+00
         0.00000E+00
         0.00000E+00
         0.00000E+00
         0.00000E+00
         0.00000E+00
         0.00000E+00
         0.00000E+00
         0.00000E+00
         0.00000E+00
         0.00000E+00
         0.00000E+00
         0.00000E+00
         0.00000E+00
         0.00000E+00
         0.00000E+00
         0.00000E+00
         0.00000E+00
         0.00000E+00
         0.00000E+00
         0.00000E+00
         0.00000E+00
         0.00000E+00
         0.00000E+00
         0.00000E+00
         0.00000E+00
         0.00000E+00
         0.00000E+00
         0.00000E+00
         0.00000E+00
         0.00000E+00
         0.00000E+00
         0.00000E+00
         0.00000E+00
         0.00000E+00
         0.00000E+00
         0.00000E+00
         0.00000E+00
         0.00000E+00
         0.00000E+00
         0.00000E+00
         0.00000E+00
         0.00000E+00
         0.00000E+00
         0.00000E+00
         0.00000E+00
         0.00000E+00
         0.00000E+00
         0.00000E+00
         0.00000E+00
         0.00000E+00
         0.00000E+00
         0.00000E+00
         0.00000E+00
         0.00000E+00
         0.00000E+00
         0.00000E+00
         0.00000E+00
         0.00000E+00
         0.00000E+00
         0.00000E+00
         0.00000E+00
         0.00000E+00
         0.00000E+00
         0.00000E+00
         0.00000E+00
         0.00000E+00
         0.00000E+00
         0.00000E+00
         0.00000E+00
         0.00000E+00
         0.00000E+00
         0.00000E+00
         0.00000E+00
         0.00000E+00
         0.00000E+00
         0.00000E+00
         0.00000E+00
         0.00000E+00
         0.00000E+00
         0.00000E+00
         0.00000E+00
         0.00000E+00
         0.00000E+00
         0.00000E+00
         0.00000E+00
         0.00000E+00
         0.00000E+00
         0.00000E+00
         0.00000E+00
         0.00000E+00
         0.00000E+00
         0.00000E+00
         0.00000E+00
         0.00000E+00
         0.00000E+00
         0.00000E+00
         0.00000E+00
         0.00000E+00
         0.00000E+00
         0.00000E+00
         0.00000E+00
         0.00000E+00
         0.00000E+00
         0.00000E+00
         0.00000E+00
         0.00000E+00
         0.00000E+00
         0.00000E+00
         0.00000E+00
         0.00000E+00
         0.00000E+00
         0.00000E+00
         0.00000E+00
         0.00000E+00
         0.00000E+00
         0.00000E+00
         0.00000E+00
         0.00000E+00
         0.00000E+00
         0.00000E+00
         0.00000E+00
         0.00000E+00
         0.00000E+00
         0.00000E+00
         0.00000E+00
         0.00000E+00
         0.00000E+00
         0.00000E+00
         0.00000E+00
         0.00000E+00
         0.00000E+00
         0.00000E+00
         0.00000E+00
         0.00000E+00
         0.00000E+00
         0.00000E+00
         0.00000E+00
         0.00000E+00
         0.00000E+00
         0.00000E+00
         0.00000E+00
         0.00000E+00
         0.00000E+00
         0.00000E+00
         0.00000E+00
         0.00000E+00
         0.00000E+00
         0.00000E+00
         0.00000E+00
         0.00000E+00
         0.00000E+00
         0.00000E+00
         0.00000E+00
         0.00000E+00
         0.00000E+00
         0.00000E+00
         0.00000E+00
         0.00000E+00
         0.00000E+00
         0.00000E+00
         0.00000E+00
         0.00000E+00
         0.00000E+00
         0.00000E+00
         0.00000E+00
         0.00000E+00
         0.00000E+00
         0.00000E+00
         0.00000E+00
         0.00000E+00
         0.00000E+00
         0.00000E+00
         0.00000E+00
         0.00000E+00
         0.00000E+00
         0.00000E+00
         0.00000E+00
         0.00000E+00
         0.00000E+00
         0.00000E+00
         0.00000E+00
         0.00000E+00
         0.00000E+00
         0.00000E+00
         0.00000E+00
         0.00000E+00
         0.00000E+00
         0.00000E+00
         0.00000E+00
         0.00000E+00
         0.00000E+00
         0.00000E+00
         0.00000E+00
         0.00000E+00
         0.00000E+00
         0.00000E+00
         0.00000E+00
         0.00000E+00
         0.00000E+00
         0.00000E+00
         0.00000E+00
         0.00000E+00
         0.00000E+00
         0.00000E+00
         0.00000E+00
         0.00000E+00
         0.00000E+00
         0.00000E+00
         0.00000E+00
         0.00000E+00
         0.00000E+00
         0.00000E+00
         0.00000E+00
         0.00000E+00
         0.00000E+00
         0.00000E+00
         0.00000E+00
         0.00000E+00
         0.00000E+00
         0.00000E+00
         0.00000E+00
         0.00000E+00
         0.00000E+00
         0.00000E+00
         0.00000E+00
         0.00000E+00
         0.00000E+00
         0.00000E+00
         0.00000E+00
         0.00000E+00
         0.00000E+00
         0.00000E+00
         0.00000E+00
         0.00000E+00
         0.00000E+00
         0.00000E+00
         0.00000E+00
         0.00000E+00
         0.00000E+00
         0.00000E+00
         0.00000E+00
         0.00000E+00
         0.00000E+00
         0.00000E+00
         0.00000E+00
         0.00000E+00
         0.00000E+00
         0.00000E+00
         0.00000E+00
         0.00000E+00
         0.00000E+00
         0.00000E+00
         0.00000E+00
         0.00000E+00
         0.00000E+00
         0.00000E+00
         0.00000E+00
         0.00000E+00
         0.00000E+00
         0.00000E+00
         0.00000E+00
         0.00000E+00
         0.00000E+00
         0.00000E+00
         0.00000E+00
         0.00000E+00
         0.00000E+00
         0.00000E+00
         0.00000E+00
         0.00000E+00
         0.00000E+00
         0.00000E+00
         0.00000E+00
         0.00000E+00
         0.00000E+00
         0.00000E+00
         0.00000E+00
         0.00000E+00
         0.00000E+00
         0.00000E+00
         0.00000E+00
         0.00000E+00
         0.00000E+00
         0.00000E+00
         0.00000E+00
         0.00000E+00
         0.00000E+00
         0.00000E+00
         0.00000E+00
         0.00000E+00
         0.00000E+00
         0.00000E+00
         0.00000E+00
         0.00000E+00
         0.00000E+00
         0.00000E+00
         0.00000E+00
         0.00000E+00
         0.00000E+00
         0.00000E+00
         0.00000E+00
         0.00000E+00
         0.00000E+00
         0.00000E+00
         0.00000E+00
         0.00000E+00
         0.00000E+00
         0.00000E+00
         0.00000E+00
         0.00000E+00
         0.00000E+00
         0.00000E+00
         0.00000E+00
         0.00000E+00
         0.00000E+00
         0.00000E+00
         0.00000E+00
         0.00000E+00
         0.00000E+00
         0.00000E+00
         0.00000E+00
         0.00000E+00
         0.00000E+00
         0.00000E+00
         0.00000E+00
         0.00000E+00
         0.00000E+00
         0.00000E+00
         0.00000E+00
         0.00000E+00
         0.00000E+00
         0.00000E+00
         0.00000E+00
         0.00000E+00
         0.00000E+00
         0.00000E+00
         0.00000E+00
         0.00000E+00
         0.00000E+00
         0.00000E+00
         0.00000E+00
         0.00000E+00
         0.00000E+00
         0.00000E+00
         0.00000E+00
         0.00000E+00
         0.00000E+00
         0.00000E+00
         0.00000E+00
         0.00000E+00
         0.00000E+00
         0.00000E+00
         0.00000E+00
         0.00000E+00
         0.00000E+00
         0.00000E+00
         0.00000E+00
         0.00000E+00
         0.00000E+00
         0.00000E+00
         0.00000E+00
         0.00000E+00
         0.00000E+00
         0.00000E+00
         0.00000E+00
         0.00000E+00
         0.00000E+00
         0.00000E+00
         0.00000E+00
         0.00000E+00
         0.00000E+00
         0.00000E+00
         0.00000E+00
         0.00000E+00
         0.00000E+00
         0.00000E+00
         0.00000E+00
         0.00000E+00
         0.00000E+00
         0.00000E+00
         0.00000E+00
         0.00000E+00
         0.00000E+00
         0.00000E+00
         0.00000E+00
         0.00000E+00
         0.00000E+00
         0.00000E+00
         0.00000E+00
         0.00000E+00
         0.00000E+00
         0.00000E+00
         0.00000E+00
         0.00000E+00
         0.00000E+00
         0.00000E+00
         0.00000E+00
         0.00000E+00
         0.00000E+00
         0.00000E+00
         0.00000E+00
         0.00000E+00
         0.00000E+00
         0.00000E+00
         0.00000E+00
         0.00000E+00
         0.00000E+00
         0.00000E+00
         0.00000E+00
         0.00000E+00
         0.00000E+00
         0.00000E+00
         0.00000E+00
         0.00000E+00
         0.00000E+00
         0.00000E+00
         0.00000E+00
         0.00000E+00
         0.00000E+00
         0.00000E+00
         0.00000E+00
         0.00000E+00
         0.00000E+00
         0.00000E+00
         0.00000E+00
         0.00000E+00
         0.00000E+00
         0.00000E+00
         0.00000E+00
         0.00000E+00
         0.00000E+00
         0.00000E+00
         0.00000E+00
         0.00000E+00
         0.00000E+00
         0.00000E+00
         0.00000E+00
         0.00000E+00
         0.00000E+00
         0.00000E+00
         0.00000E+00
         0.00000E+00
         0.00000E+00
         0.00000E+00
         0.00000E+00
         0.00000E+00
         0.00000E+00
         0.00000E+00
         0.00000E+00
         0.00000E+00
         0.00000E+00
         0.00000E+00
         0.00000E+00
         0.00000E+00
         0.00000E+00
         0.00000E+00
         0.00000E+00
         0.00000E+00
         0.00000E+00
         0.00000E+00
         0.00000E+00
         0.00000E+00
         0.00000E+00
         0.00000E+00
         0.00000E+00
         0.00000E+00
         0.00000E+00
         0.00000E+00
         0.00000E+00
         0.00000E+00
         0.00000E+00
         0.00000E+00
         0.00000E+00
         0.00000E+00
         0.00000E+00
         0.00000E+00
         0.00000E+00
         0.00000E+00
         0.00000E+00
         0.00000E+00
         0.00000E+00
         0.00000E+00
         0.00000E+00
         0.00000E+00
         0.00000E+00
         0.00000E+00
         0.00000E+00
         0.00000E+00
         0.00000E+00
         0.00000E+00
         0.00000E+00
         0.00000E+00
         0.00000E+00
         0.00000E+00
         0.00000E+00
         0.00000E+00
         0.00000E+00
         0.00000E+00
         0.00000E+00
         0.00000E+00
         0.00000E+00
         0.00000E+00
         0.00000E+00
         0.00000E+00
         0.00000E+00
         0.00000E+00
         0.00000E+00
         0.00000E+00
         0.00000E+00
         0.00000E+00
         0.00000E+00
         0.00000E+00
         0.00000E+00
         0.00000E+00
         0.00000E+00
         0.00000E+00
         0.00000E+00
         0.00000E+00
         0.00000E+00
         0.00000E+00
         0.00000E+00
         0.00000E+00
         0.00000E+00
         0.00000E+00
         0.00000E+00
         0.00000E+00
         0.00000E+00
         0.00000E+00
         0.00000E+00
         0.00000E+00
         0.00000E+00
         0.00000E+00
         0.00000E+00
         0.00000E+00
         0.00000E+00
         0.00000E+00
         0.00000E+00
         0.00000E+00
         0.00000E+00
         0.00000E+00
         0.00000E+00
         0.00000E+00
         0.00000E+00
         0.00000E+00
         0.00000E+00
         0.00000E+00
         0.00000E+00
         0.00000E+00
         0.00000E+00
         0.00000E+00
         0.00000E+00
         0.00000E+00
         0.00000E+00
         0.00000E+00
         0.00000E+00
         0.00000E+00
         0.00000E+00
         0.00000E+00
         0.00000E+00
         0.00000E+00
         0.00000E+00
         0.00000E+00
         0.00000E+00
         0.00000E+00
         0.00000E+00
         0.00000E+00
         0.00000E+00
         0.00000E+00
         0.00000E+00
         0.00000E+00
         0.00000E+00
         0.00000E+00
         0.00000E+00
         0.00000E+00
         0.00000E+00
         0.00000E+00
         0.00000E+00
         0.00000E+00
         0.00000E+00
         0.00000E+00
         0.00000E+00
         0.00000E+00
         0.00000E+00
         0.00000E+00
         0.00000E+00
         0.00000E+00
         0.00000E+00
         0.00000E+00
         0.00000E+00
         0.00000E+00
         0.00000E+00
         0.00000E+00
         0.00000E+00
         0.00000E+00
         0.00000E+00
         0.00000E+00
         0.00000E+00
         0.00000E+00
         0.00000E+00
         0.00000E+00
         0.00000E+00
         0.00000E+00
         0.00000E+00
         0.00000E+00
         0.00000E+00
         0.00000E+00
         0.00000E+00
         0.00000E+00
         0.00000E+00
         0.00000E+00
         0.00000E+00
         0.00000E+00
         0.00000E+00
         0.00000E+00
         0.00000E+00
         0.00000E+00
         0.00000E+00
         0.00000E+00
         0.00000E+00
         0.00000E+00
         0.00000E+00
         0.00000E+00
         0.00000E+00
         0.00000E+00
         0.00000E+00
         0.00000E+00
         0.00000E+00
         0.00000E+00
         0.00000E+00
         0.00000E+00
         0.00000E+00
         0.00000E+00
         0.00000E+00
         0.00000E+00
         0.00000E+00
         0.00000E+00
         0.00000E+00
         0.00000E+00
         0.00000E+00
         0.00000E+00
         0.00000E+00
         0.00000E+00
         0.00000E+00
         0.00000E+00
         0.00000E+00
         0.00000E+00
         0.00000E+00
         0.00000E+00
         0.00000E+00
         0.00000E+00
         0.00000E+00
         0.00000E+00
         0.00000E+00
         0.00000E+00
         0.00000E+00
         0.00000E+00
         0.00000E+00
         0.00000E+00
         0.00000E+00
         0.00000E+00
         0.00000E+00
         0.00000E+00
         0.00000E+00
         0.00000E+00
         0.00000E+00
         0.00000E+00
         0.00000E+00
         0.00000E+00
         0.00000E+00
         0.00000E+00
         0.00000E+00
         0.00000E+00
         0.00000E+00
         0.00000E+00
         0.00000E+00
         0.00000E+00
         0.00000E+00
         0.00000E+00
         0.00000E+00
         0.00000E+00
         0.00000E+00
         0.00000E+00
         0.00000E+00
         0.00000E+00
         0.00000E+00
         0.00000E+00
         0.00000E+00
         0.00000E+00
         0.00000E+00
         0.00000E+00
         0.00000E+00
         0.00000E+00
         0.00000E+00
         0.00000E+00
         0.00000E+00
         0.00000E+00
         0.00000E+00
         0.00000E+00
         0.00000E+00
         0.00000E+00
         0.00000E+00
         0.00000E+00
         0.00000E+00
         0.00000E+00
         0.00000E+00
         0.00000E+00
         0.00000E+00
         0.00000E+00
         0.00000E+00
         0.00000E+00
         0.00000E+00
         0.00000E+00
         0.00000E+00
         0.00000E+00
         0.00000E+00
         0.00000E+00
         0.00000E+00
         0.00000E+00
         0.00000E+00
         0.00000E+00
         0.00000E+00
         0.00000E+00
         0.00000E+00
         0.00000E+00
         0.00000E+00
         0.00000E+00
         0.00000E+00
         0.00000E+00
         0.00000E+00
         0.00000E+00
         0.00000E+00
         0.00000E+00
         0.00000E+00
         0.00000E+00
         0.00000E+00
         0.00000E+00
         0.00000E+00
         0.00000E+00
         0.00000E+00
         0.00000E+00
         0.00000E+00
         0.00000E+00
         0.00000E+00
         0.00000E+00
         0.00000E+00
         0.00000E+00
         0.00000E+00
         0.00000E+00
         0.00000E+00
         0.00000E+00
         0.00000E+00
         0.00000E+00
         0.00000E+00
         0.00000E+00
         0.00000E+00
         0.00000E+00
         0.00000E+00
         0.00000E+00
         0.00000E+00
         0.00000E+00
         0.00000E+00
         0.00000E+00
         0.00000E+00
         0.00000E+00
         0.00000E+00
         0.00000E+00
         0.00000E+00
         0.00000E+00
         0.00000E+00
         0.00000E+00
         0.00000E+00
         0.00000E+00
         0.00000E+00
         0.00000E+00
         0.00000E+00
         0.00000E+00
         0.00000E+00
         0.00000E+00
         0.00000E+00
         0.00000E+00
         0.00000E+00
         0.00000E+00
         0.00000E+00
         0.00000E+00
         0.00000E+00
         0.00000E+00
         0.00000E+00
         0.00000E+00
         0.00000E+00
         0.00000E+00
         0.00000E+00
         0.00000E+00
         0.00000E+00
         0.00000E+00
         0.00000E+00
         0.00000E+00
         0.00000E+00
         0.00000E+00
         0.00000E+00
         0.00000E+00
         0.00000E+00
         0.00000E+00
         0.00000E+00
         0.00000E+00
         0.00000E+00
         0.00000E+00
         0.00000E+00
         0.00000E+00
         0.00000E+00
         0.00000E+00
         0.00000E+00
         0.00000E+00
         0.00000E+00
         0.00000E+00
         0.00000E+00
         0.00000E+00
         0.00000E+00
         0.00000E+00
         0.00000E+00
         0.00000E+00
         0.00000E+00
         0.00000E+00
         0.00000E+00
         0.00000E+00
         0.00000E+00
         0.00000E+00
         0.00000E+00
         0.00000E+00
         0.00000E+00
         0.00000E+00
         0.00000E+00
         0.00000E+00
         0.00000E+00
         0.00000E+00
         0.00000E+00
         0.00000E+00
         0.00000E+00
         0.00000E+00
         0.00000E+00
         0.00000E+00
         0.00000E+00
         0.00000E+00
         0.00000E+00
         0.00000E+00
         0.00000E+00
         0.00000E+00
         0.00000E+00
         0.00000E+00
         0.00000E+00
         0.00000E+00
         0.00000E+00
         0.00000E+00
         0.00000E+00
         0.00000E+00
         0.00000E+00
         0.00000E+00
         0.00000E+00
         0.00000E+00
         0.00000E+00
         0.00000E+00
         0.00000E+00
         0.00000E+00
         0.00000E+00
         0.00000E+00
         0.00000E+00
         0.00000E+00
         0.00000E+00
         0.00000E+00
         0.00000E+00
         0.00000E+00
         0.00000E+00
         0.00000E+00
         0.00000E+00
         0.00000E+00
         0.00000E+00
         0.00000E+00
         0.00000E+00
         0.00000E+00
         0.00000E+00
         0.00000E+00
         0.00000E+00
         0.00000E+00
         0.00000E+00
         0.00000E+00
         0.00000E+00
         0.00000E+00
         0.00000E+00
         0.00000E+00
         0.00000E+00
         0.00000E+00
         0.00000E+00
         0.00000E+00
         0.00000E+00
         0.00000E+00
         0.00000E+00
         0.00000E+00
         0.00000E+00
         0.00000E+00
         0.00000E+00
         0.00000E+00
         0.00000E+00
         0.00000E+00
         0.00000E+00
         0.00000E+00
         0.00000E+00
         0.00000E+00
         0.00000E+00
         0.00000E+00
         0.00000E+00
         0.00000E+00
         0.00000E+00
         0.00000E+00
         0.00000E+00
         0.00000E+00
         0.00000E+00
         0.00000E+00
         0.00000E+00
         0.00000E+00
         0.00000E+00
         0.00000E+00
         0.00000E+00
         0.00000E+00
         0.00000E+00
         0.00000E+00
         0.00000E+00
         0.00000E+00
         0.00000E+00
         0.00000E+00
         0.00000E+00
         0.00000E+00
         0.00000E+00
         0.00000E+00
         0.00000E+00
         0.00000E+00
         0.00000E+00
         0.00000E+00
         0.00000E+00
         0.00000E+00
         0.00000E+00
         0.00000E+00
         0.00000E+00
         0.00000E+00
         0.00000E+00
         0.00000E+00
         0.00000E+00
         0.00000E+00
         0.00000E+00
         0.00000E+00
         0.00000E+00
         0.00000E+00
         0.00000E+00
         0.00000E+00
         0.00000E+00
         0.00000E+00
         0.00000E+00
         0.00000E+00
         0.00000E+00
         0.00000E+00
         0.00000E+00
         0.00000E+00
         0.00000E+00
         0.00000E+00
         0.00000E+00
         0.00000E+00
         0.00000E+00
         0.00000E+00
         0.00000E+00
         0.00000E+00
         0.00000E+00
         0.00000E+00
         0.00000E+00
         0.00000E+00
         0.00000E+00
         0.00000E+00
         0.00000E+00
         0.00000E+00
         0.00000E+00
         0.00000E+00
         0.00000E+00
         0.00000E+00
         0.00000E+00
         0.00000E+00
         0.00000E+00
         0.00000E+00
         0.00000E+00
         0.00000E+00
         0.00000E+00
         0.00000E+00
         0.00000E+00
         0.00000E+00
         0.00000E+00
         0.00000E+00
         0.00000E+00
         0.00000E+00
         0.00000E+00
         0.00000E+00
         0.00000E+00
         0.00000E+00
         0.00000E+00
         0.00000E+00
         0.00000E+00
         0.00000E+00
         0.00000E+00
         0.00000E+00
         0.00000E+00
         0.00000E+00
         0.00000E+00
         0.00000E+00
         0.00000E+00
         0.00000E+00
         0.00000E+00
         0.00000E+00
         0.00000E+00
         0.00000E+00
         0.00000E+00
         0.00000E+00
         0.00000E+00
         0.00000E+00
         0.00000E+00
         0.00000E+00
         0.00000E+00
         0.00000E+00
         0.00000E+00
         0.00000E+00
         0.00000E+00
         0.00000E+00
         0.00000E+00
         0.00000E+00
         0.00000E+00
         0.00000E+00
         0.00000E+00
         0.00000E+00
         0.00000E+00
         0.00000E+00
         0.00000E+00
         0.00000E+00
         0.00000E+00
         0.00000E+00
         0.00000E+00
         0.00000E+00
         0.00000E+00
         0.00000E+00
         0.00000E+00
         0.00000E+00
         0.00000E+00
         0.00000E+00
  
SCALARS                         fint_x  double 1
LOOKUP_TABLE default
         0.00000E+00
         0.00000E+00
         0.00000E+00
         0.00000E+00
         0.00000E+00
         0.00000E+00
         0.00000E+00
         0.00000E+00
         0.00000E+00
         0.00000E+00
         0.00000E+00
         0.00000E+00
         0.00000E+00
         0.00000E+00
         0.00000E+00
         0.00000E+00
         0.00000E+00
         0.00000E+00
         0.00000E+00
         0.00000E+00
         0.00000E+00
         0.00000E+00
         0.00000E+00
         0.00000E+00
         0.00000E+00
         0.00000E+00
         0.00000E+00
         0.00000E+00
         0.00000E+00
         0.00000E+00
         0.00000E+00
         0.00000E+00
         0.00000E+00
         0.00000E+00
         0.00000E+00
         0.00000E+00
         0.00000E+00
         0.00000E+00
         0.00000E+00
         0.00000E+00
         0.00000E+00
         0.00000E+00
         0.00000E+00
         0.00000E+00
         0.00000E+00
         0.00000E+00
         0.00000E+00
         0.00000E+00
         0.00000E+00
         0.00000E+00
         0.00000E+00
         0.00000E+00
         0.00000E+00
         0.00000E+00
         0.00000E+00
         0.00000E+00
         0.00000E+00
         0.00000E+00
         0.00000E+00
         0.00000E+00
         0.00000E+00
         0.00000E+00
         0.00000E+00
         0.00000E+00
         0.00000E+00
         0.00000E+00
         0.00000E+00
         0.00000E+00
         0.00000E+00
         0.00000E+00
         0.00000E+00
         0.00000E+00
         0.00000E+00
         0.00000E+00
         0.00000E+00
         0.00000E+00
         0.00000E+00
         0.00000E+00
         0.00000E+00
         0.00000E+00
         0.00000E+00
         0.00000E+00
         0.00000E+00
         0.00000E+00
         0.00000E+00
         0.00000E+00
         0.00000E+00
         0.00000E+00
         0.00000E+00
         0.00000E+00
         0.00000E+00
         0.00000E+00
         0.00000E+00
         0.00000E+00
         0.00000E+00
         0.00000E+00
         0.00000E+00
         0.00000E+00
         0.00000E+00
         0.00000E+00
         0.00000E+00
         0.00000E+00
         0.00000E+00
         0.00000E+00
         0.00000E+00
         0.00000E+00
         0.00000E+00
         0.00000E+00
         0.00000E+00
         0.00000E+00
         0.00000E+00
         0.00000E+00
         0.00000E+00
         0.00000E+00
         0.00000E+00
         0.00000E+00
         0.00000E+00
         0.00000E+00
         0.00000E+00
         0.00000E+00
         0.00000E+00
         0.00000E+00
         0.00000E+00
         0.00000E+00
         0.00000E+00
         0.00000E+00
         0.00000E+00
         0.00000E+00
         0.00000E+00
         0.00000E+00
         0.00000E+00
         0.00000E+00
         0.00000E+00
         0.00000E+00
         0.00000E+00
         0.00000E+00
         0.00000E+00
         0.00000E+00
         0.00000E+00
         0.00000E+00
         0.00000E+00
         0.00000E+00
         0.00000E+00
         0.00000E+00
         0.00000E+00
         0.00000E+00
         0.00000E+00
         0.00000E+00
         0.00000E+00
         0.00000E+00
         0.00000E+00
         0.00000E+00
         0.00000E+00
         0.00000E+00
         0.00000E+00
         0.00000E+00
         0.00000E+00
         0.00000E+00
         0.00000E+00
         0.00000E+00
         0.00000E+00
         0.00000E+00
         0.00000E+00
         0.00000E+00
         0.00000E+00
         0.00000E+00
         0.00000E+00
         0.00000E+00
         0.00000E+00
         0.00000E+00
         0.00000E+00
         0.00000E+00
         0.00000E+00
         0.00000E+00
         0.00000E+00
         0.00000E+00
         0.00000E+00
         0.00000E+00
         0.00000E+00
         0.00000E+00
         0.00000E+00
         0.00000E+00
         0.00000E+00
         0.00000E+00
         0.00000E+00
         0.00000E+00
         0.00000E+00
         0.00000E+00
         0.00000E+00
         0.00000E+00
         0.00000E+00
         0.00000E+00
         0.00000E+00
         0.00000E+00
         0.00000E+00
         0.00000E+00
         0.00000E+00
         0.00000E+00
         0.00000E+00
         0.00000E+00
         0.00000E+00
         0.00000E+00
         0.00000E+00
         0.00000E+00
         0.00000E+00
         0.00000E+00
         0.00000E+00
         0.00000E+00
         0.00000E+00
         0.00000E+00
         0.00000E+00
         0.00000E+00
         0.00000E+00
         0.00000E+00
         0.00000E+00
         0.00000E+00
         0.00000E+00
         0.00000E+00
         0.00000E+00
         0.00000E+00
         0.00000E+00
         0.00000E+00
         0.00000E+00
         0.00000E+00
         0.00000E+00
         0.00000E+00
         0.00000E+00
         0.00000E+00
         0.00000E+00
         0.00000E+00
         0.00000E+00
         0.00000E+00
         0.00000E+00
         0.00000E+00
         0.00000E+00
         0.00000E+00
         0.00000E+00
         0.00000E+00
         0.00000E+00
         0.00000E+00
         0.00000E+00
         0.00000E+00
         0.00000E+00
         0.00000E+00
         0.00000E+00
         0.00000E+00
         0.00000E+00
         0.00000E+00
         0.00000E+00
         0.00000E+00
         0.00000E+00
         0.00000E+00
         0.00000E+00
         0.00000E+00
         0.00000E+00
         0.00000E+00
         0.00000E+00
         0.00000E+00
         0.00000E+00
         0.00000E+00
         0.00000E+00
         0.00000E+00
         0.00000E+00
         0.00000E+00
         0.00000E+00
         0.00000E+00
         0.00000E+00
         0.00000E+00
         0.00000E+00
         0.00000E+00
         0.00000E+00
         0.00000E+00
         0.00000E+00
         0.00000E+00
         0.00000E+00
         0.00000E+00
         0.00000E+00
         0.00000E+00
         0.00000E+00
         0.00000E+00
         0.00000E+00
         0.00000E+00
         0.00000E+00
         0.00000E+00
         0.00000E+00
         0.00000E+00
         0.00000E+00
         0.00000E+00
         0.00000E+00
         0.00000E+00
         0.00000E+00
         0.00000E+00
         0.00000E+00
         0.00000E+00
         0.00000E+00
         0.00000E+00
         0.00000E+00
         0.00000E+00
         0.00000E+00
         0.00000E+00
         0.00000E+00
         0.00000E+00
         0.00000E+00
         0.00000E+00
         0.00000E+00
         0.00000E+00
         0.00000E+00
         0.00000E+00
         0.00000E+00
         0.00000E+00
         0.00000E+00
         0.00000E+00
         0.00000E+00
         0.00000E+00
         0.00000E+00
         0.00000E+00
         0.00000E+00
         0.00000E+00
         0.00000E+00
         0.00000E+00
         0.00000E+00
         0.00000E+00
         0.00000E+00
         0.00000E+00
         0.00000E+00
         0.00000E+00
         0.00000E+00
         0.00000E+00
         0.00000E+00
         0.00000E+00
         0.00000E+00
         0.00000E+00
         0.00000E+00
         0.00000E+00
         0.00000E+00
         0.00000E+00
         0.00000E+00
         0.00000E+00
         0.00000E+00
         0.00000E+00
         0.00000E+00
         0.00000E+00
         0.00000E+00
         0.00000E+00
         0.00000E+00
         0.00000E+00
         0.00000E+00
         0.00000E+00
         0.00000E+00
         0.00000E+00
         0.00000E+00
         0.00000E+00
         0.00000E+00
         0.00000E+00
         0.00000E+00
         0.00000E+00
         0.00000E+00
         0.00000E+00
         0.00000E+00
         0.00000E+00
         0.00000E+00
         0.00000E+00
         0.00000E+00
         0.00000E+00
         0.00000E+00
         0.00000E+00
         0.00000E+00
         0.00000E+00
         0.00000E+00
         0.00000E+00
         0.00000E+00
         0.00000E+00
         0.00000E+00
         0.00000E+00
         0.00000E+00
         0.00000E+00
         0.00000E+00
         0.00000E+00
         0.00000E+00
         0.00000E+00
         0.00000E+00
         0.00000E+00
         0.00000E+00
         0.00000E+00
         0.00000E+00
         0.00000E+00
         0.00000E+00
         0.00000E+00
         0.00000E+00
         0.00000E+00
         0.00000E+00
         0.00000E+00
         0.00000E+00
         0.00000E+00
         0.00000E+00
         0.00000E+00
         0.00000E+00
         0.00000E+00
         0.00000E+00
         0.00000E+00
         0.00000E+00
         0.00000E+00
         0.00000E+00
         0.00000E+00
         0.00000E+00
         0.00000E+00
         0.00000E+00
         0.00000E+00
         0.00000E+00
         0.00000E+00
         0.00000E+00
         0.00000E+00
         0.00000E+00
         0.00000E+00
         0.00000E+00
         0.00000E+00
         0.00000E+00
         0.00000E+00
         0.00000E+00
         0.00000E+00
         0.00000E+00
         0.00000E+00
         0.00000E+00
         0.00000E+00
         0.00000E+00
         0.00000E+00
         0.00000E+00
         0.00000E+00
         0.00000E+00
         0.00000E+00
         0.00000E+00
         0.00000E+00
         0.00000E+00
         0.00000E+00
         0.00000E+00
         0.00000E+00
         0.00000E+00
         0.00000E+00
         0.00000E+00
         0.00000E+00
         0.00000E+00
         0.00000E+00
         0.00000E+00
         0.00000E+00
         0.00000E+00
         0.00000E+00
         0.00000E+00
         0.00000E+00
         0.00000E+00
         0.00000E+00
         0.00000E+00
         0.00000E+00
         0.00000E+00
         0.00000E+00
         0.00000E+00
         0.00000E+00
         0.00000E+00
         0.00000E+00
         0.00000E+00
         0.00000E+00
         0.00000E+00
         0.00000E+00
         0.00000E+00
         0.00000E+00
         0.00000E+00
         0.00000E+00
         0.00000E+00
         0.00000E+00
         0.00000E+00
         0.00000E+00
         0.00000E+00
         0.00000E+00
         0.00000E+00
         0.00000E+00
         0.00000E+00
         0.00000E+00
         0.00000E+00
         0.00000E+00
         0.00000E+00
         0.00000E+00
         0.00000E+00
         0.00000E+00
         0.00000E+00
         0.00000E+00
         0.00000E+00
         0.00000E+00
         0.00000E+00
         0.00000E+00
         0.00000E+00
         0.00000E+00
         0.00000E+00
         0.00000E+00
         0.00000E+00
         0.00000E+00
         0.00000E+00
         0.00000E+00
         0.00000E+00
         0.00000E+00
         0.00000E+00
         0.00000E+00
         0.00000E+00
         0.00000E+00
         0.00000E+00
         0.00000E+00
         0.00000E+00
         0.00000E+00
         0.00000E+00
         0.00000E+00
         0.00000E+00
         0.00000E+00
         0.00000E+00
         0.00000E+00
         0.00000E+00
         0.00000E+00
         0.00000E+00
         0.00000E+00
         0.00000E+00
         0.00000E+00
         0.00000E+00
         0.00000E+00
         0.00000E+00
         0.00000E+00
         0.00000E+00
         0.00000E+00
         0.00000E+00
         0.00000E+00
         0.00000E+00
         0.00000E+00
         0.00000E+00
         0.00000E+00
         0.00000E+00
         0.00000E+00
         0.00000E+00
         0.00000E+00
         0.00000E+00
         0.00000E+00
         0.00000E+00
         0.00000E+00
         0.00000E+00
         0.00000E+00
         0.00000E+00
         0.00000E+00
         0.00000E+00
         0.00000E+00
         0.00000E+00
         0.00000E+00
         0.00000E+00
         0.00000E+00
         0.00000E+00
         0.00000E+00
         0.00000E+00
         0.00000E+00
         0.00000E+00
         0.00000E+00
         0.00000E+00
         0.00000E+00
         0.00000E+00
         0.00000E+00
         0.00000E+00
         0.00000E+00
         0.00000E+00
         0.00000E+00
         0.00000E+00
         0.00000E+00
         0.00000E+00
         0.00000E+00
         0.00000E+00
         0.00000E+00
         0.00000E+00
         0.00000E+00
         0.00000E+00
         0.00000E+00
         0.00000E+00
         0.00000E+00
         0.00000E+00
         0.00000E+00
         0.00000E+00
         0.00000E+00
         0.00000E+00
         0.00000E+00
         0.00000E+00
         0.00000E+00
         0.00000E+00
         0.00000E+00
         0.00000E+00
         0.00000E+00
         0.00000E+00
         0.00000E+00
         0.00000E+00
         0.00000E+00
         0.00000E+00
         0.00000E+00
         0.00000E+00
         0.00000E+00
         0.00000E+00
         0.00000E+00
         0.00000E+00
         0.00000E+00
         0.00000E+00
         0.00000E+00
         0.00000E+00
         0.00000E+00
         0.00000E+00
         0.00000E+00
         0.00000E+00
         0.00000E+00
         0.00000E+00
         0.00000E+00
         0.00000E+00
         0.00000E+00
         0.00000E+00
         0.00000E+00
         0.00000E+00
         0.00000E+00
         0.00000E+00
         0.00000E+00
         0.00000E+00
         0.00000E+00
         0.00000E+00
         0.00000E+00
         0.00000E+00
         0.00000E+00
         0.00000E+00
         0.00000E+00
         0.00000E+00
         0.00000E+00
         0.00000E+00
         0.00000E+00
         0.00000E+00
         0.00000E+00
         0.00000E+00
         0.00000E+00
         0.00000E+00
         0.00000E+00
         0.00000E+00
         0.00000E+00
         0.00000E+00
         0.00000E+00
         0.00000E+00
         0.00000E+00
         0.00000E+00
         0.00000E+00
         0.00000E+00
         0.00000E+00
         0.00000E+00
         0.00000E+00
         0.00000E+00
         0.00000E+00
         0.00000E+00
         0.00000E+00
         0.00000E+00
         0.00000E+00
         0.00000E+00
         0.00000E+00
         0.00000E+00
         0.00000E+00
         0.00000E+00
         0.00000E+00
         0.00000E+00
         0.00000E+00
         0.00000E+00
         0.00000E+00
         0.00000E+00
         0.00000E+00
         0.00000E+00
         0.00000E+00
         0.00000E+00
         0.00000E+00
         0.00000E+00
         0.00000E+00
         0.00000E+00
         0.00000E+00
         0.00000E+00
         0.00000E+00
         0.00000E+00
         0.00000E+00
         0.00000E+00
         0.00000E+00
         0.00000E+00
         0.00000E+00
         0.00000E+00
         0.00000E+00
         0.00000E+00
         0.00000E+00
         0.00000E+00
         0.00000E+00
         0.00000E+00
         0.00000E+00
         0.00000E+00
         0.00000E+00
         0.00000E+00
         0.00000E+00
         0.00000E+00
         0.00000E+00
         0.00000E+00
         0.00000E+00
         0.00000E+00
         0.00000E+00
         0.00000E+00
         0.00000E+00
         0.00000E+00
         0.00000E+00
         0.00000E+00
         0.00000E+00
         0.00000E+00
         0.00000E+00
         0.00000E+00
         0.00000E+00
         0.00000E+00
         0.00000E+00
         0.00000E+00
         0.00000E+00
         0.00000E+00
         0.00000E+00
         0.00000E+00
         0.00000E+00
         0.00000E+00
         0.00000E+00
         0.00000E+00
         0.00000E+00
         0.00000E+00
         0.00000E+00
         0.00000E+00
         0.00000E+00
         0.00000E+00
         0.00000E+00
         0.00000E+00
         0.00000E+00
         0.00000E+00
         0.00000E+00
         0.00000E+00
         0.00000E+00
         0.00000E+00
         0.00000E+00
         0.00000E+00
         0.00000E+00
         0.00000E+00
         0.00000E+00
         0.00000E+00
         0.00000E+00
         0.00000E+00
         0.00000E+00
         0.00000E+00
         0.00000E+00
         0.00000E+00
         0.00000E+00
         0.00000E+00
         0.00000E+00
         0.00000E+00
         0.00000E+00
         0.00000E+00
         0.00000E+00
         0.00000E+00
         0.00000E+00
         0.00000E+00
         0.00000E+00
         0.00000E+00
         0.00000E+00
         0.00000E+00
         0.00000E+00
         0.00000E+00
         0.00000E+00
         0.00000E+00
         0.00000E+00
         0.00000E+00
         0.00000E+00
         0.00000E+00
         0.00000E+00
         0.00000E+00
         0.00000E+00
         0.00000E+00
         0.00000E+00
         0.00000E+00
         0.00000E+00
         0.00000E+00
         0.00000E+00
         0.00000E+00
         0.00000E+00
         0.00000E+00
         0.00000E+00
         0.00000E+00
         0.00000E+00
         0.00000E+00
         0.00000E+00
         0.00000E+00
         0.00000E+00
         0.00000E+00
         0.00000E+00
         0.00000E+00
         0.00000E+00
         0.00000E+00
         0.00000E+00
         0.00000E+00
         0.00000E+00
         0.00000E+00
         0.00000E+00
         0.00000E+00
         0.00000E+00
         0.00000E+00
         0.00000E+00
         0.00000E+00
         0.00000E+00
         0.00000E+00
         0.00000E+00
         0.00000E+00
         0.00000E+00
         0.00000E+00
         0.00000E+00
         0.00000E+00
         0.00000E+00
         0.00000E+00
         0.00000E+00
         0.00000E+00
         0.00000E+00
         0.00000E+00
         0.00000E+00
         0.00000E+00
         0.00000E+00
         0.00000E+00
         0.00000E+00
         0.00000E+00
         0.00000E+00
         0.00000E+00
         0.00000E+00
         0.00000E+00
         0.00000E+00
         0.00000E+00
         0.00000E+00
         0.00000E+00
         0.00000E+00
         0.00000E+00
         0.00000E+00
         0.00000E+00
         0.00000E+00
         0.00000E+00
         0.00000E+00
         0.00000E+00
         0.00000E+00
         0.00000E+00
         0.00000E+00
         0.00000E+00
         0.00000E+00
         0.00000E+00
         0.00000E+00
         0.00000E+00
         0.00000E+00
         0.00000E+00
         0.00000E+00
         0.00000E+00
         0.00000E+00
         0.00000E+00
         0.00000E+00
         0.00000E+00
         0.00000E+00
         0.00000E+00
         0.00000E+00
         0.00000E+00
         0.00000E+00
         0.00000E+00
         0.00000E+00
         0.00000E+00
         0.00000E+00
         0.00000E+00
         0.00000E+00
         0.00000E+00
         0.00000E+00
         0.00000E+00
         0.00000E+00
         0.00000E+00
         0.00000E+00
         0.00000E+00
         0.00000E+00
         0.00000E+00
         0.00000E+00
         0.00000E+00
         0.00000E+00
         0.00000E+00
         0.00000E+00
         0.00000E+00
         0.00000E+00
         0.00000E+00
         0.00000E+00
         0.00000E+00
         0.00000E+00
         0.00000E+00
         0.00000E+00
         0.00000E+00
         0.00000E+00
         0.00000E+00
         0.00000E+00
         0.00000E+00
         0.00000E+00
         0.00000E+00
         0.00000E+00
         0.00000E+00
         0.00000E+00
         0.00000E+00
         0.00000E+00
         0.00000E+00
         0.00000E+00
         0.00000E+00
         0.00000E+00
         0.00000E+00
         0.00000E+00
         0.00000E+00
         0.00000E+00
         0.00000E+00
         0.00000E+00
         0.00000E+00
         0.00000E+00
         0.00000E+00
         0.00000E+00
         0.00000E+00
         0.00000E+00
         0.00000E+00
         0.00000E+00
         0.00000E+00
         0.00000E+00
         0.00000E+00
         0.00000E+00
         0.00000E+00
         0.00000E+00
         0.00000E+00
         0.00000E+00
         0.00000E+00
         0.00000E+00
         0.00000E+00
         0.00000E+00
         0.00000E+00
         0.00000E+00
         0.00000E+00
         0.00000E+00
         0.00000E+00
         0.00000E+00
         0.00000E+00
         0.00000E+00
         0.00000E+00
         0.00000E+00
         0.00000E+00
         0.00000E+00
         0.00000E+00
         0.00000E+00
         0.00000E+00
         0.00000E+00
         0.00000E+00
         0.00000E+00
         0.00000E+00
         0.00000E+00
         0.00000E+00
         0.00000E+00
         0.00000E+00
         0.00000E+00
         0.00000E+00
         0.00000E+00
         0.00000E+00
         0.00000E+00
         0.00000E+00
         0.00000E+00
         0.00000E+00
         0.00000E+00
         0.00000E+00
         0.00000E+00
         0.00000E+00
         0.00000E+00
         0.00000E+00
         0.00000E+00
         0.00000E+00
         0.00000E+00
         0.00000E+00
         0.00000E+00
         0.00000E+00
         0.00000E+00
         0.00000E+00
         0.00000E+00
         0.00000E+00
         0.00000E+00
         0.00000E+00
         0.00000E+00
         0.00000E+00
         0.00000E+00
         0.00000E+00
         0.00000E+00
         0.00000E+00
         0.00000E+00
         0.00000E+00
         0.00000E+00
         0.00000E+00
         0.00000E+00
         0.00000E+00
         0.00000E+00
         0.00000E+00
         0.00000E+00
         0.00000E+00
         0.00000E+00
         0.00000E+00
         0.00000E+00
         0.00000E+00
         0.00000E+00
         0.00000E+00
         0.00000E+00
         0.00000E+00
         0.00000E+00
         0.00000E+00
         0.00000E+00
         0.00000E+00
         0.00000E+00
         0.00000E+00
         0.00000E+00
         0.00000E+00
         0.00000E+00
         0.00000E+00
         0.00000E+00
         0.00000E+00
         0.00000E+00
         0.00000E+00
         0.00000E+00
         0.00000E+00
         0.00000E+00
         0.00000E+00
         0.00000E+00
         0.00000E+00
         0.00000E+00
         0.00000E+00
         0.00000E+00
         0.00000E+00
         0.00000E+00
         0.00000E+00
         0.00000E+00
         0.00000E+00
         0.00000E+00
         0.00000E+00
         0.00000E+00
         0.00000E+00
         0.00000E+00
         0.00000E+00
         0.00000E+00
         0.00000E+00
         0.00000E+00
         0.00000E+00
         0.00000E+00
         0.00000E+00
         0.00000E+00
         0.00000E+00
         0.00000E+00
         0.00000E+00
         0.00000E+00
         0.00000E+00
         0.00000E+00
         0.00000E+00
         0.00000E+00
         0.00000E+00
         0.00000E+00
         0.00000E+00
         0.00000E+00
         0.00000E+00
         0.00000E+00
         0.00000E+00
         0.00000E+00
         0.00000E+00
         0.00000E+00
         0.00000E+00
         0.00000E+00
         0.00000E+00
         0.00000E+00
         0.00000E+00
         0.00000E+00
         0.00000E+00
         0.00000E+00
         0.00000E+00
         0.00000E+00
         0.00000E+00
         0.00000E+00
         0.00000E+00
         0.00000E+00
         0.00000E+00
         0.00000E+00
         0.00000E+00
         0.00000E+00
         0.00000E+00
         0.00000E+00
         0.00000E+00
         0.00000E+00
         0.00000E+00
         0.00000E+00
         0.00000E+00
         0.00000E+00
         0.00000E+00
         0.00000E+00
         0.00000E+00
         0.00000E+00
         0.00000E+00
         0.00000E+00
         0.00000E+00
         0.00000E+00
         0.00000E+00
         0.00000E+00
         0.00000E+00
         0.00000E+00
         0.00000E+00
         0.00000E+00
         0.00000E+00
         0.00000E+00
         0.00000E+00
         0.00000E+00
         0.00000E+00
         0.00000E+00
         0.00000E+00
         0.00000E+00
         0.00000E+00
         0.00000E+00
         0.00000E+00
         0.00000E+00
         0.00000E+00
         0.00000E+00
         0.00000E+00
         0.00000E+00
         0.00000E+00
         0.00000E+00
         0.00000E+00
         0.00000E+00
         0.00000E+00
         0.00000E+00
         0.00000E+00
         0.00000E+00
         0.00000E+00
         0.00000E+00
         0.00000E+00
         0.00000E+00
         0.00000E+00
         0.00000E+00
         0.00000E+00
         0.00000E+00
         0.00000E+00
         0.00000E+00
         0.00000E+00
         0.00000E+00
         0.00000E+00
         0.00000E+00
         0.00000E+00
         0.00000E+00
         0.00000E+00
         0.00000E+00
         0.00000E+00
         0.00000E+00
         0.00000E+00
         0.00000E+00
         0.00000E+00
         0.00000E+00
         0.00000E+00
         0.00000E+00
         0.00000E+00
         0.00000E+00
         0.00000E+00
         0.00000E+00
         0.00000E+00
         0.00000E+00
         0.00000E+00
         0.00000E+00
         0.00000E+00
         0.00000E+00
         0.00000E+00
         0.00000E+00
         0.00000E+00
         0.00000E+00
         0.00000E+00
         0.00000E+00
         0.00000E+00
         0.00000E+00
         0.00000E+00
         0.00000E+00
         0.00000E+00
         0.00000E+00
         0.00000E+00
         0.00000E+00
         0.00000E+00
         0.00000E+00
         0.00000E+00
         0.00000E+00
         0.00000E+00
         0.00000E+00
         0.00000E+00
         0.00000E+00
         0.00000E+00
         0.00000E+00
         0.00000E+00
         0.00000E+00
         0.00000E+00
         0.00000E+00
         0.00000E+00
         0.00000E+00
         0.00000E+00
         0.00000E+00
         0.00000E+00
         0.00000E+00
         0.00000E+00
         0.00000E+00
         0.00000E+00
         0.00000E+00
         0.00000E+00
         0.00000E+00
         0.00000E+00
         0.00000E+00
         0.00000E+00
         0.00000E+00
         0.00000E+00
         0.00000E+00
         0.00000E+00
         0.00000E+00
         0.00000E+00
         0.00000E+00
         0.00000E+00
         0.00000E+00
         0.00000E+00
         0.00000E+00
         0.00000E+00
         0.00000E+00
         0.00000E+00
         0.00000E+00
         0.00000E+00
         0.00000E+00
         0.00000E+00
         0.00000E+00
         0.00000E+00
         0.00000E+00
         0.00000E+00
         0.00000E+00
         0.00000E+00
         0.00000E+00
         0.00000E+00
         0.00000E+00
         0.00000E+00
         0.00000E+00
         0.00000E+00
         0.00000E+00
         0.00000E+00
         0.00000E+00
         0.00000E+00
         0.00000E+00
         0.00000E+00
         0.00000E+00
         0.00000E+00
         0.00000E+00
         0.00000E+00
         0.00000E+00
         0.00000E+00
         0.00000E+00
         0.00000E+00
         0.00000E+00
         0.00000E+00
         0.00000E+00
         0.00000E+00
         0.00000E+00
         0.00000E+00
         0.00000E+00
         0.00000E+00
         0.00000E+00
         0.00000E+00
         0.00000E+00
         0.00000E+00
         0.00000E+00
         0.00000E+00
         0.00000E+00
         0.00000E+00
         0.00000E+00
         0.00000E+00
         0.00000E+00
         0.00000E+00
         0.00000E+00
         0.00000E+00
         0.00000E+00
         0.00000E+00
         0.00000E+00
         0.00000E+00
         0.00000E+00
         0.00000E+00
         0.00000E+00
         0.00000E+00
         0.00000E+00
         0.00000E+00
         0.00000E+00
         0.00000E+00
         0.00000E+00
         0.00000E+00
         0.00000E+00
         0.00000E+00
         0.00000E+00
         0.00000E+00
         0.00000E+00
         0.00000E+00
         0.00000E+00
         0.00000E+00
         0.00000E+00
         0.00000E+00
         0.00000E+00
         0.00000E+00
         0.00000E+00
         0.00000E+00
         0.00000E+00
         0.00000E+00
         0.00000E+00
         0.00000E+00
         0.00000E+00
         0.00000E+00
         0.00000E+00
         0.00000E+00
         0.00000E+00
         0.00000E+00
         0.00000E+00
         0.00000E+00
         0.00000E+00
         0.00000E+00
         0.00000E+00
         0.00000E+00
         0.00000E+00
         0.00000E+00
         0.00000E+00
         0.00000E+00
         0.00000E+00
         0.00000E+00
         0.00000E+00
         0.00000E+00
         0.00000E+00
         0.00000E+00
         0.00000E+00
         0.00000E+00
         0.00000E+00
         0.00000E+00
         0.00000E+00
         0.00000E+00
         0.00000E+00
         0.00000E+00
         0.00000E+00
         0.00000E+00
         0.00000E+00
         0.00000E+00
         0.00000E+00
         0.00000E+00
         0.00000E+00
         0.00000E+00
         0.00000E+00
         0.00000E+00
         0.00000E+00
         0.00000E+00
         0.00000E+00
         0.00000E+00
         0.00000E+00
         0.00000E+00
         0.00000E+00
         0.00000E+00
         0.00000E+00
         0.00000E+00
         0.00000E+00
         0.00000E+00
         0.00000E+00
         0.00000E+00
         0.00000E+00
         0.00000E+00
         0.00000E+00
         0.00000E+00
         0.00000E+00
         0.00000E+00
         0.00000E+00
         0.00000E+00
         0.00000E+00
         0.00000E+00
         0.00000E+00
         0.00000E+00
         0.00000E+00
         0.00000E+00
         0.00000E+00
         0.00000E+00
         0.00000E+00
         0.00000E+00
         0.00000E+00
         0.00000E+00
         0.00000E+00
         0.00000E+00
         0.00000E+00
         0.00000E+00
         0.00000E+00
         0.00000E+00
         0.00000E+00
         0.00000E+00
         0.00000E+00
         0.00000E+00
         0.00000E+00
         0.00000E+00
         0.00000E+00
         0.00000E+00
         0.00000E+00
         0.00000E+00
         0.00000E+00
         0.00000E+00
         0.00000E+00
         0.00000E+00
         0.00000E+00
         0.00000E+00
         0.00000E+00
         0.00000E+00
         0.00000E+00
         0.00000E+00
         0.00000E+00
         0.00000E+00
         0.00000E+00
         0.00000E+00
         0.00000E+00
         0.00000E+00
         0.00000E+00
         0.00000E+00
         0.00000E+00
         0.00000E+00
         0.00000E+00
         0.00000E+00
         0.00000E+00
         0.00000E+00
         0.00000E+00
         0.00000E+00
         0.00000E+00
         0.00000E+00
         0.00000E+00
         0.00000E+00
         0.00000E+00
         0.00000E+00
         0.00000E+00
         0.00000E+00
         0.00000E+00
         0.00000E+00
         0.00000E+00
         0.00000E+00
         0.00000E+00
         0.00000E+00
         0.00000E+00
         0.00000E+00
         0.00000E+00
         0.00000E+00
         0.00000E+00
         0.00000E+00
         0.00000E+00
         0.00000E+00
         0.00000E+00
         0.00000E+00
         0.00000E+00
         0.00000E+00
         0.00000E+00
         0.00000E+00
         0.00000E+00
         0.00000E+00
         0.00000E+00
         0.00000E+00
         0.00000E+00
         0.00000E+00
         0.00000E+00
         0.00000E+00
         0.00000E+00
         0.00000E+00
         0.00000E+00
         0.00000E+00
         0.00000E+00
         0.00000E+00
         0.00000E+00
         0.00000E+00
         0.00000E+00
         0.00000E+00
         0.00000E+00
         0.00000E+00
         0.00000E+00
         0.00000E+00
         0.00000E+00
         0.00000E+00
         0.00000E+00
         0.00000E+00
         0.00000E+00
         0.00000E+00
         0.00000E+00
         0.00000E+00
         0.00000E+00
         0.00000E+00
         0.00000E+00
         0.00000E+00
         0.00000E+00
         0.00000E+00
         0.00000E+00
         0.00000E+00
         0.00000E+00
         0.00000E+00
         0.00000E+00
         0.00000E+00
         0.00000E+00
         0.00000E+00
         0.00000E+00
         0.00000E+00
         0.00000E+00
         0.00000E+00
         0.00000E+00
         0.00000E+00
         0.00000E+00
         0.00000E+00
         0.00000E+00
         0.00000E+00
         0.00000E+00
         0.00000E+00
         0.00000E+00
         0.00000E+00
         0.00000E+00
         0.00000E+00
         0.00000E+00
         0.00000E+00
         0.00000E+00
         0.00000E+00
         0.00000E+00
         0.00000E+00
         0.00000E+00
         0.00000E+00
         0.00000E+00
         0.00000E+00
         0.00000E+00
         0.00000E+00
         0.00000E+00
         0.00000E+00
         0.00000E+00
         0.00000E+00
         0.00000E+00
         0.00000E+00
         0.00000E+00
         0.00000E+00
         0.00000E+00
         0.00000E+00
         0.00000E+00
         0.00000E+00
         0.00000E+00
         0.00000E+00
         0.00000E+00
         0.00000E+00
         0.00000E+00
         0.00000E+00
         0.00000E+00
         0.00000E+00
         0.00000E+00
         0.00000E+00
         0.00000E+00
         0.00000E+00
         0.00000E+00
         0.00000E+00
         0.00000E+00
         0.00000E+00
         0.00000E+00
         0.00000E+00
         0.00000E+00
         0.00000E+00
         0.00000E+00
         0.00000E+00
         0.00000E+00
         0.00000E+00
         0.00000E+00
         0.00000E+00
         0.00000E+00
         0.00000E+00
         0.00000E+00
         0.00000E+00
         0.00000E+00
         0.00000E+00
         0.00000E+00
         0.00000E+00
         0.00000E+00
         0.00000E+00
         0.00000E+00
         0.00000E+00
         0.00000E+00
         0.00000E+00
         0.00000E+00
         0.00000E+00
         0.00000E+00
         0.00000E+00
         0.00000E+00
         0.00000E+00
         0.00000E+00
         0.00000E+00
         0.00000E+00
         0.00000E+00
         0.00000E+00
         0.00000E+00
         0.00000E+00
         0.00000E+00
         0.00000E+00
         0.00000E+00
         0.00000E+00
         0.00000E+00
         0.00000E+00
         0.00000E+00
         0.00000E+00
         0.00000E+00
         0.00000E+00
         0.00000E+00
         0.00000E+00
         0.00000E+00
         0.00000E+00
         0.00000E+00
         0.00000E+00
         0.00000E+00
         0.00000E+00
         0.00000E+00
         0.00000E+00
         0.00000E+00
         0.00000E+00
         0.00000E+00
         0.00000E+00
         0.00000E+00
         0.00000E+00
         0.00000E+00
         0.00000E+00
         0.00000E+00
         0.00000E+00
         0.00000E+00
         0.00000E+00
         0.00000E+00
         0.00000E+00
         0.00000E+00
         0.00000E+00
         0.00000E+00
         0.00000E+00
         0.00000E+00
         0.00000E+00
         0.00000E+00
         0.00000E+00
         0.00000E+00
         0.00000E+00
         0.00000E+00
         0.00000E+00
         0.00000E+00
         0.00000E+00
         0.00000E+00
         0.00000E+00
         0.00000E+00
         0.00000E+00
         0.00000E+00
         0.00000E+00
         0.00000E+00
         0.00000E+00
         0.00000E+00
         0.00000E+00
         0.00000E+00
         0.00000E+00
         0.00000E+00
         0.00000E+00
         0.00000E+00
         0.00000E+00
         0.00000E+00
         0.00000E+00
         0.00000E+00
         0.00000E+00
         0.00000E+00
         0.00000E+00
         0.00000E+00
         0.00000E+00
         0.00000E+00
         0.00000E+00
         0.00000E+00
         0.00000E+00
         0.00000E+00
         0.00000E+00
         0.00000E+00
         0.00000E+00
         0.00000E+00
         0.00000E+00
         0.00000E+00
         0.00000E+00
         0.00000E+00
         0.00000E+00
         0.00000E+00
         0.00000E+00
         0.00000E+00
         0.00000E+00
         0.00000E+00
         0.00000E+00
         0.00000E+00
         0.00000E+00
         0.00000E+00
         0.00000E+00
         0.00000E+00
         0.00000E+00
         0.00000E+00
         0.00000E+00
         0.00000E+00
         0.00000E+00
         0.00000E+00
         0.00000E+00
         0.00000E+00
         0.00000E+00
         0.00000E+00
         0.00000E+00
         0.00000E+00
         0.00000E+00
         0.00000E+00
         0.00000E+00
         0.00000E+00
         0.00000E+00
         0.00000E+00
         0.00000E+00
         0.00000E+00
         0.00000E+00
         0.00000E+00
         0.00000E+00
         0.00000E+00
         0.00000E+00
         0.00000E+00
         0.00000E+00
         0.00000E+00
         0.00000E+00
         0.00000E+00
         0.00000E+00
         0.00000E+00
         0.00000E+00
         0.00000E+00
         0.00000E+00
         0.00000E+00
         0.00000E+00
         0.00000E+00
         0.00000E+00
         0.00000E+00
         0.00000E+00
         0.00000E+00
         0.00000E+00
         0.00000E+00
         0.00000E+00
         0.00000E+00
         0.00000E+00
         0.00000E+00
         0.00000E+00
         0.00000E+00
         0.00000E+00
         0.00000E+00
         0.00000E+00
         0.00000E+00
         0.00000E+00
         0.00000E+00
         0.00000E+00
         0.00000E+00
         0.00000E+00
         0.00000E+00
         0.00000E+00
         0.00000E+00
         0.00000E+00
         0.00000E+00
         0.00000E+00
         0.00000E+00
         0.00000E+00
         0.00000E+00
         0.00000E+00
         0.00000E+00
         0.00000E+00
         0.00000E+00
         0.00000E+00
         0.00000E+00
         0.00000E+00
         0.00000E+00
         0.00000E+00
         0.00000E+00
         0.00000E+00
         0.00000E+00
         0.00000E+00
         0.00000E+00
         0.00000E+00
         0.00000E+00
         0.00000E+00
         0.00000E+00
         0.00000E+00
         0.00000E+00
         0.00000E+00
         0.00000E+00
         0.00000E+00
         0.00000E+00
         0.00000E+00
         0.00000E+00
         0.00000E+00
         0.00000E+00
         0.00000E+00
         0.00000E+00
         0.00000E+00
         0.00000E+00
         0.00000E+00
         0.00000E+00
         0.00000E+00
         0.00000E+00
         0.00000E+00
         0.00000E+00
         0.00000E+00
         0.00000E+00
         0.00000E+00
         0.00000E+00
         0.00000E+00
         0.00000E+00
         0.00000E+00
         0.00000E+00
         0.00000E+00
         0.00000E+00
         0.00000E+00
         0.00000E+00
         0.00000E+00
         0.00000E+00
         0.00000E+00
         0.00000E+00
         0.00000E+00
         0.00000E+00
         0.00000E+00
         0.00000E+00
         0.00000E+00
         0.00000E+00
         0.00000E+00
         0.00000E+00
         0.00000E+00
         0.00000E+00
         0.00000E+00
         0.00000E+00
         0.00000E+00
         0.00000E+00
         0.00000E+00
         0.00000E+00
         0.00000E+00
         0.00000E+00
         0.00000E+00
         0.00000E+00
         0.00000E+00
         0.00000E+00
         0.00000E+00
         0.00000E+00
         0.00000E+00
         0.00000E+00
         0.00000E+00
         0.00000E+00
         0.00000E+00
         0.00000E+00
         0.00000E+00
         0.00000E+00
         0.00000E+00
         0.00000E+00
         0.00000E+00
         0.00000E+00
         0.00000E+00
         0.00000E+00
         0.00000E+00
         0.00000E+00
         0.00000E+00
         0.00000E+00
         0.00000E+00
         0.00000E+00
         0.00000E+00
         0.00000E+00
         0.00000E+00
         0.00000E+00
         0.00000E+00
         0.00000E+00
         0.00000E+00
         0.00000E+00
         0.00000E+00
         0.00000E+00
         0.00000E+00
         0.00000E+00
         0.00000E+00
         0.00000E+00
         0.00000E+00
         0.00000E+00
         0.00000E+00
         0.00000E+00
         0.00000E+00
         0.00000E+00
         0.00000E+00
         0.00000E+00
         0.00000E+00
         0.00000E+00
         0.00000E+00
         0.00000E+00
         0.00000E+00
         0.00000E+00
         0.00000E+00
         0.00000E+00
         0.00000E+00
         0.00000E+00
         0.00000E+00
         0.00000E+00
         0.00000E+00
         0.00000E+00
         0.00000E+00
         0.00000E+00
         0.00000E+00
         0.00000E+00
         0.00000E+00
         0.00000E+00
         0.00000E+00
         0.00000E+00
         0.00000E+00
         0.00000E+00
         0.00000E+00
         0.00000E+00
         0.00000E+00
         0.00000E+00
         0.00000E+00
         0.00000E+00
         0.00000E+00
         0.00000E+00
         0.00000E+00
         0.00000E+00
         0.00000E+00
         0.00000E+00
         0.00000E+00
         0.00000E+00
         0.00000E+00
         0.00000E+00
         0.00000E+00
         0.00000E+00
         0.00000E+00
         0.00000E+00
         0.00000E+00
         0.00000E+00
         0.00000E+00
         0.00000E+00
         0.00000E+00
         0.00000E+00
         0.00000E+00
         0.00000E+00
         0.00000E+00
         0.00000E+00
         0.00000E+00
         0.00000E+00
         0.00000E+00
         0.00000E+00
         0.00000E+00
         0.00000E+00
         0.00000E+00
         0.00000E+00
         0.00000E+00
         0.00000E+00
         0.00000E+00
         0.00000E+00
         0.00000E+00
         0.00000E+00
         0.00000E+00
         0.00000E+00
         0.00000E+00
         0.00000E+00
         0.00000E+00
         0.00000E+00
         0.00000E+00
         0.00000E+00
         0.00000E+00
         0.00000E+00
         0.00000E+00
         0.00000E+00
         0.00000E+00
         0.00000E+00
         0.00000E+00
  
SCALARS                         fint_y  double 1
LOOKUP_TABLE default
         0.00000E+00
         0.00000E+00
         0.00000E+00
         0.00000E+00
         0.00000E+00
         0.00000E+00
         0.00000E+00
         0.00000E+00
         0.00000E+00
         0.00000E+00
         0.00000E+00
         0.00000E+00
         0.00000E+00
         0.00000E+00
         0.00000E+00
         0.00000E+00
         0.00000E+00
         0.00000E+00
         0.00000E+00
         0.00000E+00
         0.00000E+00
         0.00000E+00
         0.00000E+00
         0.00000E+00
         0.00000E+00
         0.00000E+00
         0.00000E+00
         0.00000E+00
         0.00000E+00
         0.00000E+00
         0.00000E+00
         0.00000E+00
         0.00000E+00
         0.00000E+00
         0.00000E+00
         0.00000E+00
         0.00000E+00
         0.00000E+00
         0.00000E+00
         0.00000E+00
         0.00000E+00
         0.00000E+00
         0.00000E+00
         0.00000E+00
         0.00000E+00
         0.00000E+00
         0.00000E+00
         0.00000E+00
         0.00000E+00
         0.00000E+00
         0.00000E+00
         0.00000E+00
         0.00000E+00
         0.00000E+00
         0.00000E+00
         0.00000E+00
         0.00000E+00
         0.00000E+00
         0.00000E+00
         0.00000E+00
         0.00000E+00
         0.00000E+00
         0.00000E+00
         0.00000E+00
         0.00000E+00
         0.00000E+00
         0.00000E+00
         0.00000E+00
         0.00000E+00
         0.00000E+00
         0.00000E+00
         0.00000E+00
         0.00000E+00
         0.00000E+00
         0.00000E+00
         0.00000E+00
         0.00000E+00
         0.00000E+00
         0.00000E+00
         0.00000E+00
         0.00000E+00
         0.00000E+00
         0.00000E+00
         0.00000E+00
         0.00000E+00
         0.00000E+00
         0.00000E+00
         0.00000E+00
         0.00000E+00
         0.00000E+00
         0.00000E+00
         0.00000E+00
         0.00000E+00
         0.00000E+00
         0.00000E+00
         0.00000E+00
         0.00000E+00
         0.00000E+00
         0.00000E+00
         0.00000E+00
         0.00000E+00
         0.00000E+00
         0.00000E+00
         0.00000E+00
         0.00000E+00
         0.00000E+00
         0.00000E+00
         0.00000E+00
         0.00000E+00
         0.00000E+00
         0.00000E+00
         0.00000E+00
         0.00000E+00
         0.00000E+00
         0.00000E+00
         0.00000E+00
         0.00000E+00
         0.00000E+00
         0.00000E+00
         0.00000E+00
         0.00000E+00
         0.00000E+00
         0.00000E+00
         0.00000E+00
         0.00000E+00
         0.00000E+00
         0.00000E+00
         0.00000E+00
         0.00000E+00
         0.00000E+00
         0.00000E+00
         0.00000E+00
         0.00000E+00
         0.00000E+00
         0.00000E+00
         0.00000E+00
         0.00000E+00
         0.00000E+00
         0.00000E+00
         0.00000E+00
         0.00000E+00
         0.00000E+00
         0.00000E+00
         0.00000E+00
         0.00000E+00
         0.00000E+00
         0.00000E+00
         0.00000E+00
         0.00000E+00
         0.00000E+00
         0.00000E+00
         0.00000E+00
         0.00000E+00
         0.00000E+00
         0.00000E+00
         0.00000E+00
         0.00000E+00
         0.00000E+00
         0.00000E+00
         0.00000E+00
         0.00000E+00
         0.00000E+00
         0.00000E+00
         0.00000E+00
         0.00000E+00
         0.00000E+00
         0.00000E+00
         0.00000E+00
         0.00000E+00
         0.00000E+00
         0.00000E+00
         0.00000E+00
         0.00000E+00
         0.00000E+00
         0.00000E+00
         0.00000E+00
         0.00000E+00
         0.00000E+00
         0.00000E+00
         0.00000E+00
         0.00000E+00
         0.00000E+00
         0.00000E+00
         0.00000E+00
         0.00000E+00
         0.00000E+00
         0.00000E+00
         0.00000E+00
         0.00000E+00
         0.00000E+00
         0.00000E+00
         0.00000E+00
         0.00000E+00
         0.00000E+00
         0.00000E+00
         0.00000E+00
         0.00000E+00
         0.00000E+00
         0.00000E+00
         0.00000E+00
         0.00000E+00
         0.00000E+00
         0.00000E+00
         0.00000E+00
         0.00000E+00
         0.00000E+00
         0.00000E+00
         0.00000E+00
         0.00000E+00
         0.00000E+00
         0.00000E+00
         0.00000E+00
         0.00000E+00
         0.00000E+00
         0.00000E+00
         0.00000E+00
         0.00000E+00
         0.00000E+00
         0.00000E+00
         0.00000E+00
         0.00000E+00
         0.00000E+00
         0.00000E+00
         0.00000E+00
         0.00000E+00
         0.00000E+00
         0.00000E+00
         0.00000E+00
         0.00000E+00
         0.00000E+00
         0.00000E+00
         0.00000E+00
         0.00000E+00
         0.00000E+00
         0.00000E+00
         0.00000E+00
         0.00000E+00
         0.00000E+00
         0.00000E+00
         0.00000E+00
         0.00000E+00
         0.00000E+00
         0.00000E+00
         0.00000E+00
         0.00000E+00
         0.00000E+00
         0.00000E+00
         0.00000E+00
         0.00000E+00
         0.00000E+00
         0.00000E+00
         0.00000E+00
         0.00000E+00
         0.00000E+00
         0.00000E+00
         0.00000E+00
         0.00000E+00
         0.00000E+00
         0.00000E+00
         0.00000E+00
         0.00000E+00
         0.00000E+00
         0.00000E+00
         0.00000E+00
         0.00000E+00
         0.00000E+00
         0.00000E+00
         0.00000E+00
         0.00000E+00
         0.00000E+00
         0.00000E+00
         0.00000E+00
         0.00000E+00
         0.00000E+00
         0.00000E+00
         0.00000E+00
         0.00000E+00
         0.00000E+00
         0.00000E+00
         0.00000E+00
         0.00000E+00
         0.00000E+00
         0.00000E+00
         0.00000E+00
         0.00000E+00
         0.00000E+00
         0.00000E+00
         0.00000E+00
         0.00000E+00
         0.00000E+00
         0.00000E+00
         0.00000E+00
         0.00000E+00
         0.00000E+00
         0.00000E+00
         0.00000E+00
         0.00000E+00
         0.00000E+00
         0.00000E+00
         0.00000E+00
         0.00000E+00
         0.00000E+00
         0.00000E+00
         0.00000E+00
         0.00000E+00
         0.00000E+00
         0.00000E+00
         0.00000E+00
         0.00000E+00
         0.00000E+00
         0.00000E+00
         0.00000E+00
         0.00000E+00
         0.00000E+00
         0.00000E+00
         0.00000E+00
         0.00000E+00
         0.00000E+00
         0.00000E+00
         0.00000E+00
         0.00000E+00
         0.00000E+00
         0.00000E+00
         0.00000E+00
         0.00000E+00
         0.00000E+00
         0.00000E+00
         0.00000E+00
         0.00000E+00
         0.00000E+00
         0.00000E+00
         0.00000E+00
         0.00000E+00
         0.00000E+00
         0.00000E+00
         0.00000E+00
         0.00000E+00
         0.00000E+00
         0.00000E+00
         0.00000E+00
         0.00000E+00
         0.00000E+00
         0.00000E+00
         0.00000E+00
         0.00000E+00
         0.00000E+00
         0.00000E+00
         0.00000E+00
         0.00000E+00
         0.00000E+00
         0.00000E+00
         0.00000E+00
         0.00000E+00
         0.00000E+00
         0.00000E+00
         0.00000E+00
         0.00000E+00
         0.00000E+00
         0.00000E+00
         0.00000E+00
         0.00000E+00
         0.00000E+00
         0.00000E+00
         0.00000E+00
         0.00000E+00
         0.00000E+00
         0.00000E+00
         0.00000E+00
         0.00000E+00
         0.00000E+00
         0.00000E+00
         0.00000E+00
         0.00000E+00
         0.00000E+00
         0.00000E+00
         0.00000E+00
         0.00000E+00
         0.00000E+00
         0.00000E+00
         0.00000E+00
         0.00000E+00
         0.00000E+00
         0.00000E+00
         0.00000E+00
         0.00000E+00
         0.00000E+00
         0.00000E+00
         0.00000E+00
         0.00000E+00
         0.00000E+00
         0.00000E+00
         0.00000E+00
         0.00000E+00
         0.00000E+00
         0.00000E+00
         0.00000E+00
         0.00000E+00
         0.00000E+00
         0.00000E+00
         0.00000E+00
         0.00000E+00
         0.00000E+00
         0.00000E+00
         0.00000E+00
         0.00000E+00
         0.00000E+00
         0.00000E+00
         0.00000E+00
         0.00000E+00
         0.00000E+00
         0.00000E+00
         0.00000E+00
         0.00000E+00
         0.00000E+00
         0.00000E+00
         0.00000E+00
         0.00000E+00
         0.00000E+00
         0.00000E+00
         0.00000E+00
         0.00000E+00
         0.00000E+00
         0.00000E+00
         0.00000E+00
         0.00000E+00
         0.00000E+00
         0.00000E+00
         0.00000E+00
         0.00000E+00
         0.00000E+00
         0.00000E+00
         0.00000E+00
         0.00000E+00
         0.00000E+00
         0.00000E+00
         0.00000E+00
         0.00000E+00
         0.00000E+00
         0.00000E+00
         0.00000E+00
         0.00000E+00
         0.00000E+00
         0.00000E+00
         0.00000E+00
         0.00000E+00
         0.00000E+00
         0.00000E+00
         0.00000E+00
         0.00000E+00
         0.00000E+00
         0.00000E+00
         0.00000E+00
         0.00000E+00
         0.00000E+00
         0.00000E+00
         0.00000E+00
         0.00000E+00
         0.00000E+00
         0.00000E+00
         0.00000E+00
         0.00000E+00
         0.00000E+00
         0.00000E+00
         0.00000E+00
         0.00000E+00
         0.00000E+00
         0.00000E+00
         0.00000E+00
         0.00000E+00
         0.00000E+00
         0.00000E+00
         0.00000E+00
         0.00000E+00
         0.00000E+00
         0.00000E+00
         0.00000E+00
         0.00000E+00
         0.00000E+00
         0.00000E+00
         0.00000E+00
         0.00000E+00
         0.00000E+00
         0.00000E+00
         0.00000E+00
         0.00000E+00
         0.00000E+00
         0.00000E+00
         0.00000E+00
         0.00000E+00
         0.00000E+00
         0.00000E+00
         0.00000E+00
         0.00000E+00
         0.00000E+00
         0.00000E+00
         0.00000E+00
         0.00000E+00
         0.00000E+00
         0.00000E+00
         0.00000E+00
         0.00000E+00
         0.00000E+00
         0.00000E+00
         0.00000E+00
         0.00000E+00
         0.00000E+00
         0.00000E+00
         0.00000E+00
         0.00000E+00
         0.00000E+00
         0.00000E+00
         0.00000E+00
         0.00000E+00
         0.00000E+00
         0.00000E+00
         0.00000E+00
         0.00000E+00
         0.00000E+00
         0.00000E+00
         0.00000E+00
         0.00000E+00
         0.00000E+00
         0.00000E+00
         0.00000E+00
         0.00000E+00
         0.00000E+00
         0.00000E+00
         0.00000E+00
         0.00000E+00
         0.00000E+00
         0.00000E+00
         0.00000E+00
         0.00000E+00
         0.00000E+00
         0.00000E+00
         0.00000E+00
         0.00000E+00
         0.00000E+00
         0.00000E+00
         0.00000E+00
         0.00000E+00
         0.00000E+00
         0.00000E+00
         0.00000E+00
         0.00000E+00
         0.00000E+00
         0.00000E+00
         0.00000E+00
         0.00000E+00
         0.00000E+00
         0.00000E+00
         0.00000E+00
         0.00000E+00
         0.00000E+00
         0.00000E+00
         0.00000E+00
         0.00000E+00
         0.00000E+00
         0.00000E+00
         0.00000E+00
         0.00000E+00
         0.00000E+00
         0.00000E+00
         0.00000E+00
         0.00000E+00
         0.00000E+00
         0.00000E+00
         0.00000E+00
         0.00000E+00
         0.00000E+00
         0.00000E+00
         0.00000E+00
         0.00000E+00
         0.00000E+00
         0.00000E+00
         0.00000E+00
         0.00000E+00
         0.00000E+00
         0.00000E+00
         0.00000E+00
         0.00000E+00
         0.00000E+00
         0.00000E+00
         0.00000E+00
         0.00000E+00
         0.00000E+00
         0.00000E+00
         0.00000E+00
         0.00000E+00
         0.00000E+00
         0.00000E+00
         0.00000E+00
         0.00000E+00
         0.00000E+00
         0.00000E+00
         0.00000E+00
         0.00000E+00
         0.00000E+00
         0.00000E+00
         0.00000E+00
         0.00000E+00
         0.00000E+00
         0.00000E+00
         0.00000E+00
         0.00000E+00
         0.00000E+00
         0.00000E+00
         0.00000E+00
         0.00000E+00
         0.00000E+00
         0.00000E+00
         0.00000E+00
         0.00000E+00
         0.00000E+00
         0.00000E+00
         0.00000E+00
         0.00000E+00
         0.00000E+00
         0.00000E+00
         0.00000E+00
         0.00000E+00
         0.00000E+00
         0.00000E+00
         0.00000E+00
         0.00000E+00
         0.00000E+00
         0.00000E+00
         0.00000E+00
         0.00000E+00
         0.00000E+00
         0.00000E+00
         0.00000E+00
         0.00000E+00
         0.00000E+00
         0.00000E+00
         0.00000E+00
         0.00000E+00
         0.00000E+00
         0.00000E+00
         0.00000E+00
         0.00000E+00
         0.00000E+00
         0.00000E+00
         0.00000E+00
         0.00000E+00
         0.00000E+00
         0.00000E+00
         0.00000E+00
         0.00000E+00
         0.00000E+00
         0.00000E+00
         0.00000E+00
         0.00000E+00
         0.00000E+00
         0.00000E+00
         0.00000E+00
         0.00000E+00
         0.00000E+00
         0.00000E+00
         0.00000E+00
         0.00000E+00
         0.00000E+00
         0.00000E+00
         0.00000E+00
         0.00000E+00
         0.00000E+00
         0.00000E+00
         0.00000E+00
         0.00000E+00
         0.00000E+00
         0.00000E+00
         0.00000E+00
         0.00000E+00
         0.00000E+00
         0.00000E+00
         0.00000E+00
         0.00000E+00
         0.00000E+00
         0.00000E+00
         0.00000E+00
         0.00000E+00
         0.00000E+00
         0.00000E+00
         0.00000E+00
         0.00000E+00
         0.00000E+00
         0.00000E+00
         0.00000E+00
         0.00000E+00
         0.00000E+00
         0.00000E+00
         0.00000E+00
         0.00000E+00
         0.00000E+00
         0.00000E+00
         0.00000E+00
         0.00000E+00
         0.00000E+00
         0.00000E+00
         0.00000E+00
         0.00000E+00
         0.00000E+00
         0.00000E+00
         0.00000E+00
         0.00000E+00
         0.00000E+00
         0.00000E+00
         0.00000E+00
         0.00000E+00
         0.00000E+00
         0.00000E+00
         0.00000E+00
         0.00000E+00
         0.00000E+00
         0.00000E+00
         0.00000E+00
         0.00000E+00
         0.00000E+00
         0.00000E+00
         0.00000E+00
         0.00000E+00
         0.00000E+00
         0.00000E+00
         0.00000E+00
         0.00000E+00
         0.00000E+00
         0.00000E+00
         0.00000E+00
         0.00000E+00
         0.00000E+00
         0.00000E+00
         0.00000E+00
         0.00000E+00
         0.00000E+00
         0.00000E+00
         0.00000E+00
         0.00000E+00
         0.00000E+00
         0.00000E+00
         0.00000E+00
         0.00000E+00
         0.00000E+00
         0.00000E+00
         0.00000E+00
         0.00000E+00
         0.00000E+00
         0.00000E+00
         0.00000E+00
         0.00000E+00
         0.00000E+00
         0.00000E+00
         0.00000E+00
         0.00000E+00
         0.00000E+00
         0.00000E+00
         0.00000E+00
         0.00000E+00
         0.00000E+00
         0.00000E+00
         0.00000E+00
         0.00000E+00
         0.00000E+00
         0.00000E+00
         0.00000E+00
         0.00000E+00
         0.00000E+00
         0.00000E+00
         0.00000E+00
         0.00000E+00
         0.00000E+00
         0.00000E+00
         0.00000E+00
         0.00000E+00
         0.00000E+00
         0.00000E+00
         0.00000E+00
         0.00000E+00
         0.00000E+00
         0.00000E+00
         0.00000E+00
         0.00000E+00
         0.00000E+00
         0.00000E+00
         0.00000E+00
         0.00000E+00
         0.00000E+00
         0.00000E+00
         0.00000E+00
         0.00000E+00
         0.00000E+00
         0.00000E+00
         0.00000E+00
         0.00000E+00
         0.00000E+00
         0.00000E+00
         0.00000E+00
         0.00000E+00
         0.00000E+00
         0.00000E+00
         0.00000E+00
         0.00000E+00
         0.00000E+00
         0.00000E+00
         0.00000E+00
         0.00000E+00
         0.00000E+00
         0.00000E+00
         0.00000E+00
         0.00000E+00
         0.00000E+00
         0.00000E+00
         0.00000E+00
         0.00000E+00
         0.00000E+00
         0.00000E+00
         0.00000E+00
         0.00000E+00
         0.00000E+00
         0.00000E+00
         0.00000E+00
         0.00000E+00
         0.00000E+00
         0.00000E+00
         0.00000E+00
         0.00000E+00
         0.00000E+00
         0.00000E+00
         0.00000E+00
         0.00000E+00
         0.00000E+00
         0.00000E+00
         0.00000E+00
         0.00000E+00
         0.00000E+00
         0.00000E+00
         0.00000E+00
         0.00000E+00
         0.00000E+00
         0.00000E+00
         0.00000E+00
         0.00000E+00
         0.00000E+00
         0.00000E+00
         0.00000E+00
         0.00000E+00
         0.00000E+00
         0.00000E+00
         0.00000E+00
         0.00000E+00
         0.00000E+00
         0.00000E+00
         0.00000E+00
         0.00000E+00
         0.00000E+00
         0.00000E+00
         0.00000E+00
         0.00000E+00
         0.00000E+00
         0.00000E+00
         0.00000E+00
         0.00000E+00
         0.00000E+00
         0.00000E+00
         0.00000E+00
         0.00000E+00
         0.00000E+00
         0.00000E+00
         0.00000E+00
         0.00000E+00
         0.00000E+00
         0.00000E+00
         0.00000E+00
         0.00000E+00
         0.00000E+00
         0.00000E+00
         0.00000E+00
         0.00000E+00
         0.00000E+00
         0.00000E+00
         0.00000E+00
         0.00000E+00
         0.00000E+00
         0.00000E+00
         0.00000E+00
         0.00000E+00
         0.00000E+00
         0.00000E+00
         0.00000E+00
         0.00000E+00
         0.00000E+00
         0.00000E+00
         0.00000E+00
         0.00000E+00
         0.00000E+00
         0.00000E+00
         0.00000E+00
         0.00000E+00
         0.00000E+00
         0.00000E+00
         0.00000E+00
         0.00000E+00
         0.00000E+00
         0.00000E+00
         0.00000E+00
         0.00000E+00
         0.00000E+00
         0.00000E+00
         0.00000E+00
         0.00000E+00
         0.00000E+00
         0.00000E+00
         0.00000E+00
         0.00000E+00
         0.00000E+00
         0.00000E+00
         0.00000E+00
         0.00000E+00
         0.00000E+00
         0.00000E+00
         0.00000E+00
         0.00000E+00
         0.00000E+00
         0.00000E+00
         0.00000E+00
         0.00000E+00
         0.00000E+00
         0.00000E+00
         0.00000E+00
         0.00000E+00
         0.00000E+00
         0.00000E+00
         0.00000E+00
         0.00000E+00
         0.00000E+00
         0.00000E+00
         0.00000E+00
         0.00000E+00
         0.00000E+00
         0.00000E+00
         0.00000E+00
         0.00000E+00
         0.00000E+00
         0.00000E+00
         0.00000E+00
         0.00000E+00
         0.00000E+00
         0.00000E+00
         0.00000E+00
         0.00000E+00
         0.00000E+00
         0.00000E+00
         0.00000E+00
         0.00000E+00
         0.00000E+00
         0.00000E+00
         0.00000E+00
         0.00000E+00
         0.00000E+00
         0.00000E+00
         0.00000E+00
         0.00000E+00
         0.00000E+00
         0.00000E+00
         0.00000E+00
         0.00000E+00
         0.00000E+00
         0.00000E+00
         0.00000E+00
         0.00000E+00
         0.00000E+00
         0.00000E+00
         0.00000E+00
         0.00000E+00
         0.00000E+00
         0.00000E+00
         0.00000E+00
         0.00000E+00
         0.00000E+00
         0.00000E+00
         0.00000E+00
         0.00000E+00
         0.00000E+00
         0.00000E+00
         0.00000E+00
         0.00000E+00
         0.00000E+00
         0.00000E+00
         0.00000E+00
         0.00000E+00
         0.00000E+00
         0.00000E+00
         0.00000E+00
         0.00000E+00
         0.00000E+00
         0.00000E+00
         0.00000E+00
         0.00000E+00
         0.00000E+00
         0.00000E+00
         0.00000E+00
         0.00000E+00
         0.00000E+00
         0.00000E+00
         0.00000E+00
         0.00000E+00
         0.00000E+00
         0.00000E+00
         0.00000E+00
         0.00000E+00
         0.00000E+00
         0.00000E+00
         0.00000E+00
         0.00000E+00
         0.00000E+00
         0.00000E+00
         0.00000E+00
         0.00000E+00
         0.00000E+00
         0.00000E+00
         0.00000E+00
         0.00000E+00
         0.00000E+00
         0.00000E+00
         0.00000E+00
         0.00000E+00
         0.00000E+00
         0.00000E+00
         0.00000E+00
         0.00000E+00
         0.00000E+00
         0.00000E+00
         0.00000E+00
         0.00000E+00
         0.00000E+00
         0.00000E+00
         0.00000E+00
         0.00000E+00
         0.00000E+00
         0.00000E+00
         0.00000E+00
         0.00000E+00
         0.00000E+00
         0.00000E+00
         0.00000E+00
         0.00000E+00
         0.00000E+00
         0.00000E+00
         0.00000E+00
         0.00000E+00
         0.00000E+00
         0.00000E+00
         0.00000E+00
         0.00000E+00
         0.00000E+00
         0.00000E+00
         0.00000E+00
         0.00000E+00
         0.00000E+00
         0.00000E+00
         0.00000E+00
         0.00000E+00
         0.00000E+00
         0.00000E+00
         0.00000E+00
         0.00000E+00
         0.00000E+00
         0.00000E+00
         0.00000E+00
         0.00000E+00
         0.00000E+00
         0.00000E+00
         0.00000E+00
         0.00000E+00
         0.00000E+00
         0.00000E+00
         0.00000E+00
         0.00000E+00
         0.00000E+00
         0.00000E+00
         0.00000E+00
         0.00000E+00
         0.00000E+00
         0.00000E+00
         0.00000E+00
         0.00000E+00
         0.00000E+00
         0.00000E+00
         0.00000E+00
         0.00000E+00
         0.00000E+00
         0.00000E+00
         0.00000E+00
         0.00000E+00
         0.00000E+00
         0.00000E+00
         0.00000E+00
         0.00000E+00
         0.00000E+00
         0.00000E+00
         0.00000E+00
         0.00000E+00
         0.00000E+00
         0.00000E+00
         0.00000E+00
         0.00000E+00
         0.00000E+00
         0.00000E+00
         0.00000E+00
         0.00000E+00
         0.00000E+00
         0.00000E+00
         0.00000E+00
         0.00000E+00
         0.00000E+00
         0.00000E+00
         0.00000E+00
         0.00000E+00
         0.00000E+00
         0.00000E+00
         0.00000E+00
         0.00000E+00
         0.00000E+00
         0.00000E+00
         0.00000E+00
         0.00000E+00
         0.00000E+00
         0.00000E+00
         0.00000E+00
         0.00000E+00
         0.00000E+00
         0.00000E+00
         0.00000E+00
         0.00000E+00
         0.00000E+00
         0.00000E+00
         0.00000E+00
         0.00000E+00
         0.00000E+00
         0.00000E+00
         0.00000E+00
         0.00000E+00
         0.00000E+00
         0.00000E+00
         0.00000E+00
         0.00000E+00
         0.00000E+00
         0.00000E+00
         0.00000E+00
         0.00000E+00
         0.00000E+00
         0.00000E+00
         0.00000E+00
         0.00000E+00
         0.00000E+00
         0.00000E+00
         0.00000E+00
         0.00000E+00
         0.00000E+00
         0.00000E+00
         0.00000E+00
         0.00000E+00
         0.00000E+00
         0.00000E+00
         0.00000E+00
         0.00000E+00
         0.00000E+00
         0.00000E+00
         0.00000E+00
         0.00000E+00
         0.00000E+00
         0.00000E+00
         0.00000E+00
         0.00000E+00
         0.00000E+00
         0.00000E+00
         0.00000E+00
         0.00000E+00
         0.00000E+00
         0.00000E+00
         0.00000E+00
         0.00000E+00
         0.00000E+00
         0.00000E+00
         0.00000E+00
         0.00000E+00
         0.00000E+00
         0.00000E+00
         0.00000E+00
         0.00000E+00
         0.00000E+00
         0.00000E+00
         0.00000E+00
         0.00000E+00
         0.00000E+00
         0.00000E+00
         0.00000E+00
         0.00000E+00
         0.00000E+00
         0.00000E+00
         0.00000E+00
         0.00000E+00
         0.00000E+00
         0.00000E+00
         0.00000E+00
         0.00000E+00
         0.00000E+00
         0.00000E+00
         0.00000E+00
         0.00000E+00
         0.00000E+00
         0.00000E+00
         0.00000E+00
         0.00000E+00
         0.00000E+00
         0.00000E+00
         0.00000E+00
         0.00000E+00
         0.00000E+00
         0.00000E+00
         0.00000E+00
         0.00000E+00
         0.00000E+00
         0.00000E+00
         0.00000E+00
         0.00000E+00
         0.00000E+00
         0.00000E+00
         0.00000E+00
         0.00000E+00
         0.00000E+00
         0.00000E+00
         0.00000E+00
         0.00000E+00
         0.00000E+00
         0.00000E+00
         0.00000E+00
         0.00000E+00
         0.00000E+00
         0.00000E+00
         0.00000E+00
         0.00000E+00
         0.00000E+00
         0.00000E+00
         0.00000E+00
         0.00000E+00
         0.00000E+00
         0.00000E+00
         0.00000E+00
         0.00000E+00
         0.00000E+00
         0.00000E+00
         0.00000E+00
         0.00000E+00
         0.00000E+00
         0.00000E+00
         0.00000E+00
         0.00000E+00
         0.00000E+00
         0.00000E+00
         0.00000E+00
         0.00000E+00
         0.00000E+00
         0.00000E+00
         0.00000E+00
         0.00000E+00
         0.00000E+00
         0.00000E+00
         0.00000E+00
         0.00000E+00
         0.00000E+00
         0.00000E+00
         0.00000E+00
         0.00000E+00
         0.00000E+00
         0.00000E+00
         0.00000E+00
         0.00000E+00
         0.00000E+00
         0.00000E+00
         0.00000E+00
         0.00000E+00
         0.00000E+00
         0.00000E+00
         0.00000E+00
         0.00000E+00
         0.00000E+00
         0.00000E+00
         0.00000E+00
         0.00000E+00
         0.00000E+00
         0.00000E+00
         0.00000E+00
         0.00000E+00
         0.00000E+00
         0.00000E+00
         0.00000E+00
         0.00000E+00
         0.00000E+00
         0.00000E+00
         0.00000E+00
         0.00000E+00
         0.00000E+00
         0.00000E+00
         0.00000E+00
         0.00000E+00
         0.00000E+00
         0.00000E+00
         0.00000E+00
         0.00000E+00
         0.00000E+00
         0.00000E+00
         0.00000E+00
         0.00000E+00
         0.00000E+00
         0.00000E+00
         0.00000E+00
         0.00000E+00
         0.00000E+00
         0.00000E+00
         0.00000E+00
         0.00000E+00
         0.00000E+00
         0.00000E+00
         0.00000E+00
         0.00000E+00
         0.00000E+00
         0.00000E+00
         0.00000E+00
         0.00000E+00
         0.00000E+00
         0.00000E+00
         0.00000E+00
         0.00000E+00
         0.00000E+00
         0.00000E+00
         0.00000E+00
         0.00000E+00
         0.00000E+00
         0.00000E+00
         0.00000E+00
         0.00000E+00
         0.00000E+00
         0.00000E+00
         0.00000E+00
         0.00000E+00
         0.00000E+00
         0.00000E+00
         0.00000E+00
         0.00000E+00
         0.00000E+00
         0.00000E+00
         0.00000E+00
         0.00000E+00
         0.00000E+00
         0.00000E+00
         0.00000E+00
         0.00000E+00
         0.00000E+00
         0.00000E+00
         0.00000E+00
         0.00000E+00
         0.00000E+00
         0.00000E+00
         0.00000E+00
         0.00000E+00
         0.00000E+00
         0.00000E+00
         0.00000E+00
         0.00000E+00
         0.00000E+00
         0.00000E+00
         0.00000E+00
         0.00000E+00
         0.00000E+00
         0.00000E+00
         0.00000E+00
         0.00000E+00
         0.00000E+00
         0.00000E+00
         0.00000E+00
         0.00000E+00
         0.00000E+00
         0.00000E+00
         0.00000E+00
         0.00000E+00
         0.00000E+00
         0.00000E+00
         0.00000E+00
         0.00000E+00
         0.00000E+00
         0.00000E+00
         0.00000E+00
         0.00000E+00
         0.00000E+00
         0.00000E+00
         0.00000E+00
         0.00000E+00
         0.00000E+00
         0.00000E+00
         0.00000E+00
         0.00000E+00
         0.00000E+00
         0.00000E+00
         0.00000E+00
         0.00000E+00
         0.00000E+00
         0.00000E+00
         0.00000E+00
         0.00000E+00
         0.00000E+00
         0.00000E+00
         0.00000E+00
         0.00000E+00
         0.00000E+00
         0.00000E+00
         0.00000E+00
         0.00000E+00
         0.00000E+00
         0.00000E+00
         0.00000E+00
         0.00000E+00
         0.00000E+00
         0.00000E+00
         0.00000E+00
         0.00000E+00
         0.00000E+00
         0.00000E+00
         0.00000E+00
         0.00000E+00
         0.00000E+00
         0.00000E+00
         0.00000E+00
         0.00000E+00
         0.00000E+00
         0.00000E+00
         0.00000E+00
         0.00000E+00
         0.00000E+00
         0.00000E+00
         0.00000E+00
         0.00000E+00
         0.00000E+00
         0.00000E+00
         0.00000E+00
         0.00000E+00
         0.00000E+00
         0.00000E+00
         0.00000E+00
         0.00000E+00
         0.00000E+00
         0.00000E+00
         0.00000E+00
         0.00000E+00
         0.00000E+00
         0.00000E+00
         0.00000E+00
         0.00000E+00
         0.00000E+00
         0.00000E+00
         0.00000E+00
         0.00000E+00
         0.00000E+00
         0.00000E+00
         0.00000E+00
         0.00000E+00
         0.00000E+00
         0.00000E+00
         0.00000E+00
         0.00000E+00
         0.00000E+00
         0.00000E+00
         0.00000E+00
         0.00000E+00
         0.00000E+00
         0.00000E+00
         0.00000E+00
         0.00000E+00
         0.00000E+00
         0.00000E+00
         0.00000E+00
         0.00000E+00
         0.00000E+00
         0.00000E+00
         0.00000E+00
         0.00000E+00
         0.00000E+00
         0.00000E+00
         0.00000E+00
         0.00000E+00
         0.00000E+00
         0.00000E+00
         0.00000E+00
         0.00000E+00
         0.00000E+00
         0.00000E+00
         0.00000E+00
         0.00000E+00
         0.00000E+00
         0.00000E+00
         0.00000E+00
         0.00000E+00
         0.00000E+00
         0.00000E+00
         0.00000E+00
         0.00000E+00
         0.00000E+00
         0.00000E+00
         0.00000E+00
         0.00000E+00
         0.00000E+00
         0.00000E+00
         0.00000E+00
         0.00000E+00
         0.00000E+00
         0.00000E+00
         0.00000E+00
         0.00000E+00
         0.00000E+00
         0.00000E+00
         0.00000E+00
         0.00000E+00
         0.00000E+00
         0.00000E+00
         0.00000E+00
         0.00000E+00
         0.00000E+00
         0.00000E+00
         0.00000E+00
         0.00000E+00
         0.00000E+00
         0.00000E+00
         0.00000E+00
         0.00000E+00
         0.00000E+00
         0.00000E+00
         0.00000E+00
         0.00000E+00
         0.00000E+00
         0.00000E+00
         0.00000E+00
         0.00000E+00
         0.00000E+00
         0.00000E+00
         0.00000E+00
         0.00000E+00
         0.00000E+00
         0.00000E+00
         0.00000E+00
         0.00000E+00
         0.00000E+00
         0.00000E+00
         0.00000E+00
         0.00000E+00
         0.00000E+00
         0.00000E+00
         0.00000E+00
         0.00000E+00
         0.00000E+00
         0.00000E+00
         0.00000E+00
         0.00000E+00
         0.00000E+00
         0.00000E+00
         0.00000E+00
         0.00000E+00
         0.00000E+00
         0.00000E+00
         0.00000E+00
         0.00000E+00
         0.00000E+00
         0.00000E+00
         0.00000E+00
         0.00000E+00
         0.00000E+00
         0.00000E+00
         0.00000E+00
         0.00000E+00
         0.00000E+00
         0.00000E+00
         0.00000E+00
         0.00000E+00
         0.00000E+00
         0.00000E+00
         0.00000E+00
         0.00000E+00
         0.00000E+00
         0.00000E+00
         0.00000E+00
         0.00000E+00
         0.00000E+00
         0.00000E+00
         0.00000E+00
         0.00000E+00
         0.00000E+00
         0.00000E+00
         0.00000E+00
         0.00000E+00
         0.00000E+00
         0.00000E+00
         0.00000E+00
         0.00000E+00
         0.00000E+00
         0.00000E+00
         0.00000E+00
         0.00000E+00
         0.00000E+00
         0.00000E+00
         0.00000E+00
         0.00000E+00
         0.00000E+00
         0.00000E+00
         0.00000E+00
         0.00000E+00
         0.00000E+00
         0.00000E+00
         0.00000E+00
         0.00000E+00
         0.00000E+00
         0.00000E+00
         0.00000E+00
         0.00000E+00
         0.00000E+00
         0.00000E+00
         0.00000E+00
         0.00000E+00
         0.00000E+00
         0.00000E+00
         0.00000E+00
         0.00000E+00
         0.00000E+00
         0.00000E+00
         0.00000E+00
         0.00000E+00
         0.00000E+00
         0.00000E+00
         0.00000E+00
         0.00000E+00
         0.00000E+00
         0.00000E+00
         0.00000E+00
         0.00000E+00
         0.00000E+00
         0.00000E+00
         0.00000E+00
         0.00000E+00
         0.00000E+00
         0.00000E+00
         0.00000E+00
         0.00000E+00
         0.00000E+00
         0.00000E+00
         0.00000E+00
         0.00000E+00
         0.00000E+00
         0.00000E+00
         0.00000E+00
         0.00000E+00
         0.00000E+00
         0.00000E+00
         0.00000E+00
         0.00000E+00
         0.00000E+00
         0.00000E+00
         0.00000E+00
         0.00000E+00
         0.00000E+00
         0.00000E+00
         0.00000E+00
         0.00000E+00
         0.00000E+00
         0.00000E+00
         0.00000E+00
         0.00000E+00
         0.00000E+00
         0.00000E+00
         0.00000E+00
         0.00000E+00
         0.00000E+00
         0.00000E+00
         0.00000E+00
         0.00000E+00
         0.00000E+00
         0.00000E+00
         0.00000E+00
         0.00000E+00
         0.00000E+00
         0.00000E+00
         0.00000E+00
         0.00000E+00
         0.00000E+00
         0.00000E+00
         0.00000E+00
         0.00000E+00
         0.00000E+00
         0.00000E+00
         0.00000E+00
         0.00000E+00
         0.00000E+00
         0.00000E+00
         0.00000E+00
         0.00000E+00
         0.00000E+00
         0.00000E+00
         0.00000E+00
         0.00000E+00
         0.00000E+00
         0.00000E+00
         0.00000E+00
         0.00000E+00
         0.00000E+00
         0.00000E+00
         0.00000E+00
         0.00000E+00
         0.00000E+00
         0.00000E+00
         0.00000E+00
         0.00000E+00
         0.00000E+00
         0.00000E+00
         0.00000E+00
         0.00000E+00
         0.00000E+00
         0.00000E+00
         0.00000E+00
         0.00000E+00
         0.00000E+00
         0.00000E+00
         0.00000E+00
         0.00000E+00
         0.00000E+00
         0.00000E+00
         0.00000E+00
         0.00000E+00
         0.00000E+00
         0.00000E+00
         0.00000E+00
         0.00000E+00
         0.00000E+00
         0.00000E+00
         0.00000E+00
         0.00000E+00
         0.00000E+00
         0.00000E+00
         0.00000E+00
         0.00000E+00
         0.00000E+00
         0.00000E+00
         0.00000E+00
         0.00000E+00
         0.00000E+00
         0.00000E+00
         0.00000E+00
         0.00000E+00
         0.00000E+00
         0.00000E+00
         0.00000E+00
         0.00000E+00
         0.00000E+00
         0.00000E+00
         0.00000E+00
         0.00000E+00
         0.00000E+00
         0.00000E+00
         0.00000E+00
         0.00000E+00
         0.00000E+00
         0.00000E+00
         0.00000E+00
         0.00000E+00
         0.00000E+00
         0.00000E+00
         0.00000E+00
         0.00000E+00
         0.00000E+00
         0.00000E+00
         0.00000E+00
         0.00000E+00
         0.00000E+00
         0.00000E+00
         0.00000E+00
         0.00000E+00
         0.00000E+00
         0.00000E+00
         0.00000E+00
         0.00000E+00
         0.00000E+00
         0.00000E+00
         0.00000E+00
         0.00000E+00
         0.00000E+00
         0.00000E+00
         0.00000E+00
         0.00000E+00
         0.00000E+00
         0.00000E+00
         0.00000E+00
         0.00000E+00
         0.00000E+00
         0.00000E+00
         0.00000E+00
         0.00000E+00
         0.00000E+00
         0.00000E+00
         0.00000E+00
         0.00000E+00
         0.00000E+00
         0.00000E+00
         0.00000E+00
         0.00000E+00
         0.00000E+00
         0.00000E+00
         0.00000E+00
         0.00000E+00
         0.00000E+00
         0.00000E+00
         0.00000E+00
         0.00000E+00
         0.00000E+00
         0.00000E+00
         0.00000E+00
         0.00000E+00
         0.00000E+00
         0.00000E+00
         0.00000E+00
         0.00000E+00
         0.00000E+00
         0.00000E+00
         0.00000E+00
         0.00000E+00
         0.00000E+00
         0.00000E+00
         0.00000E+00
         0.00000E+00
         0.00000E+00
         0.00000E+00
         0.00000E+00
         0.00000E+00
         0.00000E+00
         0.00000E+00
         0.00000E+00
         0.00000E+00
         0.00000E+00
         0.00000E+00
         0.00000E+00
         0.00000E+00
         0.00000E+00
         0.00000E+00
         0.00000E+00
         0.00000E+00
         0.00000E+00
         0.00000E+00
         0.00000E+00
         0.00000E+00
         0.00000E+00
         0.00000E+00
         0.00000E+00
         0.00000E+00
         0.00000E+00
         0.00000E+00
         0.00000E+00
         0.00000E+00
         0.00000E+00
         0.00000E+00
         0.00000E+00
         0.00000E+00
         0.00000E+00
         0.00000E+00
         0.00000E+00
         0.00000E+00
         0.00000E+00
         0.00000E+00
         0.00000E+00
         0.00000E+00
         0.00000E+00
         0.00000E+00
         0.00000E+00
         0.00000E+00
         0.00000E+00
         0.00000E+00
         0.00000E+00
         0.00000E+00
         0.00000E+00
         0.00000E+00
         0.00000E+00
         0.00000E+00
         0.00000E+00
         0.00000E+00
         0.00000E+00
         0.00000E+00
         0.00000E+00
         0.00000E+00
         0.00000E+00
         0.00000E+00
         0.00000E+00
         0.00000E+00
         0.00000E+00
         0.00000E+00
         0.00000E+00
         0.00000E+00
         0.00000E+00
         0.00000E+00
         0.00000E+00
         0.00000E+00
         0.00000E+00
         0.00000E+00
         0.00000E+00
         0.00000E+00
         0.00000E+00
         0.00000E+00
         0.00000E+00
         0.00000E+00
         0.00000E+00
         0.00000E+00
         0.00000E+00
         0.00000E+00
         0.00000E+00
         0.00000E+00
         0.00000E+00
         0.00000E+00
         0.00000E+00
         0.00000E+00
         0.00000E+00
         0.00000E+00
         0.00000E+00
         0.00000E+00
         0.00000E+00
         0.00000E+00
         0.00000E+00
         0.00000E+00
         0.00000E+00
         0.00000E+00
         0.00000E+00
         0.00000E+00
         0.00000E+00
         0.00000E+00
         0.00000E+00
         0.00000E+00
         0.00000E+00
         0.00000E+00
         0.00000E+00
         0.00000E+00
         0.00000E+00
         0.00000E+00
         0.00000E+00
         0.00000E+00
         0.00000E+00
         0.00000E+00
         0.00000E+00
         0.00000E+00
         0.00000E+00
  
SCALARS                         fint_z  double 1
LOOKUP_TABLE default
         0.00000E+00
         0.00000E+00
         0.00000E+00
         0.00000E+00
         0.00000E+00
         0.00000E+00
         0.00000E+00
         0.00000E+00
         0.00000E+00
         0.00000E+00
         0.00000E+00
         0.00000E+00
         0.00000E+00
         0.00000E+00
         0.00000E+00
         0.00000E+00
         0.00000E+00
         0.00000E+00
         0.00000E+00
         0.00000E+00
         0.00000E+00
         0.00000E+00
         0.00000E+00
         0.00000E+00
         0.00000E+00
         0.00000E+00
         0.00000E+00
         0.00000E+00
         0.00000E+00
         0.00000E+00
         0.00000E+00
         0.00000E+00
         0.00000E+00
         0.00000E+00
         0.00000E+00
         0.00000E+00
         0.00000E+00
         0.00000E+00
         0.00000E+00
         0.00000E+00
         0.00000E+00
         0.00000E+00
         0.00000E+00
         0.00000E+00
         0.00000E+00
         0.00000E+00
         0.00000E+00
         0.00000E+00
         0.00000E+00
         0.00000E+00
         0.00000E+00
         0.00000E+00
         0.00000E+00
         0.00000E+00
         0.00000E+00
         0.00000E+00
         0.00000E+00
         0.00000E+00
         0.00000E+00
         0.00000E+00
         0.00000E+00
         0.00000E+00
         0.00000E+00
         0.00000E+00
         0.00000E+00
         0.00000E+00
         0.00000E+00
         0.00000E+00
         0.00000E+00
         0.00000E+00
         0.00000E+00
         0.00000E+00
         0.00000E+00
         0.00000E+00
         0.00000E+00
         0.00000E+00
         0.00000E+00
         0.00000E+00
         0.00000E+00
         0.00000E+00
         0.00000E+00
         0.00000E+00
         0.00000E+00
         0.00000E+00
         0.00000E+00
         0.00000E+00
         0.00000E+00
         0.00000E+00
         0.00000E+00
         0.00000E+00
         0.00000E+00
         0.00000E+00
         0.00000E+00
         0.00000E+00
         0.00000E+00
         0.00000E+00
         0.00000E+00
         0.00000E+00
         0.00000E+00
         0.00000E+00
         0.00000E+00
         0.00000E+00
         0.00000E+00
         0.00000E+00
         0.00000E+00
         0.00000E+00
         0.00000E+00
         0.00000E+00
         0.00000E+00
         0.00000E+00
         0.00000E+00
         0.00000E+00
         0.00000E+00
         0.00000E+00
         0.00000E+00
         0.00000E+00
         0.00000E+00
         0.00000E+00
         0.00000E+00
         0.00000E+00
         0.00000E+00
         0.00000E+00
         0.00000E+00
         0.00000E+00
         0.00000E+00
         0.00000E+00
         0.00000E+00
         0.00000E+00
         0.00000E+00
         0.00000E+00
         0.00000E+00
         0.00000E+00
         0.00000E+00
         0.00000E+00
         0.00000E+00
         0.00000E+00
         0.00000E+00
         0.00000E+00
         0.00000E+00
         0.00000E+00
         0.00000E+00
         0.00000E+00
         0.00000E+00
         0.00000E+00
         0.00000E+00
         0.00000E+00
         0.00000E+00
         0.00000E+00
         0.00000E+00
         0.00000E+00
         0.00000E+00
         0.00000E+00
         0.00000E+00
         0.00000E+00
         0.00000E+00
         0.00000E+00
         0.00000E+00
         0.00000E+00
         0.00000E+00
         0.00000E+00
         0.00000E+00
         0.00000E+00
         0.00000E+00
         0.00000E+00
         0.00000E+00
         0.00000E+00
         0.00000E+00
         0.00000E+00
         0.00000E+00
         0.00000E+00
         0.00000E+00
         0.00000E+00
         0.00000E+00
         0.00000E+00
         0.00000E+00
         0.00000E+00
         0.00000E+00
         0.00000E+00
         0.00000E+00
         0.00000E+00
         0.00000E+00
         0.00000E+00
         0.00000E+00
         0.00000E+00
         0.00000E+00
         0.00000E+00
         0.00000E+00
         0.00000E+00
         0.00000E+00
         0.00000E+00
         0.00000E+00
         0.00000E+00
         0.00000E+00
         0.00000E+00
         0.00000E+00
         0.00000E+00
         0.00000E+00
         0.00000E+00
         0.00000E+00
         0.00000E+00
         0.00000E+00
         0.00000E+00
         0.00000E+00
         0.00000E+00
         0.00000E+00
         0.00000E+00
         0.00000E+00
         0.00000E+00
         0.00000E+00
         0.00000E+00
         0.00000E+00
         0.00000E+00
         0.00000E+00
         0.00000E+00
         0.00000E+00
         0.00000E+00
         0.00000E+00
         0.00000E+00
         0.00000E+00
         0.00000E+00
         0.00000E+00
         0.00000E+00
         0.00000E+00
         0.00000E+00
         0.00000E+00
         0.00000E+00
         0.00000E+00
         0.00000E+00
         0.00000E+00
         0.00000E+00
         0.00000E+00
         0.00000E+00
         0.00000E+00
         0.00000E+00
         0.00000E+00
         0.00000E+00
         0.00000E+00
         0.00000E+00
         0.00000E+00
         0.00000E+00
         0.00000E+00
         0.00000E+00
         0.00000E+00
         0.00000E+00
         0.00000E+00
         0.00000E+00
         0.00000E+00
         0.00000E+00
         0.00000E+00
         0.00000E+00
         0.00000E+00
         0.00000E+00
         0.00000E+00
         0.00000E+00
         0.00000E+00
         0.00000E+00
         0.00000E+00
         0.00000E+00
         0.00000E+00
         0.00000E+00
         0.00000E+00
         0.00000E+00
         0.00000E+00
         0.00000E+00
         0.00000E+00
         0.00000E+00
         0.00000E+00
         0.00000E+00
         0.00000E+00
         0.00000E+00
         0.00000E+00
         0.00000E+00
         0.00000E+00
         0.00000E+00
         0.00000E+00
         0.00000E+00
         0.00000E+00
         0.00000E+00
         0.00000E+00
         0.00000E+00
         0.00000E+00
         0.00000E+00
         0.00000E+00
         0.00000E+00
         0.00000E+00
         0.00000E+00
         0.00000E+00
         0.00000E+00
         0.00000E+00
         0.00000E+00
         0.00000E+00
         0.00000E+00
         0.00000E+00
         0.00000E+00
         0.00000E+00
         0.00000E+00
         0.00000E+00
         0.00000E+00
         0.00000E+00
         0.00000E+00
         0.00000E+00
         0.00000E+00
         0.00000E+00
         0.00000E+00
         0.00000E+00
         0.00000E+00
         0.00000E+00
         0.00000E+00
         0.00000E+00
         0.00000E+00
         0.00000E+00
         0.00000E+00
         0.00000E+00
         0.00000E+00
         0.00000E+00
         0.00000E+00
         0.00000E+00
         0.00000E+00
         0.00000E+00
         0.00000E+00
         0.00000E+00
         0.00000E+00
         0.00000E+00
         0.00000E+00
         0.00000E+00
         0.00000E+00
         0.00000E+00
         0.00000E+00
         0.00000E+00
         0.00000E+00
         0.00000E+00
         0.00000E+00
         0.00000E+00
         0.00000E+00
         0.00000E+00
         0.00000E+00
         0.00000E+00
         0.00000E+00
         0.00000E+00
         0.00000E+00
         0.00000E+00
         0.00000E+00
         0.00000E+00
         0.00000E+00
         0.00000E+00
         0.00000E+00
         0.00000E+00
         0.00000E+00
         0.00000E+00
         0.00000E+00
         0.00000E+00
         0.00000E+00
         0.00000E+00
         0.00000E+00
         0.00000E+00
         0.00000E+00
         0.00000E+00
         0.00000E+00
         0.00000E+00
         0.00000E+00
         0.00000E+00
         0.00000E+00
         0.00000E+00
         0.00000E+00
         0.00000E+00
         0.00000E+00
         0.00000E+00
         0.00000E+00
         0.00000E+00
         0.00000E+00
         0.00000E+00
         0.00000E+00
         0.00000E+00
         0.00000E+00
         0.00000E+00
         0.00000E+00
         0.00000E+00
         0.00000E+00
         0.00000E+00
         0.00000E+00
         0.00000E+00
         0.00000E+00
         0.00000E+00
         0.00000E+00
         0.00000E+00
         0.00000E+00
         0.00000E+00
         0.00000E+00
         0.00000E+00
         0.00000E+00
         0.00000E+00
         0.00000E+00
         0.00000E+00
         0.00000E+00
         0.00000E+00
         0.00000E+00
         0.00000E+00
         0.00000E+00
         0.00000E+00
         0.00000E+00
         0.00000E+00
         0.00000E+00
         0.00000E+00
         0.00000E+00
         0.00000E+00
         0.00000E+00
         0.00000E+00
         0.00000E+00
         0.00000E+00
         0.00000E+00
         0.00000E+00
         0.00000E+00
         0.00000E+00
         0.00000E+00
         0.00000E+00
         0.00000E+00
         0.00000E+00
         0.00000E+00
         0.00000E+00
         0.00000E+00
         0.00000E+00
         0.00000E+00
         0.00000E+00
         0.00000E+00
         0.00000E+00
         0.00000E+00
         0.00000E+00
         0.00000E+00
         0.00000E+00
         0.00000E+00
         0.00000E+00
         0.00000E+00
         0.00000E+00
         0.00000E+00
         0.00000E+00
         0.00000E+00
         0.00000E+00
         0.00000E+00
         0.00000E+00
         0.00000E+00
         0.00000E+00
         0.00000E+00
         0.00000E+00
         0.00000E+00
         0.00000E+00
         0.00000E+00
         0.00000E+00
         0.00000E+00
         0.00000E+00
         0.00000E+00
         0.00000E+00
         0.00000E+00
         0.00000E+00
         0.00000E+00
         0.00000E+00
         0.00000E+00
         0.00000E+00
         0.00000E+00
         0.00000E+00
         0.00000E+00
         0.00000E+00
         0.00000E+00
         0.00000E+00
         0.00000E+00
         0.00000E+00
         0.00000E+00
         0.00000E+00
         0.00000E+00
         0.00000E+00
         0.00000E+00
         0.00000E+00
         0.00000E+00
         0.00000E+00
         0.00000E+00
         0.00000E+00
         0.00000E+00
         0.00000E+00
         0.00000E+00
         0.00000E+00
         0.00000E+00
         0.00000E+00
         0.00000E+00
         0.00000E+00
         0.00000E+00
         0.00000E+00
         0.00000E+00
         0.00000E+00
         0.00000E+00
         0.00000E+00
         0.00000E+00
         0.00000E+00
         0.00000E+00
         0.00000E+00
         0.00000E+00
         0.00000E+00
         0.00000E+00
         0.00000E+00
         0.00000E+00
         0.00000E+00
         0.00000E+00
         0.00000E+00
         0.00000E+00
         0.00000E+00
         0.00000E+00
         0.00000E+00
         0.00000E+00
         0.00000E+00
         0.00000E+00
         0.00000E+00
         0.00000E+00
         0.00000E+00
         0.00000E+00
         0.00000E+00
         0.00000E+00
         0.00000E+00
         0.00000E+00
         0.00000E+00
         0.00000E+00
         0.00000E+00
         0.00000E+00
         0.00000E+00
         0.00000E+00
         0.00000E+00
         0.00000E+00
         0.00000E+00
         0.00000E+00
         0.00000E+00
         0.00000E+00
         0.00000E+00
         0.00000E+00
         0.00000E+00
         0.00000E+00
         0.00000E+00
         0.00000E+00
         0.00000E+00
         0.00000E+00
         0.00000E+00
         0.00000E+00
         0.00000E+00
         0.00000E+00
         0.00000E+00
         0.00000E+00
         0.00000E+00
         0.00000E+00
         0.00000E+00
         0.00000E+00
         0.00000E+00
         0.00000E+00
         0.00000E+00
         0.00000E+00
         0.00000E+00
         0.00000E+00
         0.00000E+00
         0.00000E+00
         0.00000E+00
         0.00000E+00
         0.00000E+00
         0.00000E+00
         0.00000E+00
         0.00000E+00
         0.00000E+00
         0.00000E+00
         0.00000E+00
         0.00000E+00
         0.00000E+00
         0.00000E+00
         0.00000E+00
         0.00000E+00
         0.00000E+00
         0.00000E+00
         0.00000E+00
         0.00000E+00
         0.00000E+00
         0.00000E+00
         0.00000E+00
         0.00000E+00
         0.00000E+00
         0.00000E+00
         0.00000E+00
         0.00000E+00
         0.00000E+00
         0.00000E+00
         0.00000E+00
         0.00000E+00
         0.00000E+00
         0.00000E+00
         0.00000E+00
         0.00000E+00
         0.00000E+00
         0.00000E+00
         0.00000E+00
         0.00000E+00
         0.00000E+00
         0.00000E+00
         0.00000E+00
         0.00000E+00
         0.00000E+00
         0.00000E+00
         0.00000E+00
         0.00000E+00
         0.00000E+00
         0.00000E+00
         0.00000E+00
         0.00000E+00
         0.00000E+00
         0.00000E+00
         0.00000E+00
         0.00000E+00
         0.00000E+00
         0.00000E+00
         0.00000E+00
         0.00000E+00
         0.00000E+00
         0.00000E+00
         0.00000E+00
         0.00000E+00
         0.00000E+00
         0.00000E+00
         0.00000E+00
         0.00000E+00
         0.00000E+00
         0.00000E+00
         0.00000E+00
         0.00000E+00
         0.00000E+00
         0.00000E+00
         0.00000E+00
         0.00000E+00
         0.00000E+00
         0.00000E+00
         0.00000E+00
         0.00000E+00
         0.00000E+00
         0.00000E+00
         0.00000E+00
         0.00000E+00
         0.00000E+00
         0.00000E+00
         0.00000E+00
         0.00000E+00
         0.00000E+00
         0.00000E+00
         0.00000E+00
         0.00000E+00
         0.00000E+00
         0.00000E+00
         0.00000E+00
         0.00000E+00
         0.00000E+00
         0.00000E+00
         0.00000E+00
         0.00000E+00
         0.00000E+00
         0.00000E+00
         0.00000E+00
         0.00000E+00
         0.00000E+00
         0.00000E+00
         0.00000E+00
         0.00000E+00
         0.00000E+00
         0.00000E+00
         0.00000E+00
         0.00000E+00
         0.00000E+00
         0.00000E+00
         0.00000E+00
         0.00000E+00
         0.00000E+00
         0.00000E+00
         0.00000E+00
         0.00000E+00
         0.00000E+00
         0.00000E+00
         0.00000E+00
         0.00000E+00
         0.00000E+00
         0.00000E+00
         0.00000E+00
         0.00000E+00
         0.00000E+00
         0.00000E+00
         0.00000E+00
         0.00000E+00
         0.00000E+00
         0.00000E+00
         0.00000E+00
         0.00000E+00
         0.00000E+00
         0.00000E+00
         0.00000E+00
         0.00000E+00
         0.00000E+00
         0.00000E+00
         0.00000E+00
         0.00000E+00
         0.00000E+00
         0.00000E+00
         0.00000E+00
         0.00000E+00
         0.00000E+00
         0.00000E+00
         0.00000E+00
         0.00000E+00
         0.00000E+00
         0.00000E+00
         0.00000E+00
         0.00000E+00
         0.00000E+00
         0.00000E+00
         0.00000E+00
         0.00000E+00
         0.00000E+00
         0.00000E+00
         0.00000E+00
         0.00000E+00
         0.00000E+00
         0.00000E+00
         0.00000E+00
         0.00000E+00
         0.00000E+00
         0.00000E+00
         0.00000E+00
         0.00000E+00
         0.00000E+00
         0.00000E+00
         0.00000E+00
         0.00000E+00
         0.00000E+00
         0.00000E+00
         0.00000E+00
         0.00000E+00
         0.00000E+00
         0.00000E+00
         0.00000E+00
         0.00000E+00
         0.00000E+00
         0.00000E+00
         0.00000E+00
         0.00000E+00
         0.00000E+00
         0.00000E+00
         0.00000E+00
         0.00000E+00
         0.00000E+00
         0.00000E+00
         0.00000E+00
         0.00000E+00
         0.00000E+00
         0.00000E+00
         0.00000E+00
         0.00000E+00
         0.00000E+00
         0.00000E+00
         0.00000E+00
         0.00000E+00
         0.00000E+00
         0.00000E+00
         0.00000E+00
         0.00000E+00
         0.00000E+00
         0.00000E+00
         0.00000E+00
         0.00000E+00
         0.00000E+00
         0.00000E+00
         0.00000E+00
         0.00000E+00
         0.00000E+00
         0.00000E+00
         0.00000E+00
         0.00000E+00
         0.00000E+00
         0.00000E+00
         0.00000E+00
         0.00000E+00
         0.00000E+00
         0.00000E+00
         0.00000E+00
         0.00000E+00
         0.00000E+00
         0.00000E+00
         0.00000E+00
         0.00000E+00
         0.00000E+00
         0.00000E+00
         0.00000E+00
         0.00000E+00
         0.00000E+00
         0.00000E+00
         0.00000E+00
         0.00000E+00
         0.00000E+00
         0.00000E+00
         0.00000E+00
         0.00000E+00
         0.00000E+00
         0.00000E+00
         0.00000E+00
         0.00000E+00
         0.00000E+00
         0.00000E+00
         0.00000E+00
         0.00000E+00
         0.00000E+00
         0.00000E+00
         0.00000E+00
         0.00000E+00
         0.00000E+00
         0.00000E+00
         0.00000E+00
         0.00000E+00
         0.00000E+00
         0.00000E+00
         0.00000E+00
         0.00000E+00
         0.00000E+00
         0.00000E+00
         0.00000E+00
         0.00000E+00
         0.00000E+00
         0.00000E+00
         0.00000E+00
         0.00000E+00
         0.00000E+00
         0.00000E+00
         0.00000E+00
         0.00000E+00
         0.00000E+00
         0.00000E+00
         0.00000E+00
         0.00000E+00
         0.00000E+00
         0.00000E+00
         0.00000E+00
         0.00000E+00
         0.00000E+00
         0.00000E+00
         0.00000E+00
         0.00000E+00
         0.00000E+00
         0.00000E+00
         0.00000E+00
         0.00000E+00
         0.00000E+00
         0.00000E+00
         0.00000E+00
         0.00000E+00
         0.00000E+00
         0.00000E+00
         0.00000E+00
         0.00000E+00
         0.00000E+00
         0.00000E+00
         0.00000E+00
         0.00000E+00
         0.00000E+00
         0.00000E+00
         0.00000E+00
         0.00000E+00
         0.00000E+00
         0.00000E+00
         0.00000E+00
         0.00000E+00
         0.00000E+00
         0.00000E+00
         0.00000E+00
         0.00000E+00
         0.00000E+00
         0.00000E+00
         0.00000E+00
         0.00000E+00
         0.00000E+00
         0.00000E+00
         0.00000E+00
         0.00000E+00
         0.00000E+00
         0.00000E+00
         0.00000E+00
         0.00000E+00
         0.00000E+00
         0.00000E+00
         0.00000E+00
         0.00000E+00
         0.00000E+00
         0.00000E+00
         0.00000E+00
         0.00000E+00
         0.00000E+00
         0.00000E+00
         0.00000E+00
         0.00000E+00
         0.00000E+00
         0.00000E+00
         0.00000E+00
         0.00000E+00
         0.00000E+00
         0.00000E+00
         0.00000E+00
         0.00000E+00
         0.00000E+00
         0.00000E+00
         0.00000E+00
         0.00000E+00
         0.00000E+00
         0.00000E+00
         0.00000E+00
         0.00000E+00
         0.00000E+00
         0.00000E+00
         0.00000E+00
         0.00000E+00
         0.00000E+00
         0.00000E+00
         0.00000E+00
         0.00000E+00
         0.00000E+00
         0.00000E+00
         0.00000E+00
         0.00000E+00
         0.00000E+00
         0.00000E+00
         0.00000E+00
         0.00000E+00
         0.00000E+00
         0.00000E+00
         0.00000E+00
         0.00000E+00
         0.00000E+00
         0.00000E+00
         0.00000E+00
         0.00000E+00
         0.00000E+00
         0.00000E+00
         0.00000E+00
         0.00000E+00
         0.00000E+00
         0.00000E+00
         0.00000E+00
         0.00000E+00
         0.00000E+00
         0.00000E+00
         0.00000E+00
         0.00000E+00
         0.00000E+00
         0.00000E+00
         0.00000E+00
         0.00000E+00
         0.00000E+00
         0.00000E+00
         0.00000E+00
         0.00000E+00
         0.00000E+00
         0.00000E+00
         0.00000E+00
         0.00000E+00
         0.00000E+00
         0.00000E+00
         0.00000E+00
         0.00000E+00
         0.00000E+00
         0.00000E+00
         0.00000E+00
         0.00000E+00
         0.00000E+00
         0.00000E+00
         0.00000E+00
         0.00000E+00
         0.00000E+00
         0.00000E+00
         0.00000E+00
         0.00000E+00
         0.00000E+00
         0.00000E+00
         0.00000E+00
         0.00000E+00
         0.00000E+00
         0.00000E+00
         0.00000E+00
         0.00000E+00
         0.00000E+00
         0.00000E+00
         0.00000E+00
         0.00000E+00
         0.00000E+00
         0.00000E+00
         0.00000E+00
         0.00000E+00
         0.00000E+00
         0.00000E+00
         0.00000E+00
         0.00000E+00
         0.00000E+00
         0.00000E+00
         0.00000E+00
         0.00000E+00
         0.00000E+00
         0.00000E+00
         0.00000E+00
         0.00000E+00
         0.00000E+00
         0.00000E+00
         0.00000E+00
         0.00000E+00
         0.00000E+00
         0.00000E+00
         0.00000E+00
         0.00000E+00
         0.00000E+00
         0.00000E+00
         0.00000E+00
         0.00000E+00
         0.00000E+00
         0.00000E+00
         0.00000E+00
         0.00000E+00
         0.00000E+00
         0.00000E+00
         0.00000E+00
         0.00000E+00
         0.00000E+00
         0.00000E+00
         0.00000E+00
         0.00000E+00
         0.00000E+00
         0.00000E+00
         0.00000E+00
         0.00000E+00
         0.00000E+00
         0.00000E+00
         0.00000E+00
         0.00000E+00
         0.00000E+00
         0.00000E+00
         0.00000E+00
         0.00000E+00
         0.00000E+00
         0.00000E+00
         0.00000E+00
         0.00000E+00
         0.00000E+00
         0.00000E+00
         0.00000E+00
         0.00000E+00
         0.00000E+00
         0.00000E+00
         0.00000E+00
         0.00000E+00
         0.00000E+00
         0.00000E+00
         0.00000E+00
         0.00000E+00
         0.00000E+00
         0.00000E+00
         0.00000E+00
         0.00000E+00
         0.00000E+00
         0.00000E+00
         0.00000E+00
         0.00000E+00
         0.00000E+00
         0.00000E+00
         0.00000E+00
         0.00000E+00
         0.00000E+00
         0.00000E+00
         0.00000E+00
         0.00000E+00
         0.00000E+00
         0.00000E+00
         0.00000E+00
         0.00000E+00
         0.00000E+00
         0.00000E+00
         0.00000E+00
         0.00000E+00
         0.00000E+00
         0.00000E+00
         0.00000E+00
         0.00000E+00
         0.00000E+00
         0.00000E+00
         0.00000E+00
         0.00000E+00
         0.00000E+00
         0.00000E+00
         0.00000E+00
         0.00000E+00
         0.00000E+00
         0.00000E+00
         0.00000E+00
         0.00000E+00
         0.00000E+00
         0.00000E+00
         0.00000E+00
         0.00000E+00
         0.00000E+00
         0.00000E+00
         0.00000E+00
         0.00000E+00
         0.00000E+00
         0.00000E+00
         0.00000E+00
         0.00000E+00
         0.00000E+00
         0.00000E+00
         0.00000E+00
         0.00000E+00
         0.00000E+00
         0.00000E+00
         0.00000E+00
         0.00000E+00
         0.00000E+00
         0.00000E+00
         0.00000E+00
         0.00000E+00
         0.00000E+00
         0.00000E+00
         0.00000E+00
         0.00000E+00
         0.00000E+00
         0.00000E+00
         0.00000E+00
         0.00000E+00
         0.00000E+00
         0.00000E+00
         0.00000E+00
         0.00000E+00
         0.00000E+00
         0.00000E+00
         0.00000E+00
         0.00000E+00
         0.00000E+00
         0.00000E+00
         0.00000E+00
         0.00000E+00
         0.00000E+00
         0.00000E+00
         0.00000E+00
         0.00000E+00
         0.00000E+00
         0.00000E+00
         0.00000E+00
         0.00000E+00
         0.00000E+00
         0.00000E+00
         0.00000E+00
         0.00000E+00
         0.00000E+00
         0.00000E+00
         0.00000E+00
         0.00000E+00
         0.00000E+00
         0.00000E+00
         0.00000E+00
         0.00000E+00
         0.00000E+00
         0.00000E+00
         0.00000E+00
         0.00000E+00
         0.00000E+00
         0.00000E+00
         0.00000E+00
         0.00000E+00
         0.00000E+00
         0.00000E+00
         0.00000E+00
         0.00000E+00
         0.00000E+00
         0.00000E+00
         0.00000E+00
         0.00000E+00
         0.00000E+00
         0.00000E+00
         0.00000E+00
         0.00000E+00
         0.00000E+00
         0.00000E+00
         0.00000E+00
         0.00000E+00
         0.00000E+00
         0.00000E+00
         0.00000E+00
         0.00000E+00
         0.00000E+00
         0.00000E+00
         0.00000E+00
         0.00000E+00
         0.00000E+00
         0.00000E+00
         0.00000E+00
         0.00000E+00
         0.00000E+00
         0.00000E+00
         0.00000E+00
         0.00000E+00
         0.00000E+00
         0.00000E+00
         0.00000E+00
         0.00000E+00
         0.00000E+00
         0.00000E+00
         0.00000E+00
         0.00000E+00
         0.00000E+00
         0.00000E+00
         0.00000E+00
         0.00000E+00
         0.00000E+00
         0.00000E+00
         0.00000E+00
         0.00000E+00
         0.00000E+00
         0.00000E+00
         0.00000E+00
         0.00000E+00
         0.00000E+00
         0.00000E+00
         0.00000E+00
         0.00000E+00
         0.00000E+00
         0.00000E+00
         0.00000E+00
         0.00000E+00
         0.00000E+00
         0.00000E+00
         0.00000E+00
         0.00000E+00
         0.00000E+00
         0.00000E+00
         0.00000E+00
         0.00000E+00
         0.00000E+00
         0.00000E+00
         0.00000E+00
         0.00000E+00
         0.00000E+00
         0.00000E+00
         0.00000E+00
         0.00000E+00
         0.00000E+00
         0.00000E+00
         0.00000E+00
         0.00000E+00
         0.00000E+00
         0.00000E+00
         0.00000E+00
         0.00000E+00
         0.00000E+00
         0.00000E+00
         0.00000E+00
         0.00000E+00
         0.00000E+00
         0.00000E+00
         0.00000E+00
         0.00000E+00
         0.00000E+00
         0.00000E+00
         0.00000E+00
         0.00000E+00
         0.00000E+00
         0.00000E+00
         0.00000E+00
         0.00000E+00
         0.00000E+00
         0.00000E+00
         0.00000E+00
         0.00000E+00
         0.00000E+00
         0.00000E+00
         0.00000E+00
         0.00000E+00
         0.00000E+00
         0.00000E+00
         0.00000E+00
         0.00000E+00
         0.00000E+00
         0.00000E+00
         0.00000E+00
         0.00000E+00
         0.00000E+00
         0.00000E+00
         0.00000E+00
         0.00000E+00
         0.00000E+00
         0.00000E+00
         0.00000E+00
         0.00000E+00
         0.00000E+00
         0.00000E+00
         0.00000E+00
         0.00000E+00
         0.00000E+00
         0.00000E+00
         0.00000E+00
         0.00000E+00
         0.00000E+00
         0.00000E+00
         0.00000E+00
         0.00000E+00
         0.00000E+00
         0.00000E+00
         0.00000E+00
         0.00000E+00
         0.00000E+00
         0.00000E+00
         0.00000E+00
         0.00000E+00
         0.00000E+00
         0.00000E+00
         0.00000E+00
         0.00000E+00
         0.00000E+00
         0.00000E+00
         0.00000E+00
         0.00000E+00
         0.00000E+00
         0.00000E+00
         0.00000E+00
         0.00000E+00
         0.00000E+00
         0.00000E+00
         0.00000E+00
         0.00000E+00
         0.00000E+00
         0.00000E+00
         0.00000E+00
         0.00000E+00
         0.00000E+00
         0.00000E+00
         0.00000E+00
         0.00000E+00
         0.00000E+00
         0.00000E+00
         0.00000E+00
         0.00000E+00
         0.00000E+00
         0.00000E+00
         0.00000E+00
         0.00000E+00
         0.00000E+00
         0.00000E+00
         0.00000E+00
         0.00000E+00
         0.00000E+00
         0.00000E+00
         0.00000E+00
         0.00000E+00
         0.00000E+00
         0.00000E+00
         0.00000E+00
         0.00000E+00
         0.00000E+00
         0.00000E+00
         0.00000E+00
         0.00000E+00
         0.00000E+00
         0.00000E+00
         0.00000E+00
         0.00000E+00
         0.00000E+00
         0.00000E+00
         0.00000E+00
         0.00000E+00
         0.00000E+00
         0.00000E+00
         0.00000E+00
         0.00000E+00
         0.00000E+00
         0.00000E+00
         0.00000E+00
         0.00000E+00
         0.00000E+00
         0.00000E+00
         0.00000E+00
         0.00000E+00
         0.00000E+00
         0.00000E+00
         0.00000E+00
         0.00000E+00
         0.00000E+00
         0.00000E+00
         0.00000E+00
         0.00000E+00
         0.00000E+00
         0.00000E+00
         0.00000E+00
         0.00000E+00
         0.00000E+00
         0.00000E+00
         0.00000E+00
         0.00000E+00
         0.00000E+00
         0.00000E+00
         0.00000E+00
         0.00000E+00
         0.00000E+00
         0.00000E+00
         0.00000E+00
         0.00000E+00
         0.00000E+00
         0.00000E+00
         0.00000E+00
         0.00000E+00
         0.00000E+00
         0.00000E+00
         0.00000E+00
         0.00000E+00
         0.00000E+00
         0.00000E+00
         0.00000E+00
         0.00000E+00
         0.00000E+00
         0.00000E+00
         0.00000E+00
         0.00000E+00
         0.00000E+00
         0.00000E+00
         0.00000E+00
         0.00000E+00
         0.00000E+00
         0.00000E+00
         0.00000E+00
         0.00000E+00
         0.00000E+00
         0.00000E+00
         0.00000E+00
         0.00000E+00
         0.00000E+00
         0.00000E+00
         0.00000E+00
         0.00000E+00
         0.00000E+00
         0.00000E+00
         0.00000E+00
         0.00000E+00
         0.00000E+00
         0.00000E+00
         0.00000E+00
         0.00000E+00
         0.00000E+00
         0.00000E+00
         0.00000E+00
         0.00000E+00
         0.00000E+00
         0.00000E+00
         0.00000E+00
         0.00000E+00
         0.00000E+00
         0.00000E+00
         0.00000E+00
         0.00000E+00
         0.00000E+00
         0.00000E+00
         0.00000E+00
         0.00000E+00
         0.00000E+00
         0.00000E+00
         0.00000E+00
         0.00000E+00
         0.00000E+00
         0.00000E+00
         0.00000E+00
         0.00000E+00
         0.00000E+00
         0.00000E+00
         0.00000E+00
         0.00000E+00
         0.00000E+00
         0.00000E+00
         0.00000E+00
         0.00000E+00
         0.00000E+00
         0.00000E+00
         0.00000E+00
         0.00000E+00
         0.00000E+00
         0.00000E+00
         0.00000E+00
         0.00000E+00
         0.00000E+00
         0.00000E+00
         0.00000E+00
         0.00000E+00
         0.00000E+00
         0.00000E+00
         0.00000E+00
         0.00000E+00
         0.00000E+00
         0.00000E+00
         0.00000E+00
         0.00000E+00
         0.00000E+00
         0.00000E+00
         0.00000E+00
         0.00000E+00
         0.00000E+00
         0.00000E+00
         0.00000E+00
         0.00000E+00
         0.00000E+00
         0.00000E+00
         0.00000E+00
         0.00000E+00
         0.00000E+00
         0.00000E+00
         0.00000E+00
         0.00000E+00
         0.00000E+00
         0.00000E+00
         0.00000E+00
         0.00000E+00
         0.00000E+00
         0.00000E+00
         0.00000E+00
         0.00000E+00
         0.00000E+00
         0.00000E+00
         0.00000E+00
         0.00000E+00
         0.00000E+00
         0.00000E+00
         0.00000E+00
         0.00000E+00
         0.00000E+00
         0.00000E+00
         0.00000E+00
         0.00000E+00
         0.00000E+00
         0.00000E+00
         0.00000E+00
         0.00000E+00
         0.00000E+00
         0.00000E+00
         0.00000E+00
         0.00000E+00
         0.00000E+00
         0.00000E+00
         0.00000E+00
         0.00000E+00
         0.00000E+00
         0.00000E+00
         0.00000E+00
         0.00000E+00
         0.00000E+00
         0.00000E+00
         0.00000E+00
         0.00000E+00
         0.00000E+00
         0.00000E+00
         0.00000E+00
         0.00000E+00
         0.00000E+00
         0.00000E+00
         0.00000E+00
         0.00000E+00
         0.00000E+00
         0.00000E+00
         0.00000E+00
         0.00000E+00
         0.00000E+00
         0.00000E+00
         0.00000E+00
         0.00000E+00
         0.00000E+00
         0.00000E+00
         0.00000E+00
         0.00000E+00
         0.00000E+00
         0.00000E+00
         0.00000E+00
         0.00000E+00
         0.00000E+00
         0.00000E+00
         0.00000E+00
         0.00000E+00
         0.00000E+00
         0.00000E+00
         0.00000E+00
         0.00000E+00
         0.00000E+00
         0.00000E+00
         0.00000E+00
         0.00000E+00
         0.00000E+00
         0.00000E+00
         0.00000E+00
         0.00000E+00
         0.00000E+00
         0.00000E+00
         0.00000E+00
         0.00000E+00
         0.00000E+00
         0.00000E+00
         0.00000E+00
         0.00000E+00
         0.00000E+00
         0.00000E+00
         0.00000E+00
         0.00000E+00
         0.00000E+00
         0.00000E+00
         0.00000E+00
         0.00000E+00
         0.00000E+00
         0.00000E+00
         0.00000E+00
         0.00000E+00
         0.00000E+00
         0.00000E+00
         0.00000E+00
         0.00000E+00
         0.00000E+00
         0.00000E+00
         0.00000E+00
         0.00000E+00
         0.00000E+00
         0.00000E+00
         0.00000E+00
         0.00000E+00
         0.00000E+00
         0.00000E+00
         0.00000E+00
         0.00000E+00
         0.00000E+00
         0.00000E+00
         0.00000E+00
         0.00000E+00
         0.00000E+00
         0.00000E+00
         0.00000E+00
         0.00000E+00
         0.00000E+00
         0.00000E+00
         0.00000E+00
         0.00000E+00
         0.00000E+00
         0.00000E+00
         0.00000E+00
         0.00000E+00
         0.00000E+00
         0.00000E+00
         0.00000E+00
         0.00000E+00
         0.00000E+00
         0.00000E+00
         0.00000E+00
         0.00000E+00
         0.00000E+00
         0.00000E+00
         0.00000E+00
         0.00000E+00
         0.00000E+00
         0.00000E+00
         0.00000E+00
         0.00000E+00
         0.00000E+00
         0.00000E+00
         0.00000E+00
         0.00000E+00
         0.00000E+00
         0.00000E+00
         0.00000E+00
         0.00000E+00
         0.00000E+00
         0.00000E+00
         0.00000E+00
         0.00000E+00
         0.00000E+00
         0.00000E+00
         0.00000E+00
         0.00000E+00
         0.00000E+00
         0.00000E+00
         0.00000E+00
         0.00000E+00
         0.00000E+00
         0.00000E+00
         0.00000E+00
         0.00000E+00
         0.00000E+00
         0.00000E+00
         0.00000E+00
         0.00000E+00
         0.00000E+00
         0.00000E+00
         0.00000E+00
         0.00000E+00
         0.00000E+00
         0.00000E+00
         0.00000E+00
         0.00000E+00
         0.00000E+00
         0.00000E+00
         0.00000E+00
         0.00000E+00
         0.00000E+00
         0.00000E+00
         0.00000E+00
         0.00000E+00
         0.00000E+00
         0.00000E+00
         0.00000E+00
         0.00000E+00
         0.00000E+00
         0.00000E+00
         0.00000E+00
         0.00000E+00
         0.00000E+00
         0.00000E+00
         0.00000E+00
         0.00000E+00
         0.00000E+00
         0.00000E+00
         0.00000E+00
         0.00000E+00
         0.00000E+00
         0.00000E+00
         0.00000E+00
         0.00000E+00
         0.00000E+00
         0.00000E+00
         0.00000E+00
         0.00000E+00
         0.00000E+00
         0.00000E+00
         0.00000E+00
         0.00000E+00
         0.00000E+00
         0.00000E+00
         0.00000E+00
         0.00000E+00
         0.00000E+00
         0.00000E+00
         0.00000E+00
         0.00000E+00
         0.00000E+00
         0.00000E+00
         0.00000E+00
         0.00000E+00
         0.00000E+00
         0.00000E+00
         0.00000E+00
         0.00000E+00
         0.00000E+00
         0.00000E+00
         0.00000E+00
         0.00000E+00
         0.00000E+00
         0.00000E+00
         0.00000E+00
         0.00000E+00
         0.00000E+00
         0.00000E+00
         0.00000E+00
         0.00000E+00
         0.00000E+00
         0.00000E+00
         0.00000E+00
         0.00000E+00
         0.00000E+00
         0.00000E+00
         0.00000E+00
         0.00000E+00
         0.00000E+00
         0.00000E+00
         0.00000E+00
         0.00000E+00
         0.00000E+00
         0.00000E+00
         0.00000E+00
         0.00000E+00
         0.00000E+00
         0.00000E+00
         0.00000E+00
         0.00000E+00
         0.00000E+00
         0.00000E+00
         0.00000E+00
         0.00000E+00
         0.00000E+00
         0.00000E+00
         0.00000E+00
         0.00000E+00
         0.00000E+00
         0.00000E+00
         0.00000E+00
         0.00000E+00
         0.00000E+00
         0.00000E+00
         0.00000E+00
         0.00000E+00
         0.00000E+00
         0.00000E+00
         0.00000E+00
         0.00000E+00
         0.00000E+00
         0.00000E+00
         0.00000E+00
         0.00000E+00
         0.00000E+00
         0.00000E+00
         0.00000E+00
         0.00000E+00
         0.00000E+00
         0.00000E+00
         0.00000E+00
         0.00000E+00
         0.00000E+00
         0.00000E+00
         0.00000E+00
         0.00000E+00
         0.00000E+00
         0.00000E+00
         0.00000E+00
         0.00000E+00
         0.00000E+00
         0.00000E+00
         0.00000E+00
         0.00000E+00
         0.00000E+00
         0.00000E+00
         0.00000E+00
         0.00000E+00
         0.00000E+00
         0.00000E+00
         0.00000E+00
         0.00000E+00
         0.00000E+00
         0.00000E+00
         0.00000E+00
         0.00000E+00
         0.00000E+00
         0.00000E+00
         0.00000E+00
         0.00000E+00
         0.00000E+00
         0.00000E+00
         0.00000E+00
         0.00000E+00
         0.00000E+00
         0.00000E+00
         0.00000E+00
         0.00000E+00
         0.00000E+00
         0.00000E+00
         0.00000E+00
         0.00000E+00
         0.00000E+00
         0.00000E+00
         0.00000E+00
         0.00000E+00
         0.00000E+00
         0.00000E+00
         0.00000E+00
         0.00000E+00
         0.00000E+00
         0.00000E+00
         0.00000E+00
         0.00000E+00
         0.00000E+00
         0.00000E+00
         0.00000E+00
         0.00000E+00
         0.00000E+00
         0.00000E+00
         0.00000E+00
         0.00000E+00
         0.00000E+00
         0.00000E+00
         0.00000E+00
         0.00000E+00
         0.00000E+00
         0.00000E+00
         0.00000E+00
         0.00000E+00
         0.00000E+00
         0.00000E+00
         0.00000E+00
         0.00000E+00
         0.00000E+00
         0.00000E+00
         0.00000E+00
         0.00000E+00
         0.00000E+00
         0.00000E+00
         0.00000E+00
         0.00000E+00
         0.00000E+00
         0.00000E+00
         0.00000E+00
         0.00000E+00
         0.00000E+00
         0.00000E+00
         0.00000E+00
         0.00000E+00
         0.00000E+00
         0.00000E+00
         0.00000E+00
         0.00000E+00
         0.00000E+00
         0.00000E+00
         0.00000E+00
         0.00000E+00
         0.00000E+00
         0.00000E+00
         0.00000E+00
         0.00000E+00
         0.00000E+00
         0.00000E+00
         0.00000E+00
         0.00000E+00
         0.00000E+00
         0.00000E+00
         0.00000E+00
         0.00000E+00
         0.00000E+00
         0.00000E+00
         0.00000E+00
         0.00000E+00
         0.00000E+00
         0.00000E+00
         0.00000E+00
         0.00000E+00
         0.00000E+00
         0.00000E+00
         0.00000E+00
         0.00000E+00
         0.00000E+00
         0.00000E+00
         0.00000E+00
         0.00000E+00
         0.00000E+00
         0.00000E+00
         0.00000E+00
         0.00000E+00
         0.00000E+00
         0.00000E+00
         0.00000E+00
         0.00000E+00
         0.00000E+00
         0.00000E+00
         0.00000E+00
         0.00000E+00
         0.00000E+00
         0.00000E+00
         0.00000E+00
         0.00000E+00
         0.00000E+00
         0.00000E+00
  
SCALARS        characteristic_distance  double 1
LOOKUP_TABLE default
         0.00000E+00
         0.00000E+00
         0.00000E+00
         0.00000E+00
         0.00000E+00
         0.00000E+00
         0.00000E+00
         0.00000E+00
         0.00000E+00
         0.00000E+00
         0.00000E+00
         0.00000E+00
         0.00000E+00
         0.00000E+00
         0.00000E+00
         0.00000E+00
         0.00000E+00
         0.00000E+00
         0.00000E+00
         0.00000E+00
         0.00000E+00
         0.00000E+00
         0.00000E+00
         0.00000E+00
         0.00000E+00
         0.00000E+00
         0.00000E+00
         0.00000E+00
         0.00000E+00
         0.00000E+00
         0.00000E+00
         0.00000E+00
         0.00000E+00
         0.00000E+00
         0.00000E+00
         0.00000E+00
         0.00000E+00
         0.00000E+00
         0.00000E+00
         0.00000E+00
         0.00000E+00
         0.00000E+00
         0.00000E+00
         0.00000E+00
         0.00000E+00
         0.00000E+00
         0.00000E+00
         0.00000E+00
         0.00000E+00
         0.00000E+00
         0.00000E+00
         0.00000E+00
         0.00000E+00
         0.00000E+00
         0.00000E+00
         0.00000E+00
         0.00000E+00
         0.00000E+00
         0.00000E+00
         0.00000E+00
         0.00000E+00
         0.00000E+00
         0.00000E+00
         0.00000E+00
         0.00000E+00
         0.00000E+00
         0.00000E+00
         0.00000E+00
         0.00000E+00
         0.00000E+00
         0.00000E+00
         0.00000E+00
         0.00000E+00
         0.00000E+00
         0.00000E+00
         0.00000E+00
         0.00000E+00
         0.00000E+00
         0.00000E+00
         0.00000E+00
         0.00000E+00
         0.00000E+00
         0.00000E+00
         0.00000E+00
         0.00000E+00
         0.00000E+00
         0.00000E+00
         0.00000E+00
         0.00000E+00
         0.00000E+00
         0.00000E+00
         0.00000E+00
         0.00000E+00
         0.00000E+00
         0.00000E+00
         0.00000E+00
         0.00000E+00
         0.00000E+00
         0.00000E+00
         0.00000E+00
         0.00000E+00
         0.00000E+00
         0.00000E+00
         0.00000E+00
         0.00000E+00
         0.00000E+00
         0.00000E+00
         0.00000E+00
         0.00000E+00
         0.00000E+00
         0.00000E+00
         0.00000E+00
         0.00000E+00
         0.00000E+00
         0.00000E+00
         0.00000E+00
         0.00000E+00
         0.00000E+00
         0.00000E+00
         0.00000E+00
         0.00000E+00
         0.00000E+00
         0.00000E+00
         0.00000E+00
         0.00000E+00
         0.00000E+00
         0.00000E+00
         0.00000E+00
         0.00000E+00
         0.00000E+00
         0.00000E+00
         0.00000E+00
         0.00000E+00
         0.00000E+00
         0.00000E+00
         0.00000E+00
         0.00000E+00
         0.00000E+00
         0.00000E+00
         0.00000E+00
         0.00000E+00
         0.00000E+00
         0.00000E+00
         0.00000E+00
         0.00000E+00
         0.00000E+00
         0.00000E+00
         0.00000E+00
         0.00000E+00
         0.00000E+00
         0.00000E+00
         0.00000E+00
         0.00000E+00
         0.00000E+00
         0.00000E+00
         0.00000E+00
         0.00000E+00
         0.00000E+00
         0.00000E+00
         0.00000E+00
         0.00000E+00
         0.00000E+00
         0.00000E+00
         0.00000E+00
         0.00000E+00
         0.00000E+00
         0.00000E+00
         0.00000E+00
         0.00000E+00
         0.00000E+00
         0.00000E+00
         0.00000E+00
         0.00000E+00
         0.00000E+00
         0.00000E+00
         0.00000E+00
         0.00000E+00
         0.00000E+00
         0.00000E+00
         0.00000E+00
         0.00000E+00
         0.00000E+00
         0.00000E+00
         0.00000E+00
         0.00000E+00
         0.00000E+00
         0.00000E+00
         0.00000E+00
         0.00000E+00
         0.00000E+00
         0.00000E+00
         0.00000E+00
         0.00000E+00
         0.00000E+00
         0.00000E+00
         0.00000E+00
         0.00000E+00
         0.00000E+00
         0.00000E+00
         0.00000E+00
         0.00000E+00
         0.00000E+00
         0.00000E+00
         0.00000E+00
         0.00000E+00
         0.00000E+00
         0.00000E+00
         0.00000E+00
         0.00000E+00
         0.00000E+00
         0.00000E+00
         0.00000E+00
         0.00000E+00
         0.00000E+00
         0.00000E+00
         0.00000E+00
         0.00000E+00
         0.00000E+00
         0.00000E+00
         0.00000E+00
         0.00000E+00
         0.00000E+00
         0.00000E+00
         0.00000E+00
         0.00000E+00
         0.00000E+00
         0.00000E+00
         0.00000E+00
         0.00000E+00
         0.00000E+00
         0.00000E+00
         0.00000E+00
         0.00000E+00
         0.00000E+00
         0.00000E+00
         0.00000E+00
         0.00000E+00
         0.00000E+00
         0.00000E+00
         0.00000E+00
         0.00000E+00
         0.00000E+00
         0.00000E+00
         0.00000E+00
         0.00000E+00
         0.00000E+00
         0.00000E+00
         0.00000E+00
         0.00000E+00
         0.00000E+00
         0.00000E+00
         0.00000E+00
         0.00000E+00
         0.00000E+00
         0.00000E+00
         0.00000E+00
         0.00000E+00
         0.00000E+00
         0.00000E+00
         0.00000E+00
         0.00000E+00
         0.00000E+00
         0.00000E+00
         0.00000E+00
         0.00000E+00
         0.00000E+00
         0.00000E+00
         0.00000E+00
         0.00000E+00
         0.00000E+00
         0.00000E+00
         0.00000E+00
         0.00000E+00
         0.00000E+00
         0.00000E+00
         0.00000E+00
         0.00000E+00
         0.00000E+00
         0.00000E+00
         0.00000E+00
         0.00000E+00
         0.00000E+00
         0.00000E+00
         0.00000E+00
         0.00000E+00
         0.00000E+00
         0.00000E+00
         0.00000E+00
         0.00000E+00
         0.00000E+00
         0.00000E+00
         0.00000E+00
         0.00000E+00
         0.00000E+00
         0.00000E+00
         0.00000E+00
         0.00000E+00
         0.00000E+00
         0.00000E+00
         0.00000E+00
         0.00000E+00
         0.00000E+00
         0.00000E+00
         0.00000E+00
         0.00000E+00
         0.00000E+00
         0.00000E+00
         0.00000E+00
         0.00000E+00
         0.00000E+00
         0.00000E+00
         0.00000E+00
         0.00000E+00
         0.00000E+00
         0.00000E+00
         0.00000E+00
         0.00000E+00
         0.00000E+00
         0.00000E+00
         0.00000E+00
         0.00000E+00
         0.00000E+00
         0.00000E+00
         0.00000E+00
         0.00000E+00
         0.00000E+00
         0.00000E+00
         0.00000E+00
         0.00000E+00
         0.00000E+00
         0.00000E+00
         0.00000E+00
         0.00000E+00
         0.00000E+00
         0.00000E+00
         0.00000E+00
         0.00000E+00
         0.00000E+00
         0.00000E+00
         0.00000E+00
         0.00000E+00
         0.00000E+00
         0.00000E+00
         0.00000E+00
         0.00000E+00
         0.00000E+00
         0.00000E+00
         0.00000E+00
         0.00000E+00
         0.00000E+00
         0.00000E+00
         0.00000E+00
         0.00000E+00
         0.00000E+00
         0.00000E+00
         0.00000E+00
         0.00000E+00
         0.00000E+00
         0.00000E+00
         0.00000E+00
         0.00000E+00
         0.00000E+00
         0.00000E+00
         0.00000E+00
         0.00000E+00
         0.00000E+00
         0.00000E+00
         0.00000E+00
         0.00000E+00
         0.00000E+00
         0.00000E+00
         0.00000E+00
         0.00000E+00
         0.00000E+00
         0.00000E+00
         0.00000E+00
         0.00000E+00
         0.00000E+00
         0.00000E+00
         0.00000E+00
         0.00000E+00
         0.00000E+00
         0.00000E+00
         0.00000E+00
         0.00000E+00
         0.00000E+00
         0.00000E+00
         0.00000E+00
         0.00000E+00
         0.00000E+00
         0.00000E+00
         0.00000E+00
         0.00000E+00
         0.00000E+00
         0.00000E+00
         0.00000E+00
         0.00000E+00
         0.00000E+00
         0.00000E+00
         0.00000E+00
         0.00000E+00
         0.00000E+00
         0.00000E+00
         0.00000E+00
         0.00000E+00
         0.00000E+00
         0.00000E+00
         0.00000E+00
         0.00000E+00
         0.00000E+00
         0.00000E+00
         0.00000E+00
         0.00000E+00
         0.00000E+00
         0.00000E+00
         0.00000E+00
         0.00000E+00
         0.00000E+00
         0.00000E+00
         0.00000E+00
         0.00000E+00
         0.00000E+00
         0.00000E+00
         0.00000E+00
         0.00000E+00
         0.00000E+00
         0.00000E+00
         0.00000E+00
         0.00000E+00
         0.00000E+00
         0.00000E+00
         0.00000E+00
         0.00000E+00
         0.00000E+00
         0.00000E+00
         0.00000E+00
         0.00000E+00
         0.00000E+00
         0.00000E+00
         0.00000E+00
         0.00000E+00
         0.00000E+00
         0.00000E+00
         0.00000E+00
         0.00000E+00
         0.00000E+00
         0.00000E+00
         0.00000E+00
         0.00000E+00
         0.00000E+00
         0.00000E+00
         0.00000E+00
         0.00000E+00
         0.00000E+00
         0.00000E+00
         0.00000E+00
         0.00000E+00
         0.00000E+00
         0.00000E+00
         0.00000E+00
         0.00000E+00
         0.00000E+00
         0.00000E+00
         0.00000E+00
         0.00000E+00
         0.00000E+00
         0.00000E+00
         0.00000E+00
         0.00000E+00
         0.00000E+00
         0.00000E+00
         0.00000E+00
         0.00000E+00
         0.00000E+00
         0.00000E+00
         0.00000E+00
         0.00000E+00
         0.00000E+00
         0.00000E+00
         0.00000E+00
         0.00000E+00
         0.00000E+00
         0.00000E+00
         0.00000E+00
         0.00000E+00
         0.00000E+00
         0.00000E+00
         0.00000E+00
         0.00000E+00
         0.00000E+00
         0.00000E+00
         0.00000E+00
         0.00000E+00
         0.00000E+00
         0.00000E+00
         0.00000E+00
         0.00000E+00
         0.00000E+00
         0.00000E+00
         0.00000E+00
         0.00000E+00
         0.00000E+00
         0.00000E+00
         0.00000E+00
         0.00000E+00
         0.00000E+00
         0.00000E+00
         0.00000E+00
         0.00000E+00
         0.00000E+00
         0.00000E+00
         0.00000E+00
         0.00000E+00
         0.00000E+00
         0.00000E+00
         0.00000E+00
         0.00000E+00
         0.00000E+00
         0.00000E+00
         0.00000E+00
         0.00000E+00
         0.00000E+00
         0.00000E+00
         0.00000E+00
         0.00000E+00
         0.00000E+00
         0.00000E+00
         0.00000E+00
         0.00000E+00
         0.00000E+00
         0.00000E+00
         0.00000E+00
         0.00000E+00
         0.00000E+00
         0.00000E+00
         0.00000E+00
         0.00000E+00
         0.00000E+00
         0.00000E+00
         0.00000E+00
         0.00000E+00
         0.00000E+00
         0.00000E+00
         0.00000E+00
         0.00000E+00
         0.00000E+00
         0.00000E+00
         0.00000E+00
         0.00000E+00
         0.00000E+00
         0.00000E+00
         0.00000E+00
         0.00000E+00
         0.00000E+00
         0.00000E+00
         0.00000E+00
         0.00000E+00
         0.00000E+00
         0.00000E+00
         0.00000E+00
         0.00000E+00
         0.00000E+00
         0.00000E+00
         0.00000E+00
         0.00000E+00
         0.00000E+00
         0.00000E+00
         0.00000E+00
         0.00000E+00
         0.00000E+00
         0.00000E+00
         0.00000E+00
         0.00000E+00
         0.00000E+00
         0.00000E+00
         0.00000E+00
         0.00000E+00
         0.00000E+00
         0.00000E+00
         0.00000E+00
         0.00000E+00
         0.00000E+00
         0.00000E+00
         0.00000E+00
         0.00000E+00
         0.00000E+00
         0.00000E+00
         0.00000E+00
         0.00000E+00
         0.00000E+00
         0.00000E+00
         0.00000E+00
         0.00000E+00
         0.00000E+00
         0.00000E+00
         0.00000E+00
         0.00000E+00
         0.00000E+00
         0.00000E+00
         0.00000E+00
         0.00000E+00
         0.00000E+00
         0.00000E+00
         0.00000E+00
         0.00000E+00
         0.00000E+00
         0.00000E+00
         0.00000E+00
         0.00000E+00
         0.00000E+00
         0.00000E+00
         0.00000E+00
         0.00000E+00
         0.00000E+00
         0.00000E+00
         0.00000E+00
         0.00000E+00
         0.00000E+00
         0.00000E+00
         0.00000E+00
         0.00000E+00
         0.00000E+00
         0.00000E+00
         0.00000E+00
         0.00000E+00
         0.00000E+00
         0.00000E+00
         0.00000E+00
         0.00000E+00
         0.00000E+00
         0.00000E+00
         0.00000E+00
         0.00000E+00
         0.00000E+00
         0.00000E+00
         0.00000E+00
         0.00000E+00
         0.00000E+00
         0.00000E+00
         0.00000E+00
         0.00000E+00
         0.00000E+00
         0.00000E+00
         0.00000E+00
         0.00000E+00
         0.00000E+00
         0.00000E+00
         0.00000E+00
         0.00000E+00
         0.00000E+00
         0.00000E+00
         0.00000E+00
         0.00000E+00
         0.00000E+00
         0.00000E+00
         0.00000E+00
         0.00000E+00
         0.00000E+00
         0.00000E+00
         0.00000E+00
         0.00000E+00
         0.00000E+00
         0.00000E+00
         0.00000E+00
         0.00000E+00
         0.00000E+00
         0.00000E+00
         0.00000E+00
         0.00000E+00
         0.00000E+00
         0.00000E+00
         0.00000E+00
         0.00000E+00
         0.00000E+00
         0.00000E+00
         0.00000E+00
         0.00000E+00
         0.00000E+00
         0.00000E+00
         0.00000E+00
         0.00000E+00
         0.00000E+00
         0.00000E+00
         0.00000E+00
         0.00000E+00
         0.00000E+00
         0.00000E+00
         0.00000E+00
         0.00000E+00
         0.00000E+00
         0.00000E+00
         0.00000E+00
         0.00000E+00
         0.00000E+00
         0.00000E+00
         0.00000E+00
         0.00000E+00
         0.00000E+00
         0.00000E+00
         0.00000E+00
         0.00000E+00
         0.00000E+00
         0.00000E+00
         0.00000E+00
         0.00000E+00
         0.00000E+00
         0.00000E+00
         0.00000E+00
         0.00000E+00
         0.00000E+00
         0.00000E+00
         0.00000E+00
         0.00000E+00
         0.00000E+00
         0.00000E+00
         0.00000E+00
         0.00000E+00
         0.00000E+00
         0.00000E+00
         0.00000E+00
         0.00000E+00
         0.00000E+00
         0.00000E+00
         0.00000E+00
         0.00000E+00
         0.00000E+00
         0.00000E+00
         0.00000E+00
         0.00000E+00
         0.00000E+00
         0.00000E+00
         0.00000E+00
         0.00000E+00
         0.00000E+00
         0.00000E+00
         0.00000E+00
         0.00000E+00
         0.00000E+00
         0.00000E+00
         0.00000E+00
         0.00000E+00
         0.00000E+00
         0.00000E+00
         0.00000E+00
         0.00000E+00
         0.00000E+00
         0.00000E+00
         0.00000E+00
         0.00000E+00
         0.00000E+00
         0.00000E+00
         0.00000E+00
         0.00000E+00
         0.00000E+00
         0.00000E+00
         0.00000E+00
         0.00000E+00
         0.00000E+00
         0.00000E+00
         0.00000E+00
         0.00000E+00
         0.00000E+00
         0.00000E+00
         0.00000E+00
         0.00000E+00
         0.00000E+00
         0.00000E+00
         0.00000E+00
         0.00000E+00
         0.00000E+00
         0.00000E+00
         0.00000E+00
         0.00000E+00
         0.00000E+00
         0.00000E+00
         0.00000E+00
         0.00000E+00
         0.00000E+00
         0.00000E+00
         0.00000E+00
         0.00000E+00
         0.00000E+00
         0.00000E+00
         0.00000E+00
         0.00000E+00
         0.00000E+00
         0.00000E+00
         0.00000E+00
         0.00000E+00
         0.00000E+00
         0.00000E+00
         0.00000E+00
         0.00000E+00
         0.00000E+00
         0.00000E+00
         0.00000E+00
         0.00000E+00
         0.00000E+00
         0.00000E+00
         0.00000E+00
         0.00000E+00
         0.00000E+00
         0.00000E+00
         0.00000E+00
         0.00000E+00
         0.00000E+00
         0.00000E+00
         0.00000E+00
         0.00000E+00
         0.00000E+00
         0.00000E+00
         0.00000E+00
         0.00000E+00
         0.00000E+00
         0.00000E+00
         0.00000E+00
         0.00000E+00
         0.00000E+00
         0.00000E+00
         0.00000E+00
         0.00000E+00
         0.00000E+00
         0.00000E+00
         0.00000E+00
         0.00000E+00
         0.00000E+00
         0.00000E+00
         0.00000E+00
         0.00000E+00
         0.00000E+00
         0.00000E+00
         0.00000E+00
         0.00000E+00
         0.00000E+00
         0.00000E+00
         0.00000E+00
         0.00000E+00
         0.00000E+00
         0.00000E+00
         0.00000E+00
         0.00000E+00
         0.00000E+00
         0.00000E+00
         0.00000E+00
         0.00000E+00
         0.00000E+00
         0.00000E+00
         0.00000E+00
         0.00000E+00
         0.00000E+00
         0.00000E+00
         0.00000E+00
         0.00000E+00
         0.00000E+00
         0.00000E+00
         0.00000E+00
         0.00000E+00
         0.00000E+00
         0.00000E+00
         0.00000E+00
         0.00000E+00
         0.00000E+00
         0.00000E+00
         0.00000E+00
         0.00000E+00
         0.00000E+00
         0.00000E+00
         0.00000E+00
         0.00000E+00
         0.00000E+00
         0.00000E+00
         0.00000E+00
         0.00000E+00
         0.00000E+00
         0.00000E+00
         0.00000E+00
         0.00000E+00
         0.00000E+00
         0.00000E+00
         0.00000E+00
         0.00000E+00
         0.00000E+00
         0.00000E+00
         0.00000E+00
         0.00000E+00
         0.00000E+00
         0.00000E+00
         0.00000E+00
         0.00000E+00
         0.00000E+00
         0.00000E+00
         0.00000E+00
         0.00000E+00
         0.00000E+00
         0.00000E+00
         0.00000E+00
         0.00000E+00
         0.00000E+00
         0.00000E+00
         0.00000E+00
         0.00000E+00
         0.00000E+00
         0.00000E+00
         0.00000E+00
         0.00000E+00
         0.00000E+00
         0.00000E+00
         0.00000E+00
         0.00000E+00
         0.00000E+00
         0.00000E+00
         0.00000E+00
         0.00000E+00
         0.00000E+00
         0.00000E+00
         0.00000E+00
         0.00000E+00
         0.00000E+00
         0.00000E+00
         0.00000E+00
         0.00000E+00
         0.00000E+00
         0.00000E+00
         0.00000E+00
         0.00000E+00
         0.00000E+00
         0.00000E+00
         0.00000E+00
         0.00000E+00
         0.00000E+00
         0.00000E+00
         0.00000E+00
         0.00000E+00
         0.00000E+00
         0.00000E+00
         0.00000E+00
         0.00000E+00
         0.00000E+00
         0.00000E+00
         0.00000E+00
         0.00000E+00
         0.00000E+00
         0.00000E+00
         0.00000E+00
         0.00000E+00
         0.00000E+00
         0.00000E+00
         0.00000E+00
         0.00000E+00
         0.00000E+00
         0.00000E+00
         0.00000E+00
         0.00000E+00
         0.00000E+00
         0.00000E+00
         0.00000E+00
         0.00000E+00
         0.00000E+00
         0.00000E+00
         0.00000E+00
         0.00000E+00
         0.00000E+00
         0.00000E+00
         0.00000E+00
         0.00000E+00
         0.00000E+00
         0.00000E+00
         0.00000E+00
         0.00000E+00
         0.00000E+00
         0.00000E+00
         0.00000E+00
         0.00000E+00
         0.00000E+00
         0.00000E+00
         0.00000E+00
         0.00000E+00
         0.00000E+00
         0.00000E+00
         0.00000E+00
         0.00000E+00
         0.00000E+00
         0.00000E+00
         0.00000E+00
         0.00000E+00
         0.00000E+00
         0.00000E+00
         0.00000E+00
         0.00000E+00
         0.00000E+00
         0.00000E+00
         0.00000E+00
         0.00000E+00
         0.00000E+00
         0.00000E+00
         0.00000E+00
         0.00000E+00
         0.00000E+00
         0.00000E+00
         0.00000E+00
         0.00000E+00
         0.00000E+00
         0.00000E+00
         0.00000E+00
         0.00000E+00
         0.00000E+00
         0.00000E+00
         0.00000E+00
         0.00000E+00
         0.00000E+00
         0.00000E+00
         0.00000E+00
         0.00000E+00
         0.00000E+00
         0.00000E+00
         0.00000E+00
         0.00000E+00
         0.00000E+00
         0.00000E+00
         0.00000E+00
         0.00000E+00
         0.00000E+00
         0.00000E+00
         0.00000E+00
         0.00000E+00
         0.00000E+00
         0.00000E+00
         0.00000E+00
         0.00000E+00
         0.00000E+00
         0.00000E+00
         0.00000E+00
         0.00000E+00
         0.00000E+00
         0.00000E+00
         0.00000E+00
         0.00000E+00
         0.00000E+00
         0.00000E+00
         0.00000E+00
         0.00000E+00
         0.00000E+00
         0.00000E+00
         0.00000E+00
         0.00000E+00
         0.00000E+00
         0.00000E+00
         0.00000E+00
         0.00000E+00
         0.00000E+00
         0.00000E+00
         0.00000E+00
         0.00000E+00
         0.00000E+00
         0.00000E+00
         0.00000E+00
         0.00000E+00
         0.00000E+00
         0.00000E+00
         0.00000E+00
         0.00000E+00
         0.00000E+00
         0.00000E+00
         0.00000E+00
         0.00000E+00
         0.00000E+00
         0.00000E+00
         0.00000E+00
         0.00000E+00
         0.00000E+00
         0.00000E+00
         0.00000E+00
         0.00000E+00
         0.00000E+00
         0.00000E+00
         0.00000E+00
         0.00000E+00
         0.00000E+00
         0.00000E+00
         0.00000E+00
         0.00000E+00
         0.00000E+00
         0.00000E+00
         0.00000E+00
         0.00000E+00
         0.00000E+00
         0.00000E+00
         0.00000E+00
         0.00000E+00
         0.00000E+00
         0.00000E+00
         0.00000E+00
         0.00000E+00
         0.00000E+00
         0.00000E+00
         0.00000E+00
         0.00000E+00
         0.00000E+00
         0.00000E+00
         0.00000E+00
         0.00000E+00
         0.00000E+00
         0.00000E+00
         0.00000E+00
         0.00000E+00
         0.00000E+00
         0.00000E+00
         0.00000E+00
         0.00000E+00
         0.00000E+00
         0.00000E+00
         0.00000E+00
         0.00000E+00
         0.00000E+00
         0.00000E+00
         0.00000E+00
         0.00000E+00
         0.00000E+00
         0.00000E+00
         0.00000E+00
         0.00000E+00
         0.00000E+00
         0.00000E+00
         0.00000E+00
         0.00000E+00
         0.00000E+00
         0.00000E+00
         0.00000E+00
         0.00000E+00
         0.00000E+00
         0.00000E+00
         0.00000E+00
         0.00000E+00
         0.00000E+00
         0.00000E+00
         0.00000E+00
         0.00000E+00
         0.00000E+00
         0.00000E+00
         0.00000E+00
         0.00000E+00
         0.00000E+00
         0.00000E+00
         0.00000E+00
         0.00000E+00
         0.00000E+00
         0.00000E+00
         0.00000E+00
         0.00000E+00
         0.00000E+00
         0.00000E+00
         0.00000E+00
         0.00000E+00
         0.00000E+00
         0.00000E+00
         0.00000E+00
         0.00000E+00
         0.00000E+00
         0.00000E+00
         0.00000E+00
         0.00000E+00
         0.00000E+00
         0.00000E+00
         0.00000E+00
         0.00000E+00
         0.00000E+00
         0.00000E+00
         0.00000E+00
         0.00000E+00
         0.00000E+00
         0.00000E+00
         0.00000E+00
         0.00000E+00
         0.00000E+00
         0.00000E+00
         0.00000E+00
         0.00000E+00
         0.00000E+00
         0.00000E+00
         0.00000E+00
         0.00000E+00
         0.00000E+00
         0.00000E+00
         0.00000E+00
         0.00000E+00
         0.00000E+00
         0.00000E+00
         0.00000E+00
         0.00000E+00
         0.00000E+00
         0.00000E+00
         0.00000E+00
         0.00000E+00
         0.00000E+00
         0.00000E+00
         0.00000E+00
         0.00000E+00
         0.00000E+00
         0.00000E+00
         0.00000E+00
         0.00000E+00
         0.00000E+00
         0.00000E+00
         0.00000E+00
         0.00000E+00
         0.00000E+00
         0.00000E+00
         0.00000E+00
         0.00000E+00
         0.00000E+00
         0.00000E+00
         0.00000E+00
         0.00000E+00
         0.00000E+00
         0.00000E+00
         0.00000E+00
         0.00000E+00
         0.00000E+00
         0.00000E+00
         0.00000E+00
         0.00000E+00
         0.00000E+00
         0.00000E+00
         0.00000E+00
         0.00000E+00
         0.00000E+00
         0.00000E+00
         0.00000E+00
         0.00000E+00
         0.00000E+00
         0.00000E+00
         0.00000E+00
         0.00000E+00
         0.00000E+00
         0.00000E+00
         0.00000E+00
         0.00000E+00
         0.00000E+00
         0.00000E+00
         0.00000E+00
         0.00000E+00
         0.00000E+00
         0.00000E+00
         0.00000E+00
         0.00000E+00
         0.00000E+00
         0.00000E+00
         0.00000E+00
         0.00000E+00
         0.00000E+00
         0.00000E+00
         0.00000E+00
         0.00000E+00
         0.00000E+00
         0.00000E+00
         0.00000E+00
         0.00000E+00
         0.00000E+00
         0.00000E+00
         0.00000E+00
         0.00000E+00
         0.00000E+00
         0.00000E+00
         0.00000E+00
         0.00000E+00
         0.00000E+00
         0.00000E+00
         0.00000E+00
         0.00000E+00
         0.00000E+00
         0.00000E+00
         0.00000E+00
         0.00000E+00
         0.00000E+00
         0.00000E+00
         0.00000E+00
         0.00000E+00
         0.00000E+00
         0.00000E+00
         0.00000E+00
         0.00000E+00
         0.00000E+00
         0.00000E+00
         0.00000E+00
         0.00000E+00
         0.00000E+00
         0.00000E+00
         0.00000E+00
         0.00000E+00
         0.00000E+00
         0.00000E+00
         0.00000E+00
         0.00000E+00
         0.00000E+00
         0.00000E+00
         0.00000E+00
         0.00000E+00
         0.00000E+00
         0.00000E+00
         0.00000E+00
         0.00000E+00
         0.00000E+00
         0.00000E+00
         0.00000E+00
         0.00000E+00
         0.00000E+00
         0.00000E+00
         0.00000E+00
         0.00000E+00
         0.00000E+00
         0.00000E+00
         0.00000E+00
         0.00000E+00
         0.00000E+00
         0.00000E+00
         0.00000E+00
         0.00000E+00
         0.00000E+00
         0.00000E+00
         0.00000E+00
         0.00000E+00
         0.00000E+00
         0.00000E+00
         0.00000E+00
         0.00000E+00
         0.00000E+00
         0.00000E+00
         0.00000E+00
         0.00000E+00
         0.00000E+00
         0.00000E+00
         0.00000E+00
         0.00000E+00
         0.00000E+00
         0.00000E+00
         0.00000E+00
         0.00000E+00
         0.00000E+00
         0.00000E+00
         0.00000E+00
         0.00000E+00
         0.00000E+00
         0.00000E+00
         0.00000E+00
         0.00000E+00
         0.00000E+00
         0.00000E+00
         0.00000E+00
         0.00000E+00
         0.00000E+00
         0.00000E+00
         0.00000E+00
         0.00000E+00
         0.00000E+00
         0.00000E+00
         0.00000E+00
         0.00000E+00
         0.00000E+00
         0.00000E+00
         0.00000E+00
         0.00000E+00
         0.00000E+00
         0.00000E+00
         0.00000E+00
         0.00000E+00
         0.00000E+00
         0.00000E+00
         0.00000E+00
         0.00000E+00
         0.00000E+00
         0.00000E+00
         0.00000E+00
         0.00000E+00
         0.00000E+00
         0.00000E+00
         0.00000E+00
         0.00000E+00
         0.00000E+00
         0.00000E+00
         0.00000E+00
         0.00000E+00
         0.00000E+00
         0.00000E+00
         0.00000E+00
         0.00000E+00
         0.00000E+00
         0.00000E+00
         0.00000E+00
         0.00000E+00
         0.00000E+00
         0.00000E+00
         0.00000E+00
         0.00000E+00
         0.00000E+00
         0.00000E+00
         0.00000E+00
         0.00000E+00
         0.00000E+00
         0.00000E+00
         0.00000E+00
         0.00000E+00
         0.00000E+00
         0.00000E+00
         0.00000E+00
         0.00000E+00
         0.00000E+00
         0.00000E+00
         0.00000E+00
         0.00000E+00
         0.00000E+00
         0.00000E+00
         0.00000E+00
         0.00000E+00
         0.00000E+00
         0.00000E+00
         0.00000E+00
         0.00000E+00
         0.00000E+00
         0.00000E+00
         0.00000E+00
         0.00000E+00
         0.00000E+00
         0.00000E+00
         0.00000E+00
         0.00000E+00
         0.00000E+00
         0.00000E+00
         0.00000E+00
         0.00000E+00
         0.00000E+00
         0.00000E+00
         0.00000E+00
         0.00000E+00
         0.00000E+00
         0.00000E+00
         0.00000E+00
         0.00000E+00
         0.00000E+00
         0.00000E+00
         0.00000E+00
         0.00000E+00
         0.00000E+00
         0.00000E+00
         0.00000E+00
         0.00000E+00
         0.00000E+00
         0.00000E+00
         0.00000E+00
         0.00000E+00
         0.00000E+00
         0.00000E+00
         0.00000E+00
         0.00000E+00
         0.00000E+00
         0.00000E+00
         0.00000E+00
         0.00000E+00
         0.00000E+00
         0.00000E+00
         0.00000E+00
         0.00000E+00
         0.00000E+00
         0.00000E+00
         0.00000E+00
         0.00000E+00
         0.00000E+00
         0.00000E+00
         0.00000E+00
         0.00000E+00
         0.00000E+00
         0.00000E+00
         0.00000E+00
         0.00000E+00
         0.00000E+00
         0.00000E+00
         0.00000E+00
         0.00000E+00
         0.00000E+00
         0.00000E+00
         0.00000E+00
         0.00000E+00
         0.00000E+00
         0.00000E+00
         0.00000E+00
         0.00000E+00
         0.00000E+00
         0.00000E+00
         0.00000E+00
         0.00000E+00
         0.00000E+00
         0.00000E+00
         0.00000E+00
         0.00000E+00
         0.00000E+00
         0.00000E+00
         0.00000E+00
         0.00000E+00
         0.00000E+00
         0.00000E+00
         0.00000E+00
         0.00000E+00
         0.00000E+00
         0.00000E+00
         0.00000E+00
         0.00000E+00
         0.00000E+00
         0.00000E+00
         0.00000E+00
         0.00000E+00
         0.00000E+00
         0.00000E+00
         0.00000E+00
         0.00000E+00
         0.00000E+00
         0.00000E+00
         0.00000E+00
         0.00000E+00
         0.00000E+00
         0.00000E+00
         0.00000E+00
         0.00000E+00
         0.00000E+00
         0.00000E+00
         0.00000E+00
         0.00000E+00
         0.00000E+00
         0.00000E+00
         0.00000E+00
         0.00000E+00
         0.00000E+00
         0.00000E+00
         0.00000E+00
         0.00000E+00
         0.00000E+00
         0.00000E+00
         0.00000E+00
         0.00000E+00
         0.00000E+00
         0.00000E+00
         0.00000E+00
         0.00000E+00
         0.00000E+00
         0.00000E+00
         0.00000E+00
         0.00000E+00
         0.00000E+00
         0.00000E+00
         0.00000E+00
         0.00000E+00
         0.00000E+00
         0.00000E+00
         0.00000E+00
         0.00000E+00
         0.00000E+00
         0.00000E+00
         0.00000E+00
         0.00000E+00
         0.00000E+00
         0.00000E+00
         0.00000E+00
         0.00000E+00
         0.00000E+00
         0.00000E+00
         0.00000E+00
         0.00000E+00
         0.00000E+00
         0.00000E+00
         0.00000E+00
         0.00000E+00
         0.00000E+00
         0.00000E+00
         0.00000E+00
         0.00000E+00
         0.00000E+00
         0.00000E+00
         0.00000E+00
         0.00000E+00
         0.00000E+00
         0.00000E+00
         0.00000E+00
         0.00000E+00
         0.00000E+00
         0.00000E+00
         0.00000E+00
         0.00000E+00
         0.00000E+00
         0.00000E+00
         0.00000E+00
         0.00000E+00
         0.00000E+00
         0.00000E+00
         0.00000E+00
         0.00000E+00
         0.00000E+00
         0.00000E+00
         0.00000E+00
         0.00000E+00
         0.00000E+00
         0.00000E+00
         0.00000E+00
         0.00000E+00
         0.00000E+00
         0.00000E+00
         0.00000E+00
         0.00000E+00
         0.00000E+00
         0.00000E+00
         0.00000E+00
         0.00000E+00
         0.00000E+00
         0.00000E+00
         0.00000E+00
         0.00000E+00
         0.00000E+00
         0.00000E+00
         0.00000E+00
         0.00000E+00
         0.00000E+00
         0.00000E+00
         0.00000E+00
         0.00000E+00
         0.00000E+00
         0.00000E+00
         0.00000E+00
         0.00000E+00
         0.00000E+00
         0.00000E+00
         0.00000E+00
         0.00000E+00
         0.00000E+00
         0.00000E+00
         0.00000E+00
         0.00000E+00
         0.00000E+00
         0.00000E+00
         0.00000E+00
         0.00000E+00
         0.00000E+00
         0.00000E+00
         0.00000E+00
         0.00000E+00
         0.00000E+00
         0.00000E+00
         0.00000E+00
         0.00000E+00
         0.00000E+00
         0.00000E+00
         0.00000E+00
         0.00000E+00
         0.00000E+00
         0.00000E+00
         0.00000E+00
         0.00000E+00
         0.00000E+00
         0.00000E+00
         0.00000E+00
         0.00000E+00
         0.00000E+00
         0.00000E+00
         0.00000E+00
         0.00000E+00
         0.00000E+00
         0.00000E+00
         0.00000E+00
         0.00000E+00
         0.00000E+00
         0.00000E+00
         0.00000E+00
         0.00000E+00
         0.00000E+00
         0.00000E+00
         0.00000E+00
         0.00000E+00
         0.00000E+00
         0.00000E+00
         0.00000E+00
         0.00000E+00
         0.00000E+00
         0.00000E+00
         0.00000E+00
         0.00000E+00
         0.00000E+00
         0.00000E+00
         0.00000E+00
         0.00000E+00
         0.00000E+00
         0.00000E+00
         0.00000E+00
         0.00000E+00
         0.00000E+00
         0.00000E+00
         0.00000E+00
         0.00000E+00
         0.00000E+00
         0.00000E+00
         0.00000E+00
         0.00000E+00
         0.00000E+00
         0.00000E+00
         0.00000E+00
         0.00000E+00
         0.00000E+00
         0.00000E+00
         0.00000E+00
         0.00000E+00
         0.00000E+00
         0.00000E+00
         0.00000E+00
         0.00000E+00
         0.00000E+00
         0.00000E+00
         0.00000E+00
         0.00000E+00
         0.00000E+00
         0.00000E+00
         0.00000E+00
         0.00000E+00
         0.00000E+00
         0.00000E+00
         0.00000E+00
         0.00000E+00
         0.00000E+00
         0.00000E+00
         0.00000E+00
         0.00000E+00
         0.00000E+00
         0.00000E+00
         0.00000E+00
         0.00000E+00
         0.00000E+00
         0.00000E+00
         0.00000E+00
         0.00000E+00
         0.00000E+00
         0.00000E+00
         0.00000E+00
         0.00000E+00
         0.00000E+00
         0.00000E+00
         0.00000E+00
         0.00000E+00
         0.00000E+00
         0.00000E+00
         0.00000E+00
         0.00000E+00
         0.00000E+00
         0.00000E+00
         0.00000E+00
         0.00000E+00
         0.00000E+00
         0.00000E+00
         0.00000E+00
         0.00000E+00
         0.00000E+00
         0.00000E+00
         0.00000E+00
         0.00000E+00
         0.00000E+00
         0.00000E+00
         0.00000E+00
         0.00000E+00
         0.00000E+00
         0.00000E+00
         0.00000E+00
         0.00000E+00
         0.00000E+00
         0.00000E+00
         0.00000E+00
         0.00000E+00
         0.00000E+00
         0.00000E+00
         0.00000E+00
         0.00000E+00
         0.00000E+00
         0.00000E+00
         0.00000E+00
         0.00000E+00
         0.00000E+00
         0.00000E+00
         0.00000E+00
         0.00000E+00
         0.00000E+00
         0.00000E+00
         0.00000E+00
         0.00000E+00
         0.00000E+00
         0.00000E+00
         0.00000E+00
         0.00000E+00
         0.00000E+00
         0.00000E+00
         0.00000E+00
         0.00000E+00
         0.00000E+00
         0.00000E+00
         0.00000E+00
         0.00000E+00
         0.00000E+00
         0.00000E+00
         0.00000E+00
         0.00000E+00
         0.00000E+00
         0.00000E+00
         0.00000E+00
         0.00000E+00
         0.00000E+00
         0.00000E+00
         0.00000E+00
         0.00000E+00
         0.00000E+00
         0.00000E+00
         0.00000E+00
         0.00000E+00
         0.00000E+00
         0.00000E+00
         0.00000E+00
         0.00000E+00
         0.00000E+00
         0.00000E+00
         0.00000E+00
         0.00000E+00
         0.00000E+00
         0.00000E+00
         0.00000E+00
         0.00000E+00
         0.00000E+00
         0.00000E+00
         0.00000E+00
         0.00000E+00
         0.00000E+00
         0.00000E+00
         0.00000E+00
         0.00000E+00
         0.00000E+00
         0.00000E+00
         0.00000E+00
         0.00000E+00
         0.00000E+00
         0.00000E+00
         0.00000E+00
         0.00000E+00
         0.00000E+00
         0.00000E+00
         0.00000E+00
         0.00000E+00
         0.00000E+00
         0.00000E+00
         0.00000E+00
         0.00000E+00
         0.00000E+00
         0.00000E+00
         0.00000E+00
         0.00000E+00
         0.00000E+00
         0.00000E+00
         0.00000E+00
         0.00000E+00
         0.00000E+00
         0.00000E+00
         0.00000E+00
         0.00000E+00
         0.00000E+00
         0.00000E+00
         0.00000E+00
         0.00000E+00
         0.00000E+00
         0.00000E+00
         0.00000E+00
         0.00000E+00
         0.00000E+00
         0.00000E+00
         0.00000E+00
         0.00000E+00
         0.00000E+00
         0.00000E+00
         0.00000E+00
         0.00000E+00
         0.00000E+00
         0.00000E+00
         0.00000E+00
         0.00000E+00
         0.00000E+00
         0.00000E+00
         0.00000E+00
         0.00000E+00
         0.00000E+00
         0.00000E+00
         0.00000E+00
         0.00000E+00
         0.00000E+00
         0.00000E+00
         0.00000E+00
         0.00000E+00
         0.00000E+00
         0.00000E+00
         0.00000E+00
         0.00000E+00
         0.00000E+00
         0.00000E+00
         0.00000E+00
         0.00000E+00
         0.00000E+00
         0.00000E+00
         0.00000E+00
         0.00000E+00
         0.00000E+00
         0.00000E+00
         0.00000E+00
         0.00000E+00
         0.00000E+00
         0.00000E+00
         0.00000E+00
         0.00000E+00
         0.00000E+00
         0.00000E+00
         0.00000E+00
         0.00000E+00
         0.00000E+00
         0.00000E+00
         0.00000E+00
         0.00000E+00
         0.00000E+00
         0.00000E+00
         0.00000E+00
         0.00000E+00
         0.00000E+00
         0.00000E+00
         0.00000E+00
         0.00000E+00
         0.00000E+00
         0.00000E+00
         0.00000E+00
         0.00000E+00
         0.00000E+00
         0.00000E+00
         0.00000E+00
         0.00000E+00
         0.00000E+00
         0.00000E+00
         0.00000E+00
         0.00000E+00
         0.00000E+00
         0.00000E+00
         0.00000E+00
         0.00000E+00
         0.00000E+00
         0.00000E+00
         0.00000E+00
         0.00000E+00
         0.00000E+00
  
SCALARS                   max_wave_vel  double 1
LOOKUP_TABLE default
         0.00000E+00
         0.00000E+00
         0.00000E+00
         0.00000E+00
         0.00000E+00
         0.00000E+00
         0.00000E+00
         0.00000E+00
         0.00000E+00
         0.00000E+00
         0.00000E+00
         0.00000E+00
         0.00000E+00
         0.00000E+00
         0.00000E+00
         0.00000E+00
         0.00000E+00
         0.00000E+00
         0.00000E+00
         0.00000E+00
         0.00000E+00
         0.00000E+00
         0.00000E+00
         0.00000E+00
         0.00000E+00
         0.00000E+00
         0.00000E+00
         0.00000E+00
         0.00000E+00
         0.00000E+00
         0.00000E+00
         0.00000E+00
         0.00000E+00
         0.00000E+00
         0.00000E+00
         0.00000E+00
         0.00000E+00
         0.00000E+00
         0.00000E+00
         0.00000E+00
         0.00000E+00
         0.00000E+00
         0.00000E+00
         0.00000E+00
         0.00000E+00
         0.00000E+00
         0.00000E+00
         0.00000E+00
         0.00000E+00
         0.00000E+00
         0.00000E+00
         0.00000E+00
         0.00000E+00
         0.00000E+00
         0.00000E+00
         0.00000E+00
         0.00000E+00
         0.00000E+00
         0.00000E+00
         0.00000E+00
         0.00000E+00
         0.00000E+00
         0.00000E+00
         0.00000E+00
         0.00000E+00
         0.00000E+00
         0.00000E+00
         0.00000E+00
         0.00000E+00
         0.00000E+00
         0.00000E+00
         0.00000E+00
         0.00000E+00
         0.00000E+00
         0.00000E+00
         0.00000E+00
         0.00000E+00
         0.00000E+00
         0.00000E+00
         0.00000E+00
         0.00000E+00
         0.00000E+00
         0.00000E+00
         0.00000E+00
         0.00000E+00
         0.00000E+00
         0.00000E+00
         0.00000E+00
         0.00000E+00
         0.00000E+00
         0.00000E+00
         0.00000E+00
         0.00000E+00
         0.00000E+00
         0.00000E+00
         0.00000E+00
         0.00000E+00
         0.00000E+00
         0.00000E+00
         0.00000E+00
         0.00000E+00
         0.00000E+00
         0.00000E+00
         0.00000E+00
         0.00000E+00
         0.00000E+00
         0.00000E+00
         0.00000E+00
         0.00000E+00
         0.00000E+00
         0.00000E+00
         0.00000E+00
         0.00000E+00
         0.00000E+00
         0.00000E+00
         0.00000E+00
         0.00000E+00
         0.00000E+00
         0.00000E+00
         0.00000E+00
         0.00000E+00
         0.00000E+00
         0.00000E+00
         0.00000E+00
         0.00000E+00
         0.00000E+00
         0.00000E+00
         0.00000E+00
         0.00000E+00
         0.00000E+00
         0.00000E+00
         0.00000E+00
         0.00000E+00
         0.00000E+00
         0.00000E+00
         0.00000E+00
         0.00000E+00
         0.00000E+00
         0.00000E+00
         0.00000E+00
         0.00000E+00
         0.00000E+00
         0.00000E+00
         0.00000E+00
         0.00000E+00
         0.00000E+00
         0.00000E+00
         0.00000E+00
         0.00000E+00
         0.00000E+00
         0.00000E+00
         0.00000E+00
         0.00000E+00
         0.00000E+00
         0.00000E+00
         0.00000E+00
         0.00000E+00
         0.00000E+00
         0.00000E+00
         0.00000E+00
         0.00000E+00
         0.00000E+00
         0.00000E+00
         0.00000E+00
         0.00000E+00
         0.00000E+00
         0.00000E+00
         0.00000E+00
         0.00000E+00
         0.00000E+00
         0.00000E+00
         0.00000E+00
         0.00000E+00
         0.00000E+00
         0.00000E+00
         0.00000E+00
         0.00000E+00
         0.00000E+00
         0.00000E+00
         0.00000E+00
         0.00000E+00
         0.00000E+00
         0.00000E+00
         0.00000E+00
         0.00000E+00
         0.00000E+00
         0.00000E+00
         0.00000E+00
         0.00000E+00
         0.00000E+00
         0.00000E+00
         0.00000E+00
         0.00000E+00
         0.00000E+00
         0.00000E+00
         0.00000E+00
         0.00000E+00
         0.00000E+00
         0.00000E+00
         0.00000E+00
         0.00000E+00
         0.00000E+00
         0.00000E+00
         0.00000E+00
         0.00000E+00
         0.00000E+00
         0.00000E+00
         0.00000E+00
         0.00000E+00
         0.00000E+00
         0.00000E+00
         0.00000E+00
         0.00000E+00
         0.00000E+00
         0.00000E+00
         0.00000E+00
         0.00000E+00
         0.00000E+00
         0.00000E+00
         0.00000E+00
         0.00000E+00
         0.00000E+00
         0.00000E+00
         0.00000E+00
         0.00000E+00
         0.00000E+00
         0.00000E+00
         0.00000E+00
         0.00000E+00
         0.00000E+00
         0.00000E+00
         0.00000E+00
         0.00000E+00
         0.00000E+00
         0.00000E+00
         0.00000E+00
         0.00000E+00
         0.00000E+00
         0.00000E+00
         0.00000E+00
         0.00000E+00
         0.00000E+00
         0.00000E+00
         0.00000E+00
         0.00000E+00
         0.00000E+00
         0.00000E+00
         0.00000E+00
         0.00000E+00
         0.00000E+00
         0.00000E+00
         0.00000E+00
         0.00000E+00
         0.00000E+00
         0.00000E+00
         0.00000E+00
         0.00000E+00
         0.00000E+00
         0.00000E+00
         0.00000E+00
         0.00000E+00
         0.00000E+00
         0.00000E+00
         0.00000E+00
         0.00000E+00
         0.00000E+00
         0.00000E+00
         0.00000E+00
         0.00000E+00
         0.00000E+00
         0.00000E+00
         0.00000E+00
         0.00000E+00
         0.00000E+00
         0.00000E+00
         0.00000E+00
         0.00000E+00
         0.00000E+00
         0.00000E+00
         0.00000E+00
         0.00000E+00
         0.00000E+00
         0.00000E+00
         0.00000E+00
         0.00000E+00
         0.00000E+00
         0.00000E+00
         0.00000E+00
         0.00000E+00
         0.00000E+00
         0.00000E+00
         0.00000E+00
         0.00000E+00
         0.00000E+00
         0.00000E+00
         0.00000E+00
         0.00000E+00
         0.00000E+00
         0.00000E+00
         0.00000E+00
         0.00000E+00
         0.00000E+00
         0.00000E+00
         0.00000E+00
         0.00000E+00
         0.00000E+00
         0.00000E+00
         0.00000E+00
         0.00000E+00
         0.00000E+00
         0.00000E+00
         0.00000E+00
         0.00000E+00
         0.00000E+00
         0.00000E+00
         0.00000E+00
         0.00000E+00
         0.00000E+00
         0.00000E+00
         0.00000E+00
         0.00000E+00
         0.00000E+00
         0.00000E+00
         0.00000E+00
         0.00000E+00
         0.00000E+00
         0.00000E+00
         0.00000E+00
         0.00000E+00
         0.00000E+00
         0.00000E+00
         0.00000E+00
         0.00000E+00
         0.00000E+00
         0.00000E+00
         0.00000E+00
         0.00000E+00
         0.00000E+00
         0.00000E+00
         0.00000E+00
         0.00000E+00
         0.00000E+00
         0.00000E+00
         0.00000E+00
         0.00000E+00
         0.00000E+00
         0.00000E+00
         0.00000E+00
         0.00000E+00
         0.00000E+00
         0.00000E+00
         0.00000E+00
         0.00000E+00
         0.00000E+00
         0.00000E+00
         0.00000E+00
         0.00000E+00
         0.00000E+00
         0.00000E+00
         0.00000E+00
         0.00000E+00
         0.00000E+00
         0.00000E+00
         0.00000E+00
         0.00000E+00
         0.00000E+00
         0.00000E+00
         0.00000E+00
         0.00000E+00
         0.00000E+00
         0.00000E+00
         0.00000E+00
         0.00000E+00
         0.00000E+00
         0.00000E+00
         0.00000E+00
         0.00000E+00
         0.00000E+00
         0.00000E+00
         0.00000E+00
         0.00000E+00
         0.00000E+00
         0.00000E+00
         0.00000E+00
         0.00000E+00
         0.00000E+00
         0.00000E+00
         0.00000E+00
         0.00000E+00
         0.00000E+00
         0.00000E+00
         0.00000E+00
         0.00000E+00
         0.00000E+00
         0.00000E+00
         0.00000E+00
         0.00000E+00
         0.00000E+00
         0.00000E+00
         0.00000E+00
         0.00000E+00
         0.00000E+00
         0.00000E+00
         0.00000E+00
         0.00000E+00
         0.00000E+00
         0.00000E+00
         0.00000E+00
         0.00000E+00
         0.00000E+00
         0.00000E+00
         0.00000E+00
         0.00000E+00
         0.00000E+00
         0.00000E+00
         0.00000E+00
         0.00000E+00
         0.00000E+00
         0.00000E+00
         0.00000E+00
         0.00000E+00
         0.00000E+00
         0.00000E+00
         0.00000E+00
         0.00000E+00
         0.00000E+00
         0.00000E+00
         0.00000E+00
         0.00000E+00
         0.00000E+00
         0.00000E+00
         0.00000E+00
         0.00000E+00
         0.00000E+00
         0.00000E+00
         0.00000E+00
         0.00000E+00
         0.00000E+00
         0.00000E+00
         0.00000E+00
         0.00000E+00
         0.00000E+00
         0.00000E+00
         0.00000E+00
         0.00000E+00
         0.00000E+00
         0.00000E+00
         0.00000E+00
         0.00000E+00
         0.00000E+00
         0.00000E+00
         0.00000E+00
         0.00000E+00
         0.00000E+00
         0.00000E+00
         0.00000E+00
         0.00000E+00
         0.00000E+00
         0.00000E+00
         0.00000E+00
         0.00000E+00
         0.00000E+00
         0.00000E+00
         0.00000E+00
         0.00000E+00
         0.00000E+00
         0.00000E+00
         0.00000E+00
         0.00000E+00
         0.00000E+00
         0.00000E+00
         0.00000E+00
         0.00000E+00
         0.00000E+00
         0.00000E+00
         0.00000E+00
         0.00000E+00
         0.00000E+00
         0.00000E+00
         0.00000E+00
         0.00000E+00
         0.00000E+00
         0.00000E+00
         0.00000E+00
         0.00000E+00
         0.00000E+00
         0.00000E+00
         0.00000E+00
         0.00000E+00
         0.00000E+00
         0.00000E+00
         0.00000E+00
         0.00000E+00
         0.00000E+00
         0.00000E+00
         0.00000E+00
         0.00000E+00
         0.00000E+00
         0.00000E+00
         0.00000E+00
         0.00000E+00
         0.00000E+00
         0.00000E+00
         0.00000E+00
         0.00000E+00
         0.00000E+00
         0.00000E+00
         0.00000E+00
         0.00000E+00
         0.00000E+00
         0.00000E+00
         0.00000E+00
         0.00000E+00
         0.00000E+00
         0.00000E+00
         0.00000E+00
         0.00000E+00
         0.00000E+00
         0.00000E+00
         0.00000E+00
         0.00000E+00
         0.00000E+00
         0.00000E+00
         0.00000E+00
         0.00000E+00
         0.00000E+00
         0.00000E+00
         0.00000E+00
         0.00000E+00
         0.00000E+00
         0.00000E+00
         0.00000E+00
         0.00000E+00
         0.00000E+00
         0.00000E+00
         0.00000E+00
         0.00000E+00
         0.00000E+00
         0.00000E+00
         0.00000E+00
         0.00000E+00
         0.00000E+00
         0.00000E+00
         0.00000E+00
         0.00000E+00
         0.00000E+00
         0.00000E+00
         0.00000E+00
         0.00000E+00
         0.00000E+00
         0.00000E+00
         0.00000E+00
         0.00000E+00
         0.00000E+00
         0.00000E+00
         0.00000E+00
         0.00000E+00
         0.00000E+00
         0.00000E+00
         0.00000E+00
         0.00000E+00
         0.00000E+00
         0.00000E+00
         0.00000E+00
         0.00000E+00
         0.00000E+00
         0.00000E+00
         0.00000E+00
         0.00000E+00
         0.00000E+00
         0.00000E+00
         0.00000E+00
         0.00000E+00
         0.00000E+00
         0.00000E+00
         0.00000E+00
         0.00000E+00
         0.00000E+00
         0.00000E+00
         0.00000E+00
         0.00000E+00
         0.00000E+00
         0.00000E+00
         0.00000E+00
         0.00000E+00
         0.00000E+00
         0.00000E+00
         0.00000E+00
         0.00000E+00
         0.00000E+00
         0.00000E+00
         0.00000E+00
         0.00000E+00
         0.00000E+00
         0.00000E+00
         0.00000E+00
         0.00000E+00
         0.00000E+00
         0.00000E+00
         0.00000E+00
         0.00000E+00
         0.00000E+00
         0.00000E+00
         0.00000E+00
         0.00000E+00
         0.00000E+00
         0.00000E+00
         0.00000E+00
         0.00000E+00
         0.00000E+00
         0.00000E+00
         0.00000E+00
         0.00000E+00
         0.00000E+00
         0.00000E+00
         0.00000E+00
         0.00000E+00
         0.00000E+00
         0.00000E+00
         0.00000E+00
         0.00000E+00
         0.00000E+00
         0.00000E+00
         0.00000E+00
         0.00000E+00
         0.00000E+00
         0.00000E+00
         0.00000E+00
         0.00000E+00
         0.00000E+00
         0.00000E+00
         0.00000E+00
         0.00000E+00
         0.00000E+00
         0.00000E+00
         0.00000E+00
         0.00000E+00
         0.00000E+00
         0.00000E+00
         0.00000E+00
         0.00000E+00
         0.00000E+00
         0.00000E+00
         0.00000E+00
         0.00000E+00
         0.00000E+00
         0.00000E+00
         0.00000E+00
         0.00000E+00
         0.00000E+00
         0.00000E+00
         0.00000E+00
         0.00000E+00
         0.00000E+00
         0.00000E+00
         0.00000E+00
         0.00000E+00
         0.00000E+00
         0.00000E+00
         0.00000E+00
         0.00000E+00
         0.00000E+00
         0.00000E+00
         0.00000E+00
         0.00000E+00
         0.00000E+00
         0.00000E+00
         0.00000E+00
         0.00000E+00
         0.00000E+00
         0.00000E+00
         0.00000E+00
         0.00000E+00
         0.00000E+00
         0.00000E+00
         0.00000E+00
         0.00000E+00
         0.00000E+00
         0.00000E+00
         0.00000E+00
         0.00000E+00
         0.00000E+00
         0.00000E+00
         0.00000E+00
         0.00000E+00
         0.00000E+00
         0.00000E+00
         0.00000E+00
         0.00000E+00
         0.00000E+00
         0.00000E+00
         0.00000E+00
         0.00000E+00
         0.00000E+00
         0.00000E+00
         0.00000E+00
         0.00000E+00
         0.00000E+00
         0.00000E+00
         0.00000E+00
         0.00000E+00
         0.00000E+00
         0.00000E+00
         0.00000E+00
         0.00000E+00
         0.00000E+00
         0.00000E+00
         0.00000E+00
         0.00000E+00
         0.00000E+00
         0.00000E+00
         0.00000E+00
         0.00000E+00
         0.00000E+00
         0.00000E+00
         0.00000E+00
         0.00000E+00
         0.00000E+00
         0.00000E+00
         0.00000E+00
         0.00000E+00
         0.00000E+00
         0.00000E+00
         0.00000E+00
         0.00000E+00
         0.00000E+00
         0.00000E+00
         0.00000E+00
         0.00000E+00
         0.00000E+00
         0.00000E+00
         0.00000E+00
         0.00000E+00
         0.00000E+00
         0.00000E+00
         0.00000E+00
         0.00000E+00
         0.00000E+00
         0.00000E+00
         0.00000E+00
         0.00000E+00
         0.00000E+00
         0.00000E+00
         0.00000E+00
         0.00000E+00
         0.00000E+00
         0.00000E+00
         0.00000E+00
         0.00000E+00
         0.00000E+00
         0.00000E+00
         0.00000E+00
         0.00000E+00
         0.00000E+00
         0.00000E+00
         0.00000E+00
         0.00000E+00
         0.00000E+00
         0.00000E+00
         0.00000E+00
         0.00000E+00
         0.00000E+00
         0.00000E+00
         0.00000E+00
         0.00000E+00
         0.00000E+00
         0.00000E+00
         0.00000E+00
         0.00000E+00
         0.00000E+00
         0.00000E+00
         0.00000E+00
         0.00000E+00
         0.00000E+00
         0.00000E+00
         0.00000E+00
         0.00000E+00
         0.00000E+00
         0.00000E+00
         0.00000E+00
         0.00000E+00
         0.00000E+00
         0.00000E+00
         0.00000E+00
         0.00000E+00
         0.00000E+00
         0.00000E+00
         0.00000E+00
         0.00000E+00
         0.00000E+00
         0.00000E+00
         0.00000E+00
         0.00000E+00
         0.00000E+00
         0.00000E+00
         0.00000E+00
         0.00000E+00
         0.00000E+00
         0.00000E+00
         0.00000E+00
         0.00000E+00
         0.00000E+00
         0.00000E+00
         0.00000E+00
         0.00000E+00
         0.00000E+00
         0.00000E+00
         0.00000E+00
         0.00000E+00
         0.00000E+00
         0.00000E+00
         0.00000E+00
         0.00000E+00
         0.00000E+00
         0.00000E+00
         0.00000E+00
         0.00000E+00
         0.00000E+00
         0.00000E+00
         0.00000E+00
         0.00000E+00
         0.00000E+00
         0.00000E+00
         0.00000E+00
         0.00000E+00
         0.00000E+00
         0.00000E+00
         0.00000E+00
         0.00000E+00
         0.00000E+00
         0.00000E+00
         0.00000E+00
         0.00000E+00
         0.00000E+00
         0.00000E+00
         0.00000E+00
         0.00000E+00
         0.00000E+00
         0.00000E+00
         0.00000E+00
         0.00000E+00
         0.00000E+00
         0.00000E+00
         0.00000E+00
         0.00000E+00
         0.00000E+00
         0.00000E+00
         0.00000E+00
         0.00000E+00
         0.00000E+00
         0.00000E+00
         0.00000E+00
         0.00000E+00
         0.00000E+00
         0.00000E+00
         0.00000E+00
         0.00000E+00
         0.00000E+00
         0.00000E+00
         0.00000E+00
         0.00000E+00
         0.00000E+00
         0.00000E+00
         0.00000E+00
         0.00000E+00
         0.00000E+00
         0.00000E+00
         0.00000E+00
         0.00000E+00
         0.00000E+00
         0.00000E+00
         0.00000E+00
         0.00000E+00
         0.00000E+00
         0.00000E+00
         0.00000E+00
         0.00000E+00
         0.00000E+00
         0.00000E+00
         0.00000E+00
         0.00000E+00
         0.00000E+00
         0.00000E+00
         0.00000E+00
         0.00000E+00
         0.00000E+00
         0.00000E+00
         0.00000E+00
         0.00000E+00
         0.00000E+00
         0.00000E+00
         0.00000E+00
         0.00000E+00
         0.00000E+00
         0.00000E+00
         0.00000E+00
         0.00000E+00
         0.00000E+00
         0.00000E+00
         0.00000E+00
         0.00000E+00
         0.00000E+00
         0.00000E+00
         0.00000E+00
         0.00000E+00
         0.00000E+00
         0.00000E+00
         0.00000E+00
         0.00000E+00
         0.00000E+00
         0.00000E+00
         0.00000E+00
         0.00000E+00
         0.00000E+00
         0.00000E+00
         0.00000E+00
         0.00000E+00
         0.00000E+00
         0.00000E+00
         0.00000E+00
         0.00000E+00
         0.00000E+00
         0.00000E+00
         0.00000E+00
         0.00000E+00
         0.00000E+00
         0.00000E+00
         0.00000E+00
         0.00000E+00
         0.00000E+00
         0.00000E+00
         0.00000E+00
         0.00000E+00
         0.00000E+00
         0.00000E+00
         0.00000E+00
         0.00000E+00
         0.00000E+00
         0.00000E+00
         0.00000E+00
         0.00000E+00
         0.00000E+00
         0.00000E+00
         0.00000E+00
         0.00000E+00
         0.00000E+00
         0.00000E+00
         0.00000E+00
         0.00000E+00
         0.00000E+00
         0.00000E+00
         0.00000E+00
         0.00000E+00
         0.00000E+00
         0.00000E+00
         0.00000E+00
         0.00000E+00
         0.00000E+00
         0.00000E+00
         0.00000E+00
         0.00000E+00
         0.00000E+00
         0.00000E+00
         0.00000E+00
         0.00000E+00
         0.00000E+00
         0.00000E+00
         0.00000E+00
         0.00000E+00
         0.00000E+00
         0.00000E+00
         0.00000E+00
         0.00000E+00
         0.00000E+00
         0.00000E+00
         0.00000E+00
         0.00000E+00
         0.00000E+00
         0.00000E+00
         0.00000E+00
         0.00000E+00
         0.00000E+00
         0.00000E+00
         0.00000E+00
         0.00000E+00
         0.00000E+00
         0.00000E+00
         0.00000E+00
         0.00000E+00
         0.00000E+00
         0.00000E+00
         0.00000E+00
         0.00000E+00
         0.00000E+00
         0.00000E+00
         0.00000E+00
         0.00000E+00
         0.00000E+00
         0.00000E+00
         0.00000E+00
         0.00000E+00
         0.00000E+00
         0.00000E+00
         0.00000E+00
         0.00000E+00
         0.00000E+00
         0.00000E+00
         0.00000E+00
         0.00000E+00
         0.00000E+00
         0.00000E+00
         0.00000E+00
         0.00000E+00
         0.00000E+00
         0.00000E+00
         0.00000E+00
         0.00000E+00
         0.00000E+00
         0.00000E+00
         0.00000E+00
         0.00000E+00
         0.00000E+00
         0.00000E+00
         0.00000E+00
         0.00000E+00
         0.00000E+00
         0.00000E+00
         0.00000E+00
         0.00000E+00
         0.00000E+00
         0.00000E+00
         0.00000E+00
         0.00000E+00
         0.00000E+00
         0.00000E+00
         0.00000E+00
         0.00000E+00
         0.00000E+00
         0.00000E+00
         0.00000E+00
         0.00000E+00
         0.00000E+00
         0.00000E+00
         0.00000E+00
         0.00000E+00
         0.00000E+00
         0.00000E+00
         0.00000E+00
         0.00000E+00
         0.00000E+00
         0.00000E+00
         0.00000E+00
         0.00000E+00
         0.00000E+00
         0.00000E+00
         0.00000E+00
         0.00000E+00
         0.00000E+00
         0.00000E+00
         0.00000E+00
         0.00000E+00
         0.00000E+00
         0.00000E+00
         0.00000E+00
         0.00000E+00
         0.00000E+00
         0.00000E+00
         0.00000E+00
         0.00000E+00
         0.00000E+00
         0.00000E+00
         0.00000E+00
         0.00000E+00
         0.00000E+00
         0.00000E+00
         0.00000E+00
         0.00000E+00
         0.00000E+00
         0.00000E+00
         0.00000E+00
         0.00000E+00
         0.00000E+00
         0.00000E+00
         0.00000E+00
         0.00000E+00
         0.00000E+00
         0.00000E+00
         0.00000E+00
         0.00000E+00
         0.00000E+00
         0.00000E+00
         0.00000E+00
         0.00000E+00
         0.00000E+00
         0.00000E+00
         0.00000E+00
         0.00000E+00
         0.00000E+00
         0.00000E+00
         0.00000E+00
         0.00000E+00
         0.00000E+00
         0.00000E+00
         0.00000E+00
         0.00000E+00
         0.00000E+00
         0.00000E+00
         0.00000E+00
         0.00000E+00
         0.00000E+00
         0.00000E+00
         0.00000E+00
         0.00000E+00
         0.00000E+00
         0.00000E+00
         0.00000E+00
         0.00000E+00
         0.00000E+00
         0.00000E+00
         0.00000E+00
         0.00000E+00
         0.00000E+00
         0.00000E+00
         0.00000E+00
         0.00000E+00
         0.00000E+00
         0.00000E+00
         0.00000E+00
         0.00000E+00
         0.00000E+00
         0.00000E+00
         0.00000E+00
         0.00000E+00
         0.00000E+00
         0.00000E+00
         0.00000E+00
         0.00000E+00
         0.00000E+00
         0.00000E+00
         0.00000E+00
         0.00000E+00
         0.00000E+00
         0.00000E+00
         0.00000E+00
         0.00000E+00
         0.00000E+00
         0.00000E+00
         0.00000E+00
         0.00000E+00
         0.00000E+00
         0.00000E+00
         0.00000E+00
         0.00000E+00
         0.00000E+00
         0.00000E+00
         0.00000E+00
         0.00000E+00
         0.00000E+00
         0.00000E+00
         0.00000E+00
         0.00000E+00
         0.00000E+00
         0.00000E+00
         0.00000E+00
         0.00000E+00
         0.00000E+00
         0.00000E+00
         0.00000E+00
         0.00000E+00
         0.00000E+00
         0.00000E+00
         0.00000E+00
         0.00000E+00
         0.00000E+00
         0.00000E+00
         0.00000E+00
         0.00000E+00
         0.00000E+00
         0.00000E+00
         0.00000E+00
         0.00000E+00
         0.00000E+00
         0.00000E+00
         0.00000E+00
         0.00000E+00
         0.00000E+00
         0.00000E+00
         0.00000E+00
         0.00000E+00
         0.00000E+00
         0.00000E+00
         0.00000E+00
         0.00000E+00
         0.00000E+00
         0.00000E+00
         0.00000E+00
         0.00000E+00
         0.00000E+00
         0.00000E+00
         0.00000E+00
         0.00000E+00
         0.00000E+00
         0.00000E+00
         0.00000E+00
         0.00000E+00
         0.00000E+00
         0.00000E+00
         0.00000E+00
         0.00000E+00
         0.00000E+00
         0.00000E+00
         0.00000E+00
         0.00000E+00
         0.00000E+00
         0.00000E+00
         0.00000E+00
         0.00000E+00
         0.00000E+00
         0.00000E+00
         0.00000E+00
         0.00000E+00
         0.00000E+00
         0.00000E+00
         0.00000E+00
         0.00000E+00
         0.00000E+00
         0.00000E+00
         0.00000E+00
         0.00000E+00
         0.00000E+00
         0.00000E+00
         0.00000E+00
         0.00000E+00
         0.00000E+00
         0.00000E+00
         0.00000E+00
         0.00000E+00
         0.00000E+00
         0.00000E+00
         0.00000E+00
         0.00000E+00
         0.00000E+00
         0.00000E+00
         0.00000E+00
         0.00000E+00
         0.00000E+00
         0.00000E+00
         0.00000E+00
         0.00000E+00
         0.00000E+00
         0.00000E+00
         0.00000E+00
         0.00000E+00
         0.00000E+00
         0.00000E+00
         0.00000E+00
         0.00000E+00
         0.00000E+00
         0.00000E+00
         0.00000E+00
         0.00000E+00
         0.00000E+00
         0.00000E+00
         0.00000E+00
         0.00000E+00
         0.00000E+00
         0.00000E+00
         0.00000E+00
         0.00000E+00
         0.00000E+00
         0.00000E+00
         0.00000E+00
         0.00000E+00
         0.00000E+00
         0.00000E+00
         0.00000E+00
         0.00000E+00
         0.00000E+00
         0.00000E+00
         0.00000E+00
         0.00000E+00
         0.00000E+00
         0.00000E+00
         0.00000E+00
         0.00000E+00
         0.00000E+00
         0.00000E+00
         0.00000E+00
         0.00000E+00
         0.00000E+00
         0.00000E+00
         0.00000E+00
         0.00000E+00
         0.00000E+00
         0.00000E+00
         0.00000E+00
         0.00000E+00
         0.00000E+00
         0.00000E+00
         0.00000E+00
         0.00000E+00
         0.00000E+00
         0.00000E+00
         0.00000E+00
         0.00000E+00
         0.00000E+00
         0.00000E+00
         0.00000E+00
         0.00000E+00
         0.00000E+00
         0.00000E+00
         0.00000E+00
         0.00000E+00
         0.00000E+00
         0.00000E+00
         0.00000E+00
         0.00000E+00
         0.00000E+00
         0.00000E+00
         0.00000E+00
         0.00000E+00
         0.00000E+00
         0.00000E+00
         0.00000E+00
         0.00000E+00
         0.00000E+00
         0.00000E+00
         0.00000E+00
         0.00000E+00
         0.00000E+00
         0.00000E+00
         0.00000E+00
         0.00000E+00
         0.00000E+00
         0.00000E+00
         0.00000E+00
         0.00000E+00
         0.00000E+00
         0.00000E+00
         0.00000E+00
         0.00000E+00
         0.00000E+00
         0.00000E+00
         0.00000E+00
         0.00000E+00
         0.00000E+00
         0.00000E+00
         0.00000E+00
         0.00000E+00
         0.00000E+00
         0.00000E+00
         0.00000E+00
         0.00000E+00
         0.00000E+00
         0.00000E+00
         0.00000E+00
         0.00000E+00
         0.00000E+00
         0.00000E+00
         0.00000E+00
         0.00000E+00
         0.00000E+00
         0.00000E+00
         0.00000E+00
         0.00000E+00
         0.00000E+00
         0.00000E+00
         0.00000E+00
         0.00000E+00
         0.00000E+00
         0.00000E+00
         0.00000E+00
         0.00000E+00
         0.00000E+00
         0.00000E+00
         0.00000E+00
         0.00000E+00
         0.00000E+00
         0.00000E+00
         0.00000E+00
         0.00000E+00
         0.00000E+00
         0.00000E+00
         0.00000E+00
         0.00000E+00
         0.00000E+00
         0.00000E+00
         0.00000E+00
         0.00000E+00
         0.00000E+00
         0.00000E+00
         0.00000E+00
         0.00000E+00
         0.00000E+00
         0.00000E+00
         0.00000E+00
         0.00000E+00
         0.00000E+00
         0.00000E+00
         0.00000E+00
         0.00000E+00
         0.00000E+00
         0.00000E+00
         0.00000E+00
         0.00000E+00
         0.00000E+00
         0.00000E+00
         0.00000E+00
         0.00000E+00
         0.00000E+00
         0.00000E+00
         0.00000E+00
         0.00000E+00
         0.00000E+00
         0.00000E+00
         0.00000E+00
         0.00000E+00
         0.00000E+00
         0.00000E+00
         0.00000E+00
         0.00000E+00
         0.00000E+00
         0.00000E+00
         0.00000E+00
         0.00000E+00
         0.00000E+00
         0.00000E+00
         0.00000E+00
         0.00000E+00
         0.00000E+00
         0.00000E+00
         0.00000E+00
         0.00000E+00
         0.00000E+00
         0.00000E+00
         0.00000E+00
         0.00000E+00
         0.00000E+00
         0.00000E+00
         0.00000E+00
         0.00000E+00
         0.00000E+00
         0.00000E+00
         0.00000E+00
         0.00000E+00
         0.00000E+00
         0.00000E+00
         0.00000E+00
         0.00000E+00
         0.00000E+00
         0.00000E+00
         0.00000E+00
         0.00000E+00
         0.00000E+00
         0.00000E+00
         0.00000E+00
         0.00000E+00
         0.00000E+00
         0.00000E+00
         0.00000E+00
         0.00000E+00
         0.00000E+00
         0.00000E+00
         0.00000E+00
         0.00000E+00
         0.00000E+00
         0.00000E+00
         0.00000E+00
         0.00000E+00
         0.00000E+00
         0.00000E+00
         0.00000E+00
         0.00000E+00
         0.00000E+00
         0.00000E+00
         0.00000E+00
         0.00000E+00
         0.00000E+00
         0.00000E+00
         0.00000E+00
         0.00000E+00
         0.00000E+00
         0.00000E+00
         0.00000E+00
         0.00000E+00
         0.00000E+00
         0.00000E+00
         0.00000E+00
         0.00000E+00
         0.00000E+00
         0.00000E+00
         0.00000E+00
         0.00000E+00
         0.00000E+00
         0.00000E+00
         0.00000E+00
         0.00000E+00
         0.00000E+00
         0.00000E+00
         0.00000E+00
         0.00000E+00
         0.00000E+00
         0.00000E+00
         0.00000E+00
         0.00000E+00
         0.00000E+00
         0.00000E+00
         0.00000E+00
         0.00000E+00
         0.00000E+00
         0.00000E+00
         0.00000E+00
         0.00000E+00
         0.00000E+00
         0.00000E+00
         0.00000E+00
         0.00000E+00
         0.00000E+00
         0.00000E+00
         0.00000E+00
         0.00000E+00
         0.00000E+00
         0.00000E+00
         0.00000E+00
         0.00000E+00
         0.00000E+00
         0.00000E+00
         0.00000E+00
         0.00000E+00
         0.00000E+00
         0.00000E+00
         0.00000E+00
         0.00000E+00
         0.00000E+00
         0.00000E+00
         0.00000E+00
         0.00000E+00
         0.00000E+00
         0.00000E+00
         0.00000E+00
         0.00000E+00
         0.00000E+00
         0.00000E+00
         0.00000E+00
         0.00000E+00
         0.00000E+00
         0.00000E+00
         0.00000E+00
         0.00000E+00
         0.00000E+00
         0.00000E+00
         0.00000E+00
         0.00000E+00
         0.00000E+00
         0.00000E+00
         0.00000E+00
         0.00000E+00
         0.00000E+00
         0.00000E+00
         0.00000E+00
         0.00000E+00
         0.00000E+00
         0.00000E+00
         0.00000E+00
         0.00000E+00
         0.00000E+00
         0.00000E+00
         0.00000E+00
         0.00000E+00
         0.00000E+00
         0.00000E+00
         0.00000E+00
         0.00000E+00
         0.00000E+00
         0.00000E+00
         0.00000E+00
         0.00000E+00
         0.00000E+00
         0.00000E+00
         0.00000E+00
         0.00000E+00
         0.00000E+00
         0.00000E+00
         0.00000E+00
         0.00000E+00
         0.00000E+00
         0.00000E+00
         0.00000E+00
         0.00000E+00
         0.00000E+00
         0.00000E+00
         0.00000E+00
         0.00000E+00
         0.00000E+00
         0.00000E+00
         0.00000E+00
         0.00000E+00
         0.00000E+00
         0.00000E+00
         0.00000E+00
         0.00000E+00
         0.00000E+00
         0.00000E+00
         0.00000E+00
         0.00000E+00
         0.00000E+00
         0.00000E+00
         0.00000E+00
         0.00000E+00
         0.00000E+00
         0.00000E+00
         0.00000E+00
         0.00000E+00
         0.00000E+00
         0.00000E+00
         0.00000E+00
         0.00000E+00
         0.00000E+00
         0.00000E+00
         0.00000E+00
         0.00000E+00
         0.00000E+00
         0.00000E+00
         0.00000E+00
         0.00000E+00
         0.00000E+00
         0.00000E+00
         0.00000E+00
         0.00000E+00
         0.00000E+00
         0.00000E+00
         0.00000E+00
         0.00000E+00
         0.00000E+00
         0.00000E+00
         0.00000E+00
         0.00000E+00
         0.00000E+00
         0.00000E+00
         0.00000E+00
         0.00000E+00
         0.00000E+00
         0.00000E+00
         0.00000E+00
         0.00000E+00
         0.00000E+00
         0.00000E+00
         0.00000E+00
         0.00000E+00
         0.00000E+00
         0.00000E+00
         0.00000E+00
         0.00000E+00
         0.00000E+00
         0.00000E+00
         0.00000E+00
         0.00000E+00
         0.00000E+00
         0.00000E+00
         0.00000E+00
         0.00000E+00
         0.00000E+00
         0.00000E+00
         0.00000E+00
         0.00000E+00
         0.00000E+00
         0.00000E+00
         0.00000E+00
         0.00000E+00
         0.00000E+00
         0.00000E+00
         0.00000E+00
         0.00000E+00
         0.00000E+00
         0.00000E+00
         0.00000E+00
         0.00000E+00
         0.00000E+00
         0.00000E+00
         0.00000E+00
         0.00000E+00
         0.00000E+00
         0.00000E+00
         0.00000E+00
         0.00000E+00
         0.00000E+00
         0.00000E+00
         0.00000E+00
         0.00000E+00
         0.00000E+00
         0.00000E+00
         0.00000E+00
         0.00000E+00
         0.00000E+00
         0.00000E+00
         0.00000E+00
         0.00000E+00
         0.00000E+00
         0.00000E+00
         0.00000E+00
         0.00000E+00
         0.00000E+00
         0.00000E+00
         0.00000E+00
         0.00000E+00
         0.00000E+00
         0.00000E+00
         0.00000E+00
         0.00000E+00
         0.00000E+00
         0.00000E+00
         0.00000E+00
         0.00000E+00
         0.00000E+00
         0.00000E+00
         0.00000E+00
         0.00000E+00
         0.00000E+00
         0.00000E+00
         0.00000E+00
         0.00000E+00
         0.00000E+00
         0.00000E+00
         0.00000E+00
         0.00000E+00
         0.00000E+00
         0.00000E+00
         0.00000E+00
         0.00000E+00
         0.00000E+00
         0.00000E+00
         0.00000E+00
         0.00000E+00
         0.00000E+00
         0.00000E+00
         0.00000E+00
         0.00000E+00
         0.00000E+00
         0.00000E+00
         0.00000E+00
         0.00000E+00
         0.00000E+00
         0.00000E+00
         0.00000E+00
         0.00000E+00
         0.00000E+00
         0.00000E+00
         0.00000E+00
         0.00000E+00
         0.00000E+00
         0.00000E+00
         0.00000E+00
         0.00000E+00
         0.00000E+00
         0.00000E+00
         0.00000E+00
         0.00000E+00
         0.00000E+00
         0.00000E+00
         0.00000E+00
         0.00000E+00
         0.00000E+00
         0.00000E+00
         0.00000E+00
         0.00000E+00
         0.00000E+00
         0.00000E+00
         0.00000E+00
         0.00000E+00
         0.00000E+00
         0.00000E+00
         0.00000E+00
         0.00000E+00
         0.00000E+00
         0.00000E+00
         0.00000E+00
         0.00000E+00
         0.00000E+00
         0.00000E+00
         0.00000E+00
         0.00000E+00
         0.00000E+00
         0.00000E+00
         0.00000E+00
         0.00000E+00
         0.00000E+00
         0.00000E+00
         0.00000E+00
         0.00000E+00
         0.00000E+00
         0.00000E+00
         0.00000E+00
         0.00000E+00
         0.00000E+00
         0.00000E+00
         0.00000E+00
         0.00000E+00
         0.00000E+00
         0.00000E+00
         0.00000E+00
         0.00000E+00
         0.00000E+00
         0.00000E+00
         0.00000E+00
         0.00000E+00
         0.00000E+00
         0.00000E+00
         0.00000E+00
         0.00000E+00
         0.00000E+00
         0.00000E+00
         0.00000E+00
         0.00000E+00
         0.00000E+00
         0.00000E+00
         0.00000E+00
         0.00000E+00
         0.00000E+00
         0.00000E+00
         0.00000E+00
         0.00000E+00
         0.00000E+00
         0.00000E+00
         0.00000E+00
         0.00000E+00
         0.00000E+00
         0.00000E+00
         0.00000E+00
         0.00000E+00
         0.00000E+00
         0.00000E+00
         0.00000E+00
         0.00000E+00
         0.00000E+00
         0.00000E+00
         0.00000E+00
         0.00000E+00
         0.00000E+00
         0.00000E+00
         0.00000E+00
         0.00000E+00
         0.00000E+00
         0.00000E+00
         0.00000E+00
         0.00000E+00
         0.00000E+00
         0.00000E+00
         0.00000E+00
         0.00000E+00
         0.00000E+00
         0.00000E+00
         0.00000E+00
         0.00000E+00
         0.00000E+00
         0.00000E+00
         0.00000E+00
         0.00000E+00
         0.00000E+00
         0.00000E+00
         0.00000E+00
         0.00000E+00
         0.00000E+00
         0.00000E+00
         0.00000E+00
         0.00000E+00
         0.00000E+00
         0.00000E+00
         0.00000E+00
         0.00000E+00
         0.00000E+00
         0.00000E+00
         0.00000E+00
         0.00000E+00
         0.00000E+00
         0.00000E+00
         0.00000E+00
         0.00000E+00
         0.00000E+00
         0.00000E+00
         0.00000E+00
         0.00000E+00
         0.00000E+00
         0.00000E+00
         0.00000E+00
         0.00000E+00
         0.00000E+00
         0.00000E+00
         0.00000E+00
         0.00000E+00
         0.00000E+00
         0.00000E+00
         0.00000E+00
         0.00000E+00
         0.00000E+00
         0.00000E+00
         0.00000E+00
         0.00000E+00
         0.00000E+00
         0.00000E+00
         0.00000E+00
         0.00000E+00
         0.00000E+00
         0.00000E+00
         0.00000E+00
         0.00000E+00
         0.00000E+00
         0.00000E+00
         0.00000E+00
         0.00000E+00
         0.00000E+00
         0.00000E+00
         0.00000E+00
         0.00000E+00
         0.00000E+00
         0.00000E+00
         0.00000E+00
         0.00000E+00
         0.00000E+00
         0.00000E+00
         0.00000E+00
         0.00000E+00
         0.00000E+00
         0.00000E+00
         0.00000E+00
         0.00000E+00
         0.00000E+00
         0.00000E+00
         0.00000E+00
         0.00000E+00
         0.00000E+00
         0.00000E+00
         0.00000E+00
         0.00000E+00
         0.00000E+00
         0.00000E+00
         0.00000E+00
         0.00000E+00
         0.00000E+00
         0.00000E+00
         0.00000E+00
         0.00000E+00
         0.00000E+00
         0.00000E+00
         0.00000E+00
         0.00000E+00
         0.00000E+00
         0.00000E+00
         0.00000E+00
         0.00000E+00
         0.00000E+00
  
SCALARS                      eps_shear  double 1
LOOKUP_TABLE default
         0.00000E+00
         0.00000E+00
         0.00000E+00
         0.00000E+00
         0.00000E+00
         0.00000E+00
         0.00000E+00
         0.00000E+00
         0.00000E+00
         0.00000E+00
         0.00000E+00
         0.00000E+00
         0.00000E+00
         0.00000E+00
         0.00000E+00
         0.00000E+00
         0.00000E+00
         0.00000E+00
         0.00000E+00
         0.00000E+00
         0.00000E+00
         0.00000E+00
         0.00000E+00
         0.00000E+00
         0.00000E+00
         0.00000E+00
         0.00000E+00
         0.00000E+00
         0.00000E+00
         0.00000E+00
         0.00000E+00
         0.00000E+00
         0.00000E+00
         0.00000E+00
         0.00000E+00
         0.00000E+00
         0.00000E+00
         0.00000E+00
         0.00000E+00
         0.00000E+00
         0.00000E+00
         0.00000E+00
         0.00000E+00
         0.00000E+00
         0.00000E+00
         0.00000E+00
         0.00000E+00
         0.00000E+00
         0.00000E+00
         0.00000E+00
         0.00000E+00
         0.00000E+00
         0.00000E+00
         0.00000E+00
         0.00000E+00
         0.00000E+00
         0.00000E+00
         0.00000E+00
         0.00000E+00
         0.00000E+00
         0.00000E+00
         0.00000E+00
         0.00000E+00
         0.00000E+00
         0.00000E+00
         0.00000E+00
         0.00000E+00
         0.00000E+00
         0.00000E+00
         0.00000E+00
         0.00000E+00
         0.00000E+00
         0.00000E+00
         0.00000E+00
         0.00000E+00
         0.00000E+00
         0.00000E+00
         0.00000E+00
         0.00000E+00
         0.00000E+00
         0.00000E+00
         0.00000E+00
         0.00000E+00
         0.00000E+00
         0.00000E+00
         0.00000E+00
         0.00000E+00
         0.00000E+00
         0.00000E+00
         0.00000E+00
         0.00000E+00
         0.00000E+00
         0.00000E+00
         0.00000E+00
         0.00000E+00
         0.00000E+00
         0.00000E+00
         0.00000E+00
         0.00000E+00
         0.00000E+00
         0.00000E+00
         0.00000E+00
         0.00000E+00
         0.00000E+00
         0.00000E+00
         0.00000E+00
         0.00000E+00
         0.00000E+00
         0.00000E+00
         0.00000E+00
         0.00000E+00
         0.00000E+00
         0.00000E+00
         0.00000E+00
         0.00000E+00
         0.00000E+00
         0.00000E+00
         0.00000E+00
         0.00000E+00
         0.00000E+00
         0.00000E+00
         0.00000E+00
         0.00000E+00
         0.00000E+00
         0.00000E+00
         0.00000E+00
         0.00000E+00
         0.00000E+00
         0.00000E+00
         0.00000E+00
         0.00000E+00
         0.00000E+00
         0.00000E+00
         0.00000E+00
         0.00000E+00
         0.00000E+00
         0.00000E+00
         0.00000E+00
         0.00000E+00
         0.00000E+00
         0.00000E+00
         0.00000E+00
         0.00000E+00
         0.00000E+00
         0.00000E+00
         0.00000E+00
         0.00000E+00
         0.00000E+00
         0.00000E+00
         0.00000E+00
         0.00000E+00
         0.00000E+00
         0.00000E+00
         0.00000E+00
         0.00000E+00
         0.00000E+00
         0.00000E+00
         0.00000E+00
         0.00000E+00
         0.00000E+00
         0.00000E+00
         0.00000E+00
         0.00000E+00
         0.00000E+00
         0.00000E+00
         0.00000E+00
         0.00000E+00
         0.00000E+00
         0.00000E+00
         0.00000E+00
         0.00000E+00
         0.00000E+00
         0.00000E+00
         0.00000E+00
         0.00000E+00
         0.00000E+00
         0.00000E+00
         0.00000E+00
         0.00000E+00
         0.00000E+00
         0.00000E+00
         0.00000E+00
         0.00000E+00
         0.00000E+00
         0.00000E+00
         0.00000E+00
         0.00000E+00
         0.00000E+00
         0.00000E+00
         0.00000E+00
         0.00000E+00
         0.00000E+00
         0.00000E+00
         0.00000E+00
         0.00000E+00
         0.00000E+00
         0.00000E+00
         0.00000E+00
         0.00000E+00
         0.00000E+00
         0.00000E+00
         0.00000E+00
         0.00000E+00
         0.00000E+00
         0.00000E+00
         0.00000E+00
         0.00000E+00
         0.00000E+00
         0.00000E+00
         0.00000E+00
         0.00000E+00
         0.00000E+00
         0.00000E+00
         0.00000E+00
         0.00000E+00
         0.00000E+00
         0.00000E+00
         0.00000E+00
         0.00000E+00
         0.00000E+00
         0.00000E+00
         0.00000E+00
         0.00000E+00
         0.00000E+00
         0.00000E+00
         0.00000E+00
         0.00000E+00
         0.00000E+00
         0.00000E+00
         0.00000E+00
         0.00000E+00
         0.00000E+00
         0.00000E+00
         0.00000E+00
         0.00000E+00
         0.00000E+00
         0.00000E+00
         0.00000E+00
         0.00000E+00
         0.00000E+00
         0.00000E+00
         0.00000E+00
         0.00000E+00
         0.00000E+00
         0.00000E+00
         0.00000E+00
         0.00000E+00
         0.00000E+00
         0.00000E+00
         0.00000E+00
         0.00000E+00
         0.00000E+00
         0.00000E+00
         0.00000E+00
         0.00000E+00
         0.00000E+00
         0.00000E+00
         0.00000E+00
         0.00000E+00
         0.00000E+00
         0.00000E+00
         0.00000E+00
         0.00000E+00
         0.00000E+00
         0.00000E+00
         0.00000E+00
         0.00000E+00
         0.00000E+00
         0.00000E+00
         0.00000E+00
         0.00000E+00
         0.00000E+00
         0.00000E+00
         0.00000E+00
         0.00000E+00
         0.00000E+00
         0.00000E+00
         0.00000E+00
         0.00000E+00
         0.00000E+00
         0.00000E+00
         0.00000E+00
         0.00000E+00
         0.00000E+00
         0.00000E+00
         0.00000E+00
         0.00000E+00
         0.00000E+00
         0.00000E+00
         0.00000E+00
         0.00000E+00
         0.00000E+00
         0.00000E+00
         0.00000E+00
         0.00000E+00
         0.00000E+00
         0.00000E+00
         0.00000E+00
         0.00000E+00
         0.00000E+00
         0.00000E+00
         0.00000E+00
         0.00000E+00
         0.00000E+00
         0.00000E+00
         0.00000E+00
         0.00000E+00
         0.00000E+00
         0.00000E+00
         0.00000E+00
         0.00000E+00
         0.00000E+00
         0.00000E+00
         0.00000E+00
         0.00000E+00
         0.00000E+00
         0.00000E+00
         0.00000E+00
         0.00000E+00
         0.00000E+00
         0.00000E+00
         0.00000E+00
         0.00000E+00
         0.00000E+00
         0.00000E+00
         0.00000E+00
         0.00000E+00
         0.00000E+00
         0.00000E+00
         0.00000E+00
         0.00000E+00
         0.00000E+00
         0.00000E+00
         0.00000E+00
         0.00000E+00
         0.00000E+00
         0.00000E+00
         0.00000E+00
         0.00000E+00
         0.00000E+00
         0.00000E+00
         0.00000E+00
         0.00000E+00
         0.00000E+00
         0.00000E+00
         0.00000E+00
         0.00000E+00
         0.00000E+00
         0.00000E+00
         0.00000E+00
         0.00000E+00
         0.00000E+00
         0.00000E+00
         0.00000E+00
         0.00000E+00
         0.00000E+00
         0.00000E+00
         0.00000E+00
         0.00000E+00
         0.00000E+00
         0.00000E+00
         0.00000E+00
         0.00000E+00
         0.00000E+00
         0.00000E+00
         0.00000E+00
         0.00000E+00
         0.00000E+00
         0.00000E+00
         0.00000E+00
         0.00000E+00
         0.00000E+00
         0.00000E+00
         0.00000E+00
         0.00000E+00
         0.00000E+00
         0.00000E+00
         0.00000E+00
         0.00000E+00
         0.00000E+00
         0.00000E+00
         0.00000E+00
         0.00000E+00
         0.00000E+00
         0.00000E+00
         0.00000E+00
         0.00000E+00
         0.00000E+00
         0.00000E+00
         0.00000E+00
         0.00000E+00
         0.00000E+00
         0.00000E+00
         0.00000E+00
         0.00000E+00
         0.00000E+00
         0.00000E+00
         0.00000E+00
         0.00000E+00
         0.00000E+00
         0.00000E+00
         0.00000E+00
         0.00000E+00
         0.00000E+00
         0.00000E+00
         0.00000E+00
         0.00000E+00
         0.00000E+00
         0.00000E+00
         0.00000E+00
         0.00000E+00
         0.00000E+00
         0.00000E+00
         0.00000E+00
         0.00000E+00
         0.00000E+00
         0.00000E+00
         0.00000E+00
         0.00000E+00
         0.00000E+00
         0.00000E+00
         0.00000E+00
         0.00000E+00
         0.00000E+00
         0.00000E+00
         0.00000E+00
         0.00000E+00
         0.00000E+00
         0.00000E+00
         0.00000E+00
         0.00000E+00
         0.00000E+00
         0.00000E+00
         0.00000E+00
         0.00000E+00
         0.00000E+00
         0.00000E+00
         0.00000E+00
         0.00000E+00
         0.00000E+00
         0.00000E+00
         0.00000E+00
         0.00000E+00
         0.00000E+00
         0.00000E+00
         0.00000E+00
         0.00000E+00
         0.00000E+00
         0.00000E+00
         0.00000E+00
         0.00000E+00
         0.00000E+00
         0.00000E+00
         0.00000E+00
         0.00000E+00
         0.00000E+00
         0.00000E+00
         0.00000E+00
         0.00000E+00
         0.00000E+00
         0.00000E+00
         0.00000E+00
         0.00000E+00
         0.00000E+00
         0.00000E+00
         0.00000E+00
         0.00000E+00
         0.00000E+00
         0.00000E+00
         0.00000E+00
         0.00000E+00
         0.00000E+00
         0.00000E+00
         0.00000E+00
         0.00000E+00
         0.00000E+00
         0.00000E+00
         0.00000E+00
         0.00000E+00
         0.00000E+00
         0.00000E+00
         0.00000E+00
         0.00000E+00
         0.00000E+00
         0.00000E+00
         0.00000E+00
         0.00000E+00
         0.00000E+00
         0.00000E+00
         0.00000E+00
         0.00000E+00
         0.00000E+00
         0.00000E+00
         0.00000E+00
         0.00000E+00
         0.00000E+00
         0.00000E+00
         0.00000E+00
         0.00000E+00
         0.00000E+00
         0.00000E+00
         0.00000E+00
         0.00000E+00
         0.00000E+00
         0.00000E+00
         0.00000E+00
         0.00000E+00
         0.00000E+00
         0.00000E+00
         0.00000E+00
         0.00000E+00
         0.00000E+00
         0.00000E+00
         0.00000E+00
         0.00000E+00
         0.00000E+00
         0.00000E+00
         0.00000E+00
         0.00000E+00
         0.00000E+00
         0.00000E+00
         0.00000E+00
         0.00000E+00
         0.00000E+00
         0.00000E+00
         0.00000E+00
         0.00000E+00
         0.00000E+00
         0.00000E+00
         0.00000E+00
         0.00000E+00
         0.00000E+00
         0.00000E+00
         0.00000E+00
         0.00000E+00
         0.00000E+00
         0.00000E+00
         0.00000E+00
         0.00000E+00
         0.00000E+00
         0.00000E+00
         0.00000E+00
         0.00000E+00
         0.00000E+00
         0.00000E+00
         0.00000E+00
         0.00000E+00
         0.00000E+00
         0.00000E+00
         0.00000E+00
         0.00000E+00
         0.00000E+00
         0.00000E+00
         0.00000E+00
         0.00000E+00
         0.00000E+00
         0.00000E+00
         0.00000E+00
         0.00000E+00
         0.00000E+00
         0.00000E+00
         0.00000E+00
         0.00000E+00
         0.00000E+00
         0.00000E+00
         0.00000E+00
         0.00000E+00
         0.00000E+00
         0.00000E+00
         0.00000E+00
         0.00000E+00
         0.00000E+00
         0.00000E+00
         0.00000E+00
         0.00000E+00
         0.00000E+00
         0.00000E+00
         0.00000E+00
         0.00000E+00
         0.00000E+00
         0.00000E+00
         0.00000E+00
         0.00000E+00
         0.00000E+00
         0.00000E+00
         0.00000E+00
         0.00000E+00
         0.00000E+00
         0.00000E+00
         0.00000E+00
         0.00000E+00
         0.00000E+00
         0.00000E+00
         0.00000E+00
         0.00000E+00
         0.00000E+00
         0.00000E+00
         0.00000E+00
         0.00000E+00
         0.00000E+00
         0.00000E+00
         0.00000E+00
         0.00000E+00
         0.00000E+00
         0.00000E+00
         0.00000E+00
         0.00000E+00
         0.00000E+00
         0.00000E+00
         0.00000E+00
         0.00000E+00
         0.00000E+00
         0.00000E+00
         0.00000E+00
         0.00000E+00
         0.00000E+00
         0.00000E+00
         0.00000E+00
         0.00000E+00
         0.00000E+00
         0.00000E+00
         0.00000E+00
         0.00000E+00
         0.00000E+00
         0.00000E+00
         0.00000E+00
         0.00000E+00
         0.00000E+00
         0.00000E+00
         0.00000E+00
         0.00000E+00
         0.00000E+00
         0.00000E+00
         0.00000E+00
         0.00000E+00
         0.00000E+00
         0.00000E+00
         0.00000E+00
         0.00000E+00
         0.00000E+00
         0.00000E+00
         0.00000E+00
         0.00000E+00
         0.00000E+00
         0.00000E+00
         0.00000E+00
         0.00000E+00
         0.00000E+00
         0.00000E+00
         0.00000E+00
         0.00000E+00
         0.00000E+00
         0.00000E+00
         0.00000E+00
         0.00000E+00
         0.00000E+00
         0.00000E+00
         0.00000E+00
         0.00000E+00
         0.00000E+00
         0.00000E+00
         0.00000E+00
         0.00000E+00
         0.00000E+00
         0.00000E+00
         0.00000E+00
         0.00000E+00
         0.00000E+00
         0.00000E+00
         0.00000E+00
         0.00000E+00
         0.00000E+00
         0.00000E+00
         0.00000E+00
         0.00000E+00
         0.00000E+00
         0.00000E+00
         0.00000E+00
         0.00000E+00
         0.00000E+00
         0.00000E+00
         0.00000E+00
         0.00000E+00
         0.00000E+00
         0.00000E+00
         0.00000E+00
         0.00000E+00
         0.00000E+00
         0.00000E+00
         0.00000E+00
         0.00000E+00
         0.00000E+00
         0.00000E+00
         0.00000E+00
         0.00000E+00
         0.00000E+00
         0.00000E+00
         0.00000E+00
         0.00000E+00
         0.00000E+00
         0.00000E+00
         0.00000E+00
         0.00000E+00
         0.00000E+00
         0.00000E+00
         0.00000E+00
         0.00000E+00
         0.00000E+00
         0.00000E+00
         0.00000E+00
         0.00000E+00
         0.00000E+00
         0.00000E+00
         0.00000E+00
         0.00000E+00
         0.00000E+00
         0.00000E+00
         0.00000E+00
         0.00000E+00
         0.00000E+00
         0.00000E+00
         0.00000E+00
         0.00000E+00
         0.00000E+00
         0.00000E+00
         0.00000E+00
         0.00000E+00
         0.00000E+00
         0.00000E+00
         0.00000E+00
         0.00000E+00
         0.00000E+00
         0.00000E+00
         0.00000E+00
         0.00000E+00
         0.00000E+00
         0.00000E+00
         0.00000E+00
         0.00000E+00
         0.00000E+00
         0.00000E+00
         0.00000E+00
         0.00000E+00
         0.00000E+00
         0.00000E+00
         0.00000E+00
         0.00000E+00
         0.00000E+00
         0.00000E+00
         0.00000E+00
         0.00000E+00
         0.00000E+00
         0.00000E+00
         0.00000E+00
         0.00000E+00
         0.00000E+00
         0.00000E+00
         0.00000E+00
         0.00000E+00
         0.00000E+00
         0.00000E+00
         0.00000E+00
         0.00000E+00
         0.00000E+00
         0.00000E+00
         0.00000E+00
         0.00000E+00
         0.00000E+00
         0.00000E+00
         0.00000E+00
         0.00000E+00
         0.00000E+00
         0.00000E+00
         0.00000E+00
         0.00000E+00
         0.00000E+00
         0.00000E+00
         0.00000E+00
         0.00000E+00
         0.00000E+00
         0.00000E+00
         0.00000E+00
         0.00000E+00
         0.00000E+00
         0.00000E+00
         0.00000E+00
         0.00000E+00
         0.00000E+00
         0.00000E+00
         0.00000E+00
         0.00000E+00
         0.00000E+00
         0.00000E+00
         0.00000E+00
         0.00000E+00
         0.00000E+00
         0.00000E+00
         0.00000E+00
         0.00000E+00
         0.00000E+00
         0.00000E+00
         0.00000E+00
         0.00000E+00
         0.00000E+00
         0.00000E+00
         0.00000E+00
         0.00000E+00
         0.00000E+00
         0.00000E+00
         0.00000E+00
         0.00000E+00
         0.00000E+00
         0.00000E+00
         0.00000E+00
         0.00000E+00
         0.00000E+00
         0.00000E+00
         0.00000E+00
         0.00000E+00
         0.00000E+00
         0.00000E+00
         0.00000E+00
         0.00000E+00
         0.00000E+00
         0.00000E+00
         0.00000E+00
         0.00000E+00
         0.00000E+00
         0.00000E+00
         0.00000E+00
         0.00000E+00
         0.00000E+00
         0.00000E+00
         0.00000E+00
         0.00000E+00
         0.00000E+00
         0.00000E+00
         0.00000E+00
         0.00000E+00
         0.00000E+00
         0.00000E+00
         0.00000E+00
         0.00000E+00
         0.00000E+00
         0.00000E+00
         0.00000E+00
         0.00000E+00
         0.00000E+00
         0.00000E+00
         0.00000E+00
         0.00000E+00
         0.00000E+00
         0.00000E+00
         0.00000E+00
         0.00000E+00
         0.00000E+00
         0.00000E+00
         0.00000E+00
         0.00000E+00
         0.00000E+00
         0.00000E+00
         0.00000E+00
         0.00000E+00
         0.00000E+00
         0.00000E+00
         0.00000E+00
         0.00000E+00
         0.00000E+00
         0.00000E+00
         0.00000E+00
         0.00000E+00
         0.00000E+00
         0.00000E+00
         0.00000E+00
         0.00000E+00
         0.00000E+00
         0.00000E+00
         0.00000E+00
         0.00000E+00
         0.00000E+00
         0.00000E+00
         0.00000E+00
         0.00000E+00
         0.00000E+00
         0.00000E+00
         0.00000E+00
         0.00000E+00
         0.00000E+00
         0.00000E+00
         0.00000E+00
         0.00000E+00
         0.00000E+00
         0.00000E+00
         0.00000E+00
         0.00000E+00
         0.00000E+00
         0.00000E+00
         0.00000E+00
         0.00000E+00
         0.00000E+00
         0.00000E+00
         0.00000E+00
         0.00000E+00
         0.00000E+00
         0.00000E+00
         0.00000E+00
         0.00000E+00
         0.00000E+00
         0.00000E+00
         0.00000E+00
         0.00000E+00
         0.00000E+00
         0.00000E+00
         0.00000E+00
         0.00000E+00
         0.00000E+00
         0.00000E+00
         0.00000E+00
         0.00000E+00
         0.00000E+00
         0.00000E+00
         0.00000E+00
         0.00000E+00
         0.00000E+00
         0.00000E+00
         0.00000E+00
         0.00000E+00
         0.00000E+00
         0.00000E+00
         0.00000E+00
         0.00000E+00
         0.00000E+00
         0.00000E+00
         0.00000E+00
         0.00000E+00
         0.00000E+00
         0.00000E+00
         0.00000E+00
         0.00000E+00
         0.00000E+00
         0.00000E+00
         0.00000E+00
         0.00000E+00
         0.00000E+00
         0.00000E+00
         0.00000E+00
         0.00000E+00
         0.00000E+00
         0.00000E+00
         0.00000E+00
         0.00000E+00
         0.00000E+00
         0.00000E+00
         0.00000E+00
         0.00000E+00
         0.00000E+00
         0.00000E+00
         0.00000E+00
         0.00000E+00
         0.00000E+00
         0.00000E+00
         0.00000E+00
         0.00000E+00
         0.00000E+00
         0.00000E+00
         0.00000E+00
         0.00000E+00
         0.00000E+00
         0.00000E+00
         0.00000E+00
         0.00000E+00
         0.00000E+00
         0.00000E+00
         0.00000E+00
         0.00000E+00
         0.00000E+00
         0.00000E+00
         0.00000E+00
         0.00000E+00
         0.00000E+00
         0.00000E+00
         0.00000E+00
         0.00000E+00
         0.00000E+00
         0.00000E+00
         0.00000E+00
         0.00000E+00
         0.00000E+00
         0.00000E+00
         0.00000E+00
         0.00000E+00
         0.00000E+00
         0.00000E+00
         0.00000E+00
         0.00000E+00
         0.00000E+00
         0.00000E+00
         0.00000E+00
         0.00000E+00
         0.00000E+00
         0.00000E+00
         0.00000E+00
         0.00000E+00
         0.00000E+00
         0.00000E+00
         0.00000E+00
         0.00000E+00
         0.00000E+00
         0.00000E+00
         0.00000E+00
         0.00000E+00
         0.00000E+00
         0.00000E+00
         0.00000E+00
         0.00000E+00
         0.00000E+00
         0.00000E+00
         0.00000E+00
         0.00000E+00
         0.00000E+00
         0.00000E+00
         0.00000E+00
         0.00000E+00
         0.00000E+00
         0.00000E+00
         0.00000E+00
         0.00000E+00
         0.00000E+00
         0.00000E+00
         0.00000E+00
         0.00000E+00
         0.00000E+00
         0.00000E+00
         0.00000E+00
         0.00000E+00
         0.00000E+00
         0.00000E+00
         0.00000E+00
         0.00000E+00
         0.00000E+00
         0.00000E+00
         0.00000E+00
         0.00000E+00
         0.00000E+00
         0.00000E+00
         0.00000E+00
         0.00000E+00
         0.00000E+00
         0.00000E+00
         0.00000E+00
         0.00000E+00
         0.00000E+00
         0.00000E+00
         0.00000E+00
         0.00000E+00
         0.00000E+00
         0.00000E+00
         0.00000E+00
         0.00000E+00
         0.00000E+00
         0.00000E+00
         0.00000E+00
         0.00000E+00
         0.00000E+00
         0.00000E+00
         0.00000E+00
         0.00000E+00
         0.00000E+00
         0.00000E+00
         0.00000E+00
         0.00000E+00
         0.00000E+00
         0.00000E+00
         0.00000E+00
         0.00000E+00
         0.00000E+00
         0.00000E+00
         0.00000E+00
         0.00000E+00
         0.00000E+00
         0.00000E+00
         0.00000E+00
         0.00000E+00
         0.00000E+00
         0.00000E+00
         0.00000E+00
         0.00000E+00
         0.00000E+00
         0.00000E+00
         0.00000E+00
         0.00000E+00
         0.00000E+00
         0.00000E+00
         0.00000E+00
         0.00000E+00
         0.00000E+00
         0.00000E+00
         0.00000E+00
         0.00000E+00
         0.00000E+00
         0.00000E+00
         0.00000E+00
         0.00000E+00
         0.00000E+00
         0.00000E+00
         0.00000E+00
         0.00000E+00
         0.00000E+00
         0.00000E+00
         0.00000E+00
         0.00000E+00
         0.00000E+00
         0.00000E+00
         0.00000E+00
         0.00000E+00
         0.00000E+00
         0.00000E+00
         0.00000E+00
         0.00000E+00
         0.00000E+00
         0.00000E+00
         0.00000E+00
         0.00000E+00
         0.00000E+00
         0.00000E+00
         0.00000E+00
         0.00000E+00
         0.00000E+00
         0.00000E+00
         0.00000E+00
         0.00000E+00
         0.00000E+00
         0.00000E+00
         0.00000E+00
         0.00000E+00
         0.00000E+00
         0.00000E+00
         0.00000E+00
         0.00000E+00
         0.00000E+00
         0.00000E+00
         0.00000E+00
         0.00000E+00
         0.00000E+00
         0.00000E+00
         0.00000E+00
         0.00000E+00
         0.00000E+00
         0.00000E+00
         0.00000E+00
         0.00000E+00
         0.00000E+00
         0.00000E+00
         0.00000E+00
         0.00000E+00
         0.00000E+00
         0.00000E+00
         0.00000E+00
         0.00000E+00
         0.00000E+00
         0.00000E+00
         0.00000E+00
         0.00000E+00
         0.00000E+00
         0.00000E+00
         0.00000E+00
         0.00000E+00
         0.00000E+00
         0.00000E+00
         0.00000E+00
         0.00000E+00
         0.00000E+00
         0.00000E+00
         0.00000E+00
         0.00000E+00
         0.00000E+00
         0.00000E+00
         0.00000E+00
         0.00000E+00
         0.00000E+00
         0.00000E+00
         0.00000E+00
         0.00000E+00
         0.00000E+00
         0.00000E+00
         0.00000E+00
         0.00000E+00
         0.00000E+00
         0.00000E+00
         0.00000E+00
         0.00000E+00
         0.00000E+00
         0.00000E+00
         0.00000E+00
         0.00000E+00
         0.00000E+00
         0.00000E+00
         0.00000E+00
         0.00000E+00
         0.00000E+00
         0.00000E+00
         0.00000E+00
         0.00000E+00
         0.00000E+00
         0.00000E+00
         0.00000E+00
         0.00000E+00
         0.00000E+00
         0.00000E+00
         0.00000E+00
         0.00000E+00
         0.00000E+00
         0.00000E+00
         0.00000E+00
         0.00000E+00
         0.00000E+00
         0.00000E+00
         0.00000E+00
         0.00000E+00
         0.00000E+00
         0.00000E+00
         0.00000E+00
         0.00000E+00
         0.00000E+00
         0.00000E+00
         0.00000E+00
         0.00000E+00
         0.00000E+00
         0.00000E+00
         0.00000E+00
         0.00000E+00
         0.00000E+00
         0.00000E+00
         0.00000E+00
         0.00000E+00
         0.00000E+00
         0.00000E+00
         0.00000E+00
         0.00000E+00
         0.00000E+00
         0.00000E+00
         0.00000E+00
         0.00000E+00
         0.00000E+00
         0.00000E+00
         0.00000E+00
         0.00000E+00
         0.00000E+00
         0.00000E+00
         0.00000E+00
         0.00000E+00
         0.00000E+00
         0.00000E+00
         0.00000E+00
         0.00000E+00
         0.00000E+00
         0.00000E+00
         0.00000E+00
         0.00000E+00
         0.00000E+00
         0.00000E+00
         0.00000E+00
         0.00000E+00
         0.00000E+00
         0.00000E+00
         0.00000E+00
         0.00000E+00
         0.00000E+00
         0.00000E+00
         0.00000E+00
         0.00000E+00
         0.00000E+00
         0.00000E+00
         0.00000E+00
         0.00000E+00
         0.00000E+00
         0.00000E+00
         0.00000E+00
         0.00000E+00
         0.00000E+00
         0.00000E+00
         0.00000E+00
         0.00000E+00
         0.00000E+00
         0.00000E+00
         0.00000E+00
         0.00000E+00
         0.00000E+00
         0.00000E+00
         0.00000E+00
         0.00000E+00
         0.00000E+00
         0.00000E+00
         0.00000E+00
         0.00000E+00
         0.00000E+00
         0.00000E+00
         0.00000E+00
         0.00000E+00
         0.00000E+00
         0.00000E+00
         0.00000E+00
         0.00000E+00
         0.00000E+00
         0.00000E+00
         0.00000E+00
         0.00000E+00
         0.00000E+00
         0.00000E+00
         0.00000E+00
         0.00000E+00
         0.00000E+00
         0.00000E+00
         0.00000E+00
         0.00000E+00
         0.00000E+00
         0.00000E+00
         0.00000E+00
         0.00000E+00
         0.00000E+00
         0.00000E+00
         0.00000E+00
         0.00000E+00
         0.00000E+00
         0.00000E+00
         0.00000E+00
         0.00000E+00
         0.00000E+00
         0.00000E+00
         0.00000E+00
         0.00000E+00
         0.00000E+00
         0.00000E+00
         0.00000E+00
         0.00000E+00
         0.00000E+00
         0.00000E+00
         0.00000E+00
         0.00000E+00
         0.00000E+00
         0.00000E+00
         0.00000E+00
         0.00000E+00
         0.00000E+00
         0.00000E+00
         0.00000E+00
         0.00000E+00
         0.00000E+00
         0.00000E+00
         0.00000E+00
         0.00000E+00
         0.00000E+00
         0.00000E+00
         0.00000E+00
         0.00000E+00
         0.00000E+00
         0.00000E+00
         0.00000E+00
         0.00000E+00
         0.00000E+00
         0.00000E+00
         0.00000E+00
         0.00000E+00
         0.00000E+00
         0.00000E+00
         0.00000E+00
         0.00000E+00
         0.00000E+00
         0.00000E+00
         0.00000E+00
         0.00000E+00
         0.00000E+00
         0.00000E+00
         0.00000E+00
         0.00000E+00
         0.00000E+00
         0.00000E+00
         0.00000E+00
         0.00000E+00
         0.00000E+00
         0.00000E+00
         0.00000E+00
         0.00000E+00
         0.00000E+00
         0.00000E+00
         0.00000E+00
         0.00000E+00
         0.00000E+00
         0.00000E+00
         0.00000E+00
         0.00000E+00
         0.00000E+00
         0.00000E+00
         0.00000E+00
         0.00000E+00
         0.00000E+00
         0.00000E+00
         0.00000E+00
         0.00000E+00
         0.00000E+00
         0.00000E+00
         0.00000E+00
         0.00000E+00
         0.00000E+00
         0.00000E+00
         0.00000E+00
         0.00000E+00
         0.00000E+00
         0.00000E+00
         0.00000E+00
         0.00000E+00
         0.00000E+00
         0.00000E+00
         0.00000E+00
         0.00000E+00
         0.00000E+00
         0.00000E+00
         0.00000E+00
         0.00000E+00
         0.00000E+00
         0.00000E+00
         0.00000E+00
         0.00000E+00
         0.00000E+00
         0.00000E+00
         0.00000E+00
         0.00000E+00
         0.00000E+00
         0.00000E+00
         0.00000E+00
         0.00000E+00
         0.00000E+00
         0.00000E+00
         0.00000E+00
         0.00000E+00
         0.00000E+00
         0.00000E+00
         0.00000E+00
         0.00000E+00
         0.00000E+00
         0.00000E+00
         0.00000E+00
         0.00000E+00
         0.00000E+00
         0.00000E+00
         0.00000E+00
         0.00000E+00
         0.00000E+00
         0.00000E+00
         0.00000E+00
         0.00000E+00
         0.00000E+00
         0.00000E+00
         0.00000E+00
         0.00000E+00
         0.00000E+00
         0.00000E+00
         0.00000E+00
         0.00000E+00
         0.00000E+00
         0.00000E+00
         0.00000E+00
         0.00000E+00
         0.00000E+00
         0.00000E+00
         0.00000E+00
         0.00000E+00
         0.00000E+00
         0.00000E+00
         0.00000E+00
         0.00000E+00
         0.00000E+00
         0.00000E+00
         0.00000E+00
         0.00000E+00
         0.00000E+00
         0.00000E+00
         0.00000E+00
         0.00000E+00
         0.00000E+00
         0.00000E+00
         0.00000E+00
         0.00000E+00
         0.00000E+00
         0.00000E+00
         0.00000E+00
         0.00000E+00
         0.00000E+00
         0.00000E+00
         0.00000E+00
         0.00000E+00
         0.00000E+00
         0.00000E+00
         0.00000E+00
         0.00000E+00
         0.00000E+00
         0.00000E+00
         0.00000E+00
         0.00000E+00
         0.00000E+00
         0.00000E+00
         0.00000E+00
         0.00000E+00
         0.00000E+00
         0.00000E+00
         0.00000E+00
         0.00000E+00
         0.00000E+00
         0.00000E+00
         0.00000E+00
         0.00000E+00
         0.00000E+00
         0.00000E+00
         0.00000E+00
         0.00000E+00
         0.00000E+00
         0.00000E+00
         0.00000E+00
         0.00000E+00
         0.00000E+00
         0.00000E+00
         0.00000E+00
         0.00000E+00
         0.00000E+00
         0.00000E+00
         0.00000E+00
         0.00000E+00
         0.00000E+00
         0.00000E+00
         0.00000E+00
         0.00000E+00
         0.00000E+00
         0.00000E+00
         0.00000E+00
         0.00000E+00
         0.00000E+00
         0.00000E+00
         0.00000E+00
         0.00000E+00
         0.00000E+00
         0.00000E+00
         0.00000E+00
         0.00000E+00
         0.00000E+00
         0.00000E+00
         0.00000E+00
         0.00000E+00
         0.00000E+00
         0.00000E+00
         0.00000E+00
         0.00000E+00
         0.00000E+00
         0.00000E+00
         0.00000E+00
         0.00000E+00
         0.00000E+00
         0.00000E+00
         0.00000E+00
         0.00000E+00
         0.00000E+00
         0.00000E+00
         0.00000E+00
         0.00000E+00
         0.00000E+00
         0.00000E+00
         0.00000E+00
         0.00000E+00
         0.00000E+00
         0.00000E+00
         0.00000E+00
         0.00000E+00
         0.00000E+00
         0.00000E+00
         0.00000E+00
         0.00000E+00
         0.00000E+00
         0.00000E+00
         0.00000E+00
         0.00000E+00
         0.00000E+00
         0.00000E+00
         0.00000E+00
         0.00000E+00
         0.00000E+00
         0.00000E+00
         0.00000E+00
         0.00000E+00
         0.00000E+00
         0.00000E+00
         0.00000E+00
         0.00000E+00
         0.00000E+00
         0.00000E+00
         0.00000E+00
         0.00000E+00
         0.00000E+00
         0.00000E+00
         0.00000E+00
         0.00000E+00
         0.00000E+00
         0.00000E+00
         0.00000E+00
         0.00000E+00
         0.00000E+00
         0.00000E+00
         0.00000E+00
         0.00000E+00
         0.00000E+00
         0.00000E+00
         0.00000E+00
         0.00000E+00
         0.00000E+00
         0.00000E+00
         0.00000E+00
         0.00000E+00
         0.00000E+00
         0.00000E+00
         0.00000E+00
         0.00000E+00
         0.00000E+00
         0.00000E+00
         0.00000E+00
         0.00000E+00
         0.00000E+00
         0.00000E+00
         0.00000E+00
         0.00000E+00
         0.00000E+00
         0.00000E+00
         0.00000E+00
         0.00000E+00
         0.00000E+00
         0.00000E+00
         0.00000E+00
         0.00000E+00
         0.00000E+00
         0.00000E+00
         0.00000E+00
         0.00000E+00
         0.00000E+00
         0.00000E+00
         0.00000E+00
         0.00000E+00
         0.00000E+00
         0.00000E+00
         0.00000E+00
         0.00000E+00
         0.00000E+00
         0.00000E+00
         0.00000E+00
         0.00000E+00
         0.00000E+00
         0.00000E+00
         0.00000E+00
         0.00000E+00
         0.00000E+00
         0.00000E+00
         0.00000E+00
         0.00000E+00
         0.00000E+00
         0.00000E+00
         0.00000E+00
         0.00000E+00
         0.00000E+00
         0.00000E+00
         0.00000E+00
         0.00000E+00
         0.00000E+00
         0.00000E+00
         0.00000E+00
         0.00000E+00
         0.00000E+00
         0.00000E+00
         0.00000E+00
         0.00000E+00
         0.00000E+00
         0.00000E+00
         0.00000E+00
         0.00000E+00
         0.00000E+00
         0.00000E+00
         0.00000E+00
         0.00000E+00
         0.00000E+00
         0.00000E+00
         0.00000E+00
         0.00000E+00
         0.00000E+00
         0.00000E+00
         0.00000E+00
         0.00000E+00
         0.00000E+00
         0.00000E+00
         0.00000E+00
         0.00000E+00
         0.00000E+00
         0.00000E+00
         0.00000E+00
         0.00000E+00
         0.00000E+00
         0.00000E+00
         0.00000E+00
         0.00000E+00
         0.00000E+00
         0.00000E+00
         0.00000E+00
         0.00000E+00
         0.00000E+00
         0.00000E+00
         0.00000E+00
         0.00000E+00
         0.00000E+00
         0.00000E+00
         0.00000E+00
         0.00000E+00
         0.00000E+00
         0.00000E+00
         0.00000E+00
         0.00000E+00
         0.00000E+00
         0.00000E+00
         0.00000E+00
         0.00000E+00
         0.00000E+00
         0.00000E+00
         0.00000E+00
         0.00000E+00
         0.00000E+00
         0.00000E+00
         0.00000E+00
         0.00000E+00
         0.00000E+00
         0.00000E+00
         0.00000E+00
         0.00000E+00
         0.00000E+00
         0.00000E+00
         0.00000E+00
         0.00000E+00
         0.00000E+00
         0.00000E+00
         0.00000E+00
         0.00000E+00
         0.00000E+00
         0.00000E+00
         0.00000E+00
         0.00000E+00
         0.00000E+00
         0.00000E+00
         0.00000E+00
         0.00000E+00
         0.00000E+00
         0.00000E+00
         0.00000E+00
         0.00000E+00
         0.00000E+00
         0.00000E+00
         0.00000E+00
         0.00000E+00
         0.00000E+00
         0.00000E+00
         0.00000E+00
         0.00000E+00
         0.00000E+00
         0.00000E+00
         0.00000E+00
         0.00000E+00
         0.00000E+00
         0.00000E+00
         0.00000E+00
         0.00000E+00
         0.00000E+00
         0.00000E+00
         0.00000E+00
         0.00000E+00
         0.00000E+00
         0.00000E+00
         0.00000E+00
         0.00000E+00
         0.00000E+00
         0.00000E+00
         0.00000E+00
         0.00000E+00
         0.00000E+00
         0.00000E+00
         0.00000E+00
         0.00000E+00
         0.00000E+00
         0.00000E+00
         0.00000E+00
         0.00000E+00
         0.00000E+00
         0.00000E+00
         0.00000E+00
         0.00000E+00
         0.00000E+00
         0.00000E+00
         0.00000E+00
         0.00000E+00
         0.00000E+00
         0.00000E+00
         0.00000E+00
         0.00000E+00
         0.00000E+00
         0.00000E+00
         0.00000E+00
         0.00000E+00
         0.00000E+00
         0.00000E+00
         0.00000E+00
         0.00000E+00
         0.00000E+00
         0.00000E+00
         0.00000E+00
         0.00000E+00
         0.00000E+00
         0.00000E+00
         0.00000E+00
         0.00000E+00
         0.00000E+00
         0.00000E+00
         0.00000E+00
         0.00000E+00
         0.00000E+00
         0.00000E+00
         0.00000E+00
         0.00000E+00
         0.00000E+00
         0.00000E+00
         0.00000E+00
         0.00000E+00
         0.00000E+00
         0.00000E+00
         0.00000E+00
         0.00000E+00
         0.00000E+00
         0.00000E+00
         0.00000E+00
         0.00000E+00
         0.00000E+00
         0.00000E+00
         0.00000E+00
         0.00000E+00
         0.00000E+00
         0.00000E+00
         0.00000E+00
         0.00000E+00
         0.00000E+00
         0.00000E+00
         0.00000E+00
         0.00000E+00
         0.00000E+00
         0.00000E+00
         0.00000E+00
         0.00000E+00
         0.00000E+00
         0.00000E+00
         0.00000E+00
         0.00000E+00
         0.00000E+00
         0.00000E+00
         0.00000E+00
         0.00000E+00
         0.00000E+00
         0.00000E+00
         0.00000E+00
         0.00000E+00
         0.00000E+00
         0.00000E+00
         0.00000E+00
         0.00000E+00
         0.00000E+00
         0.00000E+00
         0.00000E+00
         0.00000E+00
         0.00000E+00
         0.00000E+00
         0.00000E+00
         0.00000E+00
         0.00000E+00
         0.00000E+00
         0.00000E+00
         0.00000E+00
         0.00000E+00
         0.00000E+00
         0.00000E+00
         0.00000E+00
         0.00000E+00
         0.00000E+00
         0.00000E+00
         0.00000E+00
         0.00000E+00
         0.00000E+00
         0.00000E+00
         0.00000E+00
         0.00000E+00
         0.00000E+00
         0.00000E+00
         0.00000E+00
         0.00000E+00
         0.00000E+00
         0.00000E+00
         0.00000E+00
         0.00000E+00
         0.00000E+00
         0.00000E+00
         0.00000E+00
         0.00000E+00
         0.00000E+00
         0.00000E+00
         0.00000E+00
         0.00000E+00
         0.00000E+00
         0.00000E+00
         0.00000E+00
         0.00000E+00
         0.00000E+00
         0.00000E+00
         0.00000E+00
         0.00000E+00
         0.00000E+00
         0.00000E+00
         0.00000E+00
         0.00000E+00
         0.00000E+00
         0.00000E+00
         0.00000E+00
         0.00000E+00
         0.00000E+00
         0.00000E+00
         0.00000E+00
         0.00000E+00
         0.00000E+00
         0.00000E+00
         0.00000E+00
         0.00000E+00
         0.00000E+00
         0.00000E+00
         0.00000E+00
         0.00000E+00
         0.00000E+00
         0.00000E+00
         0.00000E+00
         0.00000E+00
         0.00000E+00
         0.00000E+00
         0.00000E+00
         0.00000E+00
         0.00000E+00
         0.00000E+00
  
SCALARS                        eps_vol  double 1
LOOKUP_TABLE default
         0.00000E+00
         0.00000E+00
         0.00000E+00
         0.00000E+00
         0.00000E+00
         0.00000E+00
         0.00000E+00
         0.00000E+00
         0.00000E+00
         0.00000E+00
         0.00000E+00
         0.00000E+00
         0.00000E+00
         0.00000E+00
         0.00000E+00
         0.00000E+00
         0.00000E+00
         0.00000E+00
         0.00000E+00
         0.00000E+00
         0.00000E+00
         0.00000E+00
         0.00000E+00
         0.00000E+00
         0.00000E+00
         0.00000E+00
         0.00000E+00
         0.00000E+00
         0.00000E+00
         0.00000E+00
         0.00000E+00
         0.00000E+00
         0.00000E+00
         0.00000E+00
         0.00000E+00
         0.00000E+00
         0.00000E+00
         0.00000E+00
         0.00000E+00
         0.00000E+00
         0.00000E+00
         0.00000E+00
         0.00000E+00
         0.00000E+00
         0.00000E+00
         0.00000E+00
         0.00000E+00
         0.00000E+00
         0.00000E+00
         0.00000E+00
         0.00000E+00
         0.00000E+00
         0.00000E+00
         0.00000E+00
         0.00000E+00
         0.00000E+00
         0.00000E+00
         0.00000E+00
         0.00000E+00
         0.00000E+00
         0.00000E+00
         0.00000E+00
         0.00000E+00
         0.00000E+00
         0.00000E+00
         0.00000E+00
         0.00000E+00
         0.00000E+00
         0.00000E+00
         0.00000E+00
         0.00000E+00
         0.00000E+00
         0.00000E+00
         0.00000E+00
         0.00000E+00
         0.00000E+00
         0.00000E+00
         0.00000E+00
         0.00000E+00
         0.00000E+00
         0.00000E+00
         0.00000E+00
         0.00000E+00
         0.00000E+00
         0.00000E+00
         0.00000E+00
         0.00000E+00
         0.00000E+00
         0.00000E+00
         0.00000E+00
         0.00000E+00
         0.00000E+00
         0.00000E+00
         0.00000E+00
         0.00000E+00
         0.00000E+00
         0.00000E+00
         0.00000E+00
         0.00000E+00
         0.00000E+00
         0.00000E+00
         0.00000E+00
         0.00000E+00
         0.00000E+00
         0.00000E+00
         0.00000E+00
         0.00000E+00
         0.00000E+00
         0.00000E+00
         0.00000E+00
         0.00000E+00
         0.00000E+00
         0.00000E+00
         0.00000E+00
         0.00000E+00
         0.00000E+00
         0.00000E+00
         0.00000E+00
         0.00000E+00
         0.00000E+00
         0.00000E+00
         0.00000E+00
         0.00000E+00
         0.00000E+00
         0.00000E+00
         0.00000E+00
         0.00000E+00
         0.00000E+00
         0.00000E+00
         0.00000E+00
         0.00000E+00
         0.00000E+00
         0.00000E+00
         0.00000E+00
         0.00000E+00
         0.00000E+00
         0.00000E+00
         0.00000E+00
         0.00000E+00
         0.00000E+00
         0.00000E+00
         0.00000E+00
         0.00000E+00
         0.00000E+00
         0.00000E+00
         0.00000E+00
         0.00000E+00
         0.00000E+00
         0.00000E+00
         0.00000E+00
         0.00000E+00
         0.00000E+00
         0.00000E+00
         0.00000E+00
         0.00000E+00
         0.00000E+00
         0.00000E+00
         0.00000E+00
         0.00000E+00
         0.00000E+00
         0.00000E+00
         0.00000E+00
         0.00000E+00
         0.00000E+00
         0.00000E+00
         0.00000E+00
         0.00000E+00
         0.00000E+00
         0.00000E+00
         0.00000E+00
         0.00000E+00
         0.00000E+00
         0.00000E+00
         0.00000E+00
         0.00000E+00
         0.00000E+00
         0.00000E+00
         0.00000E+00
         0.00000E+00
         0.00000E+00
         0.00000E+00
         0.00000E+00
         0.00000E+00
         0.00000E+00
         0.00000E+00
         0.00000E+00
         0.00000E+00
         0.00000E+00
         0.00000E+00
         0.00000E+00
         0.00000E+00
         0.00000E+00
         0.00000E+00
         0.00000E+00
         0.00000E+00
         0.00000E+00
         0.00000E+00
         0.00000E+00
         0.00000E+00
         0.00000E+00
         0.00000E+00
         0.00000E+00
         0.00000E+00
         0.00000E+00
         0.00000E+00
         0.00000E+00
         0.00000E+00
         0.00000E+00
         0.00000E+00
         0.00000E+00
         0.00000E+00
         0.00000E+00
         0.00000E+00
         0.00000E+00
         0.00000E+00
         0.00000E+00
         0.00000E+00
         0.00000E+00
         0.00000E+00
         0.00000E+00
         0.00000E+00
         0.00000E+00
         0.00000E+00
         0.00000E+00
         0.00000E+00
         0.00000E+00
         0.00000E+00
         0.00000E+00
         0.00000E+00
         0.00000E+00
         0.00000E+00
         0.00000E+00
         0.00000E+00
         0.00000E+00
         0.00000E+00
         0.00000E+00
         0.00000E+00
         0.00000E+00
         0.00000E+00
         0.00000E+00
         0.00000E+00
         0.00000E+00
         0.00000E+00
         0.00000E+00
         0.00000E+00
         0.00000E+00
         0.00000E+00
         0.00000E+00
         0.00000E+00
         0.00000E+00
         0.00000E+00
         0.00000E+00
         0.00000E+00
         0.00000E+00
         0.00000E+00
         0.00000E+00
         0.00000E+00
         0.00000E+00
         0.00000E+00
         0.00000E+00
         0.00000E+00
         0.00000E+00
         0.00000E+00
         0.00000E+00
         0.00000E+00
         0.00000E+00
         0.00000E+00
         0.00000E+00
         0.00000E+00
         0.00000E+00
         0.00000E+00
         0.00000E+00
         0.00000E+00
         0.00000E+00
         0.00000E+00
         0.00000E+00
         0.00000E+00
         0.00000E+00
         0.00000E+00
         0.00000E+00
         0.00000E+00
         0.00000E+00
         0.00000E+00
         0.00000E+00
         0.00000E+00
         0.00000E+00
         0.00000E+00
         0.00000E+00
         0.00000E+00
         0.00000E+00
         0.00000E+00
         0.00000E+00
         0.00000E+00
         0.00000E+00
         0.00000E+00
         0.00000E+00
         0.00000E+00
         0.00000E+00
         0.00000E+00
         0.00000E+00
         0.00000E+00
         0.00000E+00
         0.00000E+00
         0.00000E+00
         0.00000E+00
         0.00000E+00
         0.00000E+00
         0.00000E+00
         0.00000E+00
         0.00000E+00
         0.00000E+00
         0.00000E+00
         0.00000E+00
         0.00000E+00
         0.00000E+00
         0.00000E+00
         0.00000E+00
         0.00000E+00
         0.00000E+00
         0.00000E+00
         0.00000E+00
         0.00000E+00
         0.00000E+00
         0.00000E+00
         0.00000E+00
         0.00000E+00
         0.00000E+00
         0.00000E+00
         0.00000E+00
         0.00000E+00
         0.00000E+00
         0.00000E+00
         0.00000E+00
         0.00000E+00
         0.00000E+00
         0.00000E+00
         0.00000E+00
         0.00000E+00
         0.00000E+00
         0.00000E+00
         0.00000E+00
         0.00000E+00
         0.00000E+00
         0.00000E+00
         0.00000E+00
         0.00000E+00
         0.00000E+00
         0.00000E+00
         0.00000E+00
         0.00000E+00
         0.00000E+00
         0.00000E+00
         0.00000E+00
         0.00000E+00
         0.00000E+00
         0.00000E+00
         0.00000E+00
         0.00000E+00
         0.00000E+00
         0.00000E+00
         0.00000E+00
         0.00000E+00
         0.00000E+00
         0.00000E+00
         0.00000E+00
         0.00000E+00
         0.00000E+00
         0.00000E+00
         0.00000E+00
         0.00000E+00
         0.00000E+00
         0.00000E+00
         0.00000E+00
         0.00000E+00
         0.00000E+00
         0.00000E+00
         0.00000E+00
         0.00000E+00
         0.00000E+00
         0.00000E+00
         0.00000E+00
         0.00000E+00
         0.00000E+00
         0.00000E+00
         0.00000E+00
         0.00000E+00
         0.00000E+00
         0.00000E+00
         0.00000E+00
         0.00000E+00
         0.00000E+00
         0.00000E+00
         0.00000E+00
         0.00000E+00
         0.00000E+00
         0.00000E+00
         0.00000E+00
         0.00000E+00
         0.00000E+00
         0.00000E+00
         0.00000E+00
         0.00000E+00
         0.00000E+00
         0.00000E+00
         0.00000E+00
         0.00000E+00
         0.00000E+00
         0.00000E+00
         0.00000E+00
         0.00000E+00
         0.00000E+00
         0.00000E+00
         0.00000E+00
         0.00000E+00
         0.00000E+00
         0.00000E+00
         0.00000E+00
         0.00000E+00
         0.00000E+00
         0.00000E+00
         0.00000E+00
         0.00000E+00
         0.00000E+00
         0.00000E+00
         0.00000E+00
         0.00000E+00
         0.00000E+00
         0.00000E+00
         0.00000E+00
         0.00000E+00
         0.00000E+00
         0.00000E+00
         0.00000E+00
         0.00000E+00
         0.00000E+00
         0.00000E+00
         0.00000E+00
         0.00000E+00
         0.00000E+00
         0.00000E+00
         0.00000E+00
         0.00000E+00
         0.00000E+00
         0.00000E+00
         0.00000E+00
         0.00000E+00
         0.00000E+00
         0.00000E+00
         0.00000E+00
         0.00000E+00
         0.00000E+00
         0.00000E+00
         0.00000E+00
         0.00000E+00
         0.00000E+00
         0.00000E+00
         0.00000E+00
         0.00000E+00
         0.00000E+00
         0.00000E+00
         0.00000E+00
         0.00000E+00
         0.00000E+00
         0.00000E+00
         0.00000E+00
         0.00000E+00
         0.00000E+00
         0.00000E+00
         0.00000E+00
         0.00000E+00
         0.00000E+00
         0.00000E+00
         0.00000E+00
         0.00000E+00
         0.00000E+00
         0.00000E+00
         0.00000E+00
         0.00000E+00
         0.00000E+00
         0.00000E+00
         0.00000E+00
         0.00000E+00
         0.00000E+00
         0.00000E+00
         0.00000E+00
         0.00000E+00
         0.00000E+00
         0.00000E+00
         0.00000E+00
         0.00000E+00
         0.00000E+00
         0.00000E+00
         0.00000E+00
         0.00000E+00
         0.00000E+00
         0.00000E+00
         0.00000E+00
         0.00000E+00
         0.00000E+00
         0.00000E+00
         0.00000E+00
         0.00000E+00
         0.00000E+00
         0.00000E+00
         0.00000E+00
         0.00000E+00
         0.00000E+00
         0.00000E+00
         0.00000E+00
         0.00000E+00
         0.00000E+00
         0.00000E+00
         0.00000E+00
         0.00000E+00
         0.00000E+00
         0.00000E+00
         0.00000E+00
         0.00000E+00
         0.00000E+00
         0.00000E+00
         0.00000E+00
         0.00000E+00
         0.00000E+00
         0.00000E+00
         0.00000E+00
         0.00000E+00
         0.00000E+00
         0.00000E+00
         0.00000E+00
         0.00000E+00
         0.00000E+00
         0.00000E+00
         0.00000E+00
         0.00000E+00
         0.00000E+00
         0.00000E+00
         0.00000E+00
         0.00000E+00
         0.00000E+00
         0.00000E+00
         0.00000E+00
         0.00000E+00
         0.00000E+00
         0.00000E+00
         0.00000E+00
         0.00000E+00
         0.00000E+00
         0.00000E+00
         0.00000E+00
         0.00000E+00
         0.00000E+00
         0.00000E+00
         0.00000E+00
         0.00000E+00
         0.00000E+00
         0.00000E+00
         0.00000E+00
         0.00000E+00
         0.00000E+00
         0.00000E+00
         0.00000E+00
         0.00000E+00
         0.00000E+00
         0.00000E+00
         0.00000E+00
         0.00000E+00
         0.00000E+00
         0.00000E+00
         0.00000E+00
         0.00000E+00
         0.00000E+00
         0.00000E+00
         0.00000E+00
         0.00000E+00
         0.00000E+00
         0.00000E+00
         0.00000E+00
         0.00000E+00
         0.00000E+00
         0.00000E+00
         0.00000E+00
         0.00000E+00
         0.00000E+00
         0.00000E+00
         0.00000E+00
         0.00000E+00
         0.00000E+00
         0.00000E+00
         0.00000E+00
         0.00000E+00
         0.00000E+00
         0.00000E+00
         0.00000E+00
         0.00000E+00
         0.00000E+00
         0.00000E+00
         0.00000E+00
         0.00000E+00
         0.00000E+00
         0.00000E+00
         0.00000E+00
         0.00000E+00
         0.00000E+00
         0.00000E+00
         0.00000E+00
         0.00000E+00
         0.00000E+00
         0.00000E+00
         0.00000E+00
         0.00000E+00
         0.00000E+00
         0.00000E+00
         0.00000E+00
         0.00000E+00
         0.00000E+00
         0.00000E+00
         0.00000E+00
         0.00000E+00
         0.00000E+00
         0.00000E+00
         0.00000E+00
         0.00000E+00
         0.00000E+00
         0.00000E+00
         0.00000E+00
         0.00000E+00
         0.00000E+00
         0.00000E+00
         0.00000E+00
         0.00000E+00
         0.00000E+00
         0.00000E+00
         0.00000E+00
         0.00000E+00
         0.00000E+00
         0.00000E+00
         0.00000E+00
         0.00000E+00
         0.00000E+00
         0.00000E+00
         0.00000E+00
         0.00000E+00
         0.00000E+00
         0.00000E+00
         0.00000E+00
         0.00000E+00
         0.00000E+00
         0.00000E+00
         0.00000E+00
         0.00000E+00
         0.00000E+00
         0.00000E+00
         0.00000E+00
         0.00000E+00
         0.00000E+00
         0.00000E+00
         0.00000E+00
         0.00000E+00
         0.00000E+00
         0.00000E+00
         0.00000E+00
         0.00000E+00
         0.00000E+00
         0.00000E+00
         0.00000E+00
         0.00000E+00
         0.00000E+00
         0.00000E+00
         0.00000E+00
         0.00000E+00
         0.00000E+00
         0.00000E+00
         0.00000E+00
         0.00000E+00
         0.00000E+00
         0.00000E+00
         0.00000E+00
         0.00000E+00
         0.00000E+00
         0.00000E+00
         0.00000E+00
         0.00000E+00
         0.00000E+00
         0.00000E+00
         0.00000E+00
         0.00000E+00
         0.00000E+00
         0.00000E+00
         0.00000E+00
         0.00000E+00
         0.00000E+00
         0.00000E+00
         0.00000E+00
         0.00000E+00
         0.00000E+00
         0.00000E+00
         0.00000E+00
         0.00000E+00
         0.00000E+00
         0.00000E+00
         0.00000E+00
         0.00000E+00
         0.00000E+00
         0.00000E+00
         0.00000E+00
         0.00000E+00
         0.00000E+00
         0.00000E+00
         0.00000E+00
         0.00000E+00
         0.00000E+00
         0.00000E+00
         0.00000E+00
         0.00000E+00
         0.00000E+00
         0.00000E+00
         0.00000E+00
         0.00000E+00
         0.00000E+00
         0.00000E+00
         0.00000E+00
         0.00000E+00
         0.00000E+00
         0.00000E+00
         0.00000E+00
         0.00000E+00
         0.00000E+00
         0.00000E+00
         0.00000E+00
         0.00000E+00
         0.00000E+00
         0.00000E+00
         0.00000E+00
         0.00000E+00
         0.00000E+00
         0.00000E+00
         0.00000E+00
         0.00000E+00
         0.00000E+00
         0.00000E+00
         0.00000E+00
         0.00000E+00
         0.00000E+00
         0.00000E+00
         0.00000E+00
         0.00000E+00
         0.00000E+00
         0.00000E+00
         0.00000E+00
         0.00000E+00
         0.00000E+00
         0.00000E+00
         0.00000E+00
         0.00000E+00
         0.00000E+00
         0.00000E+00
         0.00000E+00
         0.00000E+00
         0.00000E+00
         0.00000E+00
         0.00000E+00
         0.00000E+00
         0.00000E+00
         0.00000E+00
         0.00000E+00
         0.00000E+00
         0.00000E+00
         0.00000E+00
         0.00000E+00
         0.00000E+00
         0.00000E+00
         0.00000E+00
         0.00000E+00
         0.00000E+00
         0.00000E+00
         0.00000E+00
         0.00000E+00
         0.00000E+00
         0.00000E+00
         0.00000E+00
         0.00000E+00
         0.00000E+00
         0.00000E+00
         0.00000E+00
         0.00000E+00
         0.00000E+00
         0.00000E+00
         0.00000E+00
         0.00000E+00
         0.00000E+00
         0.00000E+00
         0.00000E+00
         0.00000E+00
         0.00000E+00
         0.00000E+00
         0.00000E+00
         0.00000E+00
         0.00000E+00
         0.00000E+00
         0.00000E+00
         0.00000E+00
         0.00000E+00
         0.00000E+00
         0.00000E+00
         0.00000E+00
         0.00000E+00
         0.00000E+00
         0.00000E+00
         0.00000E+00
         0.00000E+00
         0.00000E+00
         0.00000E+00
         0.00000E+00
         0.00000E+00
         0.00000E+00
         0.00000E+00
         0.00000E+00
         0.00000E+00
         0.00000E+00
         0.00000E+00
         0.00000E+00
         0.00000E+00
         0.00000E+00
         0.00000E+00
         0.00000E+00
         0.00000E+00
         0.00000E+00
         0.00000E+00
         0.00000E+00
         0.00000E+00
         0.00000E+00
         0.00000E+00
         0.00000E+00
         0.00000E+00
         0.00000E+00
         0.00000E+00
         0.00000E+00
         0.00000E+00
         0.00000E+00
         0.00000E+00
         0.00000E+00
         0.00000E+00
         0.00000E+00
         0.00000E+00
         0.00000E+00
         0.00000E+00
         0.00000E+00
         0.00000E+00
         0.00000E+00
         0.00000E+00
         0.00000E+00
         0.00000E+00
         0.00000E+00
         0.00000E+00
         0.00000E+00
         0.00000E+00
         0.00000E+00
         0.00000E+00
         0.00000E+00
         0.00000E+00
         0.00000E+00
         0.00000E+00
         0.00000E+00
         0.00000E+00
         0.00000E+00
         0.00000E+00
         0.00000E+00
         0.00000E+00
         0.00000E+00
         0.00000E+00
         0.00000E+00
         0.00000E+00
         0.00000E+00
         0.00000E+00
         0.00000E+00
         0.00000E+00
         0.00000E+00
         0.00000E+00
         0.00000E+00
         0.00000E+00
         0.00000E+00
         0.00000E+00
         0.00000E+00
         0.00000E+00
         0.00000E+00
         0.00000E+00
         0.00000E+00
         0.00000E+00
         0.00000E+00
         0.00000E+00
         0.00000E+00
         0.00000E+00
         0.00000E+00
         0.00000E+00
         0.00000E+00
         0.00000E+00
         0.00000E+00
         0.00000E+00
         0.00000E+00
         0.00000E+00
         0.00000E+00
         0.00000E+00
         0.00000E+00
         0.00000E+00
         0.00000E+00
         0.00000E+00
         0.00000E+00
         0.00000E+00
         0.00000E+00
         0.00000E+00
         0.00000E+00
         0.00000E+00
         0.00000E+00
         0.00000E+00
         0.00000E+00
         0.00000E+00
         0.00000E+00
         0.00000E+00
         0.00000E+00
         0.00000E+00
         0.00000E+00
         0.00000E+00
         0.00000E+00
         0.00000E+00
         0.00000E+00
         0.00000E+00
         0.00000E+00
         0.00000E+00
         0.00000E+00
         0.00000E+00
         0.00000E+00
         0.00000E+00
         0.00000E+00
         0.00000E+00
         0.00000E+00
         0.00000E+00
         0.00000E+00
         0.00000E+00
         0.00000E+00
         0.00000E+00
         0.00000E+00
         0.00000E+00
         0.00000E+00
         0.00000E+00
         0.00000E+00
         0.00000E+00
         0.00000E+00
         0.00000E+00
         0.00000E+00
         0.00000E+00
         0.00000E+00
         0.00000E+00
         0.00000E+00
         0.00000E+00
         0.00000E+00
         0.00000E+00
         0.00000E+00
         0.00000E+00
         0.00000E+00
         0.00000E+00
         0.00000E+00
         0.00000E+00
         0.00000E+00
         0.00000E+00
         0.00000E+00
         0.00000E+00
         0.00000E+00
         0.00000E+00
         0.00000E+00
         0.00000E+00
         0.00000E+00
         0.00000E+00
         0.00000E+00
         0.00000E+00
         0.00000E+00
         0.00000E+00
         0.00000E+00
         0.00000E+00
         0.00000E+00
         0.00000E+00
         0.00000E+00
         0.00000E+00
         0.00000E+00
         0.00000E+00
         0.00000E+00
         0.00000E+00
         0.00000E+00
         0.00000E+00
         0.00000E+00
         0.00000E+00
         0.00000E+00
         0.00000E+00
         0.00000E+00
         0.00000E+00
         0.00000E+00
         0.00000E+00
         0.00000E+00
         0.00000E+00
         0.00000E+00
         0.00000E+00
         0.00000E+00
         0.00000E+00
         0.00000E+00
         0.00000E+00
         0.00000E+00
         0.00000E+00
         0.00000E+00
         0.00000E+00
         0.00000E+00
         0.00000E+00
         0.00000E+00
         0.00000E+00
         0.00000E+00
         0.00000E+00
         0.00000E+00
         0.00000E+00
         0.00000E+00
         0.00000E+00
         0.00000E+00
         0.00000E+00
         0.00000E+00
         0.00000E+00
         0.00000E+00
         0.00000E+00
         0.00000E+00
         0.00000E+00
         0.00000E+00
         0.00000E+00
         0.00000E+00
         0.00000E+00
         0.00000E+00
         0.00000E+00
         0.00000E+00
         0.00000E+00
         0.00000E+00
         0.00000E+00
         0.00000E+00
         0.00000E+00
         0.00000E+00
         0.00000E+00
         0.00000E+00
         0.00000E+00
         0.00000E+00
         0.00000E+00
         0.00000E+00
         0.00000E+00
         0.00000E+00
         0.00000E+00
         0.00000E+00
         0.00000E+00
         0.00000E+00
         0.00000E+00
         0.00000E+00
         0.00000E+00
         0.00000E+00
         0.00000E+00
         0.00000E+00
         0.00000E+00
         0.00000E+00
         0.00000E+00
         0.00000E+00
         0.00000E+00
         0.00000E+00
         0.00000E+00
         0.00000E+00
         0.00000E+00
         0.00000E+00
         0.00000E+00
         0.00000E+00
         0.00000E+00
         0.00000E+00
         0.00000E+00
         0.00000E+00
         0.00000E+00
         0.00000E+00
         0.00000E+00
         0.00000E+00
         0.00000E+00
         0.00000E+00
         0.00000E+00
         0.00000E+00
         0.00000E+00
         0.00000E+00
         0.00000E+00
         0.00000E+00
         0.00000E+00
         0.00000E+00
         0.00000E+00
         0.00000E+00
         0.00000E+00
         0.00000E+00
         0.00000E+00
         0.00000E+00
         0.00000E+00
         0.00000E+00
         0.00000E+00
         0.00000E+00
         0.00000E+00
         0.00000E+00
         0.00000E+00
         0.00000E+00
         0.00000E+00
         0.00000E+00
         0.00000E+00
         0.00000E+00
         0.00000E+00
         0.00000E+00
         0.00000E+00
         0.00000E+00
         0.00000E+00
         0.00000E+00
         0.00000E+00
         0.00000E+00
         0.00000E+00
         0.00000E+00
         0.00000E+00
         0.00000E+00
         0.00000E+00
         0.00000E+00
         0.00000E+00
         0.00000E+00
         0.00000E+00
         0.00000E+00
         0.00000E+00
         0.00000E+00
         0.00000E+00
         0.00000E+00
         0.00000E+00
         0.00000E+00
         0.00000E+00
         0.00000E+00
         0.00000E+00
         0.00000E+00
         0.00000E+00
         0.00000E+00
         0.00000E+00
         0.00000E+00
         0.00000E+00
         0.00000E+00
         0.00000E+00
         0.00000E+00
         0.00000E+00
         0.00000E+00
         0.00000E+00
         0.00000E+00
         0.00000E+00
         0.00000E+00
         0.00000E+00
         0.00000E+00
         0.00000E+00
         0.00000E+00
         0.00000E+00
         0.00000E+00
         0.00000E+00
         0.00000E+00
         0.00000E+00
         0.00000E+00
         0.00000E+00
         0.00000E+00
         0.00000E+00
         0.00000E+00
         0.00000E+00
         0.00000E+00
         0.00000E+00
         0.00000E+00
         0.00000E+00
         0.00000E+00
         0.00000E+00
         0.00000E+00
         0.00000E+00
         0.00000E+00
         0.00000E+00
         0.00000E+00
         0.00000E+00
         0.00000E+00
         0.00000E+00
         0.00000E+00
         0.00000E+00
         0.00000E+00
         0.00000E+00
         0.00000E+00
         0.00000E+00
         0.00000E+00
         0.00000E+00
         0.00000E+00
         0.00000E+00
         0.00000E+00
         0.00000E+00
         0.00000E+00
         0.00000E+00
         0.00000E+00
         0.00000E+00
         0.00000E+00
         0.00000E+00
         0.00000E+00
         0.00000E+00
         0.00000E+00
         0.00000E+00
         0.00000E+00
         0.00000E+00
         0.00000E+00
         0.00000E+00
         0.00000E+00
         0.00000E+00
         0.00000E+00
         0.00000E+00
         0.00000E+00
         0.00000E+00
         0.00000E+00
         0.00000E+00
         0.00000E+00
         0.00000E+00
         0.00000E+00
         0.00000E+00
         0.00000E+00
         0.00000E+00
         0.00000E+00
         0.00000E+00
         0.00000E+00
         0.00000E+00
         0.00000E+00
         0.00000E+00
         0.00000E+00
         0.00000E+00
         0.00000E+00
         0.00000E+00
         0.00000E+00
         0.00000E+00
         0.00000E+00
         0.00000E+00
         0.00000E+00
         0.00000E+00
         0.00000E+00
         0.00000E+00
         0.00000E+00
         0.00000E+00
         0.00000E+00
         0.00000E+00
         0.00000E+00
         0.00000E+00
         0.00000E+00
         0.00000E+00
         0.00000E+00
         0.00000E+00
         0.00000E+00
         0.00000E+00
         0.00000E+00
         0.00000E+00
         0.00000E+00
         0.00000E+00
         0.00000E+00
         0.00000E+00
         0.00000E+00
         0.00000E+00
         0.00000E+00
         0.00000E+00
         0.00000E+00
         0.00000E+00
         0.00000E+00
         0.00000E+00
         0.00000E+00
         0.00000E+00
         0.00000E+00
         0.00000E+00
         0.00000E+00
         0.00000E+00
         0.00000E+00
         0.00000E+00
         0.00000E+00
         0.00000E+00
         0.00000E+00
         0.00000E+00
         0.00000E+00
         0.00000E+00
         0.00000E+00
         0.00000E+00
         0.00000E+00
         0.00000E+00
         0.00000E+00
         0.00000E+00
         0.00000E+00
         0.00000E+00
         0.00000E+00
         0.00000E+00
         0.00000E+00
         0.00000E+00
         0.00000E+00
         0.00000E+00
         0.00000E+00
         0.00000E+00
         0.00000E+00
         0.00000E+00
         0.00000E+00
         0.00000E+00
         0.00000E+00
         0.00000E+00
         0.00000E+00
         0.00000E+00
         0.00000E+00
         0.00000E+00
         0.00000E+00
         0.00000E+00
         0.00000E+00
         0.00000E+00
         0.00000E+00
         0.00000E+00
         0.00000E+00
         0.00000E+00
         0.00000E+00
         0.00000E+00
         0.00000E+00
         0.00000E+00
         0.00000E+00
         0.00000E+00
         0.00000E+00
         0.00000E+00
         0.00000E+00
         0.00000E+00
         0.00000E+00
         0.00000E+00
         0.00000E+00
         0.00000E+00
         0.00000E+00
         0.00000E+00
         0.00000E+00
         0.00000E+00
         0.00000E+00
         0.00000E+00
         0.00000E+00
         0.00000E+00
         0.00000E+00
         0.00000E+00
         0.00000E+00
         0.00000E+00
         0.00000E+00
         0.00000E+00
         0.00000E+00
         0.00000E+00
         0.00000E+00
         0.00000E+00
         0.00000E+00
         0.00000E+00
         0.00000E+00
         0.00000E+00
         0.00000E+00
         0.00000E+00
         0.00000E+00
         0.00000E+00
         0.00000E+00
         0.00000E+00
         0.00000E+00
         0.00000E+00
         0.00000E+00
         0.00000E+00
         0.00000E+00
         0.00000E+00
         0.00000E+00
         0.00000E+00
         0.00000E+00
         0.00000E+00
         0.00000E+00
         0.00000E+00
         0.00000E+00
         0.00000E+00
         0.00000E+00
         0.00000E+00
         0.00000E+00
         0.00000E+00
         0.00000E+00
         0.00000E+00
         0.00000E+00
         0.00000E+00
         0.00000E+00
         0.00000E+00
         0.00000E+00
         0.00000E+00
         0.00000E+00
         0.00000E+00
         0.00000E+00
         0.00000E+00
         0.00000E+00
         0.00000E+00
         0.00000E+00
         0.00000E+00
         0.00000E+00
         0.00000E+00
         0.00000E+00
         0.00000E+00
         0.00000E+00
         0.00000E+00
         0.00000E+00
         0.00000E+00
         0.00000E+00
         0.00000E+00
         0.00000E+00
         0.00000E+00
         0.00000E+00
         0.00000E+00
         0.00000E+00
         0.00000E+00
         0.00000E+00
         0.00000E+00
         0.00000E+00
         0.00000E+00
         0.00000E+00
         0.00000E+00
         0.00000E+00
         0.00000E+00
         0.00000E+00
         0.00000E+00
         0.00000E+00
         0.00000E+00
         0.00000E+00
         0.00000E+00
         0.00000E+00
         0.00000E+00
         0.00000E+00
         0.00000E+00
         0.00000E+00
         0.00000E+00
         0.00000E+00
         0.00000E+00
         0.00000E+00
         0.00000E+00
         0.00000E+00
         0.00000E+00
         0.00000E+00
         0.00000E+00
         0.00000E+00
         0.00000E+00
         0.00000E+00
         0.00000E+00
         0.00000E+00
         0.00000E+00
         0.00000E+00
         0.00000E+00
         0.00000E+00
         0.00000E+00
         0.00000E+00
         0.00000E+00
         0.00000E+00
         0.00000E+00
         0.00000E+00
         0.00000E+00
         0.00000E+00
         0.00000E+00
         0.00000E+00
         0.00000E+00
         0.00000E+00
         0.00000E+00
         0.00000E+00
         0.00000E+00
         0.00000E+00
         0.00000E+00
         0.00000E+00
         0.00000E+00
         0.00000E+00
         0.00000E+00
         0.00000E+00
         0.00000E+00
         0.00000E+00
         0.00000E+00
         0.00000E+00
         0.00000E+00
         0.00000E+00
         0.00000E+00
         0.00000E+00
         0.00000E+00
         0.00000E+00
         0.00000E+00
         0.00000E+00
         0.00000E+00
         0.00000E+00
         0.00000E+00
         0.00000E+00
         0.00000E+00
         0.00000E+00
         0.00000E+00
         0.00000E+00
         0.00000E+00
         0.00000E+00
         0.00000E+00
         0.00000E+00
         0.00000E+00
         0.00000E+00
         0.00000E+00
         0.00000E+00
         0.00000E+00
         0.00000E+00
         0.00000E+00
         0.00000E+00
         0.00000E+00
         0.00000E+00
         0.00000E+00
         0.00000E+00
         0.00000E+00
         0.00000E+00
         0.00000E+00
         0.00000E+00
         0.00000E+00
         0.00000E+00
         0.00000E+00
         0.00000E+00
         0.00000E+00
         0.00000E+00
         0.00000E+00
         0.00000E+00
         0.00000E+00
         0.00000E+00
         0.00000E+00
         0.00000E+00
         0.00000E+00
         0.00000E+00
         0.00000E+00
         0.00000E+00
         0.00000E+00
         0.00000E+00
         0.00000E+00
         0.00000E+00
         0.00000E+00
         0.00000E+00
         0.00000E+00
         0.00000E+00
         0.00000E+00
         0.00000E+00
         0.00000E+00
         0.00000E+00
         0.00000E+00
         0.00000E+00
         0.00000E+00
         0.00000E+00
         0.00000E+00
         0.00000E+00
         0.00000E+00
         0.00000E+00
         0.00000E+00
         0.00000E+00
         0.00000E+00
         0.00000E+00
         0.00000E+00
         0.00000E+00
         0.00000E+00
         0.00000E+00
         0.00000E+00
         0.00000E+00
         0.00000E+00
         0.00000E+00
         0.00000E+00
         0.00000E+00
         0.00000E+00
         0.00000E+00
         0.00000E+00
         0.00000E+00
         0.00000E+00
         0.00000E+00
         0.00000E+00
         0.00000E+00
         0.00000E+00
         0.00000E+00
         0.00000E+00
         0.00000E+00
         0.00000E+00
         0.00000E+00
         0.00000E+00
         0.00000E+00
         0.00000E+00
         0.00000E+00
         0.00000E+00
         0.00000E+00
         0.00000E+00
         0.00000E+00
         0.00000E+00
         0.00000E+00
         0.00000E+00
         0.00000E+00
         0.00000E+00
         0.00000E+00
         0.00000E+00
         0.00000E+00
         0.00000E+00
         0.00000E+00
         0.00000E+00
         0.00000E+00
         0.00000E+00
         0.00000E+00
         0.00000E+00
         0.00000E+00
         0.00000E+00
         0.00000E+00
         0.00000E+00
         0.00000E+00
         0.00000E+00
         0.00000E+00
         0.00000E+00
         0.00000E+00
         0.00000E+00
         0.00000E+00
         0.00000E+00
         0.00000E+00
         0.00000E+00
         0.00000E+00
         0.00000E+00
         0.00000E+00
         0.00000E+00
         0.00000E+00
         0.00000E+00
         0.00000E+00
         0.00000E+00
         0.00000E+00
         0.00000E+00
         0.00000E+00
         0.00000E+00
         0.00000E+00
         0.00000E+00
         0.00000E+00
         0.00000E+00
         0.00000E+00
         0.00000E+00
         0.00000E+00
         0.00000E+00
         0.00000E+00
         0.00000E+00
         0.00000E+00
         0.00000E+00
         0.00000E+00
         0.00000E+00
         0.00000E+00
         0.00000E+00
         0.00000E+00
         0.00000E+00
         0.00000E+00
         0.00000E+00
         0.00000E+00
         0.00000E+00
         0.00000E+00
         0.00000E+00
         0.00000E+00
         0.00000E+00
         0.00000E+00
         0.00000E+00
         0.00000E+00
         0.00000E+00
         0.00000E+00
         0.00000E+00
         0.00000E+00
         0.00000E+00
         0.00000E+00
         0.00000E+00
         0.00000E+00
         0.00000E+00
         0.00000E+00
         0.00000E+00
         0.00000E+00
         0.00000E+00
         0.00000E+00
         0.00000E+00
         0.00000E+00
         0.00000E+00
         0.00000E+00
         0.00000E+00
         0.00000E+00
         0.00000E+00
         0.00000E+00
         0.00000E+00
         0.00000E+00
         0.00000E+00
         0.00000E+00
         0.00000E+00
         0.00000E+00
         0.00000E+00
         0.00000E+00
         0.00000E+00
         0.00000E+00
         0.00000E+00
         0.00000E+00
         0.00000E+00
         0.00000E+00
         0.00000E+00
         0.00000E+00
         0.00000E+00
         0.00000E+00
         0.00000E+00
         0.00000E+00
         0.00000E+00
         0.00000E+00
         0.00000E+00
         0.00000E+00
         0.00000E+00
         0.00000E+00
         0.00000E+00
         0.00000E+00
         0.00000E+00
         0.00000E+00
         0.00000E+00
         0.00000E+00
         0.00000E+00
         0.00000E+00
         0.00000E+00
         0.00000E+00
         0.00000E+00
         0.00000E+00
         0.00000E+00
         0.00000E+00
         0.00000E+00
         0.00000E+00
         0.00000E+00
         0.00000E+00
         0.00000E+00
         0.00000E+00
         0.00000E+00
         0.00000E+00
         0.00000E+00
         0.00000E+00
         0.00000E+00
         0.00000E+00
         0.00000E+00
         0.00000E+00
         0.00000E+00
         0.00000E+00
         0.00000E+00
         0.00000E+00
         0.00000E+00
         0.00000E+00
         0.00000E+00
         0.00000E+00
         0.00000E+00
         0.00000E+00
         0.00000E+00
         0.00000E+00
         0.00000E+00
         0.00000E+00
         0.00000E+00
         0.00000E+00
         0.00000E+00
         0.00000E+00
         0.00000E+00
         0.00000E+00
         0.00000E+00
         0.00000E+00
         0.00000E+00
         0.00000E+00
         0.00000E+00
         0.00000E+00
         0.00000E+00
         0.00000E+00
         0.00000E+00
         0.00000E+00
         0.00000E+00
         0.00000E+00
         0.00000E+00
         0.00000E+00
         0.00000E+00
         0.00000E+00
         0.00000E+00
         0.00000E+00
         0.00000E+00
         0.00000E+00
         0.00000E+00
         0.00000E+00
         0.00000E+00
         0.00000E+00
         0.00000E+00
         0.00000E+00
         0.00000E+00
         0.00000E+00
         0.00000E+00
         0.00000E+00
         0.00000E+00
         0.00000E+00
         0.00000E+00
         0.00000E+00
         0.00000E+00
         0.00000E+00
         0.00000E+00
         0.00000E+00
         0.00000E+00
         0.00000E+00
         0.00000E+00
         0.00000E+00
         0.00000E+00
         0.00000E+00
         0.00000E+00
         0.00000E+00
         0.00000E+00
         0.00000E+00
         0.00000E+00
         0.00000E+00
         0.00000E+00
         0.00000E+00
         0.00000E+00
         0.00000E+00
         0.00000E+00
         0.00000E+00
         0.00000E+00
         0.00000E+00
         0.00000E+00
         0.00000E+00
         0.00000E+00
         0.00000E+00
         0.00000E+00
         0.00000E+00
         0.00000E+00
         0.00000E+00
         0.00000E+00
         0.00000E+00
         0.00000E+00
         0.00000E+00
         0.00000E+00
         0.00000E+00
         0.00000E+00
         0.00000E+00
         0.00000E+00
         0.00000E+00
         0.00000E+00
         0.00000E+00
         0.00000E+00
         0.00000E+00
         0.00000E+00
         0.00000E+00
         0.00000E+00
         0.00000E+00
         0.00000E+00
         0.00000E+00
         0.00000E+00
         0.00000E+00
         0.00000E+00
         0.00000E+00
         0.00000E+00
         0.00000E+00
         0.00000E+00
         0.00000E+00
         0.00000E+00
         0.00000E+00
         0.00000E+00
         0.00000E+00
         0.00000E+00
         0.00000E+00
         0.00000E+00
         0.00000E+00
         0.00000E+00
         0.00000E+00
         0.00000E+00
         0.00000E+00
         0.00000E+00
         0.00000E+00
         0.00000E+00
         0.00000E+00
         0.00000E+00
         0.00000E+00
         0.00000E+00
         0.00000E+00
         0.00000E+00
         0.00000E+00
         0.00000E+00
         0.00000E+00
         0.00000E+00
         0.00000E+00
         0.00000E+00
         0.00000E+00
         0.00000E+00
         0.00000E+00
         0.00000E+00
         0.00000E+00
         0.00000E+00
         0.00000E+00
         0.00000E+00
         0.00000E+00
         0.00000E+00
         0.00000E+00
         0.00000E+00
         0.00000E+00
         0.00000E+00
         0.00000E+00
         0.00000E+00
         0.00000E+00
         0.00000E+00
         0.00000E+00
         0.00000E+00
         0.00000E+00
         0.00000E+00
         0.00000E+00
         0.00000E+00
         0.00000E+00
         0.00000E+00
         0.00000E+00
         0.00000E+00
         0.00000E+00
         0.00000E+00
         0.00000E+00
         0.00000E+00
         0.00000E+00
         0.00000E+00
         0.00000E+00
         0.00000E+00
         0.00000E+00
         0.00000E+00
         0.00000E+00
         0.00000E+00
         0.00000E+00
         0.00000E+00
         0.00000E+00
         0.00000E+00
         0.00000E+00
         0.00000E+00
         0.00000E+00
         0.00000E+00
         0.00000E+00
         0.00000E+00
         0.00000E+00
         0.00000E+00
         0.00000E+00
         0.00000E+00
         0.00000E+00
         0.00000E+00
         0.00000E+00
         0.00000E+00
         0.00000E+00
         0.00000E+00
         0.00000E+00
         0.00000E+00
         0.00000E+00
         0.00000E+00
         0.00000E+00
         0.00000E+00
         0.00000E+00
         0.00000E+00
         0.00000E+00
         0.00000E+00
         0.00000E+00
         0.00000E+00
         0.00000E+00
         0.00000E+00
         0.00000E+00
         0.00000E+00
         0.00000E+00
         0.00000E+00
         0.00000E+00
         0.00000E+00
         0.00000E+00
         0.00000E+00
         0.00000E+00
         0.00000E+00
         0.00000E+00
         0.00000E+00
         0.00000E+00
         0.00000E+00
         0.00000E+00
         0.00000E+00
         0.00000E+00
         0.00000E+00
  
SCALARS                            eps  double 1
LOOKUP_TABLE default
         0.29458E+02
         0.29107E+02
         0.29330E+02
         0.29729E+02
         0.00000E+00
         0.00000E+00
         0.00000E+00
         0.00000E+00
         0.29097E+02
         0.29215E+02
         0.00000E+00
         0.00000E+00
         0.28598E+02
         0.28579E+02
         0.00000E+00
         0.00000E+00
         0.29670E+02
         0.28607E+02
         0.00000E+00
         0.00000E+00
         0.28216E+02
         0.27913E+02
         0.28396E+02
         0.00000E+00
         0.00000E+00
         0.00000E+00
         0.27923E+02
         0.27480E+02
         0.00000E+00
         0.00000E+00
         0.29651E+02
         0.29189E+02
         0.30099E+02
         0.00000E+00
         0.00000E+00
         0.00000E+00
         0.29384E+02
         0.28794E+02
         0.00000E+00
         0.00000E+00
         0.29151E+02
         0.28696E+02
         0.00000E+00
         0.00000E+00
         0.29536E+02
         0.29706E+02
         0.00000E+00
         0.00000E+00
         0.28330E+02
         0.00000E+00
         0.29673E+02
         0.00000E+00
         0.27795E+02
         0.00000E+00
         0.27655E+02
         0.00000E+00
         0.27658E+02
         0.28154E+02
         0.00000E+00
         0.00000E+00
         0.29642E+02
         0.29465E+02
         0.00000E+00
         0.00000E+00
         0.29753E+02
         0.00000E+00
         0.29542E+02
         0.00000E+00
         0.28990E+02
         0.28932E+02
         0.00000E+00
         0.00000E+00
         0.28805E+02
         0.00000E+00
         0.27322E+02
         0.00000E+00
         0.27244E+02
         0.00000E+00
         0.27284E+02
         0.00000E+00
         0.27502E+02
         0.27723E+02
         0.00000E+00
         0.00000E+00
         0.28171E+02
         0.00000E+00
         0.29527E+02
         0.00000E+00
         0.29317E+02
         0.00000E+00
         0.29146E+02
         0.29048E+02
         0.00000E+00
         0.00000E+00
         0.29164E+02
         0.00000E+00
         0.29248E+02
         0.00000E+00
         0.29173E+02
         0.00000E+00
         0.29149E+02
         0.29223E+02
         0.00000E+00
         0.00000E+00
         0.28740E+02
         0.28943E+02
         0.00000E+00
         0.00000E+00
         0.28705E+02
         0.00000E+00
         0.28940E+02
         0.00000E+00
         0.28710E+02
         0.00000E+00
         0.28205E+02
         0.00000E+00
         0.27717E+02
         0.00000E+00
         0.27423E+02
         0.00000E+00
         0.27393E+02
         0.00000E+00
         0.27402E+02
         0.00000E+00
         0.27720E+02
         0.00000E+00
         0.28319E+02
         0.00000E+00
         0.28974E+02
         0.00000E+00
         0.29354E+02
         0.00000E+00
         0.29730E+02
         0.00000E+00
         0.29979E+02
         0.00000E+00
         0.29971E+02
         0.00000E+00
         0.29362E+02
         0.00000E+00
         0.28935E+02
         0.00000E+00
         0.28795E+02
         0.00000E+00
         0.29024E+02
         0.00000E+00
         0.29141E+02
         0.00000E+00
         0.28938E+02
         0.00000E+00
         0.28938E+02
         0.00000E+00
         0.29091E+02
         0.00000E+00
         0.29289E+02
         0.00000E+00
         0.59571E+00
         0.61912E+00
         0.61591E+00
         0.58584E+00
         0.64254E+00
         0.61328E+00
         0.64960E+00
         0.63042E+00
         0.59051E+00
         0.61512E+00
         0.67067E+00
         0.67741E+00
         0.66005E+00
         0.65871E+00
         0.67007E+00
         0.58725E+00
         0.59276E+00
         0.57741E+00
         0.62170E+00
         0.61342E+00
         0.62541E+00
         0.61757E+00
         0.63214E+00
         0.62820E+00
         0.61413E+00
         0.61510E+00
         0.63935E+00
         0.63711E+00
         0.65552E+00
         0.62786E+00
         0.58996E+00
         0.61945E+00
         0.59016E+00
         0.60938E+00
         0.68193E+00
         0.65796E+00
         0.64685E+00
         0.66004E+00
         0.66171E+00
         0.68358E+00
         0.69996E+00
         0.66077E+00
         0.62496E+00
         0.62968E+00
         0.64796E+00
         0.68107E+00
         0.65269E+00
         0.62335E+00
         0.62535E+00
         0.64801E+00
         0.67188E+00
         0.63990E+00
         0.74214E+00
         0.71181E+00
         0.71700E+00
         0.71010E+00
         0.71218E+00
         0.72896E+00
         0.74590E+00
         0.75101E+00
         0.74846E+00
         0.75037E+00
         0.75757E+00
         0.71350E+00
         0.69684E+00
         0.69050E+00
         0.68034E+00
         0.67273E+00
         0.67326E+00
         0.68674E+00
         0.73208E+00
         0.72128E+00
         0.70532E+00
         0.70528E+00
         0.70803E+00
         0.72300E+00
         0.70096E+00
         0.69297E+00
         0.13550E-01
         0.68544E-02
         0.62847E-02
         0.33177E-02
         0.14197E-01
         0.88150E-02
         0.21283E-02
         0.13272E-01
         0.71091E-02
         0.12318E-01
         0.43687E-02
         0.29541E-01
         0.21617E-01
         0.91744E-02
         0.31101E-01
         0.89590E-02
         0.29768E-02
         0.77197E-03
         0.49918E-02
         0.12674E-02
         0.22506E-01
         0.20908E-01
         0.20273E-01
         0.29095E-02
         0.68077E-02
         0.36113E-04
         0.84741E-02
         0.00000E+00
         0.11129E-02
         0.76544E-02
         0.71865E-02
         0.23475E-02
         0.35405E-02
         0.26401E-02
         0.19319E-01
         0.10245E-01
         0.14220E-01
         0.24735E-01
         0.18253E-01
         0.16760E-01
         0.25209E-01
         0.22537E-01
         0.22709E-01
         0.16827E-01
         0.14675E-01
         0.21295E-01
         0.12822E-01
         0.10417E-01
         0.80255E-02
         0.10059E-01
         0.18525E-01
         0.11689E-01
         0.93122E-01
         0.95442E-01
         0.99938E-01
         0.99186E-01
         0.10599E+00
         0.11408E+00
         0.10932E+00
         0.96777E-01
         0.94212E-01
         0.10110E+00
         0.99003E-01
         0.97603E-01
         0.80029E-01
         0.75893E-01
         0.83741E-01
         0.89965E-01
         0.93504E-01
         0.10246E+00
         0.98415E-01
         0.10118E+00
         0.90730E-01
         0.85956E-01
         0.91919E-01
         0.89773E-01
         0.92492E-01
         0.91681E-01
         0.13562E-01
         0.68566E-02
         0.62900E-02
         0.33270E-02
         0.14189E-01
         0.88080E-02
         0.21442E-02
         0.13288E-01
         0.71269E-02
         0.12363E-01
         0.43685E-02
         0.29540E-01
         0.21627E-01
         0.91454E-02
         0.31137E-01
         0.89687E-02
         0.29939E-02
         0.76222E-03
         0.49966E-02
         0.12577E-02
         0.22508E-01
         0.20906E-01
         0.20272E-01
         0.29093E-02
         0.68507E-02
         0.35407E-04
         0.84780E-02
         0.00000E+00
         0.11330E-02
         0.76735E-02
         0.71965E-02
         0.23457E-02
         0.35292E-02
         0.26454E-02
         0.19329E-01
         0.10241E-01
         0.14216E-01
         0.24779E-01
         0.18302E-01
         0.16788E-01
         0.25228E-01
         0.22550E-01
         0.22712E-01
         0.16827E-01
         0.14671E-01
         0.21293E-01
         0.12822E-01
         0.10416E-01
         0.80094E-02
         0.10041E-01
         0.18513E-01
         0.11666E-01
         0.93087E-01
         0.95418E-01
         0.99937E-01
         0.99187E-01
         0.10597E+00
         0.11404E+00
         0.10927E+00
         0.96750E-01
         0.94187E-01
         0.10106E+00
         0.98985E-01
         0.97606E-01
         0.80020E-01
         0.75890E-01
         0.83751E-01
         0.89987E-01
         0.93529E-01
         0.10249E+00
         0.98409E-01
         0.10118E+00
         0.90720E-01
         0.85950E-01
         0.91886E-01
         0.89712E-01
         0.92437E-01
         0.91630E-01
         0.13575E-01
         0.68590E-02
         0.62955E-02
         0.33363E-02
         0.14181E-01
         0.88014E-02
         0.21602E-02
         0.13304E-01
         0.71447E-02
         0.12409E-01
         0.43685E-02
         0.29539E-01
         0.21637E-01
         0.91163E-02
         0.31173E-01
         0.89787E-02
         0.30113E-02
         0.75237E-03
         0.50014E-02
         0.12483E-02
         0.22511E-01
         0.20904E-01
         0.20270E-01
         0.29090E-02
         0.68933E-02
         0.34475E-04
         0.84817E-02
         0.00000E+00
         0.11530E-02
         0.76920E-02
         0.72066E-02
         0.23440E-02
         0.35179E-02
         0.26506E-02
         0.19339E-01
         0.10238E-01
         0.14212E-01
         0.24823E-01
         0.18350E-01
         0.16816E-01
         0.25248E-01
         0.22564E-01
         0.22716E-01
         0.16827E-01
         0.14668E-01
         0.21293E-01
         0.12823E-01
         0.10415E-01
         0.79936E-02
         0.10022E-01
         0.18501E-01
         0.11643E-01
         0.93052E-01
         0.95395E-01
         0.99937E-01
         0.99187E-01
         0.10595E+00
         0.11401E+00
         0.10922E+00
         0.96723E-01
         0.94162E-01
         0.10103E+00
         0.98968E-01
         0.97610E-01
         0.80013E-01
         0.75887E-01
         0.83762E-01
         0.90010E-01
         0.93555E-01
         0.10251E+00
         0.98403E-01
         0.10117E+00
         0.90710E-01
         0.85944E-01
         0.91853E-01
         0.89651E-01
         0.92383E-01
         0.91580E-01
         0.13588E-01
         0.68613E-02
         0.63009E-02
         0.33456E-02
         0.14173E-01
         0.87945E-02
         0.21763E-02
         0.13320E-01
         0.71625E-02
         0.12454E-01
         0.43685E-02
         0.29538E-01
         0.21647E-01
         0.90874E-02
         0.31208E-01
         0.89896E-02
         0.30294E-02
         0.74245E-03
         0.50066E-02
         0.12384E-02
         0.22514E-01
         0.20903E-01
         0.20271E-01
         0.29084E-02
         0.69351E-02
         0.33056E-04
         0.84849E-02
         0.00000E+00
         0.11718E-02
         0.77088E-02
         0.72172E-02
         0.23426E-02
         0.35066E-02
         0.26558E-02
         0.19349E-01
         0.10234E-01
         0.14208E-01
         0.24867E-01
         0.18400E-01
         0.16845E-01
         0.25268E-01
         0.22578E-01
         0.22721E-01
         0.16829E-01
         0.14666E-01
         0.21292E-01
         0.12824E-01
         0.10414E-01
         0.79777E-02
         0.10004E-01
         0.18488E-01
         0.11620E-01
         0.93017E-01
         0.95371E-01
         0.99936E-01
         0.99188E-01
         0.10593E+00
         0.11397E+00
         0.10917E+00
         0.96697E-01
         0.94137E-01
         0.10100E+00
         0.98951E-01
         0.97615E-01
         0.80007E-01
         0.75884E-01
         0.83774E-01
         0.90037E-01
         0.93583E-01
         0.10253E+00
         0.98398E-01
         0.10117E+00
         0.90699E-01
         0.85938E-01
         0.91820E-01
         0.89590E-01
         0.92329E-01
         0.91529E-01
         0.13600E-01
         0.68635E-02
         0.63063E-02
         0.33549E-02
         0.14165E-01
         0.87876E-02
         0.21923E-02
         0.13335E-01
         0.71802E-02
         0.12497E-01
         0.43687E-02
         0.29537E-01
         0.21657E-01
         0.90584E-02
         0.31244E-01
         0.90013E-02
         0.30481E-02
         0.73250E-03
         0.50120E-02
         0.12282E-02
         0.22518E-01
         0.20903E-01
         0.20272E-01
         0.29075E-02
         0.69759E-02
         0.30926E-04
         0.84878E-02
         0.00000E+00
         0.11895E-02
         0.77238E-02
         0.72281E-02
         0.23414E-02
         0.34952E-02
         0.26611E-02
         0.19359E-01
         0.10230E-01
         0.14204E-01
         0.24911E-01
         0.18450E-01
         0.16876E-01
         0.25290E-01
         0.22593E-01
         0.22727E-01
         0.16834E-01
         0.14665E-01
         0.21293E-01
         0.12826E-01
         0.10414E-01
         0.79620E-02
         0.99857E-02
         0.18476E-01
         0.11597E-01
         0.92981E-01
         0.95347E-01
         0.99935E-01
         0.99189E-01
         0.10592E+00
         0.11393E+00
         0.10913E+00
         0.96670E-01
         0.94112E-01
         0.10097E+00
         0.98934E-01
         0.97621E-01
         0.80003E-01
         0.75882E-01
         0.83787E-01
         0.90067E-01
         0.93616E-01
         0.10256E+00
         0.98392E-01
         0.10116E+00
         0.90689E-01
         0.85933E-01
         0.91787E-01
         0.89528E-01
         0.92275E-01
         0.91478E-01
         0.13612E-01
         0.68652E-02
         0.63115E-02
         0.33641E-02
         0.14157E-01
         0.87808E-02
         0.22079E-02
         0.13350E-01
         0.71980E-02
         0.12539E-01
         0.43695E-02
         0.29536E-01
         0.21667E-01
         0.90295E-02
         0.31280E-01
         0.90134E-02
         0.30670E-02
         0.72257E-03
         0.50173E-02
         0.12183E-02
         0.22523E-01
         0.20903E-01
         0.20274E-01
         0.29066E-02
         0.70158E-02
         0.28569E-04
         0.84904E-02
         0.00000E+00
         0.12070E-02
         0.77384E-02
         0.72388E-02
         0.23398E-02
         0.34838E-02
         0.26663E-02
         0.19370E-01
         0.10227E-01
         0.14200E-01
         0.24955E-01
         0.18501E-01
         0.16908E-01
         0.25312E-01
         0.22609E-01
         0.22733E-01
         0.16839E-01
         0.14666E-01
         0.21296E-01
         0.12828E-01
         0.10414E-01
         0.79471E-02
         0.99678E-02
         0.18465E-01
         0.11575E-01
         0.92946E-01
         0.95324E-01
         0.99935E-01
         0.99189E-01
         0.10590E+00
         0.11389E+00
         0.10908E+00
         0.96643E-01
         0.94088E-01
         0.10094E+00
         0.98918E-01
         0.97628E-01
         0.80001E-01
         0.75881E-01
         0.83800E-01
         0.90098E-01
         0.93649E-01
         0.10259E+00
         0.98387E-01
         0.10115E+00
         0.90679E-01
         0.85927E-01
         0.91755E-01
         0.89467E-01
         0.92221E-01
         0.91427E-01
         0.13623E-01
         0.68655E-02
         0.63164E-02
         0.33736E-02
         0.14150E-01
         0.87742E-02
         0.22229E-02
         0.13362E-01
         0.72161E-02
         0.12580E-01
         0.43714E-02
         0.29536E-01
         0.21678E-01
         0.90008E-02
         0.31316E-01
         0.90255E-02
         0.30855E-02
         0.71256E-03
         0.50228E-02
         0.12086E-02
         0.22527E-01
         0.20903E-01
         0.20277E-01
         0.29058E-02
         0.70544E-02
         0.25740E-04
         0.84935E-02
         0.00000E+00
         0.12248E-02
         0.77529E-02
         0.72487E-02
         0.23371E-02
         0.34723E-02
         0.26714E-02
         0.19380E-01
         0.10225E-01
         0.14197E-01
         0.25000E-01
         0.18553E-01
         0.16940E-01
         0.25335E-01
         0.22624E-01
         0.22740E-01
         0.16844E-01
         0.14667E-01
         0.21299E-01
         0.12831E-01
         0.10416E-01
         0.79343E-02
         0.99507E-02
         0.18454E-01
         0.11552E-01
         0.92911E-01
         0.95300E-01
         0.99934E-01
         0.99190E-01
         0.10588E+00
         0.11385E+00
         0.10903E+00
         0.96616E-01
         0.94063E-01
         0.10091E+00
         0.98901E-01
         0.97635E-01
         0.79998E-01
         0.75879E-01
         0.83813E-01
         0.90129E-01
         0.93683E-01
         0.10261E+00
         0.98380E-01
         0.10115E+00
         0.90670E-01
         0.85923E-01
         0.91722E-01
         0.89406E-01
         0.92168E-01
         0.91377E-01
         0.13634E-01
         0.68655E-02
         0.63213E-02
         0.33829E-02
         0.14143E-01
         0.87673E-02
         0.22375E-02
         0.13374E-01
         0.72344E-02
         0.12620E-01
         0.43740E-02
         0.29536E-01
         0.21689E-01
         0.89723E-02
         0.31352E-01
         0.90377E-02
         0.31039E-02
         0.70247E-03
         0.50283E-02
         0.11993E-02
         0.22531E-01
         0.20903E-01
         0.20280E-01
         0.29050E-02
         0.70925E-02
         0.22760E-04
         0.84967E-02
         0.00000E+00
         0.12431E-02
         0.77675E-02
         0.72583E-02
         0.23339E-02
         0.34608E-02
         0.26764E-02
         0.19391E-01
         0.10223E-01
         0.14195E-01
         0.25045E-01
         0.18604E-01
         0.16972E-01
         0.25358E-01
         0.22640E-01
         0.22747E-01
         0.16849E-01
         0.14669E-01
         0.21303E-01
         0.12835E-01
         0.10418E-01
         0.79224E-02
         0.99339E-02
         0.18443E-01
         0.11530E-01
         0.92876E-01
         0.95277E-01
         0.99933E-01
         0.99190E-01
         0.10586E+00
         0.11381E+00
         0.10898E+00
         0.96589E-01
         0.94038E-01
         0.10087E+00
         0.98884E-01
         0.97641E-01
         0.79995E-01
         0.75878E-01
         0.83826E-01
         0.90160E-01
         0.93716E-01
         0.10264E+00
         0.98373E-01
         0.10114E+00
         0.90662E-01
         0.85919E-01
         0.91689E-01
         0.89345E-01
         0.92114E-01
         0.91326E-01
         0.13645E-01
         0.68656E-02
         0.63261E-02
         0.33923E-02
         0.14135E-01
         0.87604E-02
         0.22521E-02
         0.13385E-01
         0.72528E-02
         0.12659E-01
         0.43764E-02
         0.29536E-01
         0.21701E-01
         0.89440E-02
         0.31389E-01
         0.90499E-02
         0.31222E-02
         0.69243E-03
         0.50337E-02
         0.11897E-02
         0.22536E-01
         0.20903E-01
         0.20282E-01
         0.29045E-02
         0.71305E-02
         0.19819E-04
         0.85000E-02
         0.00000E+00
         0.12616E-02
         0.77821E-02
         0.72679E-02
         0.23307E-02
         0.34494E-02
         0.26814E-02
         0.19403E-01
         0.10220E-01
         0.14192E-01
         0.25090E-01
         0.18656E-01
         0.17004E-01
         0.25381E-01
         0.22656E-01
         0.22754E-01
         0.16855E-01
         0.14671E-01
         0.21307E-01
         0.12839E-01
         0.10420E-01
         0.79106E-02
         0.99174E-02
         0.18433E-01
         0.11508E-01
         0.92841E-01
         0.95254E-01
         0.99931E-01
         0.99191E-01
         0.10584E+00
         0.11377E+00
         0.10894E+00
         0.96562E-01
         0.94014E-01
         0.10084E+00
         0.98867E-01
         0.97648E-01
         0.79991E-01
         0.75876E-01
         0.83840E-01
         0.90192E-01
         0.93750E-01
         0.10266E+00
         0.98366E-01
         0.10113E+00
         0.90654E-01
         0.85915E-01
         0.91656E-01
         0.89285E-01
         0.92060E-01
         0.91276E-01
         0.13655E-01
         0.68654E-02
         0.63309E-02
         0.34018E-02
         0.14128E-01
         0.87535E-02
         0.22667E-02
         0.13396E-01
         0.72712E-02
         0.12699E-01
         0.43793E-02
         0.29536E-01
         0.21712E-01
         0.89157E-02
         0.31425E-01
         0.90620E-02
         0.31407E-02
         0.68248E-03
         0.50390E-02
         0.11803E-02
         0.22540E-01
         0.20903E-01
         0.20284E-01
         0.29039E-02
         0.71685E-02
         0.16909E-04
         0.85034E-02
         0.00000E+00
         0.12802E-02
         0.77966E-02
         0.72774E-02
         0.23274E-02
         0.34381E-02
         0.26864E-02
         0.19414E-01
         0.10218E-01
         0.14190E-01
         0.25136E-01
         0.18707E-01
         0.17036E-01
         0.25404E-01
         0.22672E-01
         0.22760E-01
         0.16861E-01
         0.14672E-01
         0.21311E-01
         0.12843E-01
         0.10422E-01
         0.78987E-02
         0.99005E-02
         0.18423E-01
         0.11486E-01
         0.92806E-01
         0.95230E-01
         0.99930E-01
         0.99191E-01
         0.10582E+00
         0.11373E+00
         0.10889E+00
         0.96535E-01
         0.93989E-01
         0.10081E+00
         0.98851E-01
         0.97655E-01
         0.79988E-01
         0.75875E-01
         0.83853E-01
         0.90223E-01
         0.93783E-01
         0.10268E+00
         0.98359E-01
         0.10113E+00
         0.90645E-01
         0.85911E-01
         0.91623E-01
         0.89224E-01
         0.92007E-01
         0.91225E-01
         0.13665E-01
         0.68652E-02
         0.63357E-02
         0.34112E-02
         0.14121E-01
         0.87470E-02
         0.22815E-02
         0.13408E-01
         0.72896E-02
         0.12739E-01
         0.43821E-02
         0.29537E-01
         0.21724E-01
         0.88874E-02
         0.31462E-01
         0.90741E-02
         0.31591E-02
         0.67253E-03
         0.50445E-02
         0.11707E-02
         0.22545E-01
         0.20903E-01
         0.20287E-01
         0.29033E-02
         0.72064E-02
         0.13999E-04
         0.85069E-02
         0.00000E+00
         0.12990E-02
         0.78111E-02
         0.72870E-02
         0.23241E-02
         0.34268E-02
         0.26914E-02
         0.19425E-01
         0.10216E-01
         0.14188E-01
         0.25181E-01
         0.18759E-01
         0.17067E-01
         0.25426E-01
         0.22688E-01
         0.22767E-01
         0.16866E-01
         0.14674E-01
         0.21315E-01
         0.12847E-01
         0.10424E-01
         0.78870E-02
         0.98839E-02
         0.18413E-01
         0.11464E-01
         0.92770E-01
         0.95207E-01
         0.99928E-01
         0.99192E-01
         0.10581E+00
         0.11368E+00
         0.10884E+00
         0.96508E-01
         0.93965E-01
         0.10078E+00
         0.98834E-01
         0.97661E-01
         0.79985E-01
         0.75873E-01
         0.83866E-01
         0.90254E-01
         0.93817E-01
         0.10271E+00
         0.98352E-01
         0.10112E+00
         0.90636E-01
         0.85906E-01
         0.91589E-01
         0.89163E-01
         0.91953E-01
         0.91174E-01
         0.13676E-01
         0.68652E-02
         0.63405E-02
         0.34207E-02
         0.14113E-01
         0.87401E-02
         0.22962E-02
         0.13419E-01
         0.73081E-02
         0.12778E-01
         0.43851E-02
         0.29537E-01
         0.21735E-01
         0.88593E-02
         0.31498E-01
         0.90863E-02
         0.31776E-02
         0.66248E-03
         0.50499E-02
         0.11613E-02
         0.22549E-01
         0.20902E-01
         0.20290E-01
         0.29029E-02
         0.72442E-02
         0.11268E-04
         0.85103E-02
         0.00000E+00
         0.13177E-02
         0.78256E-02
         0.72966E-02
         0.23209E-02
         0.34155E-02
         0.26965E-02
         0.19436E-01
         0.10214E-01
         0.14185E-01
         0.25226E-01
         0.18811E-01
         0.17099E-01
         0.25449E-01
         0.22703E-01
         0.22774E-01
         0.16872E-01
         0.14676E-01
         0.21319E-01
         0.12851E-01
         0.10427E-01
         0.78753E-02
         0.98674E-02
         0.18402E-01
         0.11442E-01
         0.92735E-01
         0.95183E-01
         0.99927E-01
         0.99192E-01
         0.10579E+00
         0.11364E+00
         0.10879E+00
         0.96481E-01
         0.93941E-01
         0.10074E+00
         0.98817E-01
         0.97668E-01
         0.79981E-01
         0.75872E-01
         0.83879E-01
         0.90285E-01
         0.93850E-01
         0.10273E+00
         0.98346E-01
         0.10111E+00
         0.90628E-01
         0.85902E-01
         0.91556E-01
         0.89102E-01
         0.91900E-01
         0.91124E-01
         0.13686E-01
         0.68651E-02
         0.63453E-02
         0.34303E-02
         0.14106E-01
         0.87333E-02
         0.23109E-02
         0.13430E-01
         0.73265E-02
         0.12818E-01
         0.43883E-02
         0.29537E-01
         0.21746E-01
         0.88310E-02
         0.31534E-01
         0.90983E-02
         0.31961E-02
         0.65241E-03
         0.50553E-02
         0.11518E-02
         0.22553E-01
         0.20903E-01
         0.20292E-01
         0.29024E-02
         0.72819E-02
         0.83969E-05
         0.85136E-02
         0.00000E+00
         0.13368E-02
         0.78400E-02
         0.73061E-02
         0.23176E-02
         0.34042E-02
         0.27016E-02
         0.19447E-01
         0.10212E-01
         0.14183E-01
         0.25271E-01
         0.18863E-01
         0.17131E-01
         0.25472E-01
         0.22719E-01
         0.22781E-01
         0.16878E-01
         0.14678E-01
         0.21322E-01
         0.12855E-01
         0.10429E-01
         0.78636E-02
         0.98507E-02
         0.18392E-01
         0.11420E-01
         0.92700E-01
         0.95160E-01
         0.99925E-01
         0.99193E-01
         0.10577E+00
         0.11360E+00
         0.10874E+00
         0.96453E-01
         0.93916E-01
         0.10071E+00
         0.98800E-01
         0.97675E-01
         0.79978E-01
         0.75870E-01
         0.83893E-01
         0.90317E-01
         0.93884E-01
         0.10276E+00
         0.98339E-01
         0.10111E+00
         0.90620E-01
         0.85898E-01
         0.91523E-01
         0.89042E-01
         0.91847E-01
         0.91074E-01
         0.13696E-01
         0.68651E-02
         0.63502E-02
         0.34398E-02
         0.14099E-01
         0.87264E-02
         0.23258E-02
         0.13442E-01
         0.73449E-02
         0.12857E-01
         0.43915E-02
         0.29537E-01
         0.21758E-01
         0.88029E-02
         0.31571E-01
         0.91104E-02
         0.32147E-02
         0.64242E-03
         0.50607E-02
         0.11425E-02
         0.22558E-01
         0.20902E-01
         0.20295E-01
         0.29019E-02
         0.73196E-02
         0.55589E-05
         0.85168E-02
         0.00000E+00
         0.13561E-02
         0.78543E-02
         0.73156E-02
         0.23144E-02
         0.33931E-02
         0.27066E-02
         0.19458E-01
         0.10210E-01
         0.14181E-01
         0.25317E-01
         0.18915E-01
         0.17163E-01
         0.25495E-01
         0.22735E-01
         0.22787E-01
         0.16884E-01
         0.14680E-01
         0.21326E-01
         0.12859E-01
         0.10431E-01
         0.78517E-02
         0.98341E-02
         0.18382E-01
         0.11398E-01
         0.92664E-01
         0.95137E-01
         0.99924E-01
         0.99193E-01
         0.10575E+00
         0.11356E+00
         0.10869E+00
         0.96426E-01
         0.93891E-01
         0.10068E+00
         0.98783E-01
         0.97681E-01
         0.79975E-01
         0.75869E-01
         0.83906E-01
         0.90348E-01
         0.93918E-01
         0.10278E+00
         0.98332E-01
         0.10110E+00
         0.90611E-01
         0.85894E-01
         0.91490E-01
         0.88981E-01
         0.91794E-01
         0.91023E-01
         0.13707E-01
         0.68650E-02
         0.63549E-02
         0.34494E-02
         0.14091E-01
         0.87196E-02
         0.23406E-02
         0.13453E-01
         0.73635E-02
         0.12896E-01
         0.43948E-02
         0.29538E-01
         0.21769E-01
         0.87747E-02
         0.31607E-01
         0.91225E-02
         0.32333E-02
         0.63246E-03
         0.50661E-02
         0.11329E-02
         0.22562E-01
         0.20902E-01
         0.20297E-01
         0.29014E-02
         0.73574E-02
         0.27597E-05
         0.85201E-02
         0.00000E+00
         0.13756E-02
         0.78688E-02
         0.73251E-02
         0.23112E-02
         0.33820E-02
         0.27117E-02
         0.19469E-01
         0.10208E-01
         0.14178E-01
         0.25362E-01
         0.18967E-01
         0.17194E-01
         0.25518E-01
         0.22750E-01
         0.22794E-01
         0.16889E-01
         0.14682E-01
         0.21330E-01
         0.12863E-01
         0.10434E-01
         0.78399E-02
         0.98173E-02
         0.18371E-01
         0.11376E-01
         0.92629E-01
         0.95114E-01
         0.99922E-01
         0.99194E-01
         0.10573E+00
         0.11352E+00
         0.10865E+00
         0.96398E-01
         0.93867E-01
         0.10064E+00
         0.98767E-01
         0.97688E-01
         0.79972E-01
         0.75867E-01
         0.83920E-01
         0.90379E-01
         0.93952E-01
         0.10281E+00
         0.98326E-01
         0.10110E+00
         0.90603E-01
         0.85890E-01
         0.91456E-01
         0.88920E-01
         0.91741E-01
         0.90973E-01
         0.13717E-01
         0.68647E-02
         0.63597E-02
         0.34589E-02
         0.14084E-01
         0.87131E-02
         0.23554E-02
         0.13464E-01
         0.73821E-02
         0.12936E-01
         0.43982E-02
         0.29538E-01
         0.21780E-01
         0.87466E-02
         0.31643E-01
         0.91346E-02
         0.32519E-02
         0.62255E-03
         0.50715E-02
         0.11236E-02
         0.22567E-01
         0.20902E-01
         0.20300E-01
         0.29010E-02
         0.73951E-02
         0.00000E+00
         0.85234E-02
         0.00000E+00
         0.13953E-02
         0.78831E-02
         0.73347E-02
         0.23080E-02
         0.33709E-02
         0.27168E-02
         0.19481E-01
         0.10206E-01
         0.14176E-01
         0.25408E-01
         0.19019E-01
         0.17225E-01
         0.25541E-01
         0.22766E-01
         0.22801E-01
         0.16894E-01
         0.14684E-01
         0.21334E-01
         0.12867E-01
         0.10436E-01
         0.78283E-02
         0.98007E-02
         0.18361E-01
         0.11353E-01
         0.92594E-01
         0.95090E-01
         0.99921E-01
         0.99194E-01
         0.10572E+00
         0.11348E+00
         0.10860E+00
         0.96371E-01
         0.93843E-01
         0.10061E+00
         0.98750E-01
         0.97695E-01
         0.79969E-01
         0.75866E-01
         0.83933E-01
         0.90411E-01
         0.93985E-01
         0.10283E+00
         0.98319E-01
         0.10109E+00
         0.90595E-01
         0.85886E-01
         0.91423E-01
         0.88859E-01
         0.91687E-01
         0.90922E-01
         0.13727E-01
         0.68646E-02
         0.63645E-02
         0.34685E-02
         0.14077E-01
         0.87062E-02
         0.23704E-02
         0.13476E-01
         0.74007E-02
         0.12975E-01
         0.44018E-02
         0.29538E-01
         0.21792E-01
         0.87184E-02
         0.31680E-01
         0.91468E-02
         0.32706E-02
         0.61262E-03
         0.50769E-02
         0.11141E-02
         0.22571E-01
         0.20902E-01
         0.20302E-01
         0.29007E-02
         0.74327E-02
         0.00000E+00
         0.85264E-02
         0.00000E+00
         0.14148E-02
         0.78972E-02
         0.73442E-02
         0.23049E-02
         0.33600E-02
         0.27220E-02
         0.19492E-01
         0.10204E-01
         0.14174E-01
         0.25453E-01
         0.19071E-01
         0.17257E-01
         0.25563E-01
         0.22781E-01
         0.22807E-01
         0.16900E-01
         0.14686E-01
         0.21338E-01
         0.12871E-01
         0.10438E-01
         0.78167E-02
         0.97840E-02
         0.18351E-01
         0.11332E-01
         0.92558E-01
         0.95067E-01
         0.99919E-01
         0.99194E-01
         0.10570E+00
         0.11344E+00
         0.10855E+00
         0.96343E-01
         0.93818E-01
         0.10058E+00
         0.98733E-01
         0.97703E-01
         0.79966E-01
         0.75864E-01
         0.83946E-01
         0.90441E-01
         0.94019E-01
         0.10286E+00
         0.98312E-01
         0.10108E+00
         0.90586E-01
         0.85882E-01
         0.91389E-01
         0.88798E-01
         0.91634E-01
         0.90872E-01
         0.13737E-01
         0.68646E-02
         0.63693E-02
         0.34781E-02
         0.14069E-01
         0.86994E-02
         0.23852E-02
         0.13487E-01
         0.74194E-02
         0.13014E-01
         0.44054E-02
         0.29538E-01
         0.21803E-01
         0.86901E-02
         0.31716E-01
         0.91588E-02
         0.32893E-02
         0.60261E-03
         0.50824E-02
         0.11051E-02
         0.22576E-01
         0.20902E-01
         0.20305E-01
         0.29002E-02
         0.74701E-02
         0.00000E+00
         0.85285E-02
         0.00000E+00
         0.14347E-02
         0.79107E-02
         0.73538E-02
         0.23016E-02
         0.33490E-02
         0.27271E-02
         0.19503E-01
         0.10202E-01
         0.14171E-01
         0.25499E-01
         0.19123E-01
         0.17287E-01
         0.25584E-01
         0.22795E-01
         0.22813E-01
         0.16906E-01
         0.14688E-01
         0.21342E-01
         0.12875E-01
         0.10441E-01
         0.78049E-02
         0.97674E-02
         0.18341E-01
         0.11310E-01
         0.92523E-01
         0.95044E-01
         0.99917E-01
         0.99195E-01
         0.10568E+00
         0.11340E+00
         0.10850E+00
         0.96316E-01
         0.93794E-01
         0.10054E+00
         0.98717E-01
         0.97713E-01
         0.79965E-01
         0.75863E-01
         0.83959E-01
         0.90472E-01
         0.94052E-01
         0.10288E+00
         0.98305E-01
         0.10108E+00
         0.90578E-01
         0.85877E-01
         0.91356E-01
         0.88738E-01
         0.91581E-01
         0.90821E-01
         0.13748E-01
         0.68645E-02
         0.63740E-02
         0.34878E-02
         0.14062E-01
         0.86926E-02
         0.24001E-02
         0.13498E-01
         0.74381E-02
         0.13053E-01
         0.44091E-02
         0.29538E-01
         0.21815E-01
         0.86617E-02
         0.31752E-01
         0.91708E-02
         0.33081E-02
         0.59262E-03
         0.50878E-02
         0.10960E-02
         0.22580E-01
         0.20901E-01
         0.20308E-01
         0.28998E-02
         0.75074E-02
         0.00000E+00
         0.85298E-02
         0.00000E+00
         0.14548E-02
         0.79234E-02
         0.73633E-02
         0.22984E-02
         0.33381E-02
         0.27322E-02
         0.19515E-01
         0.10200E-01
         0.14169E-01
         0.25545E-01
         0.19175E-01
         0.17316E-01
         0.25604E-01
         0.22808E-01
         0.22818E-01
         0.16912E-01
         0.14690E-01
         0.21347E-01
         0.12879E-01
         0.10443E-01
         0.77934E-02
         0.97505E-02
         0.18330E-01
         0.11287E-01
         0.92487E-01
         0.95021E-01
         0.99915E-01
         0.99195E-01
         0.10566E+00
         0.11336E+00
         0.10845E+00
         0.96289E-01
         0.93769E-01
         0.10050E+00
         0.98701E-01
         0.97725E-01
         0.79965E-01
         0.75862E-01
         0.83972E-01
         0.90503E-01
         0.94086E-01
         0.10291E+00
         0.98298E-01
         0.10107E+00
         0.90569E-01
         0.85873E-01
         0.91322E-01
         0.88677E-01
         0.91528E-01
         0.90771E-01
         0.13758E-01
         0.68645E-02
         0.63791E-02
         0.34975E-02
         0.14055E-01
         0.86861E-02
         0.24151E-02
         0.13509E-01
         0.74570E-02
         0.13091E-01
         0.44129E-02
         0.29539E-01
         0.21826E-01
         0.86332E-02
         0.31788E-01
         0.91829E-02
         0.33269E-02
         0.58274E-03
         0.50933E-02
         0.10872E-02
         0.22585E-01
         0.20901E-01
         0.20310E-01
         0.28995E-02
         0.75446E-02
         0.00000E+00
         0.85308E-02
         0.00000E+00
         0.14749E-02
         0.79359E-02
         0.73729E-02
         0.22953E-02
         0.33274E-02
         0.27375E-02
         0.19527E-01
         0.10199E-01
         0.14166E-01
         0.25591E-01
         0.19226E-01
         0.17345E-01
         0.25623E-01
         0.22820E-01
         0.22824E-01
         0.16917E-01
         0.14691E-01
         0.21351E-01
         0.12883E-01
         0.10445E-01
         0.77818E-02
         0.97339E-02
         0.18320E-01
         0.11266E-01
         0.92452E-01
         0.94998E-01
         0.99914E-01
         0.99196E-01
         0.10564E+00
         0.11332E+00
         0.10840E+00
         0.96261E-01
         0.93744E-01
         0.10047E+00
         0.98685E-01
         0.97739E-01
         0.79966E-01
         0.75861E-01
         0.83985E-01
         0.90534E-01
         0.94120E-01
         0.10293E+00
         0.98292E-01
         0.10106E+00
         0.90561E-01
         0.85869E-01
         0.91289E-01
         0.88617E-01
         0.91475E-01
         0.90721E-01
         0.14577E-01
         0.81466E-02
         0.76997E-02
         0.49843E-02
         0.15142E-01
         0.99625E-02
         0.46948E-02
         0.14541E-01
         0.85805E-02
         0.14170E-01
         0.66094E-02
         0.30561E-01
         0.22823E-01
         0.10261E-01
         0.32862E-01
         0.10132E-01
         0.51028E-02
         0.26280E-02
         0.66712E-02
         0.37814E-02
         0.23427E-01
         0.21788E-01
         0.21132E-01
         0.47276E-02
         0.90132E-02
         0.25782E-02
         0.10156E-01
         0.30737E-02
         0.44799E-02
         0.94366E-02
         0.84617E-02
         0.42363E-02
         0.48426E-02
         0.45127E-02
         0.20623E-01
         0.11502E-01
         0.15244E-01
         0.26682E-01
         0.20417E-01
         0.18553E-01
         0.26652E-01
         0.23803E-01
         0.23716E-01
         0.17780E-01
         0.15695E-01
         0.22393E-01
         0.14054E-01
         0.11612E-01
         0.90928E-02
         0.10971E-01
         0.19351E-01
         0.12417E-01
         0.94074E-01
         0.96591E-01
         0.10158E+00
         0.10080E+00
         0.10732E+00
         0.11511E+00
         0.11018E+00
         0.97994E-01
         0.95489E-01
         0.10228E+00
         0.10045E+00
         0.99392E-01
         0.81333E-01
         0.77120E-01
         0.85292E-01
         0.91907E-01
         0.95525E-01
         0.10452E+00
         0.99977E-01
         0.10277E+00
         0.92054E-01
         0.87285E-01
         0.92758E-01
         0.90039E-01
         0.92896E-01
         0.92141E-01
         0.57094E-01
         0.55822E-01
         0.54820E-01
         0.49082E-01
         0.64823E-01
         0.58609E-01
         0.58978E-01
         0.63953E-01
         0.52442E-01
         0.63678E-01
         0.65380E-01
         0.86544E-01
         0.74904E-01
         0.68629E-01
         0.90804E-01
         0.52290E-01
         0.53681E-01
         0.46069E-01
         0.55968E-01
         0.57948E-01
         0.70375E-01
         0.70546E-01
         0.66518E-01
         0.53188E-01
         0.61723E-01
         0.50702E-01
         0.68395E-01
         0.64977E-01
         0.65623E-01
         0.64005E-01
         0.51933E-01
         0.52809E-01
         0.49419E-01
         0.51568E-01
         0.73378E-01
         0.63207E-01
         0.65438E-01
         0.84349E-01
         0.78400E-01
         0.76434E-01
         0.83079E-01
         0.77807E-01
         0.74424E-01
         0.62960E-01
         0.63716E-01
         0.74421E-01
         0.64902E-01
         0.60183E-01
         0.57875E-01
         0.60764E-01
         0.70129E-01
         0.61622E-01
         0.16436E+00
         0.16478E+00
         0.17145E+00
         0.16867E+00
         0.17747E+00
         0.18966E+00
         0.18701E+00
         0.17506E+00
         0.17289E+00
         0.18107E+00
         0.17691E+00
         0.17089E+00
         0.14564E+00
         0.13792E+00
         0.14539E+00
         0.15197E+00
         0.15605E+00
         0.17003E+00
         0.17011E+00
         0.17338E+00
         0.15793E+00
         0.15135E+00
         0.15881E+00
         0.15585E+00
         0.15771E+00
         0.15639E+00
  
SCALARS                            dam  double 1
LOOKUP_TABLE default
         0.00000E+00
         0.00000E+00
         0.00000E+00
         0.00000E+00
         0.00000E+00
         0.00000E+00
         0.00000E+00
         0.00000E+00
         0.00000E+00
         0.00000E+00
         0.00000E+00
         0.00000E+00
         0.00000E+00
         0.00000E+00
         0.00000E+00
         0.00000E+00
         0.00000E+00
         0.00000E+00
         0.00000E+00
         0.00000E+00
         0.00000E+00
         0.00000E+00
         0.00000E+00
         0.00000E+00
         0.00000E+00
         0.00000E+00
         0.00000E+00
         0.00000E+00
         0.00000E+00
         0.00000E+00
         0.00000E+00
         0.00000E+00
         0.00000E+00
         0.00000E+00
         0.00000E+00
         0.00000E+00
         0.00000E+00
         0.00000E+00
         0.00000E+00
         0.00000E+00
         0.00000E+00
         0.00000E+00
         0.00000E+00
         0.00000E+00
         0.00000E+00
         0.00000E+00
         0.00000E+00
         0.00000E+00
         0.00000E+00
         0.00000E+00
         0.00000E+00
         0.00000E+00
         0.00000E+00
         0.00000E+00
         0.00000E+00
         0.00000E+00
         0.00000E+00
         0.00000E+00
         0.00000E+00
         0.00000E+00
         0.00000E+00
         0.00000E+00
         0.00000E+00
         0.00000E+00
         0.00000E+00
         0.00000E+00
         0.00000E+00
         0.00000E+00
         0.00000E+00
         0.00000E+00
         0.00000E+00
         0.00000E+00
         0.00000E+00
         0.00000E+00
         0.00000E+00
         0.00000E+00
         0.00000E+00
         0.00000E+00
         0.00000E+00
         0.00000E+00
         0.00000E+00
         0.00000E+00
         0.00000E+00
         0.00000E+00
         0.00000E+00
         0.00000E+00
         0.00000E+00
         0.00000E+00
         0.00000E+00
         0.00000E+00
         0.00000E+00
         0.00000E+00
         0.00000E+00
         0.00000E+00
         0.00000E+00
         0.00000E+00
         0.00000E+00
         0.00000E+00
         0.00000E+00
         0.00000E+00
         0.00000E+00
         0.00000E+00
         0.00000E+00
         0.00000E+00
         0.00000E+00
         0.00000E+00
         0.00000E+00
         0.00000E+00
         0.00000E+00
         0.00000E+00
         0.00000E+00
         0.00000E+00
         0.00000E+00
         0.00000E+00
         0.00000E+00
         0.00000E+00
         0.00000E+00
         0.00000E+00
         0.00000E+00
         0.00000E+00
         0.00000E+00
         0.00000E+00
         0.00000E+00
         0.00000E+00
         0.00000E+00
         0.00000E+00
         0.00000E+00
         0.00000E+00
         0.00000E+00
         0.00000E+00
         0.00000E+00
         0.00000E+00
         0.00000E+00
         0.00000E+00
         0.00000E+00
         0.00000E+00
         0.00000E+00
         0.00000E+00
         0.00000E+00
         0.00000E+00
         0.00000E+00
         0.00000E+00
         0.00000E+00
         0.00000E+00
         0.00000E+00
         0.00000E+00
         0.00000E+00
         0.00000E+00
         0.00000E+00
         0.00000E+00
         0.00000E+00
         0.00000E+00
         0.00000E+00
         0.00000E+00
         0.00000E+00
         0.00000E+00
         0.00000E+00
         0.00000E+00
         0.00000E+00
         0.00000E+00
         0.00000E+00
         0.00000E+00
         0.00000E+00
         0.00000E+00
         0.00000E+00
         0.00000E+00
         0.00000E+00
         0.00000E+00
         0.00000E+00
         0.00000E+00
         0.00000E+00
         0.00000E+00
         0.00000E+00
         0.00000E+00
         0.00000E+00
         0.00000E+00
         0.00000E+00
         0.00000E+00
         0.00000E+00
         0.00000E+00
         0.00000E+00
         0.00000E+00
         0.00000E+00
         0.00000E+00
         0.00000E+00
         0.00000E+00
         0.00000E+00
         0.00000E+00
         0.00000E+00
         0.00000E+00
         0.00000E+00
         0.00000E+00
         0.00000E+00
         0.00000E+00
         0.00000E+00
         0.00000E+00
         0.00000E+00
         0.00000E+00
         0.00000E+00
         0.00000E+00
         0.00000E+00
         0.00000E+00
         0.00000E+00
         0.00000E+00
         0.00000E+00
         0.00000E+00
         0.00000E+00
         0.00000E+00
         0.00000E+00
         0.00000E+00
         0.00000E+00
         0.00000E+00
         0.00000E+00
         0.00000E+00
         0.00000E+00
         0.00000E+00
         0.00000E+00
         0.00000E+00
         0.00000E+00
         0.00000E+00
         0.00000E+00
         0.00000E+00
         0.00000E+00
         0.00000E+00
         0.00000E+00
         0.00000E+00
         0.00000E+00
         0.00000E+00
         0.00000E+00
         0.00000E+00
         0.00000E+00
         0.00000E+00
         0.00000E+00
         0.00000E+00
         0.00000E+00
         0.00000E+00
         0.00000E+00
         0.00000E+00
         0.00000E+00
         0.00000E+00
         0.00000E+00
         0.00000E+00
         0.00000E+00
         0.00000E+00
         0.00000E+00
         0.00000E+00
         0.00000E+00
         0.00000E+00
         0.00000E+00
         0.00000E+00
         0.00000E+00
         0.00000E+00
         0.00000E+00
         0.00000E+00
         0.00000E+00
         0.00000E+00
         0.00000E+00
         0.00000E+00
         0.00000E+00
         0.00000E+00
         0.00000E+00
         0.00000E+00
         0.00000E+00
         0.00000E+00
         0.00000E+00
         0.00000E+00
         0.00000E+00
         0.00000E+00
         0.00000E+00
         0.00000E+00
         0.00000E+00
         0.00000E+00
         0.00000E+00
         0.00000E+00
         0.00000E+00
         0.00000E+00
         0.00000E+00
         0.00000E+00
         0.00000E+00
         0.00000E+00
         0.00000E+00
         0.00000E+00
         0.00000E+00
         0.00000E+00
         0.00000E+00
         0.00000E+00
         0.00000E+00
         0.00000E+00
         0.00000E+00
         0.00000E+00
         0.00000E+00
         0.00000E+00
         0.00000E+00
         0.00000E+00
         0.00000E+00
         0.00000E+00
         0.00000E+00
         0.00000E+00
         0.00000E+00
         0.00000E+00
         0.00000E+00
         0.00000E+00
         0.00000E+00
         0.00000E+00
         0.00000E+00
         0.00000E+00
         0.00000E+00
         0.00000E+00
         0.00000E+00
         0.00000E+00
         0.00000E+00
         0.00000E+00
         0.00000E+00
         0.00000E+00
         0.00000E+00
         0.00000E+00
         0.00000E+00
         0.00000E+00
         0.00000E+00
         0.00000E+00
         0.00000E+00
         0.00000E+00
         0.00000E+00
         0.00000E+00
         0.00000E+00
         0.00000E+00
         0.00000E+00
         0.00000E+00
         0.00000E+00
         0.00000E+00
         0.00000E+00
         0.00000E+00
         0.00000E+00
         0.00000E+00
         0.00000E+00
         0.00000E+00
         0.00000E+00
         0.00000E+00
         0.00000E+00
         0.00000E+00
         0.00000E+00
         0.00000E+00
         0.00000E+00
         0.00000E+00
         0.00000E+00
         0.00000E+00
         0.00000E+00
         0.00000E+00
         0.00000E+00
         0.00000E+00
         0.00000E+00
         0.00000E+00
         0.00000E+00
         0.00000E+00
         0.00000E+00
         0.00000E+00
         0.00000E+00
         0.00000E+00
         0.00000E+00
         0.00000E+00
         0.00000E+00
         0.00000E+00
         0.00000E+00
         0.00000E+00
         0.00000E+00
         0.00000E+00
         0.00000E+00
         0.00000E+00
         0.00000E+00
         0.00000E+00
         0.00000E+00
         0.00000E+00
         0.00000E+00
         0.00000E+00
         0.00000E+00
         0.00000E+00
         0.00000E+00
         0.00000E+00
         0.00000E+00
         0.00000E+00
         0.00000E+00
         0.00000E+00
         0.00000E+00
         0.00000E+00
         0.00000E+00
         0.00000E+00
         0.00000E+00
         0.00000E+00
         0.00000E+00
         0.00000E+00
         0.00000E+00
         0.00000E+00
         0.00000E+00
         0.00000E+00
         0.00000E+00
         0.00000E+00
         0.00000E+00
         0.00000E+00
         0.00000E+00
         0.00000E+00
         0.00000E+00
         0.00000E+00
         0.00000E+00
         0.00000E+00
         0.00000E+00
         0.00000E+00
         0.00000E+00
         0.00000E+00
         0.00000E+00
         0.00000E+00
         0.00000E+00
         0.00000E+00
         0.00000E+00
         0.00000E+00
         0.00000E+00
         0.00000E+00
         0.00000E+00
         0.00000E+00
         0.00000E+00
         0.00000E+00
         0.00000E+00
         0.00000E+00
         0.00000E+00
         0.00000E+00
         0.00000E+00
         0.00000E+00
         0.00000E+00
         0.00000E+00
         0.00000E+00
         0.00000E+00
         0.00000E+00
         0.00000E+00
         0.00000E+00
         0.00000E+00
         0.00000E+00
         0.00000E+00
         0.00000E+00
         0.00000E+00
         0.00000E+00
         0.00000E+00
         0.00000E+00
         0.00000E+00
         0.00000E+00
         0.00000E+00
         0.00000E+00
         0.00000E+00
         0.00000E+00
         0.00000E+00
         0.00000E+00
         0.00000E+00
         0.00000E+00
         0.00000E+00
         0.00000E+00
         0.00000E+00
         0.00000E+00
         0.00000E+00
         0.00000E+00
         0.00000E+00
         0.00000E+00
         0.00000E+00
         0.00000E+00
         0.00000E+00
         0.00000E+00
         0.00000E+00
         0.00000E+00
         0.00000E+00
         0.00000E+00
         0.00000E+00
         0.00000E+00
         0.00000E+00
         0.00000E+00
         0.00000E+00
         0.00000E+00
         0.00000E+00
         0.00000E+00
         0.00000E+00
         0.00000E+00
         0.00000E+00
         0.00000E+00
         0.00000E+00
         0.00000E+00
         0.00000E+00
         0.00000E+00
         0.00000E+00
         0.00000E+00
         0.00000E+00
         0.00000E+00
         0.00000E+00
         0.00000E+00
         0.00000E+00
         0.00000E+00
         0.00000E+00
         0.00000E+00
         0.00000E+00
         0.00000E+00
         0.00000E+00
         0.00000E+00
         0.00000E+00
         0.00000E+00
         0.00000E+00
         0.00000E+00
         0.00000E+00
         0.00000E+00
         0.00000E+00
         0.00000E+00
         0.00000E+00
         0.00000E+00
         0.00000E+00
         0.00000E+00
         0.00000E+00
         0.00000E+00
         0.00000E+00
         0.00000E+00
         0.00000E+00
         0.00000E+00
         0.00000E+00
         0.00000E+00
         0.00000E+00
         0.00000E+00
         0.00000E+00
         0.00000E+00
         0.00000E+00
         0.00000E+00
         0.00000E+00
         0.00000E+00
         0.00000E+00
         0.00000E+00
         0.00000E+00
         0.00000E+00
         0.00000E+00
         0.00000E+00
         0.00000E+00
         0.00000E+00
         0.00000E+00
         0.00000E+00
         0.00000E+00
         0.00000E+00
         0.00000E+00
         0.00000E+00
         0.00000E+00
         0.00000E+00
         0.00000E+00
         0.00000E+00
         0.00000E+00
         0.00000E+00
         0.00000E+00
         0.00000E+00
         0.00000E+00
         0.00000E+00
         0.00000E+00
         0.00000E+00
         0.00000E+00
         0.00000E+00
         0.00000E+00
         0.00000E+00
         0.00000E+00
         0.00000E+00
         0.00000E+00
         0.00000E+00
         0.00000E+00
         0.00000E+00
         0.00000E+00
         0.00000E+00
         0.00000E+00
         0.00000E+00
         0.00000E+00
         0.00000E+00
         0.00000E+00
         0.00000E+00
         0.00000E+00
         0.00000E+00
         0.00000E+00
         0.00000E+00
         0.00000E+00
         0.00000E+00
         0.00000E+00
         0.00000E+00
         0.00000E+00
         0.00000E+00
         0.00000E+00
         0.00000E+00
         0.00000E+00
         0.00000E+00
         0.00000E+00
         0.00000E+00
         0.00000E+00
         0.00000E+00
         0.00000E+00
         0.00000E+00
         0.00000E+00
         0.00000E+00
         0.00000E+00
         0.00000E+00
         0.00000E+00
         0.00000E+00
         0.00000E+00
         0.00000E+00
         0.00000E+00
         0.00000E+00
         0.00000E+00
         0.00000E+00
         0.00000E+00
         0.00000E+00
         0.00000E+00
         0.00000E+00
         0.00000E+00
         0.00000E+00
         0.00000E+00
         0.00000E+00
         0.00000E+00
         0.00000E+00
         0.00000E+00
         0.00000E+00
         0.00000E+00
         0.00000E+00
         0.00000E+00
         0.00000E+00
         0.00000E+00
         0.00000E+00
         0.00000E+00
         0.00000E+00
         0.00000E+00
         0.00000E+00
         0.00000E+00
         0.00000E+00
         0.00000E+00
         0.00000E+00
         0.00000E+00
         0.00000E+00
         0.00000E+00
         0.00000E+00
         0.00000E+00
         0.00000E+00
         0.00000E+00
         0.00000E+00
         0.00000E+00
         0.00000E+00
         0.00000E+00
         0.00000E+00
         0.00000E+00
         0.00000E+00
         0.00000E+00
         0.00000E+00
         0.00000E+00
         0.00000E+00
         0.00000E+00
         0.00000E+00
         0.00000E+00
         0.00000E+00
         0.00000E+00
         0.00000E+00
         0.00000E+00
         0.00000E+00
         0.00000E+00
         0.00000E+00
         0.00000E+00
         0.00000E+00
         0.00000E+00
         0.00000E+00
         0.00000E+00
         0.00000E+00
         0.00000E+00
         0.00000E+00
         0.00000E+00
         0.00000E+00
         0.00000E+00
         0.00000E+00
         0.00000E+00
         0.00000E+00
         0.00000E+00
         0.00000E+00
         0.00000E+00
         0.00000E+00
         0.00000E+00
         0.00000E+00
         0.00000E+00
         0.00000E+00
         0.00000E+00
         0.00000E+00
         0.00000E+00
         0.00000E+00
         0.00000E+00
         0.00000E+00
         0.00000E+00
         0.00000E+00
         0.00000E+00
         0.00000E+00
         0.00000E+00
         0.00000E+00
         0.00000E+00
         0.00000E+00
         0.00000E+00
         0.00000E+00
         0.00000E+00
         0.00000E+00
         0.00000E+00
         0.00000E+00
         0.00000E+00
         0.00000E+00
         0.00000E+00
         0.00000E+00
         0.00000E+00
         0.00000E+00
         0.00000E+00
         0.00000E+00
         0.00000E+00
         0.00000E+00
         0.00000E+00
         0.00000E+00
         0.00000E+00
         0.00000E+00
         0.00000E+00
         0.00000E+00
         0.00000E+00
         0.00000E+00
         0.00000E+00
         0.00000E+00
         0.00000E+00
         0.00000E+00
         0.00000E+00
         0.00000E+00
         0.00000E+00
         0.00000E+00
         0.00000E+00
         0.00000E+00
         0.00000E+00
         0.00000E+00
         0.00000E+00
         0.00000E+00
         0.00000E+00
         0.00000E+00
         0.00000E+00
         0.00000E+00
         0.00000E+00
         0.00000E+00
         0.00000E+00
         0.00000E+00
         0.00000E+00
         0.00000E+00
         0.00000E+00
         0.00000E+00
         0.00000E+00
         0.00000E+00
         0.00000E+00
         0.00000E+00
         0.00000E+00
         0.00000E+00
         0.00000E+00
         0.00000E+00
         0.00000E+00
         0.00000E+00
         0.00000E+00
         0.00000E+00
         0.00000E+00
         0.00000E+00
         0.00000E+00
         0.00000E+00
         0.00000E+00
         0.00000E+00
         0.00000E+00
         0.00000E+00
         0.00000E+00
         0.00000E+00
         0.00000E+00
         0.00000E+00
         0.00000E+00
         0.00000E+00
         0.00000E+00
         0.00000E+00
         0.00000E+00
         0.00000E+00
         0.00000E+00
         0.00000E+00
         0.00000E+00
         0.00000E+00
         0.00000E+00
         0.00000E+00
         0.00000E+00
         0.00000E+00
         0.00000E+00
         0.00000E+00
         0.00000E+00
         0.00000E+00
         0.00000E+00
         0.00000E+00
         0.00000E+00
         0.00000E+00
         0.00000E+00
         0.00000E+00
         0.00000E+00
         0.00000E+00
         0.00000E+00
         0.00000E+00
         0.00000E+00
         0.00000E+00
         0.00000E+00
         0.00000E+00
         0.00000E+00
         0.00000E+00
         0.00000E+00
         0.00000E+00
         0.00000E+00
         0.00000E+00
         0.00000E+00
         0.00000E+00
         0.00000E+00
         0.00000E+00
         0.00000E+00
         0.00000E+00
         0.00000E+00
         0.00000E+00
         0.00000E+00
         0.00000E+00
         0.00000E+00
         0.00000E+00
         0.00000E+00
         0.00000E+00
         0.00000E+00
         0.00000E+00
         0.00000E+00
         0.00000E+00
         0.00000E+00
         0.00000E+00
         0.00000E+00
         0.00000E+00
         0.00000E+00
         0.00000E+00
         0.00000E+00
         0.00000E+00
         0.00000E+00
         0.00000E+00
         0.00000E+00
         0.00000E+00
         0.00000E+00
         0.00000E+00
         0.00000E+00
         0.00000E+00
         0.00000E+00
         0.00000E+00
         0.00000E+00
         0.00000E+00
         0.00000E+00
         0.00000E+00
         0.00000E+00
         0.00000E+00
         0.00000E+00
         0.00000E+00
         0.00000E+00
         0.00000E+00
         0.00000E+00
         0.00000E+00
         0.00000E+00
         0.00000E+00
         0.00000E+00
         0.00000E+00
         0.00000E+00
         0.00000E+00
         0.00000E+00
         0.00000E+00
         0.00000E+00
         0.00000E+00
         0.00000E+00
         0.00000E+00
         0.00000E+00
         0.00000E+00
         0.00000E+00
         0.00000E+00
         0.00000E+00
         0.00000E+00
         0.00000E+00
         0.00000E+00
         0.00000E+00
         0.00000E+00
         0.00000E+00
         0.00000E+00
         0.00000E+00
         0.00000E+00
         0.00000E+00
         0.00000E+00
         0.00000E+00
         0.00000E+00
         0.00000E+00
         0.00000E+00
         0.00000E+00
         0.00000E+00
         0.00000E+00
         0.00000E+00
         0.00000E+00
         0.00000E+00
         0.00000E+00
         0.00000E+00
         0.00000E+00
         0.00000E+00
         0.00000E+00
         0.00000E+00
         0.00000E+00
         0.00000E+00
         0.00000E+00
         0.00000E+00
         0.00000E+00
         0.00000E+00
         0.00000E+00
         0.00000E+00
         0.00000E+00
         0.00000E+00
         0.00000E+00
         0.00000E+00
         0.00000E+00
         0.00000E+00
         0.00000E+00
         0.00000E+00
         0.00000E+00
         0.00000E+00
         0.00000E+00
         0.00000E+00
         0.00000E+00
         0.00000E+00
         0.00000E+00
         0.00000E+00
         0.00000E+00
         0.00000E+00
         0.00000E+00
         0.00000E+00
         0.00000E+00
         0.00000E+00
         0.00000E+00
         0.00000E+00
         0.00000E+00
         0.00000E+00
         0.00000E+00
         0.00000E+00
         0.00000E+00
         0.00000E+00
         0.00000E+00
         0.00000E+00
         0.00000E+00
         0.00000E+00
         0.00000E+00
         0.00000E+00
         0.00000E+00
         0.00000E+00
         0.00000E+00
         0.00000E+00
         0.00000E+00
         0.00000E+00
         0.00000E+00
         0.00000E+00
         0.00000E+00
         0.00000E+00
         0.00000E+00
         0.00000E+00
         0.00000E+00
         0.00000E+00
         0.00000E+00
         0.00000E+00
         0.00000E+00
         0.00000E+00
         0.00000E+00
         0.00000E+00
         0.00000E+00
         0.00000E+00
         0.00000E+00
         0.00000E+00
         0.00000E+00
         0.00000E+00
         0.00000E+00
         0.00000E+00
         0.00000E+00
         0.00000E+00
         0.00000E+00
         0.00000E+00
         0.00000E+00
         0.00000E+00
         0.00000E+00
         0.00000E+00
         0.00000E+00
         0.00000E+00
         0.00000E+00
         0.00000E+00
         0.00000E+00
         0.00000E+00
         0.00000E+00
         0.00000E+00
         0.00000E+00
         0.00000E+00
         0.00000E+00
         0.00000E+00
         0.00000E+00
         0.00000E+00
         0.00000E+00
         0.00000E+00
         0.00000E+00
         0.00000E+00
         0.00000E+00
         0.00000E+00
         0.00000E+00
         0.00000E+00
         0.00000E+00
         0.00000E+00
         0.00000E+00
         0.00000E+00
         0.00000E+00
         0.00000E+00
         0.00000E+00
         0.00000E+00
         0.00000E+00
         0.00000E+00
         0.00000E+00
         0.00000E+00
         0.00000E+00
         0.00000E+00
         0.00000E+00
         0.00000E+00
         0.00000E+00
         0.00000E+00
         0.00000E+00
         0.00000E+00
         0.00000E+00
         0.00000E+00
         0.00000E+00
         0.00000E+00
         0.00000E+00
         0.00000E+00
         0.00000E+00
         0.00000E+00
         0.00000E+00
         0.00000E+00
         0.00000E+00
         0.00000E+00
         0.00000E+00
         0.00000E+00
         0.00000E+00
         0.00000E+00
         0.00000E+00
         0.00000E+00
         0.00000E+00
         0.00000E+00
         0.00000E+00
         0.00000E+00
         0.00000E+00
         0.00000E+00
         0.00000E+00
         0.00000E+00
         0.00000E+00
         0.00000E+00
         0.00000E+00
         0.00000E+00
         0.00000E+00
         0.00000E+00
         0.00000E+00
         0.00000E+00
         0.00000E+00
         0.00000E+00
         0.00000E+00
         0.00000E+00
         0.00000E+00
         0.00000E+00
         0.00000E+00
         0.00000E+00
         0.00000E+00
         0.00000E+00
         0.00000E+00
         0.00000E+00
         0.00000E+00
         0.00000E+00
         0.00000E+00
         0.00000E+00
         0.00000E+00
         0.00000E+00
         0.00000E+00
         0.00000E+00
         0.00000E+00
         0.00000E+00
         0.00000E+00
         0.00000E+00
         0.00000E+00
         0.00000E+00
         0.00000E+00
         0.00000E+00
         0.00000E+00
         0.00000E+00
         0.00000E+00
         0.00000E+00
         0.00000E+00
         0.00000E+00
         0.00000E+00
         0.00000E+00
         0.00000E+00
         0.00000E+00
         0.00000E+00
         0.00000E+00
         0.00000E+00
         0.00000E+00
         0.00000E+00
         0.00000E+00
         0.00000E+00
         0.00000E+00
         0.00000E+00
         0.00000E+00
         0.00000E+00
         0.00000E+00
         0.00000E+00
         0.00000E+00
         0.00000E+00
         0.00000E+00
         0.00000E+00
         0.00000E+00
         0.00000E+00
         0.00000E+00
         0.00000E+00
         0.00000E+00
         0.00000E+00
         0.00000E+00
         0.00000E+00
         0.00000E+00
         0.00000E+00
         0.00000E+00
         0.00000E+00
         0.00000E+00
         0.00000E+00
         0.00000E+00
         0.00000E+00
         0.00000E+00
         0.00000E+00
         0.00000E+00
         0.00000E+00
         0.00000E+00
         0.00000E+00
         0.00000E+00
         0.00000E+00
         0.00000E+00
         0.00000E+00
         0.00000E+00
         0.00000E+00
         0.00000E+00
         0.00000E+00
         0.00000E+00
         0.00000E+00
         0.00000E+00
         0.00000E+00
         0.00000E+00
         0.00000E+00
         0.00000E+00
         0.00000E+00
         0.00000E+00
         0.00000E+00
         0.00000E+00
         0.00000E+00
         0.00000E+00
         0.00000E+00
         0.00000E+00
         0.00000E+00
         0.00000E+00
         0.00000E+00
         0.00000E+00
         0.00000E+00
         0.00000E+00
         0.00000E+00
         0.00000E+00
         0.00000E+00
         0.00000E+00
         0.00000E+00
         0.00000E+00
         0.00000E+00
         0.00000E+00
         0.00000E+00
         0.00000E+00
         0.00000E+00
         0.00000E+00
         0.00000E+00
         0.00000E+00
         0.00000E+00
         0.00000E+00
         0.00000E+00
         0.00000E+00
         0.00000E+00
         0.00000E+00
         0.00000E+00
         0.00000E+00
         0.00000E+00
         0.00000E+00
         0.00000E+00
         0.00000E+00
         0.00000E+00
         0.00000E+00
         0.00000E+00
         0.00000E+00
         0.00000E+00
         0.00000E+00
         0.00000E+00
         0.00000E+00
         0.00000E+00
         0.00000E+00
         0.00000E+00
         0.00000E+00
         0.00000E+00
         0.00000E+00
         0.00000E+00
         0.00000E+00
         0.00000E+00
         0.00000E+00
         0.00000E+00
         0.00000E+00
         0.00000E+00
         0.00000E+00
         0.00000E+00
         0.00000E+00
         0.00000E+00
         0.00000E+00
         0.00000E+00
         0.00000E+00
         0.00000E+00
         0.00000E+00
         0.00000E+00
         0.00000E+00
         0.00000E+00
         0.00000E+00
         0.00000E+00
         0.00000E+00
         0.00000E+00
         0.00000E+00
         0.00000E+00
         0.00000E+00
         0.00000E+00
         0.00000E+00
         0.00000E+00
         0.00000E+00
         0.00000E+00
         0.00000E+00
         0.00000E+00
         0.00000E+00
         0.00000E+00
         0.00000E+00
         0.00000E+00
         0.00000E+00
         0.00000E+00
         0.00000E+00
         0.00000E+00
         0.00000E+00
         0.00000E+00
         0.00000E+00
         0.00000E+00
         0.00000E+00
         0.00000E+00
         0.00000E+00
         0.00000E+00
         0.00000E+00
         0.00000E+00
         0.00000E+00
         0.00000E+00
         0.00000E+00
         0.00000E+00
         0.00000E+00
         0.00000E+00
         0.00000E+00
         0.00000E+00
         0.00000E+00
         0.00000E+00
         0.00000E+00
         0.00000E+00
         0.00000E+00
         0.00000E+00
         0.00000E+00
         0.00000E+00
         0.00000E+00
         0.00000E+00
         0.00000E+00
         0.00000E+00
         0.00000E+00
         0.00000E+00
         0.00000E+00
         0.00000E+00
         0.00000E+00
         0.00000E+00
         0.00000E+00
         0.00000E+00
         0.00000E+00
         0.00000E+00
         0.00000E+00
         0.00000E+00
         0.00000E+00
         0.00000E+00
         0.00000E+00
         0.00000E+00
         0.00000E+00
         0.00000E+00
         0.00000E+00
         0.00000E+00
         0.00000E+00
         0.00000E+00
         0.00000E+00
         0.00000E+00
         0.00000E+00
         0.00000E+00
         0.00000E+00
         0.00000E+00
         0.00000E+00
         0.00000E+00
         0.00000E+00
         0.00000E+00
         0.00000E+00
         0.00000E+00
         0.00000E+00
         0.00000E+00
         0.00000E+00
         0.00000E+00
         0.00000E+00
         0.00000E+00
         0.00000E+00
         0.00000E+00
         0.00000E+00
         0.00000E+00
         0.00000E+00
         0.00000E+00
         0.00000E+00
         0.00000E+00
         0.00000E+00
         0.00000E+00
         0.00000E+00
         0.00000E+00
         0.00000E+00
         0.00000E+00
         0.00000E+00
         0.00000E+00
         0.00000E+00
         0.00000E+00
         0.00000E+00
         0.00000E+00
         0.00000E+00
         0.00000E+00
         0.00000E+00
         0.00000E+00
         0.00000E+00
         0.00000E+00
         0.00000E+00
         0.00000E+00
         0.00000E+00
         0.00000E+00
         0.00000E+00
         0.00000E+00
         0.00000E+00
         0.00000E+00
         0.00000E+00
         0.00000E+00
         0.00000E+00
         0.00000E+00
         0.00000E+00
         0.00000E+00
         0.00000E+00
         0.00000E+00
         0.00000E+00
         0.00000E+00
         0.00000E+00
         0.00000E+00
         0.00000E+00
         0.00000E+00
         0.00000E+00
         0.00000E+00
         0.00000E+00
         0.00000E+00
         0.00000E+00
         0.00000E+00
         0.00000E+00
         0.00000E+00
         0.00000E+00
         0.00000E+00
         0.00000E+00
         0.00000E+00
         0.00000E+00
         0.00000E+00
         0.00000E+00
         0.00000E+00
         0.00000E+00
         0.00000E+00
         0.00000E+00
         0.00000E+00
         0.00000E+00
         0.00000E+00
         0.00000E+00
         0.00000E+00
         0.00000E+00
         0.00000E+00
         0.00000E+00
         0.00000E+00
         0.00000E+00
         0.00000E+00
         0.00000E+00
         0.00000E+00
         0.00000E+00
         0.00000E+00
         0.00000E+00
         0.00000E+00
         0.00000E+00
         0.00000E+00
         0.00000E+00
         0.00000E+00
         0.00000E+00
         0.00000E+00
         0.00000E+00
         0.00000E+00
         0.00000E+00
         0.00000E+00
         0.00000E+00
         0.00000E+00
         0.00000E+00
         0.00000E+00
         0.00000E+00
         0.00000E+00
         0.00000E+00
         0.00000E+00
         0.00000E+00
         0.00000E+00
         0.00000E+00
         0.00000E+00
         0.00000E+00
         0.00000E+00
         0.00000E+00
         0.00000E+00
         0.00000E+00
         0.00000E+00
         0.00000E+00
         0.00000E+00
         0.00000E+00
         0.00000E+00
         0.00000E+00
         0.00000E+00
         0.00000E+00
         0.00000E+00
         0.00000E+00
         0.00000E+00
         0.00000E+00
         0.00000E+00
         0.00000E+00
         0.00000E+00
         0.00000E+00
         0.00000E+00
         0.00000E+00
         0.00000E+00
         0.00000E+00
         0.00000E+00
         0.00000E+00
         0.00000E+00
         0.00000E+00
         0.00000E+00
         0.00000E+00
         0.00000E+00
         0.00000E+00
         0.00000E+00
         0.00000E+00
         0.00000E+00
         0.00000E+00
         0.00000E+00
         0.00000E+00
         0.00000E+00
         0.00000E+00
         0.00000E+00
         0.00000E+00
         0.00000E+00
         0.00000E+00
         0.00000E+00
         0.00000E+00
         0.00000E+00
         0.00000E+00
         0.00000E+00
         0.00000E+00
         0.00000E+00
         0.00000E+00
         0.00000E+00
         0.00000E+00
         0.00000E+00
         0.00000E+00
         0.00000E+00
         0.00000E+00
         0.00000E+00
         0.00000E+00
         0.00000E+00
         0.00000E+00
         0.00000E+00
         0.00000E+00
         0.00000E+00
         0.00000E+00
         0.00000E+00
         0.00000E+00
         0.00000E+00
         0.00000E+00
         0.00000E+00
         0.00000E+00
         0.00000E+00
         0.00000E+00
         0.00000E+00
         0.00000E+00
         0.00000E+00
         0.00000E+00
         0.00000E+00
         0.00000E+00
         0.00000E+00
         0.00000E+00
         0.00000E+00
         0.00000E+00
         0.00000E+00
         0.00000E+00
         0.00000E+00
         0.00000E+00
         0.00000E+00
         0.00000E+00
         0.00000E+00
         0.00000E+00
         0.00000E+00
         0.00000E+00
         0.00000E+00
         0.00000E+00
         0.00000E+00
         0.00000E+00
         0.00000E+00
         0.00000E+00
         0.00000E+00
         0.00000E+00
         0.00000E+00
         0.00000E+00
         0.00000E+00
         0.00000E+00
         0.00000E+00
         0.00000E+00
         0.00000E+00
         0.00000E+00
         0.00000E+00
         0.00000E+00
         0.00000E+00
         0.00000E+00
         0.00000E+00
         0.00000E+00
         0.00000E+00
         0.00000E+00
         0.00000E+00
         0.00000E+00
         0.00000E+00
         0.00000E+00
         0.00000E+00
         0.00000E+00
         0.00000E+00
         0.00000E+00
         0.00000E+00
         0.00000E+00
         0.00000E+00
         0.00000E+00
         0.00000E+00
         0.00000E+00
         0.00000E+00
         0.00000E+00
         0.00000E+00
         0.00000E+00
         0.00000E+00
         0.00000E+00
         0.00000E+00
         0.00000E+00
         0.00000E+00
         0.00000E+00
         0.00000E+00
         0.00000E+00
         0.00000E+00
         0.00000E+00
         0.00000E+00
         0.00000E+00
         0.00000E+00
         0.00000E+00
         0.00000E+00
         0.00000E+00
         0.00000E+00
         0.00000E+00
         0.00000E+00
         0.00000E+00
         0.00000E+00
         0.00000E+00
         0.00000E+00
         0.00000E+00
         0.00000E+00
         0.00000E+00
         0.00000E+00
         0.00000E+00
         0.00000E+00
         0.00000E+00
         0.00000E+00
         0.00000E+00
         0.00000E+00
         0.00000E+00
         0.00000E+00
         0.00000E+00
         0.00000E+00
         0.00000E+00
         0.00000E+00
         0.00000E+00
         0.00000E+00
         0.00000E+00
         0.00000E+00
         0.00000E+00
         0.00000E+00
         0.00000E+00
         0.00000E+00
         0.00000E+00
         0.00000E+00
         0.00000E+00
         0.00000E+00
         0.00000E+00
         0.00000E+00
         0.00000E+00
         0.00000E+00
         0.00000E+00
         0.00000E+00
         0.00000E+00
         0.00000E+00
         0.00000E+00
         0.00000E+00
         0.00000E+00
         0.00000E+00
         0.00000E+00
         0.00000E+00
         0.00000E+00
         0.00000E+00
         0.00000E+00
         0.00000E+00
         0.00000E+00
         0.00000E+00
         0.00000E+00
         0.00000E+00
         0.00000E+00
         0.00000E+00
         0.00000E+00
         0.00000E+00
         0.00000E+00
         0.00000E+00
         0.00000E+00
         0.00000E+00
         0.00000E+00
         0.00000E+00
         0.00000E+00
         0.00000E+00
         0.00000E+00
         0.00000E+00
         0.00000E+00
         0.00000E+00
         0.00000E+00
         0.00000E+00
         0.00000E+00
         0.00000E+00
         0.00000E+00
         0.00000E+00
         0.00000E+00
         0.00000E+00
         0.00000E+00
         0.00000E+00
         0.00000E+00
         0.00000E+00
         0.00000E+00
         0.00000E+00
         0.00000E+00
         0.00000E+00
         0.00000E+00
         0.00000E+00
         0.00000E+00
         0.00000E+00
         0.00000E+00
         0.00000E+00
         0.00000E+00
         0.00000E+00
         0.00000E+00
         0.00000E+00
         0.00000E+00
         0.00000E+00
         0.00000E+00
         0.00000E+00
         0.00000E+00
         0.00000E+00
         0.00000E+00
         0.00000E+00
         0.00000E+00
         0.00000E+00
         0.00000E+00
         0.00000E+00
         0.00000E+00
         0.00000E+00
         0.00000E+00
         0.00000E+00
         0.00000E+00
         0.00000E+00
         0.00000E+00
         0.00000E+00
         0.00000E+00
         0.00000E+00
         0.00000E+00
         0.00000E+00
         0.00000E+00
         0.00000E+00
         0.00000E+00
         0.00000E+00
         0.00000E+00
         0.00000E+00
         0.00000E+00
         0.00000E+00
         0.00000E+00
         0.00000E+00
         0.00000E+00
         0.00000E+00
         0.00000E+00
         0.00000E+00
         0.00000E+00
         0.00000E+00
         0.00000E+00
         0.00000E+00
         0.00000E+00
         0.00000E+00
         0.00000E+00
         0.00000E+00
         0.00000E+00
         0.00000E+00
         0.00000E+00
         0.00000E+00
         0.00000E+00
         0.00000E+00
         0.00000E+00
         0.00000E+00
         0.00000E+00
         0.00000E+00
         0.00000E+00
         0.00000E+00
         0.00000E+00
         0.00000E+00
         0.00000E+00
         0.00000E+00
         0.00000E+00
         0.00000E+00
         0.00000E+00
         0.00000E+00
         0.00000E+00
         0.00000E+00
         0.00000E+00
         0.00000E+00
         0.00000E+00
         0.00000E+00
         0.00000E+00
         0.00000E+00
         0.00000E+00
         0.00000E+00
         0.00000E+00
         0.00000E+00
         0.00000E+00
         0.00000E+00
         0.00000E+00
         0.00000E+00
         0.00000E+00
         0.00000E+00
         0.00000E+00
         0.00000E+00
         0.00000E+00
         0.00000E+00
         0.00000E+00
         0.00000E+00
         0.00000E+00
         0.00000E+00
         0.00000E+00
         0.00000E+00
         0.00000E+00
         0.00000E+00
         0.00000E+00
         0.00000E+00
         0.00000E+00
         0.00000E+00
         0.00000E+00
         0.00000E+00
         0.00000E+00
         0.00000E+00
         0.00000E+00
         0.00000E+00
         0.00000E+00
         0.00000E+00
         0.00000E+00
         0.00000E+00
         0.00000E+00
         0.00000E+00
         0.00000E+00
         0.00000E+00
         0.00000E+00
         0.00000E+00
         0.00000E+00
         0.00000E+00
         0.00000E+00
         0.00000E+00
         0.00000E+00
         0.00000E+00
         0.00000E+00
         0.00000E+00
         0.00000E+00
         0.00000E+00
         0.00000E+00
         0.00000E+00
         0.00000E+00
         0.00000E+00
         0.00000E+00
         0.00000E+00
         0.00000E+00
         0.00000E+00
         0.00000E+00
         0.00000E+00
         0.00000E+00
         0.00000E+00
         0.00000E+00
         0.00000E+00
         0.00000E+00
         0.00000E+00
         0.00000E+00
         0.00000E+00
         0.00000E+00
         0.00000E+00
         0.00000E+00
         0.00000E+00
         0.00000E+00
         0.00000E+00
         0.00000E+00
         0.00000E+00
         0.00000E+00
         0.00000E+00
         0.00000E+00
         0.00000E+00
         0.00000E+00
         0.00000E+00
         0.00000E+00
         0.00000E+00
         0.00000E+00
         0.00000E+00
         0.00000E+00
         0.00000E+00
         0.00000E+00
         0.00000E+00
         0.00000E+00
         0.00000E+00
         0.00000E+00
         0.00000E+00
         0.00000E+00
         0.00000E+00
         0.00000E+00
         0.00000E+00
         0.00000E+00
         0.00000E+00
         0.00000E+00
         0.00000E+00
         0.00000E+00
         0.00000E+00
         0.00000E+00
         0.00000E+00
         0.00000E+00
         0.00000E+00
         0.00000E+00
         0.00000E+00
         0.00000E+00
         0.00000E+00
         0.00000E+00
         0.00000E+00
         0.00000E+00
         0.00000E+00
         0.00000E+00
         0.00000E+00
         0.00000E+00
         0.00000E+00
         0.00000E+00
         0.00000E+00
         0.00000E+00
         0.00000E+00
         0.00000E+00
         0.00000E+00
         0.00000E+00
         0.00000E+00
         0.00000E+00
         0.00000E+00
         0.00000E+00
         0.00000E+00
         0.00000E+00
         0.00000E+00
         0.00000E+00
         0.00000E+00
         0.00000E+00
         0.00000E+00
         0.00000E+00
         0.00000E+00
         0.00000E+00
         0.00000E+00
         0.00000E+00
         0.00000E+00
         0.00000E+00
         0.00000E+00
         0.00000E+00
         0.00000E+00
         0.00000E+00
         0.00000E+00
         0.00000E+00
         0.00000E+00
         0.00000E+00
         0.00000E+00
         0.00000E+00
         0.00000E+00
         0.00000E+00
         0.00000E+00
         0.00000E+00
         0.00000E+00
         0.00000E+00
         0.00000E+00
         0.00000E+00
         0.00000E+00
         0.00000E+00
         0.00000E+00
         0.00000E+00
         0.00000E+00
         0.00000E+00
         0.00000E+00
         0.00000E+00
         0.00000E+00
         0.00000E+00
         0.00000E+00
         0.00000E+00
         0.00000E+00
         0.00000E+00
         0.00000E+00
         0.00000E+00
         0.00000E+00
         0.00000E+00
         0.00000E+00
         0.00000E+00
         0.00000E+00
         0.00000E+00
         0.00000E+00
         0.00000E+00
         0.00000E+00
         0.00000E+00
         0.00000E+00
         0.00000E+00
         0.00000E+00
         0.00000E+00
         0.00000E+00
         0.00000E+00
         0.00000E+00
         0.00000E+00
         0.00000E+00
         0.00000E+00
         0.00000E+00
         0.00000E+00
         0.00000E+00
         0.00000E+00
         0.00000E+00
         0.00000E+00
         0.00000E+00
         0.00000E+00
         0.00000E+00
  
SCALARS           initial_coordinate_x  double 1
LOOKUP_TABLE default
         0.10378E-02
         0.17452E-02
         0.23177E-02
         0.16698E-02
         0.10379E-02
         0.17453E-02
         0.23178E-02
         0.16700E-02
         0.30377E-02
         0.27791E-02
         0.30377E-02
         0.27788E-02
         0.12850E-02
         0.65139E-03
         0.12851E-02
         0.65164E-03
         0.12757E-03
        -0.12822E-03
         0.12783E-03
        -0.12804E-03
         0.94500E-03
         0.11327E-02
         0.17490E-02
         0.94533E-03
         0.11330E-02
         0.17494E-02
         0.40588E-03
         0.39779E-03
         0.40594E-03
         0.39781E-03
        -0.76303E-03
        -0.86604E-03
         0.46119E-03
        -0.76268E-03
        -0.86593E-03
         0.46164E-03
        -0.18300E-02
        -0.18440E-02
        -0.18297E-02
        -0.18441E-02
        -0.27238E-02
        -0.28028E-02
        -0.27238E-02
        -0.28031E-02
        -0.25365E-02
        -0.19287E-02
        -0.25363E-02
        -0.19283E-02
        -0.99363E-03
        -0.99377E-03
        -0.14380E-02
        -0.14377E-02
        -0.31574E-03
        -0.31594E-03
        -0.11068E-02
        -0.11071E-02
        -0.18845E-02
        -0.18713E-02
        -0.18846E-02
        -0.18714E-02
        -0.15871E-03
        -0.94089E-03
        -0.15844E-03
        -0.94029E-03
         0.78856E-03
         0.78922E-03
         0.17211E-02
         0.17211E-02
         0.32050E-02
         0.28046E-02
         0.32047E-02
         0.28047E-02
         0.23059E-02
         0.23060E-02
        -0.40614E-03
        -0.40627E-03
        -0.12092E-02
        -0.12092E-02
        -0.19448E-02
        -0.19448E-02
        -0.25029E-02
        -0.26371E-02
        -0.25029E-02
        -0.26372E-02
        -0.27671E-02
        -0.27674E-02
        -0.21123E-02
        -0.21122E-02
        -0.16087E-02
        -0.16087E-02
        -0.11939E-02
        -0.58641E-03
        -0.11937E-02
        -0.58606E-03
         0.20912E-03
         0.20952E-03
         0.10586E-02
         0.10589E-02
         0.18413E-02
         0.18413E-02
         0.24544E-02
         0.26022E-02
         0.24543E-02
         0.26021E-02
         0.37964E-02
         0.39100E-02
         0.37964E-02
         0.39100E-02
         0.34621E-02
         0.34621E-02
         0.29267E-02
         0.29267E-02
         0.22211E-02
         0.22211E-02
         0.13865E-02
         0.13865E-02
         0.47130E-03
         0.47130E-03
        -0.47130E-03
        -0.47130E-03
        -0.13865E-02
        -0.13865E-02
        -0.22211E-02
        -0.22211E-02
        -0.29267E-02
        -0.29267E-02
        -0.34621E-02
        -0.34621E-02
        -0.37964E-02
        -0.37964E-02
        -0.39100E-02
        -0.39100E-02
        -0.37964E-02
        -0.37964E-02
        -0.34621E-02
        -0.34621E-02
        -0.29267E-02
        -0.29267E-02
        -0.22211E-02
        -0.22211E-02
        -0.13865E-02
        -0.13865E-02
        -0.47130E-03
        -0.47130E-03
         0.47130E-03
         0.47130E-03
         0.13865E-02
         0.13865E-02
         0.22211E-02
         0.22211E-02
         0.29267E-02
         0.29267E-02
         0.34621E-02
         0.34621E-02
         0.37964E-02
         0.37964E-02
         0.10376E-02
         0.17450E-02
         0.23175E-02
         0.16696E-02
         0.30377E-02
         0.27795E-02
         0.12849E-02
         0.65115E-03
         0.12731E-03
        -0.12841E-03
         0.94467E-03
         0.11323E-02
         0.17487E-02
         0.40583E-03
         0.39777E-03
        -0.76338E-03
        -0.86615E-03
         0.46074E-03
        -0.18303E-02
        -0.18439E-02
        -0.27238E-02
        -0.28025E-02
        -0.25366E-02
        -0.19292E-02
        -0.99349E-03
        -0.14384E-02
        -0.31554E-03
        -0.11064E-02
        -0.18845E-02
        -0.18712E-02
        -0.15899E-03
        -0.94149E-03
         0.78790E-03
         0.17210E-02
         0.32053E-02
         0.28046E-02
         0.23058E-02
        -0.40600E-03
        -0.12092E-02
        -0.19447E-02
        -0.25028E-02
        -0.26370E-02
        -0.27668E-02
        -0.21125E-02
        -0.16088E-02
        -0.11940E-02
        -0.58676E-03
         0.20871E-03
         0.10583E-02
         0.18413E-02
         0.24545E-02
         0.26022E-02
         0.37964E-02
         0.39100E-02
         0.34621E-02
         0.29267E-02
         0.22211E-02
         0.13865E-02
         0.47130E-03
        -0.47130E-03
        -0.13865E-02
        -0.22211E-02
        -0.29267E-02
        -0.34621E-02
        -0.37964E-02
        -0.39100E-02
        -0.37964E-02
        -0.34621E-02
        -0.29267E-02
        -0.22211E-02
        -0.13865E-02
        -0.47130E-03
         0.47130E-03
         0.13865E-02
         0.22211E-02
         0.29267E-02
         0.34621E-02
         0.37964E-02
         0.10375E-02
         0.17448E-02
         0.23174E-02
         0.16694E-02
         0.30377E-02
         0.27798E-02
         0.12848E-02
         0.65090E-03
         0.12705E-03
        -0.12859E-03
         0.94434E-03
         0.11320E-02
         0.17483E-02
         0.40577E-03
         0.39776E-03
        -0.76374E-03
        -0.86626E-03
         0.46029E-03
        -0.18306E-02
        -0.18438E-02
        -0.27238E-02
        -0.28022E-02
        -0.25368E-02
        -0.19296E-02
        -0.99334E-03
        -0.14387E-02
        -0.31534E-03
        -0.11061E-02
        -0.18844E-02
        -0.18710E-02
        -0.15926E-03
        -0.94209E-03
         0.78724E-03
         0.17210E-02
         0.32056E-02
         0.28046E-02
         0.23057E-02
        -0.40586E-03
        -0.12092E-02
        -0.19447E-02
        -0.25028E-02
        -0.26369E-02
        -0.27665E-02
        -0.21126E-02
        -0.16088E-02
        -0.11941E-02
        -0.58711E-03
         0.20830E-03
         0.10580E-02
         0.18414E-02
         0.24546E-02
         0.26023E-02
         0.37964E-02
         0.39100E-02
         0.34621E-02
         0.29267E-02
         0.22211E-02
         0.13865E-02
         0.47130E-03
        -0.47130E-03
        -0.13865E-02
        -0.22211E-02
        -0.29267E-02
        -0.34621E-02
        -0.37964E-02
        -0.39100E-02
        -0.37964E-02
        -0.34621E-02
        -0.29267E-02
        -0.22211E-02
        -0.13865E-02
        -0.47130E-03
         0.47130E-03
         0.13865E-02
         0.22211E-02
         0.29267E-02
         0.34621E-02
         0.37964E-02
         0.10374E-02
         0.17446E-02
         0.23173E-02
         0.16692E-02
         0.30376E-02
         0.27801E-02
         0.12847E-02
         0.65065E-03
         0.12678E-03
        -0.12878E-03
         0.94401E-03
         0.11316E-02
         0.17479E-02
         0.40572E-03
         0.39774E-03
        -0.76409E-03
        -0.86637E-03
         0.45985E-03
        -0.18309E-02
        -0.18437E-02
        -0.27237E-02
        -0.28020E-02
        -0.25369E-02
        -0.19300E-02
        -0.99320E-03
        -0.14391E-02
        -0.31514E-03
        -0.11057E-02
        -0.18844E-02
        -0.18709E-02
        -0.15954E-03
        -0.94269E-03
         0.78658E-03
         0.17209E-02
         0.32060E-02
         0.28046E-02
         0.23056E-02
        -0.40572E-03
        -0.12092E-02
        -0.19446E-02
        -0.25028E-02
        -0.26368E-02
        -0.27662E-02
        -0.21128E-02
        -0.16088E-02
        -0.11942E-02
        -0.58746E-03
         0.20790E-03
         0.10577E-02
         0.18414E-02
         0.24548E-02
         0.26024E-02
         0.37964E-02
         0.39100E-02
         0.34621E-02
         0.29267E-02
         0.22211E-02
         0.13865E-02
         0.47130E-03
        -0.47130E-03
        -0.13865E-02
        -0.22211E-02
        -0.29267E-02
        -0.34621E-02
        -0.37964E-02
        -0.39100E-02
        -0.37964E-02
        -0.34621E-02
        -0.29267E-02
        -0.22211E-02
        -0.13865E-02
        -0.47130E-03
         0.47130E-03
         0.13865E-02
         0.22211E-02
         0.29267E-02
         0.34621E-02
         0.37964E-02
         0.10373E-02
         0.17445E-02
         0.23172E-02
         0.16689E-02
         0.30376E-02
         0.27805E-02
         0.12846E-02
         0.65041E-03
         0.12652E-03
        -0.12896E-03
         0.94367E-03
         0.11313E-02
         0.17475E-02
         0.40566E-03
         0.39772E-03
        -0.76444E-03
        -0.86648E-03
         0.45940E-03
        -0.18312E-02
        -0.18436E-02
        -0.27237E-02
        -0.28017E-02
        -0.25371E-02
        -0.19305E-02
        -0.99305E-03
        -0.14394E-02
        -0.31494E-03
        -0.11054E-02
        -0.18843E-02
        -0.18708E-02
        -0.15981E-03
        -0.94328E-03
         0.78592E-03
         0.17209E-02
         0.32063E-02
         0.28045E-02
         0.23055E-02
        -0.40558E-03
        -0.12092E-02
        -0.19446E-02
        -0.25027E-02
        -0.26367E-02
        -0.27658E-02
        -0.21129E-02
        -0.16089E-02
        -0.11943E-02
        -0.58781E-03
         0.20749E-03
         0.10574E-02
         0.18415E-02
         0.24549E-02
         0.26025E-02
         0.37964E-02
         0.39100E-02
         0.34621E-02
         0.29267E-02
         0.22211E-02
         0.13865E-02
         0.47130E-03
        -0.47130E-03
        -0.13865E-02
        -0.22211E-02
        -0.29267E-02
        -0.34621E-02
        -0.37964E-02
        -0.39100E-02
        -0.37964E-02
        -0.34621E-02
        -0.29267E-02
        -0.22211E-02
        -0.13865E-02
        -0.47130E-03
         0.47130E-03
         0.13865E-02
         0.22211E-02
         0.29267E-02
         0.34621E-02
         0.37964E-02
         0.10372E-02
         0.17443E-02
         0.23171E-02
         0.16687E-02
         0.30376E-02
         0.27808E-02
         0.12845E-02
         0.65016E-03
         0.12626E-03
        -0.12915E-03
         0.94334E-03
         0.11310E-02
         0.17471E-02
         0.40561E-03
         0.39770E-03
        -0.76480E-03
        -0.86659E-03
         0.45895E-03
        -0.18315E-02
        -0.18435E-02
        -0.27237E-02
        -0.28014E-02
        -0.25372E-02
        -0.19309E-02
        -0.99291E-03
        -0.14398E-02
        -0.31474E-03
        -0.11051E-02
        -0.18843E-02
        -0.18706E-02
        -0.16009E-03
        -0.94388E-03
         0.78526E-03
         0.17208E-02
         0.32066E-02
         0.28045E-02
         0.23053E-02
        -0.40545E-03
        -0.12092E-02
        -0.19446E-02
        -0.25027E-02
        -0.26366E-02
        -0.27655E-02
        -0.21130E-02
        -0.16089E-02
        -0.11944E-02
        -0.58816E-03
         0.20709E-03
         0.10571E-02
         0.18415E-02
         0.24550E-02
         0.26025E-02
         0.37964E-02
         0.39100E-02
         0.34621E-02
         0.29267E-02
         0.22211E-02
         0.13865E-02
         0.47130E-03
        -0.47130E-03
        -0.13865E-02
        -0.22211E-02
        -0.29267E-02
        -0.34621E-02
        -0.37964E-02
        -0.39100E-02
        -0.37964E-02
        -0.34621E-02
        -0.29267E-02
        -0.22211E-02
        -0.13865E-02
        -0.47130E-03
         0.47130E-03
         0.13865E-02
         0.22211E-02
         0.29267E-02
         0.34621E-02
         0.37964E-02
         0.10371E-02
         0.17441E-02
         0.23169E-02
         0.16685E-02
         0.30376E-02
         0.27812E-02
         0.12844E-02
         0.64992E-03
         0.12600E-03
        -0.12933E-03
         0.94301E-03
         0.11306E-02
         0.17467E-02
         0.40556E-03
         0.39769E-03
        -0.76515E-03
        -0.86670E-03
         0.45850E-03
        -0.18318E-02
        -0.18434E-02
        -0.27236E-02
        -0.28011E-02
        -0.25374E-02
        -0.19313E-02
        -0.99277E-03
        -0.14401E-02
        -0.31454E-03
        -0.11047E-02
        -0.18842E-02
        -0.18705E-02
        -0.16036E-03
        -0.94448E-03
         0.78460E-03
         0.17208E-02
         0.32070E-02
         0.28045E-02
         0.23052E-02
        -0.40531E-03
        -0.12092E-02
        -0.19445E-02
        -0.25027E-02
        -0.26366E-02
        -0.27652E-02
        -0.21132E-02
        -0.16090E-02
        -0.11946E-02
        -0.58851E-03
         0.20668E-03
         0.10567E-02
         0.18416E-02
         0.24551E-02
         0.26026E-02
         0.37964E-02
         0.39100E-02
         0.34621E-02
         0.29267E-02
         0.22211E-02
         0.13865E-02
         0.47130E-03
        -0.47130E-03
        -0.13865E-02
        -0.22211E-02
        -0.29267E-02
        -0.34621E-02
        -0.37964E-02
        -0.39100E-02
        -0.37964E-02
        -0.34621E-02
        -0.29267E-02
        -0.22211E-02
        -0.13865E-02
        -0.47130E-03
         0.47130E-03
         0.13865E-02
         0.22211E-02
         0.29267E-02
         0.34621E-02
         0.37964E-02
         0.10370E-02
         0.17439E-02
         0.23168E-02
         0.16683E-02
         0.30375E-02
         0.27815E-02
         0.12843E-02
         0.64967E-03
         0.12573E-03
        -0.12952E-03
         0.94268E-03
         0.11303E-02
         0.17463E-02
         0.40550E-03
         0.39767E-03
        -0.76551E-03
        -0.86680E-03
         0.45806E-03
        -0.18321E-02
        -0.18433E-02
        -0.27236E-02
        -0.28009E-02
        -0.25375E-02
        -0.19317E-02
        -0.99262E-03
        -0.14405E-02
        -0.31434E-03
        -0.11044E-02
        -0.18842E-02
        -0.18704E-02
        -0.16064E-03
        -0.94508E-03
         0.78394E-03
         0.17208E-02
         0.32073E-02
         0.28045E-02
         0.23051E-02
        -0.40517E-03
        -0.12092E-02
        -0.19445E-02
        -0.25026E-02
        -0.26365E-02
        -0.27649E-02
        -0.21133E-02
        -0.16090E-02
        -0.11947E-02
        -0.58886E-03
         0.20627E-03
         0.10564E-02
         0.18416E-02
         0.24553E-02
         0.26027E-02
         0.37964E-02
         0.39100E-02
         0.34621E-02
         0.29267E-02
         0.22211E-02
         0.13865E-02
         0.47130E-03
        -0.47130E-03
        -0.13865E-02
        -0.22211E-02
        -0.29267E-02
        -0.34621E-02
        -0.37964E-02
        -0.39100E-02
        -0.37964E-02
        -0.34621E-02
        -0.29267E-02
        -0.22211E-02
        -0.13865E-02
        -0.47130E-03
         0.47130E-03
         0.13865E-02
         0.22211E-02
         0.29267E-02
         0.34621E-02
         0.37964E-02
         0.10368E-02
         0.17438E-02
         0.23167E-02
         0.16681E-02
         0.30375E-02
         0.27819E-02
         0.12842E-02
         0.64943E-03
         0.12547E-03
        -0.12970E-03
         0.94235E-03
         0.11300E-02
         0.17459E-02
         0.40545E-03
         0.39766E-03
        -0.76586E-03
        -0.86691E-03
         0.45761E-03
        -0.18324E-02
        -0.18432E-02
        -0.27236E-02
        -0.28006E-02
        -0.25377E-02
        -0.19322E-02
        -0.99248E-03
        -0.14408E-02
        -0.31414E-03
        -0.11040E-02
        -0.18841E-02
        -0.18703E-02
        -0.16091E-03
        -0.94568E-03
         0.78328E-03
         0.17207E-02
         0.32076E-02
         0.28044E-02
         0.23050E-02
        -0.40503E-03
        -0.12092E-02
        -0.19445E-02
        -0.25026E-02
        -0.26364E-02
        -0.27646E-02
        -0.21134E-02
        -0.16091E-02
        -0.11948E-02
        -0.58921E-03
         0.20587E-03
         0.10561E-02
         0.18416E-02
         0.24554E-02
         0.26027E-02
         0.37964E-02
         0.39100E-02
         0.34621E-02
         0.29267E-02
         0.22211E-02
         0.13865E-02
         0.47130E-03
        -0.47130E-03
        -0.13865E-02
        -0.22211E-02
        -0.29267E-02
        -0.34621E-02
        -0.37964E-02
        -0.39100E-02
        -0.37964E-02
        -0.34621E-02
        -0.29267E-02
        -0.22211E-02
        -0.13865E-02
        -0.47130E-03
         0.47130E-03
         0.13865E-02
         0.22211E-02
         0.29267E-02
         0.34621E-02
         0.37964E-02
         0.10367E-02
         0.17436E-02
         0.23166E-02
         0.16679E-02
         0.30375E-02
         0.27822E-02
         0.12841E-02
         0.64918E-03
         0.12521E-03
        -0.12989E-03
         0.94202E-03
         0.11296E-02
         0.17455E-02
         0.40539E-03
         0.39764E-03
        -0.76621E-03
        -0.86702E-03
         0.45716E-03
        -0.18326E-02
        -0.18431E-02
        -0.27235E-02
        -0.28003E-02
        -0.25379E-02
        -0.19326E-02
        -0.99233E-03
        -0.14412E-02
        -0.31394E-03
        -0.11037E-02
        -0.18841E-02
        -0.18701E-02
        -0.16119E-03
        -0.94628E-03
         0.78262E-03
         0.17207E-02
         0.32079E-02
         0.28044E-02
         0.23049E-02
        -0.40490E-03
        -0.12093E-02
        -0.19444E-02
        -0.25026E-02
        -0.26363E-02
        -0.27643E-02
        -0.21136E-02
        -0.16091E-02
        -0.11949E-02
        -0.58956E-03
         0.20546E-03
         0.10558E-02
         0.18417E-02
         0.24555E-02
         0.26028E-02
         0.37964E-02
         0.39100E-02
         0.34621E-02
         0.29267E-02
         0.22211E-02
         0.13865E-02
         0.47130E-03
        -0.47130E-03
        -0.13865E-02
        -0.22211E-02
        -0.29267E-02
        -0.34621E-02
        -0.37964E-02
        -0.39100E-02
        -0.37964E-02
        -0.34621E-02
        -0.29267E-02
        -0.22211E-02
        -0.13865E-02
        -0.47130E-03
         0.47130E-03
         0.13865E-02
         0.22211E-02
         0.29267E-02
         0.34621E-02
         0.37964E-02
         0.10366E-02
         0.17434E-02
         0.23164E-02
         0.16677E-02
         0.30375E-02
         0.27825E-02
         0.12840E-02
         0.64894E-03
         0.12495E-03
        -0.13007E-03
         0.94169E-03
         0.11293E-02
         0.17451E-02
         0.40534E-03
         0.39762E-03
        -0.76657E-03
        -0.86713E-03
         0.45671E-03
        -0.18329E-02
        -0.18430E-02
        -0.27235E-02
        -0.28001E-02
        -0.25380E-02
        -0.19330E-02
        -0.99219E-03
        -0.14415E-02
        -0.31374E-03
        -0.11033E-02
        -0.18840E-02
        -0.18700E-02
        -0.16146E-03
        -0.94687E-03
         0.78195E-03
         0.17207E-02
         0.32083E-02
         0.28044E-02
         0.23048E-02
        -0.40476E-03
        -0.12093E-02
        -0.19444E-02
        -0.25026E-02
        -0.26362E-02
        -0.27640E-02
        -0.21137E-02
        -0.16091E-02
        -0.11950E-02
        -0.58991E-03
         0.20505E-03
         0.10555E-02
         0.18417E-02
         0.24556E-02
         0.26029E-02
         0.37964E-02
         0.39100E-02
         0.34621E-02
         0.29267E-02
         0.22211E-02
         0.13865E-02
         0.47130E-03
        -0.47130E-03
        -0.13865E-02
        -0.22211E-02
        -0.29267E-02
        -0.34621E-02
        -0.37964E-02
        -0.39100E-02
        -0.37964E-02
        -0.34621E-02
        -0.29267E-02
        -0.22211E-02
        -0.13865E-02
        -0.47130E-03
         0.47130E-03
         0.13865E-02
         0.22211E-02
         0.29267E-02
         0.34621E-02
         0.37964E-02
         0.10365E-02
         0.17432E-02
         0.23163E-02
         0.16675E-02
         0.30374E-02
         0.27829E-02
         0.12839E-02
         0.64869E-03
         0.12468E-03
        -0.13026E-03
         0.94135E-03
         0.11289E-02
         0.17447E-02
         0.40528E-03
         0.39760E-03
        -0.76692E-03
        -0.86724E-03
         0.45626E-03
        -0.18332E-02
        -0.18430E-02
        -0.27235E-02
        -0.27998E-02
        -0.25382E-02
        -0.19334E-02
        -0.99205E-03
        -0.14419E-02
        -0.31354E-03
        -0.11030E-02
        -0.18840E-02
        -0.18699E-02
        -0.16174E-03
        -0.94747E-03
         0.78129E-03
         0.17206E-02
         0.32086E-02
         0.28044E-02
         0.23047E-02
        -0.40462E-03
        -0.12093E-02
        -0.19444E-02
        -0.25025E-02
        -0.26361E-02
        -0.27637E-02
        -0.21139E-02
        -0.16092E-02
        -0.11951E-02
        -0.59025E-03
         0.20465E-03
         0.10552E-02
         0.18418E-02
         0.24558E-02
         0.26030E-02
         0.37964E-02
         0.39100E-02
         0.34621E-02
         0.29267E-02
         0.22211E-02
         0.13865E-02
         0.47130E-03
        -0.47130E-03
        -0.13865E-02
        -0.22211E-02
        -0.29267E-02
        -0.34621E-02
        -0.37964E-02
        -0.39100E-02
        -0.37964E-02
        -0.34621E-02
        -0.29267E-02
        -0.22211E-02
        -0.13865E-02
        -0.47130E-03
         0.47130E-03
         0.13865E-02
         0.22211E-02
         0.29267E-02
         0.34621E-02
         0.37964E-02
         0.10364E-02
         0.17430E-02
         0.23162E-02
         0.16672E-02
         0.30374E-02
         0.27832E-02
         0.12838E-02
         0.64845E-03
         0.12442E-03
        -0.13044E-03
         0.94102E-03
         0.11286E-02
         0.17443E-02
         0.40523E-03
         0.39759E-03
        -0.76727E-03
        -0.86735E-03
         0.45582E-03
        -0.18335E-02
        -0.18429E-02
        -0.27235E-02
        -0.27995E-02
        -0.25383E-02
        -0.19339E-02
        -0.99190E-03
        -0.14422E-02
        -0.31334E-03
        -0.11026E-02
        -0.18839E-02
        -0.18697E-02
        -0.16201E-03
        -0.94807E-03
         0.78063E-03
         0.17206E-02
         0.32089E-02
         0.28043E-02
         0.23046E-02
        -0.40448E-03
        -0.12093E-02
        -0.19443E-02
        -0.25025E-02
        -0.26360E-02
        -0.27633E-02
        -0.21140E-02
        -0.16092E-02
        -0.11953E-02
        -0.59060E-03
         0.20424E-03
         0.10549E-02
         0.18418E-02
         0.24559E-02
         0.26030E-02
         0.37964E-02
         0.39100E-02
         0.34621E-02
         0.29267E-02
         0.22211E-02
         0.13865E-02
         0.47130E-03
        -0.47130E-03
        -0.13865E-02
        -0.22211E-02
        -0.29267E-02
        -0.34621E-02
        -0.37964E-02
        -0.39100E-02
        -0.37964E-02
        -0.34621E-02
        -0.29267E-02
        -0.22211E-02
        -0.13865E-02
        -0.47130E-03
         0.47130E-03
         0.13865E-02
         0.22211E-02
         0.29267E-02
         0.34621E-02
         0.37964E-02
         0.10363E-02
         0.17429E-02
         0.23161E-02
         0.16670E-02
         0.30374E-02
         0.27836E-02
         0.12837E-02
         0.64820E-03
         0.12416E-03
        -0.13063E-03
         0.94069E-03
         0.11282E-02
         0.17439E-02
         0.40518E-03
         0.39757E-03
        -0.76763E-03
        -0.86746E-03
         0.45537E-03
        -0.18338E-02
        -0.18428E-02
        -0.27234E-02
        -0.27992E-02
        -0.25385E-02
        -0.19343E-02
        -0.99176E-03
        -0.14425E-02
        -0.31314E-03
        -0.11023E-02
        -0.18839E-02
        -0.18696E-02
        -0.16229E-03
        -0.94867E-03
         0.77997E-03
         0.17205E-02
         0.32092E-02
         0.28043E-02
         0.23044E-02
        -0.40434E-03
        -0.12093E-02
        -0.19443E-02
        -0.25025E-02
        -0.26359E-02
        -0.27630E-02
        -0.21141E-02
        -0.16093E-02
        -0.11954E-02
        -0.59095E-03
         0.20384E-03
         0.10546E-02
         0.18419E-02
         0.24560E-02
         0.26031E-02
         0.37964E-02
         0.39100E-02
         0.34621E-02
         0.29267E-02
         0.22211E-02
         0.13865E-02
         0.47130E-03
        -0.47130E-03
        -0.13865E-02
        -0.22211E-02
        -0.29267E-02
        -0.34621E-02
        -0.37964E-02
        -0.39100E-02
        -0.37964E-02
        -0.34621E-02
        -0.29267E-02
        -0.22211E-02
        -0.13865E-02
        -0.47130E-03
         0.47130E-03
         0.13865E-02
         0.22211E-02
         0.29267E-02
         0.34621E-02
         0.37964E-02
         0.10362E-02
         0.17427E-02
         0.23160E-02
         0.16668E-02
         0.30373E-02
         0.27839E-02
         0.12836E-02
         0.64796E-03
         0.12390E-03
        -0.13082E-03
         0.94036E-03
         0.11279E-02
         0.17435E-02
         0.40512E-03
         0.39755E-03
        -0.76798E-03
        -0.86756E-03
         0.45492E-03
        -0.18341E-02
        -0.18427E-02
        -0.27234E-02
        -0.27990E-02
        -0.25386E-02
        -0.19347E-02
        -0.99161E-03
        -0.14429E-02
        -0.31294E-03
        -0.11019E-02
        -0.18838E-02
        -0.18695E-02
        -0.16256E-03
        -0.94927E-03
         0.77931E-03
         0.17205E-02
         0.32096E-02
         0.28043E-02
         0.23043E-02
        -0.40420E-03
        -0.12093E-02
        -0.19443E-02
        -0.25024E-02
        -0.26358E-02
        -0.27627E-02
        -0.21143E-02
        -0.16093E-02
        -0.11955E-02
        -0.59130E-03
         0.20343E-03
         0.10543E-02
         0.18419E-02
         0.24561E-02
         0.26032E-02
         0.37964E-02
         0.39100E-02
         0.34621E-02
         0.29267E-02
         0.22211E-02
         0.13865E-02
         0.47130E-03
        -0.47130E-03
        -0.13865E-02
        -0.22211E-02
        -0.29267E-02
        -0.34621E-02
        -0.37964E-02
        -0.39100E-02
        -0.37964E-02
        -0.34621E-02
        -0.29267E-02
        -0.22211E-02
        -0.13865E-02
        -0.47130E-03
         0.47130E-03
         0.13865E-02
         0.22211E-02
         0.29267E-02
         0.34621E-02
         0.37964E-02
         0.10360E-02
         0.17425E-02
         0.23158E-02
         0.16666E-02
         0.30373E-02
         0.27842E-02
         0.12835E-02
         0.64771E-03
         0.12363E-03
        -0.13100E-03
         0.94003E-03
         0.11276E-02
         0.17432E-02
         0.40507E-03
         0.39754E-03
        -0.76834E-03
        -0.86767E-03
         0.45447E-03
        -0.18344E-02
        -0.18426E-02
        -0.27234E-02
        -0.27987E-02
        -0.25388E-02
        -0.19352E-02
        -0.99147E-03
        -0.14433E-02
        -0.31274E-03
        -0.11016E-02
        -0.18838E-02
        -0.18694E-02
        -0.16284E-03
        -0.94986E-03
         0.77865E-03
         0.17205E-02
         0.32099E-02
         0.28042E-02
         0.23042E-02
        -0.40407E-03
        -0.12093E-02
        -0.19442E-02
        -0.25024E-02
        -0.26358E-02
        -0.27624E-02
        -0.21144E-02
        -0.16094E-02
        -0.11956E-02
        -0.59165E-03
         0.20302E-03
         0.10540E-02
         0.18419E-02
         0.24563E-02
         0.26033E-02
         0.37964E-02
         0.39100E-02
         0.34621E-02
         0.29267E-02
         0.22211E-02
         0.13865E-02
         0.47130E-03
        -0.47130E-03
        -0.13865E-02
        -0.22211E-02
        -0.29267E-02
        -0.34621E-02
        -0.37964E-02
        -0.39100E-02
        -0.37964E-02
        -0.34621E-02
        -0.29267E-02
        -0.22211E-02
        -0.13865E-02
        -0.47130E-03
         0.47130E-03
         0.13865E-02
         0.22211E-02
         0.29267E-02
         0.34621E-02
         0.37964E-02
         0.10359E-02
         0.17423E-02
         0.23157E-02
         0.16664E-02
         0.30373E-02
         0.27846E-02
         0.12834E-02
         0.64747E-03
         0.12337E-03
        -0.13118E-03
         0.93970E-03
         0.11272E-02
         0.17428E-02
         0.40501E-03
         0.39752E-03
        -0.76869E-03
        -0.86778E-03
         0.45402E-03
        -0.18347E-02
        -0.18425E-02
        -0.27234E-02
        -0.27984E-02
        -0.25389E-02
        -0.19356E-02
        -0.99133E-03
        -0.14436E-02
        -0.31254E-03
        -0.11013E-02
        -0.18837E-02
        -0.18692E-02
        -0.16311E-03
        -0.95046E-03
         0.77799E-03
         0.17204E-02
         0.32102E-02
         0.28042E-02
         0.23041E-02
        -0.40393E-03
        -0.12093E-02
        -0.19442E-02
        -0.25024E-02
        -0.26357E-02
        -0.27621E-02
        -0.21146E-02
        -0.16094E-02
        -0.11957E-02
        -0.59200E-03
         0.20262E-03
         0.10536E-02
         0.18420E-02
         0.24564E-02
         0.26033E-02
         0.37964E-02
         0.39100E-02
         0.34621E-02
         0.29267E-02
         0.22211E-02
         0.13865E-02
         0.47130E-03
        -0.47130E-03
        -0.13865E-02
        -0.22211E-02
        -0.29267E-02
        -0.34621E-02
        -0.37964E-02
        -0.39100E-02
        -0.37964E-02
        -0.34621E-02
        -0.29267E-02
        -0.22211E-02
        -0.13865E-02
        -0.47130E-03
         0.47130E-03
         0.13865E-02
         0.22211E-02
         0.29267E-02
         0.34621E-02
         0.37964E-02
         0.10358E-02
         0.17422E-02
         0.23156E-02
         0.16662E-02
         0.30373E-02
         0.27849E-02
         0.12833E-02
         0.64722E-03
         0.12311E-03
        -0.13137E-03
         0.93937E-03
         0.11269E-02
         0.17424E-02
         0.40496E-03
         0.39750E-03
        -0.76904E-03
        -0.86789E-03
         0.45358E-03
        -0.18350E-02
        -0.18424E-02
        -0.27233E-02
        -0.27981E-02
        -0.25391E-02
        -0.19360E-02
        -0.99118E-03
        -0.14440E-02
        -0.31234E-03
        -0.11009E-02
        -0.18836E-02
        -0.18691E-02
        -0.16339E-03
        -0.95106E-03
         0.77733E-03
         0.17204E-02
         0.32105E-02
         0.28042E-02
         0.23040E-02
        -0.40379E-03
        -0.12093E-02
        -0.19441E-02
        -0.25023E-02
        -0.26356E-02
        -0.27618E-02
        -0.21147E-02
        -0.16094E-02
        -0.11958E-02
        -0.59235E-03
         0.20221E-03
         0.10533E-02
         0.18420E-02
         0.24565E-02
         0.26034E-02
         0.37964E-02
         0.39100E-02
         0.34621E-02
         0.29267E-02
         0.22211E-02
         0.13865E-02
         0.47130E-03
        -0.47130E-03
        -0.13865E-02
        -0.22211E-02
        -0.29267E-02
        -0.34621E-02
        -0.37964E-02
        -0.39100E-02
        -0.37964E-02
        -0.34621E-02
        -0.29267E-02
        -0.22211E-02
        -0.13865E-02
        -0.47130E-03
         0.47130E-03
         0.13865E-02
         0.22211E-02
         0.29267E-02
         0.34621E-02
         0.37964E-02
         0.10357E-02
         0.17420E-02
         0.23155E-02
         0.16660E-02
         0.30372E-02
         0.27853E-02
         0.12832E-02
         0.64698E-03
         0.12285E-03
        -0.13155E-03
         0.93903E-03
         0.11266E-02
         0.17420E-02
         0.40490E-03
         0.39749E-03
        -0.76940E-03
        -0.86800E-03
         0.45313E-03
        -0.18353E-02
        -0.18423E-02
        -0.27233E-02
        -0.27979E-02
        -0.25393E-02
        -0.19365E-02
        -0.99104E-03
        -0.14443E-02
        -0.31214E-03
        -0.11006E-02
        -0.18836E-02
        -0.18690E-02
        -0.16366E-03
        -0.95166E-03
         0.77667E-03
         0.17203E-02
         0.32109E-02
         0.28042E-02
         0.23039E-02
        -0.40365E-03
        -0.12093E-02
        -0.19441E-02
        -0.25023E-02
        -0.26355E-02
        -0.27615E-02
        -0.21148E-02
        -0.16095E-02
        -0.11960E-02
        -0.59270E-03
         0.20180E-03
         0.10530E-02
         0.18421E-02
         0.24566E-02
         0.26035E-02
         0.37964E-02
         0.39100E-02
         0.34621E-02
         0.29267E-02
         0.22211E-02
         0.13865E-02
         0.47130E-03
        -0.47130E-03
        -0.13865E-02
        -0.22211E-02
        -0.29267E-02
        -0.34621E-02
        -0.37964E-02
        -0.39100E-02
        -0.37964E-02
        -0.34621E-02
        -0.29267E-02
        -0.22211E-02
        -0.13865E-02
        -0.47130E-03
         0.47130E-03
         0.13865E-02
         0.22211E-02
         0.29267E-02
         0.34621E-02
         0.37964E-02
         0.10356E-02
         0.17418E-02
         0.23153E-02
         0.16657E-02
         0.30372E-02
         0.27856E-02
         0.12830E-02
         0.64673E-03
         0.12259E-03
        -0.13174E-03
         0.93870E-03
         0.11262E-02
         0.17416E-02
         0.40485E-03
         0.39747E-03
        -0.76975E-03
        -0.86811E-03
         0.45268E-03
        -0.18356E-02
        -0.18422E-02
        -0.27233E-02
        -0.27976E-02
        -0.25394E-02
        -0.19369E-02
        -0.99090E-03
        -0.14446E-02
        -0.31194E-03
        -0.11002E-02
        -0.18835E-02
        -0.18689E-02
        -0.16394E-03
        -0.95226E-03
         0.77601E-03
         0.17203E-02
         0.32112E-02
         0.28042E-02
         0.23038E-02
        -0.40352E-03
        -0.12093E-02
        -0.19441E-02
        -0.25023E-02
        -0.26354E-02
        -0.27612E-02
        -0.21150E-02
        -0.16095E-02
        -0.11961E-02
        -0.59305E-03
         0.20140E-03
         0.10527E-02
         0.18421E-02
         0.24568E-02
         0.26036E-02
         0.37964E-02
         0.39100E-02
         0.34621E-02
         0.29267E-02
         0.22211E-02
         0.13865E-02
         0.47130E-03
        -0.47130E-03
        -0.13865E-02
        -0.22211E-02
        -0.29267E-02
        -0.34621E-02
        -0.37964E-02
        -0.39100E-02
        -0.37964E-02
        -0.34621E-02
        -0.29267E-02
        -0.22211E-02
        -0.13865E-02
        -0.47130E-03
         0.47130E-03
         0.13865E-02
         0.22211E-02
         0.29267E-02
         0.34621E-02
         0.37964E-02
         0.10355E-02
         0.17416E-02
         0.23152E-02
         0.16655E-02
         0.30372E-02
         0.27860E-02
         0.12829E-02
         0.64649E-03
         0.12232E-03
        -0.13193E-03
         0.93837E-03
         0.11259E-02
         0.17412E-02
         0.40480E-03
         0.39745E-03
        -0.77011E-03
        -0.86822E-03
         0.45223E-03
        -0.18359E-02
        -0.18421E-02
        -0.27232E-02
        -0.27973E-02
        -0.25396E-02
        -0.19373E-02
        -0.99075E-03
        -0.14450E-02
        -0.31173E-03
        -0.10999E-02
        -0.18835E-02
        -0.18687E-02
        -0.16421E-03
        -0.95285E-03
         0.77535E-03
         0.17202E-02
         0.32115E-02
         0.28041E-02
         0.23037E-02
        -0.40338E-03
        -0.12093E-02
        -0.19440E-02
        -0.25023E-02
        -0.26353E-02
        -0.27609E-02
        -0.21151E-02
        -0.16096E-02
        -0.11962E-02
        -0.59340E-03
         0.20099E-03
         0.10524E-02
         0.18422E-02
         0.24569E-02
         0.26036E-02
         0.37964E-02
         0.39100E-02
         0.34621E-02
         0.29267E-02
         0.22211E-02
         0.13865E-02
         0.47130E-03
        -0.47130E-03
        -0.13865E-02
        -0.22211E-02
        -0.29267E-02
        -0.34621E-02
        -0.37964E-02
        -0.39100E-02
        -0.37964E-02
        -0.34621E-02
        -0.29267E-02
        -0.22211E-02
        -0.13865E-02
        -0.47130E-03
         0.47130E-03
         0.13865E-02
         0.22211E-02
         0.29267E-02
         0.34621E-02
         0.37964E-02
         0.10354E-02
         0.17414E-02
         0.23151E-02
         0.16653E-02
         0.30372E-02
         0.27863E-02
         0.12829E-02
         0.64624E-03
         0.12206E-03
        -0.13211E-03
         0.93804E-03
         0.11255E-02
         0.17408E-02
         0.40474E-03
         0.39744E-03
        -0.77046E-03
        -0.86832E-03
         0.45179E-03
        -0.18362E-02
        -0.18420E-02
        -0.27232E-02
        -0.27970E-02
        -0.25397E-02
        -0.19377E-02
        -0.99061E-03
        -0.14453E-02
        -0.31153E-03
        -0.10995E-02
        -0.18834E-02
        -0.18686E-02
        -0.16449E-03
        -0.95345E-03
         0.77469E-03
         0.17202E-02
         0.32119E-02
         0.28041E-02
         0.23036E-02
        -0.40324E-03
        -0.12093E-02
        -0.19440E-02
        -0.25022E-02
        -0.26352E-02
        -0.27606E-02
        -0.21152E-02
        -0.16096E-02
        -0.11963E-02
        -0.59375E-03
         0.20059E-03
         0.10521E-02
         0.18422E-02
         0.24570E-02
         0.26037E-02
         0.37964E-02
         0.39100E-02
         0.34621E-02
         0.29267E-02
         0.22211E-02
         0.13865E-02
         0.47130E-03
        -0.47130E-03
        -0.13865E-02
        -0.22211E-02
        -0.29267E-02
        -0.34621E-02
        -0.37964E-02
        -0.39100E-02
        -0.37964E-02
        -0.34621E-02
        -0.29267E-02
        -0.22211E-02
        -0.13865E-02
        -0.47130E-03
         0.47130E-03
         0.13865E-02
         0.22211E-02
         0.29267E-02
         0.34621E-02
         0.37964E-02
         0.10352E-02
         0.17413E-02
         0.23150E-02
         0.16651E-02
         0.30371E-02
         0.27866E-02
         0.12827E-02
         0.64600E-03
         0.12180E-03
        -0.13230E-03
         0.93771E-03
         0.11252E-02
         0.17404E-02
         0.40469E-03
         0.39742E-03
        -0.77081E-03
        -0.86843E-03
         0.45134E-03
        -0.18365E-02
        -0.18419E-02
        -0.27232E-02
        -0.27968E-02
        -0.25399E-02
        -0.19382E-02
        -0.99046E-03
        -0.14457E-02
        -0.31133E-03
        -0.10992E-02
        -0.18834E-02
        -0.18685E-02
        -0.16476E-03
        -0.95405E-03
         0.77402E-03
         0.17202E-02
         0.32122E-02
         0.28041E-02
         0.23034E-02
        -0.40310E-03
        -0.12093E-02
        -0.19440E-02
        -0.25022E-02
        -0.26351E-02
        -0.27602E-02
        -0.21154E-02
        -0.16097E-02
        -0.11964E-02
        -0.59409E-03
         0.20018E-03
         0.10518E-02
         0.18422E-02
         0.24571E-02
         0.26038E-02
         0.37964E-02
         0.39100E-02
         0.34621E-02
         0.29267E-02
         0.22211E-02
         0.13865E-02
         0.47130E-03
        -0.47130E-03
        -0.13865E-02
        -0.22211E-02
        -0.29267E-02
        -0.34621E-02
        -0.37964E-02
        -0.39100E-02
        -0.37964E-02
        -0.34621E-02
        -0.29267E-02
        -0.22211E-02
        -0.13865E-02
        -0.47130E-03
         0.47130E-03
         0.13865E-02
         0.22211E-02
         0.29267E-02
         0.34621E-02
         0.37964E-02
         0.10351E-02
         0.17411E-02
         0.23149E-02
         0.16649E-02
         0.30371E-02
         0.27870E-02
         0.12826E-02
         0.64575E-03
         0.12154E-03
        -0.13248E-03
         0.93738E-03
         0.11249E-02
         0.17400E-02
         0.40463E-03
         0.39740E-03
        -0.77117E-03
        -0.86854E-03
         0.45089E-03
        -0.18368E-02
        -0.18418E-02
        -0.27232E-02
        -0.27965E-02
        -0.25400E-02
        -0.19386E-02
        -0.99032E-03
        -0.14460E-02
        -0.31113E-03
        -0.10988E-02
        -0.18833E-02
        -0.18683E-02
        -0.16504E-03
        -0.95465E-03
         0.77336E-03
         0.17201E-02
         0.32125E-02
         0.28041E-02
         0.23033E-02
        -0.40296E-03
        -0.12093E-02
        -0.19439E-02
        -0.25022E-02
        -0.26350E-02
        -0.27599E-02
        -0.21155E-02
        -0.16097E-02
        -0.11965E-02
        -0.59444E-03
         0.19977E-03
         0.10515E-02
         0.18423E-02
         0.24573E-02
         0.26039E-02
         0.37964E-02
         0.39100E-02
         0.34621E-02
         0.29267E-02
         0.22211E-02
         0.13865E-02
         0.47130E-03
        -0.47130E-03
        -0.13865E-02
        -0.22211E-02
        -0.29267E-02
        -0.34621E-02
        -0.37964E-02
        -0.39100E-02
        -0.37964E-02
        -0.34621E-02
        -0.29267E-02
        -0.22211E-02
        -0.13865E-02
        -0.47130E-03
         0.47130E-03
         0.13865E-02
         0.22211E-02
         0.29267E-02
         0.34621E-02
         0.37964E-02
  
SCALARS           initial_coordinate_y  double 1
LOOKUP_TABLE default
         0.67292E-03
         0.12308E-02
         0.59151E-03
        -0.33775E-03
         0.67237E-03
         0.12301E-02
         0.59098E-03
        -0.33851E-03
         0.14882E-03
        -0.67643E-03
         0.14846E-03
        -0.67692E-03
         0.18412E-02
         0.14576E-02
         0.18410E-02
         0.14566E-02
         0.29933E-03
         0.11672E-02
         0.29819E-03
         0.11655E-02
         0.22748E-02
         0.28286E-02
         0.24238E-02
         0.22746E-02
         0.28291E-02
         0.24236E-02
         0.21685E-02
         0.29366E-02
         0.21684E-02
         0.29369E-02
        -0.10033E-02
         0.78969E-04
        -0.70318E-03
        -0.10032E-02
         0.78160E-04
        -0.70391E-03
        -0.71196E-03
         0.82749E-04
        -0.71210E-03
         0.82626E-04
        -0.77865E-03
         0.40713E-04
        -0.77882E-03
         0.40439E-04
        -0.15195E-02
        -0.13230E-02
        -0.15195E-02
        -0.13231E-02
         0.98847E-03
         0.98712E-03
        -0.17325E-02
        -0.17325E-02
         0.20220E-02
         0.20217E-02
         0.18615E-02
         0.18616E-02
         0.17175E-02
         0.90940E-03
         0.17175E-02
         0.90916E-03
        -0.19800E-02
        -0.23489E-02
        -0.19800E-02
        -0.23489E-02
        -0.17074E-02
        -0.17074E-02
        -0.14894E-02
        -0.14892E-02
         0.76036E-03
         0.12477E-02
         0.75936E-03
         0.12473E-02
         0.18665E-02
         0.18664E-02
         0.29038E-02
         0.29049E-02
         0.27207E-02
         0.27212E-02
         0.24642E-02
         0.24645E-02
         0.22359E-02
         0.16503E-02
         0.22359E-02
         0.16503E-02
         0.87493E-03
         0.87466E-03
        -0.21373E-02
        -0.21373E-02
        -0.26931E-02
        -0.26931E-02
        -0.31291E-02
        -0.30382E-02
        -0.31291E-02
        -0.30382E-02
        -0.28748E-02
        -0.28748E-02
        -0.26423E-02
        -0.26420E-02
        -0.23707E-02
        -0.23705E-02
        -0.21445E-02
        -0.15105E-02
        -0.21439E-02
        -0.15106E-02
         0.93572E-03
         0.00000E+00
         0.93572E-03
         0.00000E+00
         0.18171E-02
         0.18171E-02
         0.25928E-02
         0.25928E-02
         0.32179E-02
         0.32179E-02
         0.36559E-02
         0.36559E-02
         0.38815E-02
         0.38815E-02
         0.38815E-02
         0.38815E-02
         0.36559E-02
         0.36559E-02
         0.32179E-02
         0.32179E-02
         0.25928E-02
         0.25928E-02
         0.18171E-02
         0.18171E-02
         0.93572E-03
         0.93572E-03
         0.22152E-17
        -0.47884E-18
        -0.93572E-03
        -0.93572E-03
        -0.18171E-02
        -0.18171E-02
        -0.25928E-02
        -0.25928E-02
        -0.32179E-02
        -0.32179E-02
        -0.36559E-02
        -0.36559E-02
        -0.38815E-02
        -0.38815E-02
        -0.38815E-02
        -0.38815E-02
        -0.36559E-02
        -0.36559E-02
        -0.32179E-02
        -0.32179E-02
        -0.25928E-02
        -0.25928E-02
        -0.18171E-02
        -0.18171E-02
        -0.93572E-03
        -0.93572E-03
         0.67348E-03
         0.12314E-02
         0.59203E-03
        -0.33700E-03
         0.14918E-03
        -0.67594E-03
         0.18414E-02
         0.14586E-02
         0.30048E-03
         0.11690E-02
         0.22749E-02
         0.28282E-02
         0.24239E-02
         0.21685E-02
         0.29364E-02
        -0.10035E-02
         0.79778E-04
        -0.70245E-03
        -0.71182E-03
         0.82873E-04
        -0.77848E-03
         0.40986E-04
        -0.15194E-02
        -0.13228E-02
         0.98983E-03
        -0.17324E-02
         0.20223E-02
         0.18614E-02
         0.17175E-02
         0.90964E-03
        -0.19800E-02
        -0.23489E-02
        -0.17074E-02
        -0.14896E-02
         0.76137E-03
         0.12481E-02
         0.18665E-02
         0.29027E-02
         0.27202E-02
         0.24640E-02
         0.22359E-02
         0.16503E-02
         0.87519E-03
        -0.21373E-02
        -0.26932E-02
        -0.31291E-02
        -0.30382E-02
        -0.28748E-02
        -0.26426E-02
        -0.23709E-02
        -0.21450E-02
        -0.15104E-02
         0.93572E-03
         0.00000E+00
         0.18171E-02
         0.25928E-02
         0.32179E-02
         0.36559E-02
         0.38815E-02
         0.38815E-02
         0.36559E-02
         0.32179E-02
         0.25928E-02
         0.18171E-02
         0.93572E-03
        -0.47884E-18
        -0.93572E-03
        -0.18171E-02
        -0.25928E-02
        -0.32179E-02
        -0.36559E-02
        -0.38815E-02
        -0.38815E-02
        -0.36559E-02
        -0.32179E-02
        -0.25928E-02
        -0.18171E-02
        -0.93572E-03
         0.67403E-03
         0.12321E-02
         0.59255E-03
        -0.33624E-03
         0.14955E-03
        -0.67544E-03
         0.18415E-02
         0.14596E-02
         0.30163E-03
         0.11707E-02
         0.22750E-02
         0.28277E-02
         0.24241E-02
         0.21685E-02
         0.29361E-02
        -0.10036E-02
         0.80588E-04
        -0.70173E-03
        -0.71168E-03
         0.82996E-04
        -0.77831E-03
         0.41259E-04
        -0.15194E-02
        -0.13227E-02
         0.99119E-03
        -0.17324E-02
         0.20226E-02
         0.18613E-02
         0.17175E-02
         0.90988E-03
        -0.19801E-02
        -0.23490E-02
        -0.17074E-02
        -0.14899E-02
         0.76237E-03
         0.12485E-02
         0.18666E-02
         0.29017E-02
         0.27198E-02
         0.24638E-02
         0.22359E-02
         0.16503E-02
         0.87545E-03
        -0.21374E-02
        -0.26932E-02
        -0.31291E-02
        -0.30382E-02
        -0.28748E-02
        -0.26428E-02
        -0.23711E-02
        -0.21456E-02
        -0.15103E-02
         0.93572E-03
         0.00000E+00
         0.18171E-02
         0.25928E-02
         0.32179E-02
         0.36559E-02
         0.38815E-02
         0.38815E-02
         0.36559E-02
         0.32179E-02
         0.25928E-02
         0.18171E-02
         0.93572E-03
         0.39516E-17
        -0.93572E-03
        -0.18171E-02
        -0.25928E-02
        -0.32179E-02
        -0.36559E-02
        -0.38815E-02
        -0.38815E-02
        -0.36559E-02
        -0.32179E-02
        -0.25928E-02
        -0.18171E-02
        -0.93572E-03
         0.67459E-03
         0.12328E-02
         0.59308E-03
        -0.33549E-03
         0.14991E-03
        -0.67495E-03
         0.18417E-02
         0.14606E-02
         0.30278E-03
         0.11725E-02
         0.22752E-02
         0.28273E-02
         0.24242E-02
         0.21686E-02
         0.29359E-02
        -0.10038E-02
         0.81397E-04
        -0.70100E-03
        -0.71154E-03
         0.83120E-04
        -0.77814E-03
         0.41533E-04
        -0.15193E-02
        -0.13227E-02
         0.99254E-03
        -0.17324E-02
         0.20228E-02
         0.18611E-02
         0.17175E-02
         0.91012E-03
        -0.19801E-02
        -0.23490E-02
        -0.17074E-02
        -0.14901E-02
         0.76338E-03
         0.12490E-02
         0.18666E-02
         0.29006E-02
         0.27193E-02
         0.24636E-02
         0.22359E-02
         0.16503E-02
         0.87571E-03
        -0.21374E-02
        -0.26932E-02
        -0.31291E-02
        -0.30382E-02
        -0.28748E-02
        -0.26431E-02
        -0.23713E-02
        -0.21461E-02
        -0.15102E-02
         0.93572E-03
         0.00000E+00
         0.18171E-02
         0.25928E-02
         0.32179E-02
         0.36559E-02
         0.38815E-02
         0.38815E-02
         0.36559E-02
         0.32179E-02
         0.25928E-02
         0.18171E-02
         0.93572E-03
        -0.47884E-18
        -0.93572E-03
        -0.18171E-02
        -0.25928E-02
        -0.32179E-02
        -0.36559E-02
        -0.38815E-02
        -0.38815E-02
        -0.36559E-02
        -0.32179E-02
        -0.25928E-02
        -0.18171E-02
        -0.93572E-03
         0.67514E-03
         0.12334E-02
         0.59360E-03
        -0.33474E-03
         0.15027E-03
        -0.67446E-03
         0.18419E-02
         0.14616E-02
         0.30393E-03
         0.11742E-02
         0.22753E-02
         0.28269E-02
         0.24244E-02
         0.21686E-02
         0.29356E-02
        -0.10039E-02
         0.82206E-04
        -0.70028E-03
        -0.71140E-03
         0.83243E-04
        -0.77797E-03
         0.41806E-04
        -0.15193E-02
        -0.13226E-02
         0.99390E-03
        -0.17323E-02
         0.20231E-02
         0.18610E-02
         0.17175E-02
         0.91036E-03
        -0.19801E-02
        -0.23490E-02
        -0.17074E-02
        -0.14904E-02
         0.76439E-03
         0.12494E-02
         0.18666E-02
         0.28995E-02
         0.27188E-02
         0.24633E-02
         0.22359E-02
         0.16503E-02
         0.87597E-03
        -0.21374E-02
        -0.26932E-02
        -0.31291E-02
        -0.30382E-02
        -0.28748E-02
        -0.26434E-02
        -0.23715E-02
        -0.21467E-02
        -0.15101E-02
         0.93572E-03
         0.00000E+00
         0.18171E-02
         0.25928E-02
         0.32179E-02
         0.36559E-02
         0.38815E-02
         0.38815E-02
         0.36559E-02
         0.32179E-02
         0.25928E-02
         0.18171E-02
         0.93572E-03
        -0.47884E-18
        -0.93572E-03
        -0.18171E-02
        -0.25928E-02
        -0.32179E-02
        -0.36559E-02
        -0.38815E-02
        -0.38815E-02
        -0.36559E-02
        -0.32179E-02
        -0.25928E-02
        -0.18171E-02
        -0.93572E-03
         0.67570E-03
         0.12341E-02
         0.59412E-03
        -0.33398E-03
         0.15064E-03
        -0.67396E-03
         0.18421E-02
         0.14626E-02
         0.30507E-03
         0.11760E-02
         0.22754E-02
         0.28264E-02
         0.24245E-02
         0.21686E-02
         0.29353E-02
        -0.10040E-02
         0.83015E-04
        -0.69955E-03
        -0.71126E-03
         0.83367E-04
        -0.77780E-03
         0.42080E-04
        -0.15192E-02
        -0.13224E-02
         0.99526E-03
        -0.17323E-02
         0.20234E-02
         0.18609E-02
         0.17175E-02
         0.91060E-03
        -0.19801E-02
        -0.23490E-02
        -0.17074E-02
        -0.14906E-02
         0.76539E-03
         0.12498E-02
         0.18667E-02
         0.28984E-02
         0.27184E-02
         0.24631E-02
         0.22359E-02
         0.16503E-02
         0.87623E-03
        -0.21374E-02
        -0.26932E-02
        -0.31291E-02
        -0.30382E-02
        -0.28748E-02
        -0.26436E-02
        -0.23717E-02
        -0.21472E-02
        -0.15100E-02
         0.93572E-03
         0.00000E+00
         0.18171E-02
         0.25928E-02
         0.32179E-02
         0.36559E-02
         0.38815E-02
         0.38815E-02
         0.36559E-02
         0.32179E-02
         0.25928E-02
         0.18171E-02
         0.93572E-03
        -0.47884E-18
        -0.93572E-03
        -0.18171E-02
        -0.25928E-02
        -0.32179E-02
        -0.36559E-02
        -0.38815E-02
        -0.38815E-02
        -0.36559E-02
        -0.32179E-02
        -0.25928E-02
        -0.18171E-02
        -0.93572E-03
         0.67625E-03
         0.12348E-02
         0.59465E-03
        -0.33323E-03
         0.15100E-03
        -0.67347E-03
         0.18423E-02
         0.14636E-02
         0.30622E-03
         0.11777E-02
         0.22755E-02
         0.28260E-02
         0.24247E-02
         0.21687E-02
         0.29351E-02
        -0.10042E-02
         0.83825E-04
        -0.69882E-03
        -0.71112E-03
         0.83490E-04
        -0.77763E-03
         0.42353E-04
        -0.15192E-02
        -0.13223E-02
         0.99661E-03
        -0.17322E-02
         0.20237E-02
         0.18607E-02
         0.17175E-02
         0.91084E-03
        -0.19801E-02
        -0.23491E-02
        -0.17074E-02
        -0.14909E-02
         0.76640E-03
         0.12503E-02
         0.18667E-02
         0.28974E-02
         0.27179E-02
         0.24629E-02
         0.22359E-02
         0.16503E-02
         0.87650E-03
        -0.21374E-02
        -0.26933E-02
        -0.31291E-02
        -0.30382E-02
        -0.28749E-02
        -0.26439E-02
        -0.23719E-02
        -0.21478E-02
        -0.15099E-02
         0.93572E-03
         0.00000E+00
         0.18171E-02
         0.25928E-02
         0.32179E-02
         0.36559E-02
         0.38815E-02
         0.38815E-02
         0.36559E-02
         0.32179E-02
         0.25928E-02
         0.18171E-02
         0.93572E-03
        -0.47884E-18
        -0.93572E-03
        -0.18171E-02
        -0.25928E-02
        -0.32179E-02
        -0.36559E-02
        -0.38815E-02
        -0.38815E-02
        -0.36559E-02
        -0.32179E-02
        -0.25928E-02
        -0.18171E-02
        -0.93572E-03
         0.67680E-03
         0.12354E-02
         0.59517E-03
        -0.33247E-03
         0.15136E-03
        -0.67298E-03
         0.18425E-02
         0.14646E-02
         0.30737E-03
         0.11795E-02
         0.22757E-02
         0.28255E-02
         0.24248E-02
         0.21687E-02
         0.29348E-02
        -0.10043E-02
         0.84634E-04
        -0.69810E-03
        -0.71098E-03
         0.83614E-04
        -0.77746E-03
         0.42626E-04
        -0.15191E-02
        -0.13223E-02
         0.99797E-03
        -0.17322E-02
         0.20240E-02
         0.18606E-02
         0.17175E-02
         0.91108E-03
        -0.19802E-02
        -0.23491E-02
        -0.17074E-02
        -0.14911E-02
         0.76740E-03
         0.12507E-02
         0.18668E-02
         0.28963E-02
         0.27174E-02
         0.24627E-02
         0.22358E-02
         0.16503E-02
         0.87676E-03
        -0.21374E-02
        -0.26933E-02
        -0.31291E-02
        -0.30382E-02
        -0.28749E-02
        -0.26442E-02
        -0.23721E-02
        -0.21483E-02
        -0.15097E-02
         0.93572E-03
         0.00000E+00
         0.18171E-02
         0.25928E-02
         0.32179E-02
         0.36559E-02
         0.38815E-02
         0.38815E-02
         0.36559E-02
         0.32179E-02
         0.25928E-02
         0.18171E-02
         0.93572E-03
        -0.47884E-18
        -0.93572E-03
        -0.18171E-02
        -0.25928E-02
        -0.32179E-02
        -0.36559E-02
        -0.38815E-02
        -0.38815E-02
        -0.36559E-02
        -0.32179E-02
        -0.25928E-02
        -0.18171E-02
        -0.93572E-03
         0.67736E-03
         0.12361E-02
         0.59570E-03
        -0.33172E-03
         0.15173E-03
        -0.67248E-03
         0.18427E-02
         0.14656E-02
         0.30852E-03
         0.11812E-02
         0.22758E-02
         0.28251E-02
         0.24249E-02
         0.21688E-02
         0.29345E-02
        -0.10044E-02
         0.85443E-04
        -0.69737E-03
        -0.71084E-03
         0.83737E-04
        -0.77729E-03
         0.42899E-04
        -0.15191E-02
        -0.13222E-02
         0.99932E-03
        -0.17322E-02
         0.20243E-02
         0.18605E-02
         0.17175E-02
         0.91132E-03
        -0.19802E-02
        -0.23491E-02
        -0.17074E-02
        -0.14914E-02
         0.76841E-03
         0.12511E-02
         0.18668E-02
         0.28952E-02
         0.27170E-02
         0.24624E-02
         0.22358E-02
         0.16503E-02
         0.87702E-03
        -0.21374E-02
        -0.26933E-02
        -0.31291E-02
        -0.30382E-02
        -0.28749E-02
        -0.26444E-02
        -0.23723E-02
        -0.21489E-02
        -0.15096E-02
         0.93572E-03
         0.00000E+00
         0.18171E-02
         0.25928E-02
         0.32179E-02
         0.36559E-02
         0.38815E-02
         0.38815E-02
         0.36559E-02
         0.32179E-02
         0.25928E-02
         0.18171E-02
         0.93572E-03
        -0.47884E-18
        -0.93572E-03
        -0.18171E-02
        -0.25928E-02
        -0.32179E-02
        -0.36559E-02
        -0.38815E-02
        -0.38815E-02
        -0.36559E-02
        -0.32179E-02
        -0.25928E-02
        -0.18171E-02
        -0.93572E-03
         0.67791E-03
         0.12368E-02
         0.59622E-03
        -0.33096E-03
         0.15209E-03
        -0.67199E-03
         0.18429E-02
         0.14666E-02
         0.30967E-03
         0.11830E-02
         0.22759E-02
         0.28247E-02
         0.24251E-02
         0.21688E-02
         0.29343E-02
        -0.10046E-02
         0.86253E-04
        -0.69665E-03
        -0.71070E-03
         0.83861E-04
        -0.77712E-03
         0.43173E-04
        -0.15190E-02
        -0.13220E-02
         0.10007E-02
        -0.17321E-02
         0.20245E-02
         0.18603E-02
         0.17175E-02
         0.91156E-03
        -0.19802E-02
        -0.23491E-02
        -0.17074E-02
        -0.14916E-02
         0.76941E-03
         0.12515E-02
         0.18668E-02
         0.28942E-02
         0.27165E-02
         0.24622E-02
         0.22358E-02
         0.16503E-02
         0.87728E-03
        -0.21374E-02
        -0.26933E-02
        -0.31291E-02
        -0.30382E-02
        -0.28749E-02
        -0.26447E-02
        -0.23725E-02
        -0.21494E-02
        -0.15095E-02
         0.93572E-03
         0.00000E+00
         0.18171E-02
         0.25928E-02
         0.32179E-02
         0.36559E-02
         0.38815E-02
         0.38815E-02
         0.36559E-02
         0.32179E-02
         0.25928E-02
         0.18171E-02
         0.93572E-03
        -0.47884E-18
        -0.93572E-03
        -0.18171E-02
        -0.25928E-02
        -0.32179E-02
        -0.36559E-02
        -0.38815E-02
        -0.38815E-02
        -0.36559E-02
        -0.32179E-02
        -0.25928E-02
        -0.18171E-02
        -0.93572E-03
         0.67847E-03
         0.12374E-02
         0.59674E-03
        -0.33021E-03
         0.15245E-03
        -0.67150E-03
         0.18430E-02
         0.14676E-02
         0.31081E-03
         0.11847E-02
         0.22761E-02
         0.28242E-02
         0.24252E-02
         0.21688E-02
         0.29340E-02
        -0.10047E-02
         0.87062E-04
        -0.69592E-03
        -0.71056E-03
         0.83985E-04
        -0.77695E-03
         0.43446E-04
        -0.15190E-02
        -0.13219E-02
         0.10020E-02
        -0.17321E-02
         0.20248E-02
         0.18602E-02
         0.17175E-02
         0.91180E-03
        -0.19803E-02
        -0.23491E-02
        -0.17073E-02
        -0.14919E-02
         0.77042E-03
         0.12520E-02
         0.18669E-02
         0.28931E-02
         0.27160E-02
         0.24620E-02
         0.22358E-02
         0.16503E-02
         0.87754E-03
        -0.21374E-02
        -0.26933E-02
        -0.31291E-02
        -0.30382E-02
        -0.28749E-02
        -0.26450E-02
        -0.23727E-02
        -0.21500E-02
        -0.15094E-02
         0.93572E-03
         0.00000E+00
         0.18171E-02
         0.25928E-02
         0.32179E-02
         0.36559E-02
         0.38815E-02
         0.38815E-02
         0.36559E-02
         0.32179E-02
         0.25928E-02
         0.18171E-02
         0.93572E-03
         0.39516E-17
        -0.93572E-03
        -0.18171E-02
        -0.25928E-02
        -0.32179E-02
        -0.36559E-02
        -0.38815E-02
        -0.38815E-02
        -0.36559E-02
        -0.32179E-02
        -0.25928E-02
        -0.18171E-02
        -0.93572E-03
         0.67902E-03
         0.12381E-02
         0.59727E-03
        -0.32945E-03
         0.15282E-03
        -0.67100E-03
         0.18432E-02
         0.14686E-02
         0.31196E-03
         0.11865E-02
         0.22762E-02
         0.28238E-02
         0.24254E-02
         0.21688E-02
         0.29337E-02
        -0.10049E-02
         0.87871E-04
        -0.69519E-03
        -0.71042E-03
         0.84108E-04
        -0.77678E-03
         0.43720E-04
        -0.15189E-02
        -0.13219E-02
         0.10034E-02
        -0.17320E-02
         0.20251E-02
         0.18601E-02
         0.17175E-02
         0.91204E-03
        -0.19803E-02
        -0.23492E-02
        -0.17073E-02
        -0.14921E-02
         0.77142E-03
         0.12524E-02
         0.18669E-02
         0.28920E-02
         0.27155E-02
         0.24618E-02
         0.22358E-02
         0.16503E-02
         0.87781E-03
        -0.21374E-02
        -0.26934E-02
        -0.31291E-02
        -0.30382E-02
        -0.28749E-02
        -0.26452E-02
        -0.23729E-02
        -0.21505E-02
        -0.15093E-02
         0.93572E-03
         0.00000E+00
         0.18171E-02
         0.25928E-02
         0.32179E-02
         0.36559E-02
         0.38815E-02
         0.38815E-02
         0.36559E-02
         0.32179E-02
         0.25928E-02
         0.18171E-02
         0.93572E-03
        -0.47884E-18
        -0.93572E-03
        -0.18171E-02
        -0.25928E-02
        -0.32179E-02
        -0.36559E-02
        -0.38815E-02
        -0.38815E-02
        -0.36559E-02
        -0.32179E-02
        -0.25928E-02
        -0.18171E-02
        -0.93572E-03
         0.67958E-03
         0.12387E-02
         0.59779E-03
        -0.32870E-03
         0.15318E-03
        -0.67051E-03
         0.18434E-02
         0.14696E-02
         0.31311E-03
         0.11882E-02
         0.22763E-02
         0.28233E-02
         0.24255E-02
         0.21689E-02
         0.29335E-02
        -0.10050E-02
         0.88681E-04
        -0.69447E-03
        -0.71028E-03
         0.84232E-04
        -0.77661E-03
         0.43993E-04
        -0.15189E-02
        -0.13218E-02
         0.10048E-02
        -0.17320E-02
         0.20254E-02
         0.18599E-02
         0.17175E-02
         0.91228E-03
        -0.19803E-02
        -0.23492E-02
        -0.17073E-02
        -0.14923E-02
         0.77243E-03
         0.12528E-02
         0.18670E-02
         0.28910E-02
         0.27151E-02
         0.24615E-02
         0.22358E-02
         0.16503E-02
         0.87807E-03
        -0.21374E-02
        -0.26934E-02
        -0.31291E-02
        -0.30382E-02
        -0.28749E-02
        -0.26455E-02
        -0.23732E-02
        -0.21511E-02
        -0.15092E-02
         0.93572E-03
         0.00000E+00
         0.18171E-02
         0.25928E-02
         0.32179E-02
         0.36559E-02
         0.38815E-02
         0.38815E-02
         0.36559E-02
         0.32179E-02
         0.25928E-02
         0.18171E-02
         0.93572E-03
         0.22152E-17
        -0.93572E-03
        -0.18171E-02
        -0.25928E-02
        -0.32179E-02
        -0.36559E-02
        -0.38815E-02
        -0.38815E-02
        -0.36559E-02
        -0.32179E-02
        -0.25928E-02
        -0.18171E-02
        -0.93572E-03
         0.68013E-03
         0.12394E-02
         0.59831E-03
        -0.32794E-03
         0.15354E-03
        -0.67002E-03
         0.18436E-02
         0.14706E-02
         0.31426E-03
         0.11900E-02
         0.22765E-02
         0.28229E-02
         0.24257E-02
         0.21689E-02
         0.29332E-02
        -0.10051E-02
         0.89490E-04
        -0.69374E-03
        -0.71013E-03
         0.84355E-04
        -0.77644E-03
         0.44266E-04
        -0.15188E-02
        -0.13216E-02
         0.10061E-02
        -0.17320E-02
         0.20257E-02
         0.18598E-02
         0.17175E-02
         0.91252E-03
        -0.19803E-02
        -0.23492E-02
        -0.17073E-02
        -0.14926E-02
         0.77343E-03
         0.12533E-02
         0.18670E-02
         0.28899E-02
         0.27146E-02
         0.24613E-02
         0.22358E-02
         0.16503E-02
         0.87833E-03
        -0.21374E-02
        -0.26934E-02
        -0.31291E-02
        -0.30382E-02
        -0.28750E-02
        -0.26458E-02
        -0.23734E-02
        -0.21516E-02
        -0.15091E-02
         0.93572E-03
         0.00000E+00
         0.18171E-02
         0.25928E-02
         0.32179E-02
         0.36559E-02
         0.38815E-02
         0.38815E-02
         0.36559E-02
         0.32179E-02
         0.25928E-02
         0.18171E-02
         0.93572E-03
        -0.47884E-18
        -0.93572E-03
        -0.18171E-02
        -0.25928E-02
        -0.32179E-02
        -0.36559E-02
        -0.38815E-02
        -0.38815E-02
        -0.36559E-02
        -0.32179E-02
        -0.25928E-02
        -0.18171E-02
        -0.93572E-03
         0.68068E-03
         0.12401E-02
         0.59884E-03
        -0.32719E-03
         0.15391E-03
        -0.66953E-03
         0.18438E-02
         0.14716E-02
         0.31541E-03
         0.11917E-02
         0.22766E-02
         0.28225E-02
         0.24258E-02
         0.21690E-02
         0.29330E-02
        -0.10053E-02
         0.90299E-04
        -0.69302E-03
        -0.70999E-03
         0.84479E-04
        -0.77627E-03
         0.44540E-04
        -0.15188E-02
        -0.13215E-02
         0.10075E-02
        -0.17319E-02
         0.20260E-02
         0.18597E-02
         0.17175E-02
         0.91276E-03
        -0.19804E-02
        -0.23493E-02
        -0.17073E-02
        -0.14928E-02
         0.77444E-03
         0.12537E-02
         0.18670E-02
         0.28888E-02
         0.27141E-02
         0.24611E-02
         0.22358E-02
         0.16503E-02
         0.87859E-03
        -0.21374E-02
        -0.26934E-02
        -0.31291E-02
        -0.30382E-02
        -0.28750E-02
        -0.26460E-02
        -0.23736E-02
        -0.21521E-02
        -0.15090E-02
         0.93572E-03
         0.00000E+00
         0.18171E-02
         0.25928E-02
         0.32179E-02
         0.36559E-02
         0.38815E-02
         0.38815E-02
         0.36559E-02
         0.32179E-02
         0.25928E-02
         0.18171E-02
         0.93572E-03
         0.22152E-17
        -0.93572E-03
        -0.18171E-02
        -0.25928E-02
        -0.32179E-02
        -0.36559E-02
        -0.38815E-02
        -0.38815E-02
        -0.36559E-02
        -0.32179E-02
        -0.25928E-02
        -0.18171E-02
        -0.93572E-03
         0.68124E-03
         0.12407E-02
         0.59936E-03
        -0.32643E-03
         0.15427E-03
        -0.66903E-03
         0.18440E-02
         0.14727E-02
         0.31656E-03
         0.11935E-02
         0.22767E-02
         0.28220E-02
         0.24260E-02
         0.21690E-02
         0.29327E-02
        -0.10054E-02
         0.91108E-04
        -0.69229E-03
        -0.70985E-03
         0.84602E-04
        -0.77610E-03
         0.44813E-04
        -0.15187E-02
        -0.13215E-02
         0.10088E-02
        -0.17319E-02
         0.20262E-02
         0.18595E-02
         0.17175E-02
         0.91300E-03
        -0.19804E-02
        -0.23493E-02
        -0.17073E-02
        -0.14931E-02
         0.77544E-03
         0.12541E-02
         0.18671E-02
         0.28877E-02
         0.27137E-02
         0.24609E-02
         0.22358E-02
         0.16503E-02
         0.87885E-03
        -0.21374E-02
        -0.26934E-02
        -0.31291E-02
        -0.30382E-02
        -0.28750E-02
        -0.26463E-02
        -0.23738E-02
        -0.21527E-02
        -0.15088E-02
         0.93572E-03
         0.00000E+00
         0.18171E-02
         0.25928E-02
         0.32179E-02
         0.36559E-02
         0.38815E-02
         0.38815E-02
         0.36559E-02
         0.32179E-02
         0.25928E-02
         0.18171E-02
         0.93572E-03
        -0.47884E-18
        -0.93572E-03
        -0.18171E-02
        -0.25928E-02
        -0.32179E-02
        -0.36559E-02
        -0.38815E-02
        -0.38815E-02
        -0.36559E-02
        -0.32179E-02
        -0.25928E-02
        -0.18171E-02
        -0.93572E-03
         0.68179E-03
         0.12414E-02
         0.59988E-03
        -0.32568E-03
         0.15463E-03
        -0.66854E-03
         0.18442E-02
         0.14736E-02
         0.31770E-03
         0.11952E-02
         0.22768E-02
         0.28216E-02
         0.24261E-02
         0.21690E-02
         0.29324E-02
        -0.10056E-02
         0.91918E-04
        -0.69156E-03
        -0.70971E-03
         0.84726E-04
        -0.77593E-03
         0.45086E-04
        -0.15187E-02
        -0.13213E-02
         0.10102E-02
        -0.17318E-02
         0.20265E-02
         0.18594E-02
         0.17175E-02
         0.91324E-03
        -0.19804E-02
        -0.23493E-02
        -0.17073E-02
        -0.14933E-02
         0.77645E-03
         0.12545E-02
         0.18671E-02
         0.28867E-02
         0.27132E-02
         0.24606E-02
         0.22358E-02
         0.16503E-02
         0.87912E-03
        -0.21374E-02
        -0.26935E-02
        -0.31291E-02
        -0.30381E-02
        -0.28750E-02
        -0.26466E-02
        -0.23740E-02
        -0.21533E-02
        -0.15087E-02
         0.93572E-03
         0.00000E+00
         0.18171E-02
         0.25928E-02
         0.32179E-02
         0.36559E-02
         0.38815E-02
         0.38815E-02
         0.36559E-02
         0.32179E-02
         0.25928E-02
         0.18171E-02
         0.93572E-03
        -0.47884E-18
        -0.93572E-03
        -0.18171E-02
        -0.25928E-02
        -0.32179E-02
        -0.36559E-02
        -0.38815E-02
        -0.38815E-02
        -0.36559E-02
        -0.32179E-02
        -0.25928E-02
        -0.18171E-02
        -0.93572E-03
         0.68235E-03
         0.12421E-02
         0.60041E-03
        -0.32493E-03
         0.15500E-03
        -0.66805E-03
         0.18444E-02
         0.14747E-02
         0.31885E-03
         0.11970E-02
         0.22770E-02
         0.28211E-02
         0.24262E-02
         0.21691E-02
         0.29322E-02
        -0.10057E-02
         0.92727E-04
        -0.69084E-03
        -0.70957E-03
         0.84849E-04
        -0.77576E-03
         0.45359E-04
        -0.15186E-02
        -0.13212E-02
         0.10115E-02
        -0.17318E-02
         0.20268E-02
         0.18593E-02
         0.17175E-02
         0.91347E-03
        -0.19804E-02
        -0.23493E-02
        -0.17073E-02
        -0.14936E-02
         0.77745E-03
         0.12550E-02
         0.18671E-02
         0.28856E-02
         0.27127E-02
         0.24604E-02
         0.22358E-02
         0.16503E-02
         0.87938E-03
        -0.21374E-02
        -0.26935E-02
        -0.31291E-02
        -0.30381E-02
        -0.28750E-02
        -0.26468E-02
        -0.23742E-02
        -0.21538E-02
        -0.15086E-02
         0.93572E-03
         0.00000E+00
         0.18171E-02
         0.25928E-02
         0.32179E-02
         0.36559E-02
         0.38815E-02
         0.38815E-02
         0.36559E-02
         0.32179E-02
         0.25928E-02
         0.18171E-02
         0.93572E-03
        -0.47884E-18
        -0.93572E-03
        -0.18171E-02
        -0.25928E-02
        -0.32179E-02
        -0.36559E-02
        -0.38815E-02
        -0.38815E-02
        -0.36559E-02
        -0.32179E-02
        -0.25928E-02
        -0.18171E-02
        -0.93572E-03
         0.68290E-03
         0.12427E-02
         0.60093E-03
        -0.32417E-03
         0.15536E-03
        -0.66755E-03
         0.18445E-02
         0.14757E-02
         0.32000E-03
         0.11987E-02
         0.22771E-02
         0.28207E-02
         0.24264E-02
         0.21691E-02
         0.29319E-02
        -0.10058E-02
         0.93536E-04
        -0.69011E-03
        -0.70943E-03
         0.84973E-04
        -0.77559E-03
         0.45633E-04
        -0.15186E-02
        -0.13212E-02
         0.10129E-02
        -0.17318E-02
         0.20271E-02
         0.18592E-02
         0.17175E-02
         0.91371E-03
        -0.19805E-02
        -0.23493E-02
        -0.17073E-02
        -0.14938E-02
         0.77846E-03
         0.12554E-02
         0.18672E-02
         0.28845E-02
         0.27122E-02
         0.24602E-02
         0.22358E-02
         0.16502E-02
         0.87964E-03
        -0.21374E-02
        -0.26935E-02
        -0.31291E-02
        -0.30381E-02
        -0.28750E-02
        -0.26471E-02
        -0.23744E-02
        -0.21543E-02
        -0.15085E-02
         0.93572E-03
         0.00000E+00
         0.18171E-02
         0.25928E-02
         0.32179E-02
         0.36559E-02
         0.38815E-02
         0.38815E-02
         0.36559E-02
         0.32179E-02
         0.25928E-02
         0.18171E-02
         0.93572E-03
        -0.47884E-18
        -0.93572E-03
        -0.18171E-02
        -0.25928E-02
        -0.32179E-02
        -0.36559E-02
        -0.38815E-02
        -0.38815E-02
        -0.36559E-02
        -0.32179E-02
        -0.25928E-02
        -0.18171E-02
        -0.93572E-03
         0.68346E-03
         0.12434E-02
         0.60145E-03
        -0.32342E-03
         0.15572E-03
        -0.66706E-03
         0.18447E-02
         0.14767E-02
         0.32115E-03
         0.12005E-02
         0.22772E-02
         0.28203E-02
         0.24265E-02
         0.21691E-02
         0.29316E-02
        -0.10060E-02
         0.94345E-04
        -0.68939E-03
        -0.70929E-03
         0.85096E-04
        -0.77542E-03
         0.45906E-04
        -0.15185E-02
        -0.13211E-02
         0.10142E-02
        -0.17317E-02
         0.20274E-02
         0.18590E-02
         0.17175E-02
         0.91395E-03
        -0.19805E-02
        -0.23494E-02
        -0.17073E-02
        -0.14941E-02
         0.77946E-03
         0.12558E-02
         0.18672E-02
         0.28835E-02
         0.27118E-02
         0.24600E-02
         0.22358E-02
         0.16502E-02
         0.87990E-03
        -0.21374E-02
        -0.26935E-02
        -0.31291E-02
        -0.30381E-02
        -0.28750E-02
        -0.26474E-02
        -0.23746E-02
        -0.21549E-02
        -0.15084E-02
         0.93572E-03
         0.00000E+00
         0.18171E-02
         0.25928E-02
         0.32179E-02
         0.36559E-02
         0.38815E-02
         0.38815E-02
         0.36559E-02
         0.32179E-02
         0.25928E-02
         0.18171E-02
         0.93572E-03
         0.22152E-17
        -0.93572E-03
        -0.18171E-02
        -0.25928E-02
        -0.32179E-02
        -0.36559E-02
        -0.38815E-02
        -0.38815E-02
        -0.36559E-02
        -0.32179E-02
        -0.25928E-02
        -0.18171E-02
        -0.93572E-03
         0.68401E-03
         0.12440E-02
         0.60198E-03
        -0.32266E-03
         0.15609E-03
        -0.66657E-03
         0.18449E-02
         0.14777E-02
         0.32230E-03
         0.12022E-02
         0.22774E-02
         0.28198E-02
         0.24267E-02
         0.21692E-02
         0.29314E-02
        -0.10061E-02
         0.95155E-04
        -0.68866E-03
        -0.70915E-03
         0.85220E-04
        -0.77525E-03
         0.46180E-04
        -0.15185E-02
        -0.13210E-02
         0.10156E-02
        -0.17317E-02
         0.20277E-02
         0.18589E-02
         0.17175E-02
         0.91419E-03
        -0.19805E-02
        -0.23494E-02
        -0.17073E-02
        -0.14943E-02
         0.78047E-03
         0.12563E-02
         0.18672E-02
         0.28824E-02
         0.27113E-02
         0.24597E-02
         0.22358E-02
         0.16502E-02
         0.88016E-03
        -0.21374E-02
        -0.26935E-02
        -0.31291E-02
        -0.30381E-02
        -0.28751E-02
        -0.26476E-02
        -0.23748E-02
        -0.21554E-02
        -0.15083E-02
         0.93572E-03
         0.00000E+00
         0.18171E-02
         0.25928E-02
         0.32179E-02
         0.36559E-02
         0.38815E-02
         0.38815E-02
         0.36559E-02
         0.32179E-02
         0.25928E-02
         0.18171E-02
         0.93572E-03
        -0.47884E-18
        -0.93572E-03
        -0.18171E-02
        -0.25928E-02
        -0.32179E-02
        -0.36559E-02
        -0.38815E-02
        -0.38815E-02
        -0.36559E-02
        -0.32179E-02
        -0.25928E-02
        -0.18171E-02
        -0.93572E-03
         0.68457E-03
         0.12447E-02
         0.60250E-03
        -0.32191E-03
         0.15645E-03
        -0.66607E-03
         0.18451E-02
         0.14787E-02
         0.32345E-03
         0.12040E-02
         0.22775E-02
         0.28194E-02
         0.24268E-02
         0.21692E-02
         0.29311E-02
        -0.10062E-02
         0.95964E-04
        -0.68793E-03
        -0.70901E-03
         0.85343E-04
        -0.77507E-03
         0.46453E-04
        -0.15184E-02
        -0.13209E-02
         0.10169E-02
        -0.17316E-02
         0.20280E-02
         0.18588E-02
         0.17175E-02
         0.91443E-03
        -0.19806E-02
        -0.23494E-02
        -0.17073E-02
        -0.14945E-02
         0.78148E-03
         0.12567E-02
         0.18673E-02
         0.28813E-02
         0.27108E-02
         0.24595E-02
         0.22358E-02
         0.16502E-02
         0.88043E-03
        -0.21374E-02
        -0.26936E-02
        -0.31291E-02
        -0.30381E-02
        -0.28751E-02
        -0.26479E-02
        -0.23750E-02
        -0.21560E-02
        -0.15082E-02
         0.93572E-03
         0.00000E+00
         0.18171E-02
         0.25928E-02
         0.32179E-02
         0.36559E-02
         0.38815E-02
         0.38815E-02
         0.36559E-02
         0.32179E-02
         0.25928E-02
         0.18171E-02
         0.93572E-03
        -0.47884E-18
        -0.93572E-03
        -0.18171E-02
        -0.25928E-02
        -0.32179E-02
        -0.36559E-02
        -0.38815E-02
        -0.38815E-02
        -0.36559E-02
        -0.32179E-02
        -0.25928E-02
        -0.18171E-02
        -0.93572E-03
         0.68512E-03
         0.12454E-02
         0.60302E-03
        -0.32115E-03
         0.15681E-03
        -0.66558E-03
         0.18453E-02
         0.14797E-02
         0.32459E-03
         0.12058E-02
         0.22776E-02
         0.28189E-02
         0.24270E-02
         0.21693E-02
         0.29308E-02
        -0.10064E-02
         0.96773E-04
        -0.68721E-03
        -0.70887E-03
         0.85467E-04
        -0.77490E-03
         0.46726E-04
        -0.15184E-02
        -0.13208E-02
         0.10183E-02
        -0.17316E-02
         0.20283E-02
         0.18586E-02
         0.17175E-02
         0.91467E-03
        -0.19806E-02
        -0.23494E-02
        -0.17073E-02
        -0.14948E-02
         0.78248E-03
         0.12571E-02
         0.18673E-02
         0.28802E-02
         0.27103E-02
         0.24593E-02
         0.22358E-02
         0.16502E-02
         0.88069E-03
        -0.21374E-02
        -0.26936E-02
        -0.31291E-02
        -0.30381E-02
        -0.28751E-02
        -0.26482E-02
        -0.23752E-02
        -0.21565E-02
        -0.15081E-02
         0.93572E-03
         0.00000E+00
         0.18171E-02
         0.25928E-02
         0.32179E-02
         0.36559E-02
         0.38815E-02
         0.38815E-02
         0.36559E-02
         0.32179E-02
         0.25928E-02
         0.18171E-02
         0.93572E-03
        -0.47884E-18
        -0.93572E-03
        -0.18171E-02
        -0.25928E-02
        -0.32179E-02
        -0.36559E-02
        -0.38815E-02
        -0.38815E-02
        -0.36559E-02
        -0.32179E-02
        -0.25928E-02
        -0.18171E-02
        -0.93572E-03
         0.68567E-03
         0.12460E-02
         0.60355E-03
        -0.32040E-03
         0.15718E-03
        -0.66509E-03
         0.18455E-02
         0.14807E-02
         0.32574E-03
         0.12075E-02
         0.22777E-02
         0.28185E-02
         0.24271E-02
         0.21693E-02
         0.29306E-02
        -0.10065E-02
         0.97583E-04
        -0.68648E-03
        -0.70873E-03
         0.85591E-04
        -0.77474E-03
         0.47000E-04
        -0.15183E-02
        -0.13207E-02
         0.10197E-02
        -0.17316E-02
         0.20285E-02
         0.18585E-02
         0.17175E-02
         0.91491E-03
        -0.19806E-02
        -0.23495E-02
        -0.17073E-02
        -0.14950E-02
         0.78348E-03
         0.12576E-02
         0.18674E-02
         0.28792E-02
         0.27099E-02
         0.24591E-02
         0.22358E-02
         0.16502E-02
         0.88095E-03
        -0.21374E-02
        -0.26936E-02
        -0.31290E-02
        -0.30381E-02
        -0.28751E-02
        -0.26484E-02
        -0.23754E-02
        -0.21571E-02
        -0.15080E-02
         0.93572E-03
         0.00000E+00
         0.18171E-02
         0.25928E-02
         0.32179E-02
         0.36559E-02
         0.38815E-02
         0.38815E-02
         0.36559E-02
         0.32179E-02
         0.25928E-02
         0.18171E-02
         0.93572E-03
         0.47884E-18
        -0.93572E-03
        -0.18171E-02
        -0.25928E-02
        -0.32179E-02
        -0.36559E-02
        -0.38815E-02
        -0.38815E-02
        -0.36559E-02
        -0.32179E-02
        -0.25928E-02
        -0.18171E-02
        -0.93572E-03
  
SCALARS           initial_coordinate_z  double 1
LOOKUP_TABLE default
        -0.10771E-01
        -0.10771E-01
        -0.10771E-01
        -0.10771E-01
        -0.11750E-01
        -0.11750E-01
        -0.11750E-01
        -0.11750E-01
        -0.10771E-01
        -0.10771E-01
        -0.11750E-01
        -0.11750E-01
        -0.10771E-01
        -0.10771E-01
        -0.11750E-01
        -0.11750E-01
        -0.10771E-01
        -0.10771E-01
        -0.11750E-01
        -0.11750E-01
        -0.10771E-01
        -0.10771E-01
        -0.10771E-01
        -0.11750E-01
        -0.11750E-01
        -0.11750E-01
        -0.10771E-01
        -0.10771E-01
        -0.11750E-01
        -0.11750E-01
        -0.10771E-01
        -0.10771E-01
        -0.10771E-01
        -0.11750E-01
        -0.11750E-01
        -0.11750E-01
        -0.10771E-01
        -0.10771E-01
        -0.11750E-01
        -0.11750E-01
        -0.10771E-01
        -0.10771E-01
        -0.11750E-01
        -0.11750E-01
        -0.10771E-01
        -0.10771E-01
        -0.11750E-01
        -0.11750E-01
        -0.10771E-01
        -0.11750E-01
        -0.10771E-01
        -0.11750E-01
        -0.10771E-01
        -0.11750E-01
        -0.10771E-01
        -0.11750E-01
        -0.10771E-01
        -0.10771E-01
        -0.11750E-01
        -0.11750E-01
        -0.10771E-01
        -0.10771E-01
        -0.11750E-01
        -0.11750E-01
        -0.10771E-01
        -0.11750E-01
        -0.10771E-01
        -0.11750E-01
        -0.10771E-01
        -0.10771E-01
        -0.11750E-01
        -0.11750E-01
        -0.10771E-01
        -0.11750E-01
        -0.10771E-01
        -0.11750E-01
        -0.10771E-01
        -0.11750E-01
        -0.10771E-01
        -0.11750E-01
        -0.10771E-01
        -0.10771E-01
        -0.11750E-01
        -0.11750E-01
        -0.10771E-01
        -0.11750E-01
        -0.10771E-01
        -0.11750E-01
        -0.10771E-01
        -0.11750E-01
        -0.10771E-01
        -0.10771E-01
        -0.11750E-01
        -0.11750E-01
        -0.10771E-01
        -0.11750E-01
        -0.10771E-01
        -0.11750E-01
        -0.10771E-01
        -0.11750E-01
        -0.10771E-01
        -0.10771E-01
        -0.11750E-01
        -0.11750E-01
        -0.10771E-01
        -0.10771E-01
        -0.11750E-01
        -0.11750E-01
        -0.10771E-01
        -0.11750E-01
        -0.10771E-01
        -0.11750E-01
        -0.10771E-01
        -0.11750E-01
        -0.10771E-01
        -0.11750E-01
        -0.10771E-01
        -0.11750E-01
        -0.10771E-01
        -0.11750E-01
        -0.10771E-01
        -0.11750E-01
        -0.10771E-01
        -0.11750E-01
        -0.10771E-01
        -0.11750E-01
        -0.10771E-01
        -0.11750E-01
        -0.10771E-01
        -0.11750E-01
        -0.10771E-01
        -0.11750E-01
        -0.10771E-01
        -0.11750E-01
        -0.10771E-01
        -0.11750E-01
        -0.10771E-01
        -0.11750E-01
        -0.10771E-01
        -0.11750E-01
        -0.10771E-01
        -0.11750E-01
        -0.10771E-01
        -0.11750E-01
        -0.10771E-01
        -0.11750E-01
        -0.10771E-01
        -0.11750E-01
        -0.10771E-01
        -0.11750E-01
        -0.10771E-01
        -0.11750E-01
        -0.10771E-01
        -0.11750E-01
        -0.10771E-01
        -0.11750E-01
        -0.97917E-02
        -0.97917E-02
        -0.97917E-02
        -0.97917E-02
        -0.97917E-02
        -0.97917E-02
        -0.97917E-02
        -0.97917E-02
        -0.97917E-02
        -0.97917E-02
        -0.97917E-02
        -0.97917E-02
        -0.97917E-02
        -0.97917E-02
        -0.97917E-02
        -0.97917E-02
        -0.97917E-02
        -0.97917E-02
        -0.97917E-02
        -0.97917E-02
        -0.97917E-02
        -0.97917E-02
        -0.97917E-02
        -0.97917E-02
        -0.97917E-02
        -0.97917E-02
        -0.97917E-02
        -0.97917E-02
        -0.97917E-02
        -0.97917E-02
        -0.97917E-02
        -0.97917E-02
        -0.97917E-02
        -0.97917E-02
        -0.97917E-02
        -0.97917E-02
        -0.97917E-02
        -0.97917E-02
        -0.97917E-02
        -0.97917E-02
        -0.97917E-02
        -0.97917E-02
        -0.97917E-02
        -0.97917E-02
        -0.97917E-02
        -0.97917E-02
        -0.97917E-02
        -0.97917E-02
        -0.97917E-02
        -0.97917E-02
        -0.97917E-02
        -0.97917E-02
        -0.97917E-02
        -0.97917E-02
        -0.97917E-02
        -0.97917E-02
        -0.97917E-02
        -0.97917E-02
        -0.97917E-02
        -0.97917E-02
        -0.97917E-02
        -0.97917E-02
        -0.97917E-02
        -0.97917E-02
        -0.97917E-02
        -0.97917E-02
        -0.97917E-02
        -0.97917E-02
        -0.97917E-02
        -0.97917E-02
        -0.97917E-02
        -0.97917E-02
        -0.97917E-02
        -0.97917E-02
        -0.97917E-02
        -0.97917E-02
        -0.97917E-02
        -0.97917E-02
        -0.88125E-02
        -0.88125E-02
        -0.88125E-02
        -0.88125E-02
        -0.88125E-02
        -0.88125E-02
        -0.88125E-02
        -0.88125E-02
        -0.88125E-02
        -0.88125E-02
        -0.88125E-02
        -0.88125E-02
        -0.88125E-02
        -0.88125E-02
        -0.88125E-02
        -0.88125E-02
        -0.88125E-02
        -0.88125E-02
        -0.88125E-02
        -0.88125E-02
        -0.88125E-02
        -0.88125E-02
        -0.88125E-02
        -0.88125E-02
        -0.88125E-02
        -0.88125E-02
        -0.88125E-02
        -0.88125E-02
        -0.88125E-02
        -0.88125E-02
        -0.88125E-02
        -0.88125E-02
        -0.88125E-02
        -0.88125E-02
        -0.88125E-02
        -0.88125E-02
        -0.88125E-02
        -0.88125E-02
        -0.88125E-02
        -0.88125E-02
        -0.88125E-02
        -0.88125E-02
        -0.88125E-02
        -0.88125E-02
        -0.88125E-02
        -0.88125E-02
        -0.88125E-02
        -0.88125E-02
        -0.88125E-02
        -0.88125E-02
        -0.88125E-02
        -0.88125E-02
        -0.88125E-02
        -0.88125E-02
        -0.88125E-02
        -0.88125E-02
        -0.88125E-02
        -0.88125E-02
        -0.88125E-02
        -0.88125E-02
        -0.88125E-02
        -0.88125E-02
        -0.88125E-02
        -0.88125E-02
        -0.88125E-02
        -0.88125E-02
        -0.88125E-02
        -0.88125E-02
        -0.88125E-02
        -0.88125E-02
        -0.88125E-02
        -0.88125E-02
        -0.88125E-02
        -0.88125E-02
        -0.88125E-02
        -0.88125E-02
        -0.88125E-02
        -0.88125E-02
        -0.78333E-02
        -0.78333E-02
        -0.78333E-02
        -0.78333E-02
        -0.78333E-02
        -0.78333E-02
        -0.78333E-02
        -0.78333E-02
        -0.78333E-02
        -0.78333E-02
        -0.78333E-02
        -0.78333E-02
        -0.78333E-02
        -0.78333E-02
        -0.78333E-02
        -0.78333E-02
        -0.78333E-02
        -0.78333E-02
        -0.78333E-02
        -0.78333E-02
        -0.78333E-02
        -0.78333E-02
        -0.78333E-02
        -0.78333E-02
        -0.78333E-02
        -0.78333E-02
        -0.78333E-02
        -0.78333E-02
        -0.78333E-02
        -0.78333E-02
        -0.78333E-02
        -0.78333E-02
        -0.78333E-02
        -0.78333E-02
        -0.78333E-02
        -0.78333E-02
        -0.78333E-02
        -0.78333E-02
        -0.78333E-02
        -0.78333E-02
        -0.78333E-02
        -0.78333E-02
        -0.78333E-02
        -0.78333E-02
        -0.78333E-02
        -0.78333E-02
        -0.78333E-02
        -0.78333E-02
        -0.78333E-02
        -0.78333E-02
        -0.78333E-02
        -0.78333E-02
        -0.78333E-02
        -0.78333E-02
        -0.78333E-02
        -0.78333E-02
        -0.78333E-02
        -0.78333E-02
        -0.78333E-02
        -0.78333E-02
        -0.78333E-02
        -0.78333E-02
        -0.78333E-02
        -0.78333E-02
        -0.78333E-02
        -0.78333E-02
        -0.78333E-02
        -0.78333E-02
        -0.78333E-02
        -0.78333E-02
        -0.78333E-02
        -0.78333E-02
        -0.78333E-02
        -0.78333E-02
        -0.78333E-02
        -0.78333E-02
        -0.78333E-02
        -0.78333E-02
        -0.68542E-02
        -0.68542E-02
        -0.68542E-02
        -0.68542E-02
        -0.68542E-02
        -0.68542E-02
        -0.68542E-02
        -0.68542E-02
        -0.68542E-02
        -0.68542E-02
        -0.68542E-02
        -0.68542E-02
        -0.68542E-02
        -0.68542E-02
        -0.68542E-02
        -0.68542E-02
        -0.68542E-02
        -0.68542E-02
        -0.68542E-02
        -0.68542E-02
        -0.68542E-02
        -0.68542E-02
        -0.68542E-02
        -0.68542E-02
        -0.68542E-02
        -0.68542E-02
        -0.68542E-02
        -0.68542E-02
        -0.68542E-02
        -0.68542E-02
        -0.68542E-02
        -0.68542E-02
        -0.68542E-02
        -0.68542E-02
        -0.68542E-02
        -0.68542E-02
        -0.68542E-02
        -0.68542E-02
        -0.68542E-02
        -0.68542E-02
        -0.68542E-02
        -0.68542E-02
        -0.68542E-02
        -0.68542E-02
        -0.68542E-02
        -0.68542E-02
        -0.68542E-02
        -0.68542E-02
        -0.68542E-02
        -0.68542E-02
        -0.68542E-02
        -0.68542E-02
        -0.68542E-02
        -0.68542E-02
        -0.68542E-02
        -0.68542E-02
        -0.68542E-02
        -0.68542E-02
        -0.68542E-02
        -0.68542E-02
        -0.68542E-02
        -0.68542E-02
        -0.68542E-02
        -0.68542E-02
        -0.68542E-02
        -0.68542E-02
        -0.68542E-02
        -0.68542E-02
        -0.68542E-02
        -0.68542E-02
        -0.68542E-02
        -0.68542E-02
        -0.68542E-02
        -0.68542E-02
        -0.68542E-02
        -0.68542E-02
        -0.68542E-02
        -0.68542E-02
        -0.58750E-02
        -0.58750E-02
        -0.58750E-02
        -0.58750E-02
        -0.58750E-02
        -0.58750E-02
        -0.58750E-02
        -0.58750E-02
        -0.58750E-02
        -0.58750E-02
        -0.58750E-02
        -0.58750E-02
        -0.58750E-02
        -0.58750E-02
        -0.58750E-02
        -0.58750E-02
        -0.58750E-02
        -0.58750E-02
        -0.58750E-02
        -0.58750E-02
        -0.58750E-02
        -0.58750E-02
        -0.58750E-02
        -0.58750E-02
        -0.58750E-02
        -0.58750E-02
        -0.58750E-02
        -0.58750E-02
        -0.58750E-02
        -0.58750E-02
        -0.58750E-02
        -0.58750E-02
        -0.58750E-02
        -0.58750E-02
        -0.58750E-02
        -0.58750E-02
        -0.58750E-02
        -0.58750E-02
        -0.58750E-02
        -0.58750E-02
        -0.58750E-02
        -0.58750E-02
        -0.58750E-02
        -0.58750E-02
        -0.58750E-02
        -0.58750E-02
        -0.58750E-02
        -0.58750E-02
        -0.58750E-02
        -0.58750E-02
        -0.58750E-02
        -0.58750E-02
        -0.58750E-02
        -0.58750E-02
        -0.58750E-02
        -0.58750E-02
        -0.58750E-02
        -0.58750E-02
        -0.58750E-02
        -0.58750E-02
        -0.58750E-02
        -0.58750E-02
        -0.58750E-02
        -0.58750E-02
        -0.58750E-02
        -0.58750E-02
        -0.58750E-02
        -0.58750E-02
        -0.58750E-02
        -0.58750E-02
        -0.58750E-02
        -0.58750E-02
        -0.58750E-02
        -0.58750E-02
        -0.58750E-02
        -0.58750E-02
        -0.58750E-02
        -0.58750E-02
        -0.48958E-02
        -0.48958E-02
        -0.48958E-02
        -0.48958E-02
        -0.48958E-02
        -0.48958E-02
        -0.48958E-02
        -0.48958E-02
        -0.48958E-02
        -0.48958E-02
        -0.48958E-02
        -0.48958E-02
        -0.48958E-02
        -0.48958E-02
        -0.48958E-02
        -0.48958E-02
        -0.48958E-02
        -0.48958E-02
        -0.48958E-02
        -0.48958E-02
        -0.48958E-02
        -0.48958E-02
        -0.48958E-02
        -0.48958E-02
        -0.48958E-02
        -0.48958E-02
        -0.48958E-02
        -0.48958E-02
        -0.48958E-02
        -0.48958E-02
        -0.48958E-02
        -0.48958E-02
        -0.48958E-02
        -0.48958E-02
        -0.48958E-02
        -0.48958E-02
        -0.48958E-02
        -0.48958E-02
        -0.48958E-02
        -0.48958E-02
        -0.48958E-02
        -0.48958E-02
        -0.48958E-02
        -0.48958E-02
        -0.48958E-02
        -0.48958E-02
        -0.48958E-02
        -0.48958E-02
        -0.48958E-02
        -0.48958E-02
        -0.48958E-02
        -0.48958E-02
        -0.48958E-02
        -0.48958E-02
        -0.48958E-02
        -0.48958E-02
        -0.48958E-02
        -0.48958E-02
        -0.48958E-02
        -0.48958E-02
        -0.48958E-02
        -0.48958E-02
        -0.48958E-02
        -0.48958E-02
        -0.48958E-02
        -0.48958E-02
        -0.48958E-02
        -0.48958E-02
        -0.48958E-02
        -0.48958E-02
        -0.48958E-02
        -0.48958E-02
        -0.48958E-02
        -0.48958E-02
        -0.48958E-02
        -0.48958E-02
        -0.48958E-02
        -0.48958E-02
        -0.39167E-02
        -0.39167E-02
        -0.39167E-02
        -0.39167E-02
        -0.39167E-02
        -0.39167E-02
        -0.39167E-02
        -0.39167E-02
        -0.39167E-02
        -0.39167E-02
        -0.39167E-02
        -0.39167E-02
        -0.39167E-02
        -0.39167E-02
        -0.39167E-02
        -0.39167E-02
        -0.39167E-02
        -0.39167E-02
        -0.39167E-02
        -0.39167E-02
        -0.39167E-02
        -0.39167E-02
        -0.39167E-02
        -0.39167E-02
        -0.39167E-02
        -0.39167E-02
        -0.39167E-02
        -0.39167E-02
        -0.39167E-02
        -0.39167E-02
        -0.39167E-02
        -0.39167E-02
        -0.39167E-02
        -0.39167E-02
        -0.39167E-02
        -0.39167E-02
        -0.39167E-02
        -0.39167E-02
        -0.39167E-02
        -0.39167E-02
        -0.39167E-02
        -0.39167E-02
        -0.39167E-02
        -0.39167E-02
        -0.39167E-02
        -0.39167E-02
        -0.39167E-02
        -0.39167E-02
        -0.39167E-02
        -0.39167E-02
        -0.39167E-02
        -0.39167E-02
        -0.39167E-02
        -0.39167E-02
        -0.39167E-02
        -0.39167E-02
        -0.39167E-02
        -0.39167E-02
        -0.39167E-02
        -0.39167E-02
        -0.39167E-02
        -0.39167E-02
        -0.39167E-02
        -0.39167E-02
        -0.39167E-02
        -0.39167E-02
        -0.39167E-02
        -0.39167E-02
        -0.39167E-02
        -0.39167E-02
        -0.39167E-02
        -0.39167E-02
        -0.39167E-02
        -0.39167E-02
        -0.39167E-02
        -0.39167E-02
        -0.39167E-02
        -0.39167E-02
        -0.29375E-02
        -0.29375E-02
        -0.29375E-02
        -0.29375E-02
        -0.29375E-02
        -0.29375E-02
        -0.29375E-02
        -0.29375E-02
        -0.29375E-02
        -0.29375E-02
        -0.29375E-02
        -0.29375E-02
        -0.29375E-02
        -0.29375E-02
        -0.29375E-02
        -0.29375E-02
        -0.29375E-02
        -0.29375E-02
        -0.29375E-02
        -0.29375E-02
        -0.29375E-02
        -0.29375E-02
        -0.29375E-02
        -0.29375E-02
        -0.29375E-02
        -0.29375E-02
        -0.29375E-02
        -0.29375E-02
        -0.29375E-02
        -0.29375E-02
        -0.29375E-02
        -0.29375E-02
        -0.29375E-02
        -0.29375E-02
        -0.29375E-02
        -0.29375E-02
        -0.29375E-02
        -0.29375E-02
        -0.29375E-02
        -0.29375E-02
        -0.29375E-02
        -0.29375E-02
        -0.29375E-02
        -0.29375E-02
        -0.29375E-02
        -0.29375E-02
        -0.29375E-02
        -0.29375E-02
        -0.29375E-02
        -0.29375E-02
        -0.29375E-02
        -0.29375E-02
        -0.29375E-02
        -0.29375E-02
        -0.29375E-02
        -0.29375E-02
        -0.29375E-02
        -0.29375E-02
        -0.29375E-02
        -0.29375E-02
        -0.29375E-02
        -0.29375E-02
        -0.29375E-02
        -0.29375E-02
        -0.29375E-02
        -0.29375E-02
        -0.29375E-02
        -0.29375E-02
        -0.29375E-02
        -0.29375E-02
        -0.29375E-02
        -0.29375E-02
        -0.29375E-02
        -0.29375E-02
        -0.29375E-02
        -0.29375E-02
        -0.29375E-02
        -0.29375E-02
        -0.19583E-02
        -0.19583E-02
        -0.19583E-02
        -0.19583E-02
        -0.19583E-02
        -0.19583E-02
        -0.19583E-02
        -0.19583E-02
        -0.19583E-02
        -0.19583E-02
        -0.19583E-02
        -0.19583E-02
        -0.19583E-02
        -0.19583E-02
        -0.19583E-02
        -0.19583E-02
        -0.19583E-02
        -0.19583E-02
        -0.19583E-02
        -0.19583E-02
        -0.19583E-02
        -0.19583E-02
        -0.19583E-02
        -0.19583E-02
        -0.19583E-02
        -0.19583E-02
        -0.19583E-02
        -0.19583E-02
        -0.19583E-02
        -0.19583E-02
        -0.19583E-02
        -0.19583E-02
        -0.19583E-02
        -0.19583E-02
        -0.19583E-02
        -0.19583E-02
        -0.19583E-02
        -0.19583E-02
        -0.19583E-02
        -0.19583E-02
        -0.19583E-02
        -0.19583E-02
        -0.19583E-02
        -0.19583E-02
        -0.19583E-02
        -0.19583E-02
        -0.19583E-02
        -0.19583E-02
        -0.19583E-02
        -0.19583E-02
        -0.19583E-02
        -0.19583E-02
        -0.19583E-02
        -0.19583E-02
        -0.19583E-02
        -0.19583E-02
        -0.19583E-02
        -0.19583E-02
        -0.19583E-02
        -0.19583E-02
        -0.19583E-02
        -0.19583E-02
        -0.19583E-02
        -0.19583E-02
        -0.19583E-02
        -0.19583E-02
        -0.19583E-02
        -0.19583E-02
        -0.19583E-02
        -0.19583E-02
        -0.19583E-02
        -0.19583E-02
        -0.19583E-02
        -0.19583E-02
        -0.19583E-02
        -0.19583E-02
        -0.19583E-02
        -0.19583E-02
        -0.97917E-03
        -0.97917E-03
        -0.97917E-03
        -0.97917E-03
        -0.97917E-03
        -0.97917E-03
        -0.97917E-03
        -0.97917E-03
        -0.97917E-03
        -0.97917E-03
        -0.97917E-03
        -0.97917E-03
        -0.97917E-03
        -0.97917E-03
        -0.97917E-03
        -0.97917E-03
        -0.97917E-03
        -0.97917E-03
        -0.97917E-03
        -0.97917E-03
        -0.97917E-03
        -0.97917E-03
        -0.97917E-03
        -0.97917E-03
        -0.97917E-03
        -0.97917E-03
        -0.97917E-03
        -0.97917E-03
        -0.97917E-03
        -0.97917E-03
        -0.97917E-03
        -0.97917E-03
        -0.97917E-03
        -0.97917E-03
        -0.97917E-03
        -0.97917E-03
        -0.97917E-03
        -0.97917E-03
        -0.97917E-03
        -0.97917E-03
        -0.97917E-03
        -0.97917E-03
        -0.97917E-03
        -0.97917E-03
        -0.97917E-03
        -0.97917E-03
        -0.97917E-03
        -0.97917E-03
        -0.97917E-03
        -0.97917E-03
        -0.97917E-03
        -0.97917E-03
        -0.97917E-03
        -0.97917E-03
        -0.97917E-03
        -0.97917E-03
        -0.97917E-03
        -0.97917E-03
        -0.97917E-03
        -0.97917E-03
        -0.97917E-03
        -0.97917E-03
        -0.97917E-03
        -0.97917E-03
        -0.97917E-03
        -0.97917E-03
        -0.97917E-03
        -0.97917E-03
        -0.97917E-03
        -0.97917E-03
        -0.97917E-03
        -0.97917E-03
        -0.97917E-03
        -0.97917E-03
        -0.97917E-03
        -0.97917E-03
        -0.97917E-03
        -0.97917E-03
         0.38917E-18
         0.44621E-18
         0.34485E-18
         0.23671E-18
         0.26613E-18
         0.16162E-18
         0.53980E-18
         0.50579E-18
         0.36337E-18
         0.48798E-18
         0.60712E-18
         0.67611E-18
         0.60634E-18
         0.60658E-18
         0.70997E-18
         0.20892E-18
         0.35894E-18
         0.21887E-18
         0.27638E-18
         0.38382E-18
         0.29058E-18
         0.40326E-18
         0.18564E-18
         0.19650E-18
         0.48570E-18
         0.12837E-18
         0.60589E-18
         0.60416E-18
         0.60524E-18
         0.49621E-18
         0.61582E-19
         0.32255E-19
         0.73874E-19
         0.78478E-19
         0.34514E-18
         0.42054E-18
         0.51644E-18
         0.72521E-18
         0.72233E-18
         0.70722E-18
         0.69126E-18
         0.61573E-18
         0.51484E-18
         0.91170E-19
         0.30347E-20
        -0.66516E-19
        -0.69988E-19
        -0.68643E-19
        -0.59779E-19
        -0.43507E-19
        -0.29471E-19
         0.53205E-19
         0.86819E-18
         0.00000E+00
         0.86819E-18
         0.86819E-18
         0.00000E+00
         0.00000E+00
         0.00000E+00
         0.17364E-17
         0.17364E-17
         0.17364E-17
         0.43410E-18
         0.43410E-18
         0.43410E-18
         0.00000E+00
         0.00000E+00
         0.00000E+00
         0.00000E+00
         0.00000E+00
         0.21705E-18
        -0.21705E-18
         0.00000E+00
         0.00000E+00
         0.00000E+00
        -0.32557E-18
         0.54262E-19
        -0.40697E-18
         0.97917E-03
         0.97917E-03
         0.97917E-03
         0.97917E-03
         0.97917E-03
         0.97917E-03
         0.97917E-03
         0.97917E-03
         0.97917E-03
         0.97917E-03
         0.97917E-03
         0.97917E-03
         0.97917E-03
         0.97917E-03
         0.97917E-03
         0.97917E-03
         0.97917E-03
         0.97917E-03
         0.97917E-03
         0.97917E-03
         0.97917E-03
         0.97917E-03
         0.97917E-03
         0.97917E-03
         0.97917E-03
         0.97917E-03
         0.97917E-03
         0.97917E-03
         0.97917E-03
         0.97917E-03
         0.97917E-03
         0.97917E-03
         0.97917E-03
         0.97917E-03
         0.97917E-03
         0.97917E-03
         0.97917E-03
         0.97917E-03
         0.97917E-03
         0.97917E-03
         0.97917E-03
         0.97917E-03
         0.97917E-03
         0.97917E-03
         0.97917E-03
         0.97917E-03
         0.97917E-03
         0.97917E-03
         0.97917E-03
         0.97917E-03
         0.97917E-03
         0.97917E-03
         0.97917E-03
         0.97917E-03
         0.97917E-03
         0.97917E-03
         0.97917E-03
         0.97917E-03
         0.97917E-03
         0.97917E-03
         0.97917E-03
         0.97917E-03
         0.97917E-03
         0.97917E-03
         0.97917E-03
         0.97917E-03
         0.97917E-03
         0.97917E-03
         0.97917E-03
         0.97917E-03
         0.97917E-03
         0.97917E-03
         0.97917E-03
         0.97917E-03
         0.97917E-03
         0.97917E-03
         0.97917E-03
         0.97917E-03
         0.19583E-02
         0.19583E-02
         0.19583E-02
         0.19583E-02
         0.19583E-02
         0.19583E-02
         0.19583E-02
         0.19583E-02
         0.19583E-02
         0.19583E-02
         0.19583E-02
         0.19583E-02
         0.19583E-02
         0.19583E-02
         0.19583E-02
         0.19583E-02
         0.19583E-02
         0.19583E-02
         0.19583E-02
         0.19583E-02
         0.19583E-02
         0.19583E-02
         0.19583E-02
         0.19583E-02
         0.19583E-02
         0.19583E-02
         0.19583E-02
         0.19583E-02
         0.19583E-02
         0.19583E-02
         0.19583E-02
         0.19583E-02
         0.19583E-02
         0.19583E-02
         0.19583E-02
         0.19583E-02
         0.19583E-02
         0.19583E-02
         0.19583E-02
         0.19583E-02
         0.19583E-02
         0.19583E-02
         0.19583E-02
         0.19583E-02
         0.19583E-02
         0.19583E-02
         0.19583E-02
         0.19583E-02
         0.19583E-02
         0.19583E-02
         0.19583E-02
         0.19583E-02
         0.19583E-02
         0.19583E-02
         0.19583E-02
         0.19583E-02
         0.19583E-02
         0.19583E-02
         0.19583E-02
         0.19583E-02
         0.19583E-02
         0.19583E-02
         0.19583E-02
         0.19583E-02
         0.19583E-02
         0.19583E-02
         0.19583E-02
         0.19583E-02
         0.19583E-02
         0.19583E-02
         0.19583E-02
         0.19583E-02
         0.19583E-02
         0.19583E-02
         0.19583E-02
         0.19583E-02
         0.19583E-02
         0.19583E-02
         0.29375E-02
         0.29375E-02
         0.29375E-02
         0.29375E-02
         0.29375E-02
         0.29375E-02
         0.29375E-02
         0.29375E-02
         0.29375E-02
         0.29375E-02
         0.29375E-02
         0.29375E-02
         0.29375E-02
         0.29375E-02
         0.29375E-02
         0.29375E-02
         0.29375E-02
         0.29375E-02
         0.29375E-02
         0.29375E-02
         0.29375E-02
         0.29375E-02
         0.29375E-02
         0.29375E-02
         0.29375E-02
         0.29375E-02
         0.29375E-02
         0.29375E-02
         0.29375E-02
         0.29375E-02
         0.29375E-02
         0.29375E-02
         0.29375E-02
         0.29375E-02
         0.29375E-02
         0.29375E-02
         0.29375E-02
         0.29375E-02
         0.29375E-02
         0.29375E-02
         0.29375E-02
         0.29375E-02
         0.29375E-02
         0.29375E-02
         0.29375E-02
         0.29375E-02
         0.29375E-02
         0.29375E-02
         0.29375E-02
         0.29375E-02
         0.29375E-02
         0.29375E-02
         0.29375E-02
         0.29375E-02
         0.29375E-02
         0.29375E-02
         0.29375E-02
         0.29375E-02
         0.29375E-02
         0.29375E-02
         0.29375E-02
         0.29375E-02
         0.29375E-02
         0.29375E-02
         0.29375E-02
         0.29375E-02
         0.29375E-02
         0.29375E-02
         0.29375E-02
         0.29375E-02
         0.29375E-02
         0.29375E-02
         0.29375E-02
         0.29375E-02
         0.29375E-02
         0.29375E-02
         0.29375E-02
         0.29375E-02
         0.39167E-02
         0.39167E-02
         0.39167E-02
         0.39167E-02
         0.39167E-02
         0.39167E-02
         0.39167E-02
         0.39167E-02
         0.39167E-02
         0.39167E-02
         0.39167E-02
         0.39167E-02
         0.39167E-02
         0.39167E-02
         0.39167E-02
         0.39167E-02
         0.39167E-02
         0.39167E-02
         0.39167E-02
         0.39167E-02
         0.39167E-02
         0.39167E-02
         0.39167E-02
         0.39167E-02
         0.39167E-02
         0.39167E-02
         0.39167E-02
         0.39167E-02
         0.39167E-02
         0.39167E-02
         0.39167E-02
         0.39167E-02
         0.39167E-02
         0.39167E-02
         0.39167E-02
         0.39167E-02
         0.39167E-02
         0.39167E-02
         0.39167E-02
         0.39167E-02
         0.39167E-02
         0.39167E-02
         0.39167E-02
         0.39167E-02
         0.39167E-02
         0.39167E-02
         0.39167E-02
         0.39167E-02
         0.39167E-02
         0.39167E-02
         0.39167E-02
         0.39167E-02
         0.39167E-02
         0.39167E-02
         0.39167E-02
         0.39167E-02
         0.39167E-02
         0.39167E-02
         0.39167E-02
         0.39167E-02
         0.39167E-02
         0.39167E-02
         0.39167E-02
         0.39167E-02
         0.39167E-02
         0.39167E-02
         0.39167E-02
         0.39167E-02
         0.39167E-02
         0.39167E-02
         0.39167E-02
         0.39167E-02
         0.39167E-02
         0.39167E-02
         0.39167E-02
         0.39167E-02
         0.39167E-02
         0.39167E-02
         0.48958E-02
         0.48958E-02
         0.48958E-02
         0.48958E-02
         0.48958E-02
         0.48958E-02
         0.48958E-02
         0.48958E-02
         0.48958E-02
         0.48958E-02
         0.48958E-02
         0.48958E-02
         0.48958E-02
         0.48958E-02
         0.48958E-02
         0.48958E-02
         0.48958E-02
         0.48958E-02
         0.48958E-02
         0.48958E-02
         0.48958E-02
         0.48958E-02
         0.48958E-02
         0.48958E-02
         0.48958E-02
         0.48958E-02
         0.48958E-02
         0.48958E-02
         0.48958E-02
         0.48958E-02
         0.48958E-02
         0.48958E-02
         0.48958E-02
         0.48958E-02
         0.48958E-02
         0.48958E-02
         0.48958E-02
         0.48958E-02
         0.48958E-02
         0.48958E-02
         0.48958E-02
         0.48958E-02
         0.48958E-02
         0.48958E-02
         0.48958E-02
         0.48958E-02
         0.48958E-02
         0.48958E-02
         0.48958E-02
         0.48958E-02
         0.48958E-02
         0.48958E-02
         0.48958E-02
         0.48958E-02
         0.48958E-02
         0.48958E-02
         0.48958E-02
         0.48958E-02
         0.48958E-02
         0.48958E-02
         0.48958E-02
         0.48958E-02
         0.48958E-02
         0.48958E-02
         0.48958E-02
         0.48958E-02
         0.48958E-02
         0.48958E-02
         0.48958E-02
         0.48958E-02
         0.48958E-02
         0.48958E-02
         0.48958E-02
         0.48958E-02
         0.48958E-02
         0.48958E-02
         0.48958E-02
         0.48958E-02
         0.58750E-02
         0.58750E-02
         0.58750E-02
         0.58750E-02
         0.58750E-02
         0.58750E-02
         0.58750E-02
         0.58750E-02
         0.58750E-02
         0.58750E-02
         0.58750E-02
         0.58750E-02
         0.58750E-02
         0.58750E-02
         0.58750E-02
         0.58750E-02
         0.58750E-02
         0.58750E-02
         0.58750E-02
         0.58750E-02
         0.58750E-02
         0.58750E-02
         0.58750E-02
         0.58750E-02
         0.58750E-02
         0.58750E-02
         0.58750E-02
         0.58750E-02
         0.58750E-02
         0.58750E-02
         0.58750E-02
         0.58750E-02
         0.58750E-02
         0.58750E-02
         0.58750E-02
         0.58750E-02
         0.58750E-02
         0.58750E-02
         0.58750E-02
         0.58750E-02
         0.58750E-02
         0.58750E-02
         0.58750E-02
         0.58750E-02
         0.58750E-02
         0.58750E-02
         0.58750E-02
         0.58750E-02
         0.58750E-02
         0.58750E-02
         0.58750E-02
         0.58750E-02
         0.58750E-02
         0.58750E-02
         0.58750E-02
         0.58750E-02
         0.58750E-02
         0.58750E-02
         0.58750E-02
         0.58750E-02
         0.58750E-02
         0.58750E-02
         0.58750E-02
         0.58750E-02
         0.58750E-02
         0.58750E-02
         0.58750E-02
         0.58750E-02
         0.58750E-02
         0.58750E-02
         0.58750E-02
         0.58750E-02
         0.58750E-02
         0.58750E-02
         0.58750E-02
         0.58750E-02
         0.58750E-02
         0.58750E-02
         0.68542E-02
         0.68542E-02
         0.68542E-02
         0.68542E-02
         0.68542E-02
         0.68542E-02
         0.68542E-02
         0.68542E-02
         0.68542E-02
         0.68542E-02
         0.68542E-02
         0.68542E-02
         0.68542E-02
         0.68542E-02
         0.68542E-02
         0.68542E-02
         0.68542E-02
         0.68542E-02
         0.68542E-02
         0.68542E-02
         0.68542E-02
         0.68542E-02
         0.68542E-02
         0.68542E-02
         0.68542E-02
         0.68542E-02
         0.68542E-02
         0.68542E-02
         0.68542E-02
         0.68542E-02
         0.68542E-02
         0.68542E-02
         0.68542E-02
         0.68542E-02
         0.68542E-02
         0.68542E-02
         0.68542E-02
         0.68542E-02
         0.68542E-02
         0.68542E-02
         0.68542E-02
         0.68542E-02
         0.68542E-02
         0.68542E-02
         0.68542E-02
         0.68542E-02
         0.68542E-02
         0.68542E-02
         0.68542E-02
         0.68542E-02
         0.68542E-02
         0.68542E-02
         0.68542E-02
         0.68542E-02
         0.68542E-02
         0.68542E-02
         0.68542E-02
         0.68542E-02
         0.68542E-02
         0.68542E-02
         0.68542E-02
         0.68542E-02
         0.68542E-02
         0.68542E-02
         0.68542E-02
         0.68542E-02
         0.68542E-02
         0.68542E-02
         0.68542E-02
         0.68542E-02
         0.68542E-02
         0.68542E-02
         0.68542E-02
         0.68542E-02
         0.68542E-02
         0.68542E-02
         0.68542E-02
         0.68542E-02
         0.78333E-02
         0.78333E-02
         0.78333E-02
         0.78333E-02
         0.78333E-02
         0.78333E-02
         0.78333E-02
         0.78333E-02
         0.78333E-02
         0.78333E-02
         0.78333E-02
         0.78333E-02
         0.78333E-02
         0.78333E-02
         0.78333E-02
         0.78333E-02
         0.78333E-02
         0.78333E-02
         0.78333E-02
         0.78333E-02
         0.78333E-02
         0.78333E-02
         0.78333E-02
         0.78333E-02
         0.78333E-02
         0.78333E-02
         0.78333E-02
         0.78333E-02
         0.78333E-02
         0.78333E-02
         0.78333E-02
         0.78333E-02
         0.78333E-02
         0.78333E-02
         0.78333E-02
         0.78333E-02
         0.78333E-02
         0.78333E-02
         0.78333E-02
         0.78333E-02
         0.78333E-02
         0.78333E-02
         0.78333E-02
         0.78333E-02
         0.78333E-02
         0.78333E-02
         0.78333E-02
         0.78333E-02
         0.78333E-02
         0.78333E-02
         0.78333E-02
         0.78333E-02
         0.78333E-02
         0.78333E-02
         0.78333E-02
         0.78333E-02
         0.78333E-02
         0.78333E-02
         0.78333E-02
         0.78333E-02
         0.78333E-02
         0.78333E-02
         0.78333E-02
         0.78333E-02
         0.78333E-02
         0.78333E-02
         0.78333E-02
         0.78333E-02
         0.78333E-02
         0.78333E-02
         0.78333E-02
         0.78333E-02
         0.78333E-02
         0.78333E-02
         0.78333E-02
         0.78333E-02
         0.78333E-02
         0.78333E-02
         0.88125E-02
         0.88125E-02
         0.88125E-02
         0.88125E-02
         0.88125E-02
         0.88125E-02
         0.88125E-02
         0.88125E-02
         0.88125E-02
         0.88125E-02
         0.88125E-02
         0.88125E-02
         0.88125E-02
         0.88125E-02
         0.88125E-02
         0.88125E-02
         0.88125E-02
         0.88125E-02
         0.88125E-02
         0.88125E-02
         0.88125E-02
         0.88125E-02
         0.88125E-02
         0.88125E-02
         0.88125E-02
         0.88125E-02
         0.88125E-02
         0.88125E-02
         0.88125E-02
         0.88125E-02
         0.88125E-02
         0.88125E-02
         0.88125E-02
         0.88125E-02
         0.88125E-02
         0.88125E-02
         0.88125E-02
         0.88125E-02
         0.88125E-02
         0.88125E-02
         0.88125E-02
         0.88125E-02
         0.88125E-02
         0.88125E-02
         0.88125E-02
         0.88125E-02
         0.88125E-02
         0.88125E-02
         0.88125E-02
         0.88125E-02
         0.88125E-02
         0.88125E-02
         0.88125E-02
         0.88125E-02
         0.88125E-02
         0.88125E-02
         0.88125E-02
         0.88125E-02
         0.88125E-02
         0.88125E-02
         0.88125E-02
         0.88125E-02
         0.88125E-02
         0.88125E-02
         0.88125E-02
         0.88125E-02
         0.88125E-02
         0.88125E-02
         0.88125E-02
         0.88125E-02
         0.88125E-02
         0.88125E-02
         0.88125E-02
         0.88125E-02
         0.88125E-02
         0.88125E-02
         0.88125E-02
         0.88125E-02
         0.97917E-02
         0.97917E-02
         0.97917E-02
         0.97917E-02
         0.97917E-02
         0.97917E-02
         0.97917E-02
         0.97917E-02
         0.97917E-02
         0.97917E-02
         0.97917E-02
         0.97917E-02
         0.97917E-02
         0.97917E-02
         0.97917E-02
         0.97917E-02
         0.97917E-02
         0.97917E-02
         0.97917E-02
         0.97917E-02
         0.97917E-02
         0.97917E-02
         0.97917E-02
         0.97917E-02
         0.97917E-02
         0.97917E-02
         0.97917E-02
         0.97917E-02
         0.97917E-02
         0.97917E-02
         0.97917E-02
         0.97917E-02
         0.97917E-02
         0.97917E-02
         0.97917E-02
         0.97917E-02
         0.97917E-02
         0.97917E-02
         0.97917E-02
         0.97917E-02
         0.97917E-02
         0.97917E-02
         0.97917E-02
         0.97917E-02
         0.97917E-02
         0.97917E-02
         0.97917E-02
         0.97917E-02
         0.97917E-02
         0.97917E-02
         0.97917E-02
         0.97917E-02
         0.97917E-02
         0.97917E-02
         0.97917E-02
         0.97917E-02
         0.97917E-02
         0.97917E-02
         0.97917E-02
         0.97917E-02
         0.97917E-02
         0.97917E-02
         0.97917E-02
         0.97917E-02
         0.97917E-02
         0.97917E-02
         0.97917E-02
         0.97917E-02
         0.97917E-02
         0.97917E-02
         0.97917E-02
         0.97917E-02
         0.97917E-02
         0.97917E-02
         0.97917E-02
         0.97917E-02
         0.97917E-02
         0.97917E-02
         0.10771E-01
         0.10771E-01
         0.10771E-01
         0.10771E-01
         0.10771E-01
         0.10771E-01
         0.10771E-01
         0.10771E-01
         0.10771E-01
         0.10771E-01
         0.10771E-01
         0.10771E-01
         0.10771E-01
         0.10771E-01
         0.10771E-01
         0.10771E-01
         0.10771E-01
         0.10771E-01
         0.10771E-01
         0.10771E-01
         0.10771E-01
         0.10771E-01
         0.10771E-01
         0.10771E-01
         0.10771E-01
         0.10771E-01
         0.10771E-01
         0.10771E-01
         0.10771E-01
         0.10771E-01
         0.10771E-01
         0.10771E-01
         0.10771E-01
         0.10771E-01
         0.10771E-01
         0.10771E-01
         0.10771E-01
         0.10771E-01
         0.10771E-01
         0.10771E-01
         0.10771E-01
         0.10771E-01
         0.10771E-01
         0.10771E-01
         0.10771E-01
         0.10771E-01
         0.10771E-01
         0.10771E-01
         0.10771E-01
         0.10771E-01
         0.10771E-01
         0.10771E-01
         0.10771E-01
         0.10771E-01
         0.10771E-01
         0.10771E-01
         0.10771E-01
         0.10771E-01
         0.10771E-01
         0.10771E-01
         0.10771E-01
         0.10771E-01
         0.10771E-01
         0.10771E-01
         0.10771E-01
         0.10771E-01
         0.10771E-01
         0.10771E-01
         0.10771E-01
         0.10771E-01
         0.10771E-01
         0.10771E-01
         0.10771E-01
         0.10771E-01
         0.10771E-01
         0.10771E-01
         0.10771E-01
         0.10771E-01
         0.11750E-01
         0.11750E-01
         0.11750E-01
         0.11750E-01
         0.11750E-01
         0.11750E-01
         0.11750E-01
         0.11750E-01
         0.11750E-01
         0.11750E-01
         0.11750E-01
         0.11750E-01
         0.11750E-01
         0.11750E-01
         0.11750E-01
         0.11750E-01
         0.11750E-01
         0.11750E-01
         0.11750E-01
         0.11750E-01
         0.11750E-01
         0.11750E-01
         0.11750E-01
         0.11750E-01
         0.11750E-01
         0.11750E-01
         0.11750E-01
         0.11750E-01
         0.11750E-01
         0.11750E-01
         0.11750E-01
         0.11750E-01
         0.11750E-01
         0.11750E-01
         0.11750E-01
         0.11750E-01
         0.11750E-01
         0.11750E-01
         0.11750E-01
         0.11750E-01
         0.11750E-01
         0.11750E-01
         0.11750E-01
         0.11750E-01
         0.11750E-01
         0.11750E-01
         0.11750E-01
         0.11750E-01
         0.11750E-01
         0.11750E-01
         0.11750E-01
         0.11750E-01
         0.11750E-01
         0.11750E-01
         0.11750E-01
         0.11750E-01
         0.11750E-01
         0.11750E-01
         0.11750E-01
         0.11750E-01
         0.11750E-01
         0.11750E-01
         0.11750E-01
         0.11750E-01
         0.11750E-01
         0.11750E-01
         0.11750E-01
         0.11750E-01
         0.11750E-01
         0.11750E-01
         0.11750E-01
         0.11750E-01
         0.11750E-01
         0.11750E-01
         0.11750E-01
         0.11750E-01
         0.11750E-01
         0.11750E-01
  
SCALARS                init_velocity_x  double 1
LOOKUP_TABLE default
         0.00000E+00
         0.00000E+00
         0.00000E+00
         0.00000E+00
         0.00000E+00
         0.00000E+00
         0.00000E+00
         0.00000E+00
         0.00000E+00
         0.00000E+00
         0.00000E+00
         0.00000E+00
         0.00000E+00
         0.00000E+00
         0.00000E+00
         0.00000E+00
         0.00000E+00
         0.00000E+00
         0.00000E+00
         0.00000E+00
         0.00000E+00
         0.00000E+00
         0.00000E+00
         0.00000E+00
         0.00000E+00
         0.00000E+00
         0.00000E+00
         0.00000E+00
         0.00000E+00
         0.00000E+00
         0.00000E+00
         0.00000E+00
         0.00000E+00
         0.00000E+00
         0.00000E+00
         0.00000E+00
         0.00000E+00
         0.00000E+00
         0.00000E+00
         0.00000E+00
         0.00000E+00
         0.00000E+00
         0.00000E+00
         0.00000E+00
         0.00000E+00
         0.00000E+00
         0.00000E+00
         0.00000E+00
         0.00000E+00
         0.00000E+00
         0.00000E+00
         0.00000E+00
         0.00000E+00
         0.00000E+00
         0.00000E+00
         0.00000E+00
         0.00000E+00
         0.00000E+00
         0.00000E+00
         0.00000E+00
         0.00000E+00
         0.00000E+00
         0.00000E+00
         0.00000E+00
         0.00000E+00
         0.00000E+00
         0.00000E+00
         0.00000E+00
         0.00000E+00
         0.00000E+00
         0.00000E+00
         0.00000E+00
         0.00000E+00
         0.00000E+00
         0.00000E+00
         0.00000E+00
         0.00000E+00
         0.00000E+00
         0.00000E+00
         0.00000E+00
         0.00000E+00
         0.00000E+00
         0.00000E+00
         0.00000E+00
         0.00000E+00
         0.00000E+00
         0.00000E+00
         0.00000E+00
         0.00000E+00
         0.00000E+00
         0.00000E+00
         0.00000E+00
         0.00000E+00
         0.00000E+00
         0.00000E+00
         0.00000E+00
         0.00000E+00
         0.00000E+00
         0.00000E+00
         0.00000E+00
         0.00000E+00
         0.00000E+00
         0.00000E+00
         0.00000E+00
         0.00000E+00
         0.00000E+00
         0.00000E+00
         0.00000E+00
         0.00000E+00
         0.00000E+00
         0.00000E+00
         0.00000E+00
         0.00000E+00
         0.00000E+00
         0.00000E+00
         0.00000E+00
         0.00000E+00
         0.00000E+00
         0.00000E+00
         0.00000E+00
         0.00000E+00
         0.00000E+00
         0.00000E+00
         0.00000E+00
         0.00000E+00
         0.00000E+00
         0.00000E+00
         0.00000E+00
         0.00000E+00
         0.00000E+00
         0.00000E+00
         0.00000E+00
         0.00000E+00
         0.00000E+00
         0.00000E+00
         0.00000E+00
         0.00000E+00
         0.00000E+00
         0.00000E+00
         0.00000E+00
         0.00000E+00
         0.00000E+00
         0.00000E+00
         0.00000E+00
         0.00000E+00
         0.00000E+00
         0.00000E+00
         0.00000E+00
         0.00000E+00
         0.00000E+00
         0.00000E+00
         0.00000E+00
         0.00000E+00
         0.00000E+00
         0.00000E+00
         0.00000E+00
         0.00000E+00
         0.00000E+00
         0.00000E+00
         0.00000E+00
         0.00000E+00
         0.00000E+00
         0.00000E+00
         0.00000E+00
         0.00000E+00
         0.00000E+00
         0.00000E+00
         0.00000E+00
         0.00000E+00
         0.00000E+00
         0.00000E+00
         0.00000E+00
         0.00000E+00
         0.00000E+00
         0.00000E+00
         0.00000E+00
         0.00000E+00
         0.00000E+00
         0.00000E+00
         0.00000E+00
         0.00000E+00
         0.00000E+00
         0.00000E+00
         0.00000E+00
         0.00000E+00
         0.00000E+00
         0.00000E+00
         0.00000E+00
         0.00000E+00
         0.00000E+00
         0.00000E+00
         0.00000E+00
         0.00000E+00
         0.00000E+00
         0.00000E+00
         0.00000E+00
         0.00000E+00
         0.00000E+00
         0.00000E+00
         0.00000E+00
         0.00000E+00
         0.00000E+00
         0.00000E+00
         0.00000E+00
         0.00000E+00
         0.00000E+00
         0.00000E+00
         0.00000E+00
         0.00000E+00
         0.00000E+00
         0.00000E+00
         0.00000E+00
         0.00000E+00
         0.00000E+00
         0.00000E+00
         0.00000E+00
         0.00000E+00
         0.00000E+00
         0.00000E+00
         0.00000E+00
         0.00000E+00
         0.00000E+00
         0.00000E+00
         0.00000E+00
         0.00000E+00
         0.00000E+00
         0.00000E+00
         0.00000E+00
         0.00000E+00
         0.00000E+00
         0.00000E+00
         0.00000E+00
         0.00000E+00
         0.00000E+00
         0.00000E+00
         0.00000E+00
         0.00000E+00
         0.00000E+00
         0.00000E+00
         0.00000E+00
         0.00000E+00
         0.00000E+00
         0.00000E+00
         0.00000E+00
         0.00000E+00
         0.00000E+00
         0.00000E+00
         0.00000E+00
         0.00000E+00
         0.00000E+00
         0.00000E+00
         0.00000E+00
         0.00000E+00
         0.00000E+00
         0.00000E+00
         0.00000E+00
         0.00000E+00
         0.00000E+00
         0.00000E+00
         0.00000E+00
         0.00000E+00
         0.00000E+00
         0.00000E+00
         0.00000E+00
         0.00000E+00
         0.00000E+00
         0.00000E+00
         0.00000E+00
         0.00000E+00
         0.00000E+00
         0.00000E+00
         0.00000E+00
         0.00000E+00
         0.00000E+00
         0.00000E+00
         0.00000E+00
         0.00000E+00
         0.00000E+00
         0.00000E+00
         0.00000E+00
         0.00000E+00
         0.00000E+00
         0.00000E+00
         0.00000E+00
         0.00000E+00
         0.00000E+00
         0.00000E+00
         0.00000E+00
         0.00000E+00
         0.00000E+00
         0.00000E+00
         0.00000E+00
         0.00000E+00
         0.00000E+00
         0.00000E+00
         0.00000E+00
         0.00000E+00
         0.00000E+00
         0.00000E+00
         0.00000E+00
         0.00000E+00
         0.00000E+00
         0.00000E+00
         0.00000E+00
         0.00000E+00
         0.00000E+00
         0.00000E+00
         0.00000E+00
         0.00000E+00
         0.00000E+00
         0.00000E+00
         0.00000E+00
         0.00000E+00
         0.00000E+00
         0.00000E+00
         0.00000E+00
         0.00000E+00
         0.00000E+00
         0.00000E+00
         0.00000E+00
         0.00000E+00
         0.00000E+00
         0.00000E+00
         0.00000E+00
         0.00000E+00
         0.00000E+00
         0.00000E+00
         0.00000E+00
         0.00000E+00
         0.00000E+00
         0.00000E+00
         0.00000E+00
         0.00000E+00
         0.00000E+00
         0.00000E+00
         0.00000E+00
         0.00000E+00
         0.00000E+00
         0.00000E+00
         0.00000E+00
         0.00000E+00
         0.00000E+00
         0.00000E+00
         0.00000E+00
         0.00000E+00
         0.00000E+00
         0.00000E+00
         0.00000E+00
         0.00000E+00
         0.00000E+00
         0.00000E+00
         0.00000E+00
         0.00000E+00
         0.00000E+00
         0.00000E+00
         0.00000E+00
         0.00000E+00
         0.00000E+00
         0.00000E+00
         0.00000E+00
         0.00000E+00
         0.00000E+00
         0.00000E+00
         0.00000E+00
         0.00000E+00
         0.00000E+00
         0.00000E+00
         0.00000E+00
         0.00000E+00
         0.00000E+00
         0.00000E+00
         0.00000E+00
         0.00000E+00
         0.00000E+00
         0.00000E+00
         0.00000E+00
         0.00000E+00
         0.00000E+00
         0.00000E+00
         0.00000E+00
         0.00000E+00
         0.00000E+00
         0.00000E+00
         0.00000E+00
         0.00000E+00
         0.00000E+00
         0.00000E+00
         0.00000E+00
         0.00000E+00
         0.00000E+00
         0.00000E+00
         0.00000E+00
         0.00000E+00
         0.00000E+00
         0.00000E+00
         0.00000E+00
         0.00000E+00
         0.00000E+00
         0.00000E+00
         0.00000E+00
         0.00000E+00
         0.00000E+00
         0.00000E+00
         0.00000E+00
         0.00000E+00
         0.00000E+00
         0.00000E+00
         0.00000E+00
         0.00000E+00
         0.00000E+00
         0.00000E+00
         0.00000E+00
         0.00000E+00
         0.00000E+00
         0.00000E+00
         0.00000E+00
         0.00000E+00
         0.00000E+00
         0.00000E+00
         0.00000E+00
         0.00000E+00
         0.00000E+00
         0.00000E+00
         0.00000E+00
         0.00000E+00
         0.00000E+00
         0.00000E+00
         0.00000E+00
         0.00000E+00
         0.00000E+00
         0.00000E+00
         0.00000E+00
         0.00000E+00
         0.00000E+00
         0.00000E+00
         0.00000E+00
         0.00000E+00
         0.00000E+00
         0.00000E+00
         0.00000E+00
         0.00000E+00
         0.00000E+00
         0.00000E+00
         0.00000E+00
         0.00000E+00
         0.00000E+00
         0.00000E+00
         0.00000E+00
         0.00000E+00
         0.00000E+00
         0.00000E+00
         0.00000E+00
         0.00000E+00
         0.00000E+00
         0.00000E+00
         0.00000E+00
         0.00000E+00
         0.00000E+00
         0.00000E+00
         0.00000E+00
         0.00000E+00
         0.00000E+00
         0.00000E+00
         0.00000E+00
         0.00000E+00
         0.00000E+00
         0.00000E+00
         0.00000E+00
         0.00000E+00
         0.00000E+00
         0.00000E+00
         0.00000E+00
         0.00000E+00
         0.00000E+00
         0.00000E+00
         0.00000E+00
         0.00000E+00
         0.00000E+00
         0.00000E+00
         0.00000E+00
         0.00000E+00
         0.00000E+00
         0.00000E+00
         0.00000E+00
         0.00000E+00
         0.00000E+00
         0.00000E+00
         0.00000E+00
         0.00000E+00
         0.00000E+00
         0.00000E+00
         0.00000E+00
         0.00000E+00
         0.00000E+00
         0.00000E+00
         0.00000E+00
         0.00000E+00
         0.00000E+00
         0.00000E+00
         0.00000E+00
         0.00000E+00
         0.00000E+00
         0.00000E+00
         0.00000E+00
         0.00000E+00
         0.00000E+00
         0.00000E+00
         0.00000E+00
         0.00000E+00
         0.00000E+00
         0.00000E+00
         0.00000E+00
         0.00000E+00
         0.00000E+00
         0.00000E+00
         0.00000E+00
         0.00000E+00
         0.00000E+00
         0.00000E+00
         0.00000E+00
         0.00000E+00
         0.00000E+00
         0.00000E+00
         0.00000E+00
         0.00000E+00
         0.00000E+00
         0.00000E+00
         0.00000E+00
         0.00000E+00
         0.00000E+00
         0.00000E+00
         0.00000E+00
         0.00000E+00
         0.00000E+00
         0.00000E+00
         0.00000E+00
         0.00000E+00
         0.00000E+00
         0.00000E+00
         0.00000E+00
         0.00000E+00
         0.00000E+00
         0.00000E+00
         0.00000E+00
         0.00000E+00
         0.00000E+00
         0.00000E+00
         0.00000E+00
         0.00000E+00
         0.00000E+00
         0.00000E+00
         0.00000E+00
         0.00000E+00
         0.00000E+00
         0.00000E+00
         0.00000E+00
         0.00000E+00
         0.00000E+00
         0.00000E+00
         0.00000E+00
         0.00000E+00
         0.00000E+00
         0.00000E+00
         0.00000E+00
         0.00000E+00
         0.00000E+00
         0.00000E+00
         0.00000E+00
         0.00000E+00
         0.00000E+00
         0.00000E+00
         0.00000E+00
         0.00000E+00
         0.00000E+00
         0.00000E+00
         0.00000E+00
         0.00000E+00
         0.00000E+00
         0.00000E+00
         0.00000E+00
         0.00000E+00
         0.00000E+00
         0.00000E+00
         0.00000E+00
         0.00000E+00
         0.00000E+00
         0.00000E+00
         0.00000E+00
         0.00000E+00
         0.00000E+00
         0.00000E+00
         0.00000E+00
         0.00000E+00
         0.00000E+00
         0.00000E+00
         0.00000E+00
         0.00000E+00
         0.00000E+00
         0.00000E+00
         0.00000E+00
         0.00000E+00
         0.00000E+00
         0.00000E+00
         0.00000E+00
         0.00000E+00
         0.00000E+00
         0.00000E+00
         0.00000E+00
         0.00000E+00
         0.00000E+00
         0.00000E+00
         0.00000E+00
         0.00000E+00
         0.00000E+00
         0.00000E+00
         0.00000E+00
         0.00000E+00
         0.00000E+00
         0.00000E+00
         0.00000E+00
         0.00000E+00
         0.00000E+00
         0.00000E+00
         0.00000E+00
         0.00000E+00
         0.00000E+00
         0.00000E+00
         0.00000E+00
         0.00000E+00
         0.00000E+00
         0.00000E+00
         0.00000E+00
         0.00000E+00
         0.00000E+00
         0.00000E+00
         0.00000E+00
         0.00000E+00
         0.00000E+00
         0.00000E+00
         0.00000E+00
         0.00000E+00
         0.00000E+00
         0.00000E+00
         0.00000E+00
         0.00000E+00
         0.00000E+00
         0.00000E+00
         0.00000E+00
         0.00000E+00
         0.00000E+00
         0.00000E+00
         0.00000E+00
         0.00000E+00
         0.00000E+00
         0.00000E+00
         0.00000E+00
         0.00000E+00
         0.00000E+00
         0.00000E+00
         0.00000E+00
         0.00000E+00
         0.00000E+00
         0.00000E+00
         0.00000E+00
         0.00000E+00
         0.00000E+00
         0.00000E+00
         0.00000E+00
         0.00000E+00
         0.00000E+00
         0.00000E+00
         0.00000E+00
         0.00000E+00
         0.00000E+00
         0.00000E+00
         0.00000E+00
         0.00000E+00
         0.00000E+00
         0.00000E+00
         0.00000E+00
         0.00000E+00
         0.00000E+00
         0.00000E+00
         0.00000E+00
         0.00000E+00
         0.00000E+00
         0.00000E+00
         0.00000E+00
         0.00000E+00
         0.00000E+00
         0.00000E+00
         0.00000E+00
         0.00000E+00
         0.00000E+00
         0.00000E+00
         0.00000E+00
         0.00000E+00
         0.00000E+00
         0.00000E+00
         0.00000E+00
         0.00000E+00
         0.00000E+00
         0.00000E+00
         0.00000E+00
         0.00000E+00
         0.00000E+00
         0.00000E+00
         0.00000E+00
         0.00000E+00
         0.00000E+00
         0.00000E+00
         0.00000E+00
         0.00000E+00
         0.00000E+00
         0.00000E+00
         0.00000E+00
         0.00000E+00
         0.00000E+00
         0.00000E+00
         0.00000E+00
         0.00000E+00
         0.00000E+00
         0.00000E+00
         0.00000E+00
         0.00000E+00
         0.00000E+00
         0.00000E+00
         0.00000E+00
         0.00000E+00
         0.00000E+00
         0.00000E+00
         0.00000E+00
         0.00000E+00
         0.00000E+00
         0.00000E+00
         0.00000E+00
         0.00000E+00
         0.00000E+00
         0.00000E+00
         0.00000E+00
         0.00000E+00
         0.00000E+00
         0.00000E+00
         0.00000E+00
         0.00000E+00
         0.00000E+00
         0.00000E+00
         0.00000E+00
         0.00000E+00
         0.00000E+00
         0.00000E+00
         0.00000E+00
         0.00000E+00
         0.00000E+00
         0.00000E+00
         0.00000E+00
         0.00000E+00
         0.00000E+00
         0.00000E+00
         0.00000E+00
         0.00000E+00
         0.00000E+00
         0.00000E+00
         0.00000E+00
         0.00000E+00
         0.00000E+00
         0.00000E+00
         0.00000E+00
         0.00000E+00
         0.00000E+00
         0.00000E+00
         0.00000E+00
         0.00000E+00
         0.00000E+00
         0.00000E+00
         0.00000E+00
         0.00000E+00
         0.00000E+00
         0.00000E+00
         0.00000E+00
         0.00000E+00
         0.00000E+00
         0.00000E+00
         0.00000E+00
         0.00000E+00
         0.00000E+00
         0.00000E+00
         0.00000E+00
         0.00000E+00
         0.00000E+00
         0.00000E+00
         0.00000E+00
         0.00000E+00
         0.00000E+00
         0.00000E+00
         0.00000E+00
         0.00000E+00
         0.00000E+00
         0.00000E+00
         0.00000E+00
         0.00000E+00
         0.00000E+00
         0.00000E+00
         0.00000E+00
         0.00000E+00
         0.00000E+00
         0.00000E+00
         0.00000E+00
         0.00000E+00
         0.00000E+00
         0.00000E+00
         0.00000E+00
         0.00000E+00
         0.00000E+00
         0.00000E+00
         0.00000E+00
         0.00000E+00
         0.00000E+00
         0.00000E+00
         0.00000E+00
         0.00000E+00
         0.00000E+00
         0.00000E+00
         0.00000E+00
         0.00000E+00
         0.00000E+00
         0.00000E+00
         0.00000E+00
         0.00000E+00
         0.00000E+00
         0.00000E+00
         0.00000E+00
         0.00000E+00
         0.00000E+00
         0.00000E+00
         0.00000E+00
         0.00000E+00
         0.00000E+00
         0.00000E+00
         0.00000E+00
         0.00000E+00
         0.00000E+00
         0.00000E+00
         0.00000E+00
         0.00000E+00
         0.00000E+00
         0.00000E+00
         0.00000E+00
         0.00000E+00
         0.00000E+00
         0.00000E+00
         0.00000E+00
         0.00000E+00
         0.00000E+00
         0.00000E+00
         0.00000E+00
         0.00000E+00
         0.00000E+00
         0.00000E+00
         0.00000E+00
         0.00000E+00
         0.00000E+00
         0.00000E+00
         0.00000E+00
         0.00000E+00
         0.00000E+00
         0.00000E+00
         0.00000E+00
         0.00000E+00
         0.00000E+00
         0.00000E+00
         0.00000E+00
         0.00000E+00
         0.00000E+00
         0.00000E+00
         0.00000E+00
         0.00000E+00
         0.00000E+00
         0.00000E+00
         0.00000E+00
         0.00000E+00
         0.00000E+00
         0.00000E+00
         0.00000E+00
         0.00000E+00
         0.00000E+00
         0.00000E+00
         0.00000E+00
         0.00000E+00
         0.00000E+00
         0.00000E+00
         0.00000E+00
         0.00000E+00
         0.00000E+00
         0.00000E+00
         0.00000E+00
         0.00000E+00
         0.00000E+00
         0.00000E+00
         0.00000E+00
         0.00000E+00
         0.00000E+00
         0.00000E+00
         0.00000E+00
         0.00000E+00
         0.00000E+00
         0.00000E+00
         0.00000E+00
         0.00000E+00
         0.00000E+00
         0.00000E+00
         0.00000E+00
         0.00000E+00
         0.00000E+00
         0.00000E+00
         0.00000E+00
         0.00000E+00
         0.00000E+00
         0.00000E+00
         0.00000E+00
         0.00000E+00
         0.00000E+00
         0.00000E+00
         0.00000E+00
         0.00000E+00
         0.00000E+00
         0.00000E+00
         0.00000E+00
         0.00000E+00
         0.00000E+00
         0.00000E+00
         0.00000E+00
         0.00000E+00
         0.00000E+00
         0.00000E+00
         0.00000E+00
         0.00000E+00
         0.00000E+00
         0.00000E+00
         0.00000E+00
         0.00000E+00
         0.00000E+00
         0.00000E+00
         0.00000E+00
         0.00000E+00
         0.00000E+00
         0.00000E+00
         0.00000E+00
         0.00000E+00
         0.00000E+00
         0.00000E+00
         0.00000E+00
         0.00000E+00
         0.00000E+00
         0.00000E+00
         0.00000E+00
         0.00000E+00
         0.00000E+00
         0.00000E+00
         0.00000E+00
         0.00000E+00
         0.00000E+00
         0.00000E+00
         0.00000E+00
         0.00000E+00
         0.00000E+00
         0.00000E+00
         0.00000E+00
         0.00000E+00
         0.00000E+00
         0.00000E+00
         0.00000E+00
         0.00000E+00
         0.00000E+00
         0.00000E+00
         0.00000E+00
         0.00000E+00
         0.00000E+00
         0.00000E+00
         0.00000E+00
         0.00000E+00
         0.00000E+00
         0.00000E+00
         0.00000E+00
         0.00000E+00
         0.00000E+00
         0.00000E+00
         0.00000E+00
         0.00000E+00
         0.00000E+00
         0.00000E+00
         0.00000E+00
         0.00000E+00
         0.00000E+00
         0.00000E+00
         0.00000E+00
         0.00000E+00
         0.00000E+00
         0.00000E+00
         0.00000E+00
         0.00000E+00
         0.00000E+00
         0.00000E+00
         0.00000E+00
         0.00000E+00
         0.00000E+00
         0.00000E+00
         0.00000E+00
         0.00000E+00
         0.00000E+00
         0.00000E+00
         0.00000E+00
         0.00000E+00
         0.00000E+00
         0.00000E+00
         0.00000E+00
         0.00000E+00
         0.00000E+00
         0.00000E+00
         0.00000E+00
         0.00000E+00
         0.00000E+00
         0.00000E+00
         0.00000E+00
         0.00000E+00
         0.00000E+00
         0.00000E+00
         0.00000E+00
         0.00000E+00
         0.00000E+00
         0.00000E+00
         0.00000E+00
         0.00000E+00
         0.00000E+00
         0.00000E+00
         0.00000E+00
         0.00000E+00
         0.00000E+00
         0.00000E+00
         0.00000E+00
         0.00000E+00
         0.00000E+00
         0.00000E+00
         0.00000E+00
         0.00000E+00
         0.00000E+00
         0.00000E+00
         0.00000E+00
         0.00000E+00
         0.00000E+00
         0.00000E+00
         0.00000E+00
         0.00000E+00
         0.00000E+00
         0.00000E+00
         0.00000E+00
         0.00000E+00
         0.00000E+00
         0.00000E+00
         0.00000E+00
         0.00000E+00
         0.00000E+00
         0.00000E+00
         0.00000E+00
         0.00000E+00
         0.00000E+00
         0.00000E+00
         0.00000E+00
         0.00000E+00
         0.00000E+00
         0.00000E+00
         0.00000E+00
         0.00000E+00
         0.00000E+00
         0.00000E+00
         0.00000E+00
         0.00000E+00
         0.00000E+00
         0.00000E+00
         0.00000E+00
         0.00000E+00
         0.00000E+00
         0.00000E+00
         0.00000E+00
         0.00000E+00
         0.00000E+00
         0.00000E+00
         0.00000E+00
         0.00000E+00
         0.00000E+00
         0.00000E+00
         0.00000E+00
         0.00000E+00
         0.00000E+00
         0.00000E+00
         0.00000E+00
         0.00000E+00
         0.00000E+00
         0.00000E+00
         0.00000E+00
         0.00000E+00
         0.00000E+00
         0.00000E+00
         0.00000E+00
         0.00000E+00
         0.00000E+00
         0.00000E+00
         0.00000E+00
         0.00000E+00
         0.00000E+00
         0.00000E+00
         0.00000E+00
         0.00000E+00
         0.00000E+00
         0.00000E+00
         0.00000E+00
         0.00000E+00
         0.00000E+00
         0.00000E+00
         0.00000E+00
         0.00000E+00
         0.00000E+00
         0.00000E+00
         0.00000E+00
         0.00000E+00
         0.00000E+00
         0.00000E+00
         0.00000E+00
         0.00000E+00
         0.00000E+00
         0.00000E+00
         0.00000E+00
         0.00000E+00
         0.00000E+00
         0.00000E+00
         0.00000E+00
         0.00000E+00
         0.00000E+00
         0.00000E+00
         0.00000E+00
         0.00000E+00
         0.00000E+00
         0.00000E+00
         0.00000E+00
         0.00000E+00
         0.00000E+00
         0.00000E+00
         0.00000E+00
         0.00000E+00
         0.00000E+00
         0.00000E+00
         0.00000E+00
         0.00000E+00
         0.00000E+00
         0.00000E+00
         0.00000E+00
         0.00000E+00
         0.00000E+00
         0.00000E+00
         0.00000E+00
         0.00000E+00
         0.00000E+00
         0.00000E+00
         0.00000E+00
         0.00000E+00
         0.00000E+00
         0.00000E+00
         0.00000E+00
         0.00000E+00
         0.00000E+00
         0.00000E+00
         0.00000E+00
         0.00000E+00
         0.00000E+00
         0.00000E+00
         0.00000E+00
         0.00000E+00
         0.00000E+00
         0.00000E+00
         0.00000E+00
         0.00000E+00
         0.00000E+00
         0.00000E+00
         0.00000E+00
         0.00000E+00
         0.00000E+00
         0.00000E+00
         0.00000E+00
         0.00000E+00
         0.00000E+00
         0.00000E+00
         0.00000E+00
         0.00000E+00
         0.00000E+00
         0.00000E+00
         0.00000E+00
         0.00000E+00
         0.00000E+00
         0.00000E+00
         0.00000E+00
         0.00000E+00
         0.00000E+00
         0.00000E+00
         0.00000E+00
         0.00000E+00
         0.00000E+00
         0.00000E+00
         0.00000E+00
         0.00000E+00
         0.00000E+00
         0.00000E+00
         0.00000E+00
         0.00000E+00
         0.00000E+00
         0.00000E+00
         0.00000E+00
         0.00000E+00
         0.00000E+00
         0.00000E+00
         0.00000E+00
         0.00000E+00
         0.00000E+00
         0.00000E+00
         0.00000E+00
         0.00000E+00
         0.00000E+00
         0.00000E+00
         0.00000E+00
         0.00000E+00
         0.00000E+00
         0.00000E+00
         0.00000E+00
         0.00000E+00
         0.00000E+00
         0.00000E+00
         0.00000E+00
         0.00000E+00
         0.00000E+00
         0.00000E+00
         0.00000E+00
         0.00000E+00
         0.00000E+00
         0.00000E+00
         0.00000E+00
         0.00000E+00
         0.00000E+00
         0.00000E+00
         0.00000E+00
         0.00000E+00
         0.00000E+00
         0.00000E+00
         0.00000E+00
         0.00000E+00
         0.00000E+00
         0.00000E+00
         0.00000E+00
         0.00000E+00
         0.00000E+00
         0.00000E+00
         0.00000E+00
         0.00000E+00
         0.00000E+00
         0.00000E+00
         0.00000E+00
         0.00000E+00
         0.00000E+00
         0.00000E+00
         0.00000E+00
         0.00000E+00
         0.00000E+00
         0.00000E+00
         0.00000E+00
         0.00000E+00
         0.00000E+00
         0.00000E+00
         0.00000E+00
         0.00000E+00
         0.00000E+00
         0.00000E+00
         0.00000E+00
         0.00000E+00
         0.00000E+00
         0.00000E+00
         0.00000E+00
         0.00000E+00
         0.00000E+00
         0.00000E+00
         0.00000E+00
         0.00000E+00
         0.00000E+00
         0.00000E+00
         0.00000E+00
         0.00000E+00
         0.00000E+00
         0.00000E+00
         0.00000E+00
         0.00000E+00
         0.00000E+00
         0.00000E+00
         0.00000E+00
         0.00000E+00
         0.00000E+00
         0.00000E+00
         0.00000E+00
         0.00000E+00
         0.00000E+00
         0.00000E+00
         0.00000E+00
         0.00000E+00
         0.00000E+00
         0.00000E+00
         0.00000E+00
         0.00000E+00
         0.00000E+00
         0.00000E+00
         0.00000E+00
         0.00000E+00
         0.00000E+00
         0.00000E+00
         0.00000E+00
         0.00000E+00
         0.00000E+00
         0.00000E+00
         0.00000E+00
         0.00000E+00
         0.00000E+00
         0.00000E+00
         0.00000E+00
         0.00000E+00
         0.00000E+00
         0.00000E+00
         0.00000E+00
         0.00000E+00
         0.00000E+00
         0.00000E+00
         0.00000E+00
         0.00000E+00
         0.00000E+00
         0.00000E+00
         0.00000E+00
         0.00000E+00
         0.00000E+00
         0.00000E+00
         0.00000E+00
         0.00000E+00
         0.00000E+00
         0.00000E+00
         0.00000E+00
         0.00000E+00
         0.00000E+00
         0.00000E+00
         0.00000E+00
         0.00000E+00
         0.00000E+00
         0.00000E+00
         0.00000E+00
         0.00000E+00
         0.00000E+00
         0.00000E+00
         0.00000E+00
         0.00000E+00
         0.00000E+00
         0.00000E+00
         0.00000E+00
         0.00000E+00
         0.00000E+00
         0.00000E+00
         0.00000E+00
         0.00000E+00
         0.00000E+00
         0.00000E+00
         0.00000E+00
         0.00000E+00
         0.00000E+00
         0.00000E+00
         0.00000E+00
         0.00000E+00
         0.00000E+00
         0.00000E+00
         0.00000E+00
         0.00000E+00
         0.00000E+00
         0.00000E+00
         0.00000E+00
         0.00000E+00
         0.00000E+00
         0.00000E+00
         0.00000E+00
         0.00000E+00
         0.00000E+00
         0.00000E+00
         0.00000E+00
         0.00000E+00
         0.00000E+00
         0.00000E+00
         0.00000E+00
         0.00000E+00
         0.00000E+00
         0.00000E+00
         0.00000E+00
         0.00000E+00
         0.00000E+00
         0.00000E+00
         0.00000E+00
         0.00000E+00
         0.00000E+00
         0.00000E+00
         0.00000E+00
         0.00000E+00
         0.00000E+00
         0.00000E+00
         0.00000E+00
         0.00000E+00
         0.00000E+00
         0.00000E+00
         0.00000E+00
         0.00000E+00
         0.00000E+00
         0.00000E+00
         0.00000E+00
         0.00000E+00
         0.00000E+00
         0.00000E+00
         0.00000E+00
         0.00000E+00
         0.00000E+00
         0.00000E+00
         0.00000E+00
         0.00000E+00
         0.00000E+00
         0.00000E+00
         0.00000E+00
         0.00000E+00
         0.00000E+00
         0.00000E+00
         0.00000E+00
         0.00000E+00
         0.00000E+00
         0.00000E+00
         0.00000E+00
         0.00000E+00
         0.00000E+00
         0.00000E+00
         0.00000E+00
         0.00000E+00
         0.00000E+00
         0.00000E+00
         0.00000E+00
         0.00000E+00
         0.00000E+00
         0.00000E+00
         0.00000E+00
         0.00000E+00
         0.00000E+00
         0.00000E+00
         0.00000E+00
         0.00000E+00
         0.00000E+00
         0.00000E+00
         0.00000E+00
         0.00000E+00
         0.00000E+00
         0.00000E+00
         0.00000E+00
         0.00000E+00
         0.00000E+00
         0.00000E+00
         0.00000E+00
         0.00000E+00
         0.00000E+00
         0.00000E+00
         0.00000E+00
         0.00000E+00
         0.00000E+00
         0.00000E+00
         0.00000E+00
         0.00000E+00
         0.00000E+00
         0.00000E+00
         0.00000E+00
         0.00000E+00
         0.00000E+00
         0.00000E+00
         0.00000E+00
         0.00000E+00
         0.00000E+00
         0.00000E+00
         0.00000E+00
         0.00000E+00
         0.00000E+00
         0.00000E+00
         0.00000E+00
         0.00000E+00
         0.00000E+00
         0.00000E+00
         0.00000E+00
         0.00000E+00
         0.00000E+00
         0.00000E+00
         0.00000E+00
         0.00000E+00
         0.00000E+00
         0.00000E+00
         0.00000E+00
         0.00000E+00
         0.00000E+00
         0.00000E+00
         0.00000E+00
         0.00000E+00
         0.00000E+00
         0.00000E+00
         0.00000E+00
         0.00000E+00
         0.00000E+00
         0.00000E+00
         0.00000E+00
         0.00000E+00
         0.00000E+00
         0.00000E+00
         0.00000E+00
         0.00000E+00
         0.00000E+00
         0.00000E+00
         0.00000E+00
         0.00000E+00
         0.00000E+00
         0.00000E+00
         0.00000E+00
         0.00000E+00
         0.00000E+00
         0.00000E+00
         0.00000E+00
         0.00000E+00
         0.00000E+00
         0.00000E+00
         0.00000E+00
         0.00000E+00
         0.00000E+00
         0.00000E+00
         0.00000E+00
         0.00000E+00
         0.00000E+00
         0.00000E+00
         0.00000E+00
         0.00000E+00
         0.00000E+00
         0.00000E+00
         0.00000E+00
         0.00000E+00
         0.00000E+00
         0.00000E+00
         0.00000E+00
         0.00000E+00
         0.00000E+00
         0.00000E+00
         0.00000E+00
         0.00000E+00
         0.00000E+00
         0.00000E+00
         0.00000E+00
         0.00000E+00
         0.00000E+00
         0.00000E+00
         0.00000E+00
         0.00000E+00
         0.00000E+00
         0.00000E+00
         0.00000E+00
         0.00000E+00
         0.00000E+00
         0.00000E+00
         0.00000E+00
         0.00000E+00
         0.00000E+00
         0.00000E+00
         0.00000E+00
         0.00000E+00
         0.00000E+00
         0.00000E+00
         0.00000E+00
         0.00000E+00
         0.00000E+00
         0.00000E+00
         0.00000E+00
         0.00000E+00
         0.00000E+00
         0.00000E+00
         0.00000E+00
         0.00000E+00
         0.00000E+00
         0.00000E+00
         0.00000E+00
         0.00000E+00
         0.00000E+00
         0.00000E+00
         0.00000E+00
         0.00000E+00
         0.00000E+00
         0.00000E+00
         0.00000E+00
         0.00000E+00
         0.00000E+00
         0.00000E+00
         0.00000E+00
         0.00000E+00
         0.00000E+00
         0.00000E+00
         0.00000E+00
         0.00000E+00
         0.00000E+00
         0.00000E+00
         0.00000E+00
         0.00000E+00
         0.00000E+00
         0.00000E+00
         0.00000E+00
         0.00000E+00
         0.00000E+00
         0.00000E+00
         0.00000E+00
         0.00000E+00
         0.00000E+00
         0.00000E+00
         0.00000E+00
         0.00000E+00
         0.00000E+00
         0.00000E+00
         0.00000E+00
         0.00000E+00
         0.00000E+00
         0.00000E+00
         0.00000E+00
         0.00000E+00
         0.00000E+00
         0.00000E+00
         0.00000E+00
         0.00000E+00
         0.00000E+00
         0.00000E+00
         0.00000E+00
         0.00000E+00
         0.00000E+00
         0.00000E+00
         0.00000E+00
         0.00000E+00
         0.00000E+00
         0.00000E+00
         0.00000E+00
         0.00000E+00
         0.00000E+00
         0.00000E+00
         0.00000E+00
         0.00000E+00
         0.00000E+00
         0.00000E+00
         0.00000E+00
         0.00000E+00
         0.00000E+00
         0.00000E+00
         0.00000E+00
         0.00000E+00
         0.00000E+00
         0.00000E+00
         0.00000E+00
         0.00000E+00
         0.00000E+00
         0.00000E+00
         0.00000E+00
         0.00000E+00
         0.00000E+00
         0.00000E+00
         0.00000E+00
         0.00000E+00
         0.00000E+00
         0.00000E+00
         0.00000E+00
         0.00000E+00
         0.00000E+00
         0.00000E+00
         0.00000E+00
         0.00000E+00
         0.00000E+00
         0.00000E+00
         0.00000E+00
         0.00000E+00
         0.00000E+00
         0.00000E+00
         0.00000E+00
         0.00000E+00
         0.00000E+00
         0.00000E+00
         0.00000E+00
         0.00000E+00
         0.00000E+00
         0.00000E+00
         0.00000E+00
         0.00000E+00
         0.00000E+00
         0.00000E+00
         0.00000E+00
         0.00000E+00
         0.00000E+00
         0.00000E+00
         0.00000E+00
         0.00000E+00
         0.00000E+00
         0.00000E+00
         0.00000E+00
         0.00000E+00
         0.00000E+00
         0.00000E+00
         0.00000E+00
         0.00000E+00
         0.00000E+00
         0.00000E+00
         0.00000E+00
         0.00000E+00
         0.00000E+00
         0.00000E+00
         0.00000E+00
         0.00000E+00
         0.00000E+00
         0.00000E+00
         0.00000E+00
         0.00000E+00
         0.00000E+00
         0.00000E+00
         0.00000E+00
         0.00000E+00
         0.00000E+00
         0.00000E+00
         0.00000E+00
         0.00000E+00
         0.00000E+00
         0.00000E+00
         0.00000E+00
         0.00000E+00
         0.00000E+00
         0.00000E+00
         0.00000E+00
         0.00000E+00
         0.00000E+00
         0.00000E+00
         0.00000E+00
         0.00000E+00
         0.00000E+00
         0.00000E+00
         0.00000E+00
         0.00000E+00
         0.00000E+00
         0.00000E+00
         0.00000E+00
         0.00000E+00
         0.00000E+00
         0.00000E+00
         0.00000E+00
         0.00000E+00
         0.00000E+00
         0.00000E+00
         0.00000E+00
         0.00000E+00
         0.00000E+00
         0.00000E+00
         0.00000E+00
         0.00000E+00
         0.00000E+00
         0.00000E+00
         0.00000E+00
         0.00000E+00
         0.00000E+00
         0.00000E+00
         0.00000E+00
         0.00000E+00
         0.00000E+00
         0.00000E+00
         0.00000E+00
         0.00000E+00
         0.00000E+00
         0.00000E+00
         0.00000E+00
         0.00000E+00
         0.00000E+00
         0.00000E+00
         0.00000E+00
         0.00000E+00
         0.00000E+00
         0.00000E+00
         0.00000E+00
         0.00000E+00
         0.00000E+00
         0.00000E+00
         0.00000E+00
         0.00000E+00
         0.00000E+00
         0.00000E+00
         0.00000E+00
         0.00000E+00
         0.00000E+00
         0.00000E+00
         0.00000E+00
         0.00000E+00
         0.00000E+00
         0.00000E+00
         0.00000E+00
         0.00000E+00
         0.00000E+00
         0.00000E+00
         0.00000E+00
         0.00000E+00
         0.00000E+00
         0.00000E+00
         0.00000E+00
         0.00000E+00
         0.00000E+00
         0.00000E+00
         0.00000E+00
         0.00000E+00
         0.00000E+00
         0.00000E+00
         0.00000E+00
         0.00000E+00
         0.00000E+00
         0.00000E+00
         0.00000E+00
         0.00000E+00
         0.00000E+00
         0.00000E+00
         0.00000E+00
         0.00000E+00
         0.00000E+00
         0.00000E+00
         0.00000E+00
         0.00000E+00
         0.00000E+00
         0.00000E+00
         0.00000E+00
         0.00000E+00
         0.00000E+00
         0.00000E+00
         0.00000E+00
         0.00000E+00
         0.00000E+00
         0.00000E+00
         0.00000E+00
         0.00000E+00
         0.00000E+00
         0.00000E+00
         0.00000E+00
         0.00000E+00
         0.00000E+00
         0.00000E+00
         0.00000E+00
         0.00000E+00
         0.00000E+00
         0.00000E+00
         0.00000E+00
         0.00000E+00
         0.00000E+00
         0.00000E+00
         0.00000E+00
         0.00000E+00
         0.00000E+00
         0.00000E+00
         0.00000E+00
         0.00000E+00
         0.00000E+00
         0.00000E+00
         0.00000E+00
         0.00000E+00
         0.00000E+00
         0.00000E+00
         0.00000E+00
         0.00000E+00
         0.00000E+00
         0.00000E+00
         0.00000E+00
         0.00000E+00
         0.00000E+00
         0.00000E+00
         0.00000E+00
         0.00000E+00
         0.00000E+00
         0.00000E+00
         0.00000E+00
         0.00000E+00
         0.00000E+00
         0.00000E+00
         0.00000E+00
         0.00000E+00
         0.00000E+00
         0.00000E+00
         0.00000E+00
         0.00000E+00
         0.00000E+00
         0.00000E+00
         0.00000E+00
         0.00000E+00
         0.00000E+00
         0.00000E+00
         0.00000E+00
         0.00000E+00
         0.00000E+00
         0.00000E+00
         0.00000E+00
         0.00000E+00
         0.00000E+00
         0.00000E+00
         0.00000E+00
         0.00000E+00
         0.00000E+00
         0.00000E+00
         0.00000E+00
         0.00000E+00
         0.00000E+00
         0.00000E+00
         0.00000E+00
         0.00000E+00
         0.00000E+00
         0.00000E+00
         0.00000E+00
         0.00000E+00
         0.00000E+00
         0.00000E+00
         0.00000E+00
         0.00000E+00
         0.00000E+00
         0.00000E+00
         0.00000E+00
         0.00000E+00
         0.00000E+00
         0.00000E+00
         0.00000E+00
         0.00000E+00
         0.00000E+00
         0.00000E+00
         0.00000E+00
         0.00000E+00
         0.00000E+00
         0.00000E+00
         0.00000E+00
         0.00000E+00
         0.00000E+00
         0.00000E+00
         0.00000E+00
         0.00000E+00
         0.00000E+00
         0.00000E+00
         0.00000E+00
         0.00000E+00
         0.00000E+00
  
SCALARS                init_velocity_y  double 1
LOOKUP_TABLE default
         0.00000E+00
         0.00000E+00
         0.00000E+00
         0.00000E+00
         0.00000E+00
         0.00000E+00
         0.00000E+00
         0.00000E+00
         0.00000E+00
         0.00000E+00
         0.00000E+00
         0.00000E+00
         0.00000E+00
         0.00000E+00
         0.00000E+00
         0.00000E+00
         0.00000E+00
         0.00000E+00
         0.00000E+00
         0.00000E+00
         0.00000E+00
         0.00000E+00
         0.00000E+00
         0.00000E+00
         0.00000E+00
         0.00000E+00
         0.00000E+00
         0.00000E+00
         0.00000E+00
         0.00000E+00
         0.00000E+00
         0.00000E+00
         0.00000E+00
         0.00000E+00
         0.00000E+00
         0.00000E+00
         0.00000E+00
         0.00000E+00
         0.00000E+00
         0.00000E+00
         0.00000E+00
         0.00000E+00
         0.00000E+00
         0.00000E+00
         0.00000E+00
         0.00000E+00
         0.00000E+00
         0.00000E+00
         0.00000E+00
         0.00000E+00
         0.00000E+00
         0.00000E+00
         0.00000E+00
         0.00000E+00
         0.00000E+00
         0.00000E+00
         0.00000E+00
         0.00000E+00
         0.00000E+00
         0.00000E+00
         0.00000E+00
         0.00000E+00
         0.00000E+00
         0.00000E+00
         0.00000E+00
         0.00000E+00
         0.00000E+00
         0.00000E+00
         0.00000E+00
         0.00000E+00
         0.00000E+00
         0.00000E+00
         0.00000E+00
         0.00000E+00
         0.00000E+00
         0.00000E+00
         0.00000E+00
         0.00000E+00
         0.00000E+00
         0.00000E+00
         0.00000E+00
         0.00000E+00
         0.00000E+00
         0.00000E+00
         0.00000E+00
         0.00000E+00
         0.00000E+00
         0.00000E+00
         0.00000E+00
         0.00000E+00
         0.00000E+00
         0.00000E+00
         0.00000E+00
         0.00000E+00
         0.00000E+00
         0.00000E+00
         0.00000E+00
         0.00000E+00
         0.00000E+00
         0.00000E+00
         0.00000E+00
         0.00000E+00
         0.00000E+00
         0.00000E+00
         0.00000E+00
         0.00000E+00
         0.00000E+00
         0.00000E+00
         0.00000E+00
         0.00000E+00
         0.00000E+00
         0.00000E+00
         0.00000E+00
         0.00000E+00
         0.00000E+00
         0.00000E+00
         0.00000E+00
         0.00000E+00
         0.00000E+00
         0.00000E+00
         0.00000E+00
         0.00000E+00
         0.00000E+00
         0.00000E+00
         0.00000E+00
         0.00000E+00
         0.00000E+00
         0.00000E+00
         0.00000E+00
         0.00000E+00
         0.00000E+00
         0.00000E+00
         0.00000E+00
         0.00000E+00
         0.00000E+00
         0.00000E+00
         0.00000E+00
         0.00000E+00
         0.00000E+00
         0.00000E+00
         0.00000E+00
         0.00000E+00
         0.00000E+00
         0.00000E+00
         0.00000E+00
         0.00000E+00
         0.00000E+00
         0.00000E+00
         0.00000E+00
         0.00000E+00
         0.00000E+00
         0.00000E+00
         0.00000E+00
         0.00000E+00
         0.00000E+00
         0.00000E+00
         0.00000E+00
         0.00000E+00
         0.00000E+00
         0.00000E+00
         0.00000E+00
         0.00000E+00
         0.00000E+00
         0.00000E+00
         0.00000E+00
         0.00000E+00
         0.00000E+00
         0.00000E+00
         0.00000E+00
         0.00000E+00
         0.00000E+00
         0.00000E+00
         0.00000E+00
         0.00000E+00
         0.00000E+00
         0.00000E+00
         0.00000E+00
         0.00000E+00
         0.00000E+00
         0.00000E+00
         0.00000E+00
         0.00000E+00
         0.00000E+00
         0.00000E+00
         0.00000E+00
         0.00000E+00
         0.00000E+00
         0.00000E+00
         0.00000E+00
         0.00000E+00
         0.00000E+00
         0.00000E+00
         0.00000E+00
         0.00000E+00
         0.00000E+00
         0.00000E+00
         0.00000E+00
         0.00000E+00
         0.00000E+00
         0.00000E+00
         0.00000E+00
         0.00000E+00
         0.00000E+00
         0.00000E+00
         0.00000E+00
         0.00000E+00
         0.00000E+00
         0.00000E+00
         0.00000E+00
         0.00000E+00
         0.00000E+00
         0.00000E+00
         0.00000E+00
         0.00000E+00
         0.00000E+00
         0.00000E+00
         0.00000E+00
         0.00000E+00
         0.00000E+00
         0.00000E+00
         0.00000E+00
         0.00000E+00
         0.00000E+00
         0.00000E+00
         0.00000E+00
         0.00000E+00
         0.00000E+00
         0.00000E+00
         0.00000E+00
         0.00000E+00
         0.00000E+00
         0.00000E+00
         0.00000E+00
         0.00000E+00
         0.00000E+00
         0.00000E+00
         0.00000E+00
         0.00000E+00
         0.00000E+00
         0.00000E+00
         0.00000E+00
         0.00000E+00
         0.00000E+00
         0.00000E+00
         0.00000E+00
         0.00000E+00
         0.00000E+00
         0.00000E+00
         0.00000E+00
         0.00000E+00
         0.00000E+00
         0.00000E+00
         0.00000E+00
         0.00000E+00
         0.00000E+00
         0.00000E+00
         0.00000E+00
         0.00000E+00
         0.00000E+00
         0.00000E+00
         0.00000E+00
         0.00000E+00
         0.00000E+00
         0.00000E+00
         0.00000E+00
         0.00000E+00
         0.00000E+00
         0.00000E+00
         0.00000E+00
         0.00000E+00
         0.00000E+00
         0.00000E+00
         0.00000E+00
         0.00000E+00
         0.00000E+00
         0.00000E+00
         0.00000E+00
         0.00000E+00
         0.00000E+00
         0.00000E+00
         0.00000E+00
         0.00000E+00
         0.00000E+00
         0.00000E+00
         0.00000E+00
         0.00000E+00
         0.00000E+00
         0.00000E+00
         0.00000E+00
         0.00000E+00
         0.00000E+00
         0.00000E+00
         0.00000E+00
         0.00000E+00
         0.00000E+00
         0.00000E+00
         0.00000E+00
         0.00000E+00
         0.00000E+00
         0.00000E+00
         0.00000E+00
         0.00000E+00
         0.00000E+00
         0.00000E+00
         0.00000E+00
         0.00000E+00
         0.00000E+00
         0.00000E+00
         0.00000E+00
         0.00000E+00
         0.00000E+00
         0.00000E+00
         0.00000E+00
         0.00000E+00
         0.00000E+00
         0.00000E+00
         0.00000E+00
         0.00000E+00
         0.00000E+00
         0.00000E+00
         0.00000E+00
         0.00000E+00
         0.00000E+00
         0.00000E+00
         0.00000E+00
         0.00000E+00
         0.00000E+00
         0.00000E+00
         0.00000E+00
         0.00000E+00
         0.00000E+00
         0.00000E+00
         0.00000E+00
         0.00000E+00
         0.00000E+00
         0.00000E+00
         0.00000E+00
         0.00000E+00
         0.00000E+00
         0.00000E+00
         0.00000E+00
         0.00000E+00
         0.00000E+00
         0.00000E+00
         0.00000E+00
         0.00000E+00
         0.00000E+00
         0.00000E+00
         0.00000E+00
         0.00000E+00
         0.00000E+00
         0.00000E+00
         0.00000E+00
         0.00000E+00
         0.00000E+00
         0.00000E+00
         0.00000E+00
         0.00000E+00
         0.00000E+00
         0.00000E+00
         0.00000E+00
         0.00000E+00
         0.00000E+00
         0.00000E+00
         0.00000E+00
         0.00000E+00
         0.00000E+00
         0.00000E+00
         0.00000E+00
         0.00000E+00
         0.00000E+00
         0.00000E+00
         0.00000E+00
         0.00000E+00
         0.00000E+00
         0.00000E+00
         0.00000E+00
         0.00000E+00
         0.00000E+00
         0.00000E+00
         0.00000E+00
         0.00000E+00
         0.00000E+00
         0.00000E+00
         0.00000E+00
         0.00000E+00
         0.00000E+00
         0.00000E+00
         0.00000E+00
         0.00000E+00
         0.00000E+00
         0.00000E+00
         0.00000E+00
         0.00000E+00
         0.00000E+00
         0.00000E+00
         0.00000E+00
         0.00000E+00
         0.00000E+00
         0.00000E+00
         0.00000E+00
         0.00000E+00
         0.00000E+00
         0.00000E+00
         0.00000E+00
         0.00000E+00
         0.00000E+00
         0.00000E+00
         0.00000E+00
         0.00000E+00
         0.00000E+00
         0.00000E+00
         0.00000E+00
         0.00000E+00
         0.00000E+00
         0.00000E+00
         0.00000E+00
         0.00000E+00
         0.00000E+00
         0.00000E+00
         0.00000E+00
         0.00000E+00
         0.00000E+00
         0.00000E+00
         0.00000E+00
         0.00000E+00
         0.00000E+00
         0.00000E+00
         0.00000E+00
         0.00000E+00
         0.00000E+00
         0.00000E+00
         0.00000E+00
         0.00000E+00
         0.00000E+00
         0.00000E+00
         0.00000E+00
         0.00000E+00
         0.00000E+00
         0.00000E+00
         0.00000E+00
         0.00000E+00
         0.00000E+00
         0.00000E+00
         0.00000E+00
         0.00000E+00
         0.00000E+00
         0.00000E+00
         0.00000E+00
         0.00000E+00
         0.00000E+00
         0.00000E+00
         0.00000E+00
         0.00000E+00
         0.00000E+00
         0.00000E+00
         0.00000E+00
         0.00000E+00
         0.00000E+00
         0.00000E+00
         0.00000E+00
         0.00000E+00
         0.00000E+00
         0.00000E+00
         0.00000E+00
         0.00000E+00
         0.00000E+00
         0.00000E+00
         0.00000E+00
         0.00000E+00
         0.00000E+00
         0.00000E+00
         0.00000E+00
         0.00000E+00
         0.00000E+00
         0.00000E+00
         0.00000E+00
         0.00000E+00
         0.00000E+00
         0.00000E+00
         0.00000E+00
         0.00000E+00
         0.00000E+00
         0.00000E+00
         0.00000E+00
         0.00000E+00
         0.00000E+00
         0.00000E+00
         0.00000E+00
         0.00000E+00
         0.00000E+00
         0.00000E+00
         0.00000E+00
         0.00000E+00
         0.00000E+00
         0.00000E+00
         0.00000E+00
         0.00000E+00
         0.00000E+00
         0.00000E+00
         0.00000E+00
         0.00000E+00
         0.00000E+00
         0.00000E+00
         0.00000E+00
         0.00000E+00
         0.00000E+00
         0.00000E+00
         0.00000E+00
         0.00000E+00
         0.00000E+00
         0.00000E+00
         0.00000E+00
         0.00000E+00
         0.00000E+00
         0.00000E+00
         0.00000E+00
         0.00000E+00
         0.00000E+00
         0.00000E+00
         0.00000E+00
         0.00000E+00
         0.00000E+00
         0.00000E+00
         0.00000E+00
         0.00000E+00
         0.00000E+00
         0.00000E+00
         0.00000E+00
         0.00000E+00
         0.00000E+00
         0.00000E+00
         0.00000E+00
         0.00000E+00
         0.00000E+00
         0.00000E+00
         0.00000E+00
         0.00000E+00
         0.00000E+00
         0.00000E+00
         0.00000E+00
         0.00000E+00
         0.00000E+00
         0.00000E+00
         0.00000E+00
         0.00000E+00
         0.00000E+00
         0.00000E+00
         0.00000E+00
         0.00000E+00
         0.00000E+00
         0.00000E+00
         0.00000E+00
         0.00000E+00
         0.00000E+00
         0.00000E+00
         0.00000E+00
         0.00000E+00
         0.00000E+00
         0.00000E+00
         0.00000E+00
         0.00000E+00
         0.00000E+00
         0.00000E+00
         0.00000E+00
         0.00000E+00
         0.00000E+00
         0.00000E+00
         0.00000E+00
         0.00000E+00
         0.00000E+00
         0.00000E+00
         0.00000E+00
         0.00000E+00
         0.00000E+00
         0.00000E+00
         0.00000E+00
         0.00000E+00
         0.00000E+00
         0.00000E+00
         0.00000E+00
         0.00000E+00
         0.00000E+00
         0.00000E+00
         0.00000E+00
         0.00000E+00
         0.00000E+00
         0.00000E+00
         0.00000E+00
         0.00000E+00
         0.00000E+00
         0.00000E+00
         0.00000E+00
         0.00000E+00
         0.00000E+00
         0.00000E+00
         0.00000E+00
         0.00000E+00
         0.00000E+00
         0.00000E+00
         0.00000E+00
         0.00000E+00
         0.00000E+00
         0.00000E+00
         0.00000E+00
         0.00000E+00
         0.00000E+00
         0.00000E+00
         0.00000E+00
         0.00000E+00
         0.00000E+00
         0.00000E+00
         0.00000E+00
         0.00000E+00
         0.00000E+00
         0.00000E+00
         0.00000E+00
         0.00000E+00
         0.00000E+00
         0.00000E+00
         0.00000E+00
         0.00000E+00
         0.00000E+00
         0.00000E+00
         0.00000E+00
         0.00000E+00
         0.00000E+00
         0.00000E+00
         0.00000E+00
         0.00000E+00
         0.00000E+00
         0.00000E+00
         0.00000E+00
         0.00000E+00
         0.00000E+00
         0.00000E+00
         0.00000E+00
         0.00000E+00
         0.00000E+00
         0.00000E+00
         0.00000E+00
         0.00000E+00
         0.00000E+00
         0.00000E+00
         0.00000E+00
         0.00000E+00
         0.00000E+00
         0.00000E+00
         0.00000E+00
         0.00000E+00
         0.00000E+00
         0.00000E+00
         0.00000E+00
         0.00000E+00
         0.00000E+00
         0.00000E+00
         0.00000E+00
         0.00000E+00
         0.00000E+00
         0.00000E+00
         0.00000E+00
         0.00000E+00
         0.00000E+00
         0.00000E+00
         0.00000E+00
         0.00000E+00
         0.00000E+00
         0.00000E+00
         0.00000E+00
         0.00000E+00
         0.00000E+00
         0.00000E+00
         0.00000E+00
         0.00000E+00
         0.00000E+00
         0.00000E+00
         0.00000E+00
         0.00000E+00
         0.00000E+00
         0.00000E+00
         0.00000E+00
         0.00000E+00
         0.00000E+00
         0.00000E+00
         0.00000E+00
         0.00000E+00
         0.00000E+00
         0.00000E+00
         0.00000E+00
         0.00000E+00
         0.00000E+00
         0.00000E+00
         0.00000E+00
         0.00000E+00
         0.00000E+00
         0.00000E+00
         0.00000E+00
         0.00000E+00
         0.00000E+00
         0.00000E+00
         0.00000E+00
         0.00000E+00
         0.00000E+00
         0.00000E+00
         0.00000E+00
         0.00000E+00
         0.00000E+00
         0.00000E+00
         0.00000E+00
         0.00000E+00
         0.00000E+00
         0.00000E+00
         0.00000E+00
         0.00000E+00
         0.00000E+00
         0.00000E+00
         0.00000E+00
         0.00000E+00
         0.00000E+00
         0.00000E+00
         0.00000E+00
         0.00000E+00
         0.00000E+00
         0.00000E+00
         0.00000E+00
         0.00000E+00
         0.00000E+00
         0.00000E+00
         0.00000E+00
         0.00000E+00
         0.00000E+00
         0.00000E+00
         0.00000E+00
         0.00000E+00
         0.00000E+00
         0.00000E+00
         0.00000E+00
         0.00000E+00
         0.00000E+00
         0.00000E+00
         0.00000E+00
         0.00000E+00
         0.00000E+00
         0.00000E+00
         0.00000E+00
         0.00000E+00
         0.00000E+00
         0.00000E+00
         0.00000E+00
         0.00000E+00
         0.00000E+00
         0.00000E+00
         0.00000E+00
         0.00000E+00
         0.00000E+00
         0.00000E+00
         0.00000E+00
         0.00000E+00
         0.00000E+00
         0.00000E+00
         0.00000E+00
         0.00000E+00
         0.00000E+00
         0.00000E+00
         0.00000E+00
         0.00000E+00
         0.00000E+00
         0.00000E+00
         0.00000E+00
         0.00000E+00
         0.00000E+00
         0.00000E+00
         0.00000E+00
         0.00000E+00
         0.00000E+00
         0.00000E+00
         0.00000E+00
         0.00000E+00
         0.00000E+00
         0.00000E+00
         0.00000E+00
         0.00000E+00
         0.00000E+00
         0.00000E+00
         0.00000E+00
         0.00000E+00
         0.00000E+00
         0.00000E+00
         0.00000E+00
         0.00000E+00
         0.00000E+00
         0.00000E+00
         0.00000E+00
         0.00000E+00
         0.00000E+00
         0.00000E+00
         0.00000E+00
         0.00000E+00
         0.00000E+00
         0.00000E+00
         0.00000E+00
         0.00000E+00
         0.00000E+00
         0.00000E+00
         0.00000E+00
         0.00000E+00
         0.00000E+00
         0.00000E+00
         0.00000E+00
         0.00000E+00
         0.00000E+00
         0.00000E+00
         0.00000E+00
         0.00000E+00
         0.00000E+00
         0.00000E+00
         0.00000E+00
         0.00000E+00
         0.00000E+00
         0.00000E+00
         0.00000E+00
         0.00000E+00
         0.00000E+00
         0.00000E+00
         0.00000E+00
         0.00000E+00
         0.00000E+00
         0.00000E+00
         0.00000E+00
         0.00000E+00
         0.00000E+00
         0.00000E+00
         0.00000E+00
         0.00000E+00
         0.00000E+00
         0.00000E+00
         0.00000E+00
         0.00000E+00
         0.00000E+00
         0.00000E+00
         0.00000E+00
         0.00000E+00
         0.00000E+00
         0.00000E+00
         0.00000E+00
         0.00000E+00
         0.00000E+00
         0.00000E+00
         0.00000E+00
         0.00000E+00
         0.00000E+00
         0.00000E+00
         0.00000E+00
         0.00000E+00
         0.00000E+00
         0.00000E+00
         0.00000E+00
         0.00000E+00
         0.00000E+00
         0.00000E+00
         0.00000E+00
         0.00000E+00
         0.00000E+00
         0.00000E+00
         0.00000E+00
         0.00000E+00
         0.00000E+00
         0.00000E+00
         0.00000E+00
         0.00000E+00
         0.00000E+00
         0.00000E+00
         0.00000E+00
         0.00000E+00
         0.00000E+00
         0.00000E+00
         0.00000E+00
         0.00000E+00
         0.00000E+00
         0.00000E+00
         0.00000E+00
         0.00000E+00
         0.00000E+00
         0.00000E+00
         0.00000E+00
         0.00000E+00
         0.00000E+00
         0.00000E+00
         0.00000E+00
         0.00000E+00
         0.00000E+00
         0.00000E+00
         0.00000E+00
         0.00000E+00
         0.00000E+00
         0.00000E+00
         0.00000E+00
         0.00000E+00
         0.00000E+00
         0.00000E+00
         0.00000E+00
         0.00000E+00
         0.00000E+00
         0.00000E+00
         0.00000E+00
         0.00000E+00
         0.00000E+00
         0.00000E+00
         0.00000E+00
         0.00000E+00
         0.00000E+00
         0.00000E+00
         0.00000E+00
         0.00000E+00
         0.00000E+00
         0.00000E+00
         0.00000E+00
         0.00000E+00
         0.00000E+00
         0.00000E+00
         0.00000E+00
         0.00000E+00
         0.00000E+00
         0.00000E+00
         0.00000E+00
         0.00000E+00
         0.00000E+00
         0.00000E+00
         0.00000E+00
         0.00000E+00
         0.00000E+00
         0.00000E+00
         0.00000E+00
         0.00000E+00
         0.00000E+00
         0.00000E+00
         0.00000E+00
         0.00000E+00
         0.00000E+00
         0.00000E+00
         0.00000E+00
         0.00000E+00
         0.00000E+00
         0.00000E+00
         0.00000E+00
         0.00000E+00
         0.00000E+00
         0.00000E+00
         0.00000E+00
         0.00000E+00
         0.00000E+00
         0.00000E+00
         0.00000E+00
         0.00000E+00
         0.00000E+00
         0.00000E+00
         0.00000E+00
         0.00000E+00
         0.00000E+00
         0.00000E+00
         0.00000E+00
         0.00000E+00
         0.00000E+00
         0.00000E+00
         0.00000E+00
         0.00000E+00
         0.00000E+00
         0.00000E+00
         0.00000E+00
         0.00000E+00
         0.00000E+00
         0.00000E+00
         0.00000E+00
         0.00000E+00
         0.00000E+00
         0.00000E+00
         0.00000E+00
         0.00000E+00
         0.00000E+00
         0.00000E+00
         0.00000E+00
         0.00000E+00
         0.00000E+00
         0.00000E+00
         0.00000E+00
         0.00000E+00
         0.00000E+00
         0.00000E+00
         0.00000E+00
         0.00000E+00
         0.00000E+00
         0.00000E+00
         0.00000E+00
         0.00000E+00
         0.00000E+00
         0.00000E+00
         0.00000E+00
         0.00000E+00
         0.00000E+00
         0.00000E+00
         0.00000E+00
         0.00000E+00
         0.00000E+00
         0.00000E+00
         0.00000E+00
         0.00000E+00
         0.00000E+00
         0.00000E+00
         0.00000E+00
         0.00000E+00
         0.00000E+00
         0.00000E+00
         0.00000E+00
         0.00000E+00
         0.00000E+00
         0.00000E+00
         0.00000E+00
         0.00000E+00
         0.00000E+00
         0.00000E+00
         0.00000E+00
         0.00000E+00
         0.00000E+00
         0.00000E+00
         0.00000E+00
         0.00000E+00
         0.00000E+00
         0.00000E+00
         0.00000E+00
         0.00000E+00
         0.00000E+00
         0.00000E+00
         0.00000E+00
         0.00000E+00
         0.00000E+00
         0.00000E+00
         0.00000E+00
         0.00000E+00
         0.00000E+00
         0.00000E+00
         0.00000E+00
         0.00000E+00
         0.00000E+00
         0.00000E+00
         0.00000E+00
         0.00000E+00
         0.00000E+00
         0.00000E+00
         0.00000E+00
         0.00000E+00
         0.00000E+00
         0.00000E+00
         0.00000E+00
         0.00000E+00
         0.00000E+00
         0.00000E+00
         0.00000E+00
         0.00000E+00
         0.00000E+00
         0.00000E+00
         0.00000E+00
         0.00000E+00
         0.00000E+00
         0.00000E+00
         0.00000E+00
         0.00000E+00
         0.00000E+00
         0.00000E+00
         0.00000E+00
         0.00000E+00
         0.00000E+00
         0.00000E+00
         0.00000E+00
         0.00000E+00
         0.00000E+00
         0.00000E+00
         0.00000E+00
         0.00000E+00
         0.00000E+00
         0.00000E+00
         0.00000E+00
         0.00000E+00
         0.00000E+00
         0.00000E+00
         0.00000E+00
         0.00000E+00
         0.00000E+00
         0.00000E+00
         0.00000E+00
         0.00000E+00
         0.00000E+00
         0.00000E+00
         0.00000E+00
         0.00000E+00
         0.00000E+00
         0.00000E+00
         0.00000E+00
         0.00000E+00
         0.00000E+00
         0.00000E+00
         0.00000E+00
         0.00000E+00
         0.00000E+00
         0.00000E+00
         0.00000E+00
         0.00000E+00
         0.00000E+00
         0.00000E+00
         0.00000E+00
         0.00000E+00
         0.00000E+00
         0.00000E+00
         0.00000E+00
         0.00000E+00
         0.00000E+00
         0.00000E+00
         0.00000E+00
         0.00000E+00
         0.00000E+00
         0.00000E+00
         0.00000E+00
         0.00000E+00
         0.00000E+00
         0.00000E+00
         0.00000E+00
         0.00000E+00
         0.00000E+00
         0.00000E+00
         0.00000E+00
         0.00000E+00
         0.00000E+00
         0.00000E+00
         0.00000E+00
         0.00000E+00
         0.00000E+00
         0.00000E+00
         0.00000E+00
         0.00000E+00
         0.00000E+00
         0.00000E+00
         0.00000E+00
         0.00000E+00
         0.00000E+00
         0.00000E+00
         0.00000E+00
         0.00000E+00
         0.00000E+00
         0.00000E+00
         0.00000E+00
         0.00000E+00
         0.00000E+00
         0.00000E+00
         0.00000E+00
         0.00000E+00
         0.00000E+00
         0.00000E+00
         0.00000E+00
         0.00000E+00
         0.00000E+00
         0.00000E+00
         0.00000E+00
         0.00000E+00
         0.00000E+00
         0.00000E+00
         0.00000E+00
         0.00000E+00
         0.00000E+00
         0.00000E+00
         0.00000E+00
         0.00000E+00
         0.00000E+00
         0.00000E+00
         0.00000E+00
         0.00000E+00
         0.00000E+00
         0.00000E+00
         0.00000E+00
         0.00000E+00
         0.00000E+00
         0.00000E+00
         0.00000E+00
         0.00000E+00
         0.00000E+00
         0.00000E+00
         0.00000E+00
         0.00000E+00
         0.00000E+00
         0.00000E+00
         0.00000E+00
         0.00000E+00
         0.00000E+00
         0.00000E+00
         0.00000E+00
         0.00000E+00
         0.00000E+00
         0.00000E+00
         0.00000E+00
         0.00000E+00
         0.00000E+00
         0.00000E+00
         0.00000E+00
         0.00000E+00
         0.00000E+00
         0.00000E+00
         0.00000E+00
         0.00000E+00
         0.00000E+00
         0.00000E+00
         0.00000E+00
         0.00000E+00
         0.00000E+00
         0.00000E+00
         0.00000E+00
         0.00000E+00
         0.00000E+00
         0.00000E+00
         0.00000E+00
         0.00000E+00
         0.00000E+00
         0.00000E+00
         0.00000E+00
         0.00000E+00
         0.00000E+00
         0.00000E+00
         0.00000E+00
         0.00000E+00
         0.00000E+00
         0.00000E+00
         0.00000E+00
         0.00000E+00
         0.00000E+00
         0.00000E+00
         0.00000E+00
         0.00000E+00
         0.00000E+00
         0.00000E+00
         0.00000E+00
         0.00000E+00
         0.00000E+00
         0.00000E+00
         0.00000E+00
         0.00000E+00
         0.00000E+00
         0.00000E+00
         0.00000E+00
         0.00000E+00
         0.00000E+00
         0.00000E+00
         0.00000E+00
         0.00000E+00
         0.00000E+00
         0.00000E+00
         0.00000E+00
         0.00000E+00
         0.00000E+00
         0.00000E+00
         0.00000E+00
         0.00000E+00
         0.00000E+00
         0.00000E+00
         0.00000E+00
         0.00000E+00
         0.00000E+00
         0.00000E+00
         0.00000E+00
         0.00000E+00
         0.00000E+00
         0.00000E+00
         0.00000E+00
         0.00000E+00
         0.00000E+00
         0.00000E+00
         0.00000E+00
         0.00000E+00
         0.00000E+00
         0.00000E+00
         0.00000E+00
         0.00000E+00
         0.00000E+00
         0.00000E+00
         0.00000E+00
         0.00000E+00
         0.00000E+00
         0.00000E+00
         0.00000E+00
         0.00000E+00
         0.00000E+00
         0.00000E+00
         0.00000E+00
         0.00000E+00
         0.00000E+00
         0.00000E+00
         0.00000E+00
         0.00000E+00
         0.00000E+00
         0.00000E+00
         0.00000E+00
         0.00000E+00
         0.00000E+00
         0.00000E+00
         0.00000E+00
         0.00000E+00
         0.00000E+00
         0.00000E+00
         0.00000E+00
         0.00000E+00
         0.00000E+00
         0.00000E+00
         0.00000E+00
         0.00000E+00
         0.00000E+00
         0.00000E+00
         0.00000E+00
         0.00000E+00
         0.00000E+00
         0.00000E+00
         0.00000E+00
         0.00000E+00
         0.00000E+00
         0.00000E+00
         0.00000E+00
         0.00000E+00
         0.00000E+00
         0.00000E+00
         0.00000E+00
         0.00000E+00
         0.00000E+00
         0.00000E+00
         0.00000E+00
         0.00000E+00
         0.00000E+00
         0.00000E+00
         0.00000E+00
         0.00000E+00
         0.00000E+00
         0.00000E+00
         0.00000E+00
         0.00000E+00
         0.00000E+00
         0.00000E+00
         0.00000E+00
         0.00000E+00
         0.00000E+00
         0.00000E+00
         0.00000E+00
         0.00000E+00
         0.00000E+00
         0.00000E+00
         0.00000E+00
         0.00000E+00
         0.00000E+00
         0.00000E+00
         0.00000E+00
         0.00000E+00
         0.00000E+00
         0.00000E+00
         0.00000E+00
         0.00000E+00
         0.00000E+00
         0.00000E+00
         0.00000E+00
         0.00000E+00
         0.00000E+00
         0.00000E+00
         0.00000E+00
         0.00000E+00
         0.00000E+00
         0.00000E+00
         0.00000E+00
         0.00000E+00
         0.00000E+00
         0.00000E+00
         0.00000E+00
         0.00000E+00
         0.00000E+00
         0.00000E+00
         0.00000E+00
         0.00000E+00
         0.00000E+00
         0.00000E+00
         0.00000E+00
         0.00000E+00
         0.00000E+00
         0.00000E+00
         0.00000E+00
         0.00000E+00
         0.00000E+00
         0.00000E+00
         0.00000E+00
         0.00000E+00
         0.00000E+00
         0.00000E+00
         0.00000E+00
         0.00000E+00
         0.00000E+00
         0.00000E+00
         0.00000E+00
         0.00000E+00
         0.00000E+00
         0.00000E+00
         0.00000E+00
         0.00000E+00
         0.00000E+00
         0.00000E+00
         0.00000E+00
         0.00000E+00
         0.00000E+00
         0.00000E+00
         0.00000E+00
         0.00000E+00
         0.00000E+00
         0.00000E+00
         0.00000E+00
         0.00000E+00
         0.00000E+00
         0.00000E+00
         0.00000E+00
         0.00000E+00
         0.00000E+00
         0.00000E+00
         0.00000E+00
         0.00000E+00
         0.00000E+00
         0.00000E+00
         0.00000E+00
         0.00000E+00
         0.00000E+00
         0.00000E+00
         0.00000E+00
         0.00000E+00
         0.00000E+00
         0.00000E+00
         0.00000E+00
         0.00000E+00
         0.00000E+00
         0.00000E+00
         0.00000E+00
         0.00000E+00
         0.00000E+00
         0.00000E+00
         0.00000E+00
         0.00000E+00
         0.00000E+00
         0.00000E+00
         0.00000E+00
         0.00000E+00
         0.00000E+00
         0.00000E+00
         0.00000E+00
         0.00000E+00
         0.00000E+00
         0.00000E+00
         0.00000E+00
         0.00000E+00
         0.00000E+00
         0.00000E+00
         0.00000E+00
         0.00000E+00
         0.00000E+00
         0.00000E+00
         0.00000E+00
         0.00000E+00
         0.00000E+00
         0.00000E+00
         0.00000E+00
         0.00000E+00
         0.00000E+00
         0.00000E+00
         0.00000E+00
         0.00000E+00
         0.00000E+00
         0.00000E+00
         0.00000E+00
         0.00000E+00
         0.00000E+00
         0.00000E+00
         0.00000E+00
         0.00000E+00
         0.00000E+00
         0.00000E+00
         0.00000E+00
         0.00000E+00
         0.00000E+00
         0.00000E+00
         0.00000E+00
         0.00000E+00
         0.00000E+00
         0.00000E+00
         0.00000E+00
         0.00000E+00
         0.00000E+00
         0.00000E+00
         0.00000E+00
         0.00000E+00
         0.00000E+00
         0.00000E+00
         0.00000E+00
         0.00000E+00
         0.00000E+00
         0.00000E+00
         0.00000E+00
         0.00000E+00
         0.00000E+00
         0.00000E+00
         0.00000E+00
         0.00000E+00
         0.00000E+00
         0.00000E+00
         0.00000E+00
         0.00000E+00
         0.00000E+00
         0.00000E+00
         0.00000E+00
         0.00000E+00
         0.00000E+00
         0.00000E+00
         0.00000E+00
         0.00000E+00
         0.00000E+00
         0.00000E+00
         0.00000E+00
         0.00000E+00
         0.00000E+00
         0.00000E+00
         0.00000E+00
         0.00000E+00
         0.00000E+00
         0.00000E+00
         0.00000E+00
         0.00000E+00
         0.00000E+00
         0.00000E+00
         0.00000E+00
         0.00000E+00
         0.00000E+00
         0.00000E+00
         0.00000E+00
         0.00000E+00
         0.00000E+00
         0.00000E+00
         0.00000E+00
         0.00000E+00
         0.00000E+00
         0.00000E+00
         0.00000E+00
         0.00000E+00
         0.00000E+00
         0.00000E+00
         0.00000E+00
         0.00000E+00
         0.00000E+00
         0.00000E+00
         0.00000E+00
         0.00000E+00
         0.00000E+00
         0.00000E+00
         0.00000E+00
         0.00000E+00
         0.00000E+00
         0.00000E+00
         0.00000E+00
         0.00000E+00
         0.00000E+00
         0.00000E+00
         0.00000E+00
         0.00000E+00
         0.00000E+00
         0.00000E+00
         0.00000E+00
         0.00000E+00
         0.00000E+00
         0.00000E+00
         0.00000E+00
         0.00000E+00
         0.00000E+00
         0.00000E+00
         0.00000E+00
         0.00000E+00
         0.00000E+00
         0.00000E+00
         0.00000E+00
         0.00000E+00
         0.00000E+00
         0.00000E+00
         0.00000E+00
         0.00000E+00
         0.00000E+00
         0.00000E+00
         0.00000E+00
         0.00000E+00
         0.00000E+00
         0.00000E+00
         0.00000E+00
         0.00000E+00
         0.00000E+00
         0.00000E+00
         0.00000E+00
         0.00000E+00
         0.00000E+00
         0.00000E+00
         0.00000E+00
         0.00000E+00
         0.00000E+00
         0.00000E+00
         0.00000E+00
         0.00000E+00
         0.00000E+00
         0.00000E+00
         0.00000E+00
         0.00000E+00
         0.00000E+00
         0.00000E+00
         0.00000E+00
         0.00000E+00
         0.00000E+00
         0.00000E+00
         0.00000E+00
         0.00000E+00
         0.00000E+00
         0.00000E+00
         0.00000E+00
         0.00000E+00
         0.00000E+00
         0.00000E+00
         0.00000E+00
         0.00000E+00
         0.00000E+00
         0.00000E+00
         0.00000E+00
         0.00000E+00
         0.00000E+00
         0.00000E+00
         0.00000E+00
         0.00000E+00
         0.00000E+00
         0.00000E+00
         0.00000E+00
         0.00000E+00
         0.00000E+00
         0.00000E+00
         0.00000E+00
         0.00000E+00
         0.00000E+00
         0.00000E+00
         0.00000E+00
         0.00000E+00
         0.00000E+00
         0.00000E+00
         0.00000E+00
         0.00000E+00
         0.00000E+00
         0.00000E+00
         0.00000E+00
         0.00000E+00
         0.00000E+00
         0.00000E+00
         0.00000E+00
         0.00000E+00
         0.00000E+00
         0.00000E+00
         0.00000E+00
         0.00000E+00
         0.00000E+00
         0.00000E+00
         0.00000E+00
         0.00000E+00
         0.00000E+00
         0.00000E+00
         0.00000E+00
         0.00000E+00
         0.00000E+00
         0.00000E+00
         0.00000E+00
         0.00000E+00
         0.00000E+00
         0.00000E+00
         0.00000E+00
         0.00000E+00
         0.00000E+00
         0.00000E+00
         0.00000E+00
         0.00000E+00
         0.00000E+00
         0.00000E+00
         0.00000E+00
         0.00000E+00
         0.00000E+00
         0.00000E+00
         0.00000E+00
         0.00000E+00
         0.00000E+00
         0.00000E+00
         0.00000E+00
         0.00000E+00
         0.00000E+00
         0.00000E+00
         0.00000E+00
         0.00000E+00
         0.00000E+00
         0.00000E+00
         0.00000E+00
         0.00000E+00
         0.00000E+00
         0.00000E+00
         0.00000E+00
         0.00000E+00
         0.00000E+00
         0.00000E+00
         0.00000E+00
         0.00000E+00
         0.00000E+00
         0.00000E+00
         0.00000E+00
         0.00000E+00
         0.00000E+00
         0.00000E+00
         0.00000E+00
         0.00000E+00
         0.00000E+00
         0.00000E+00
         0.00000E+00
         0.00000E+00
         0.00000E+00
         0.00000E+00
         0.00000E+00
         0.00000E+00
         0.00000E+00
         0.00000E+00
         0.00000E+00
         0.00000E+00
         0.00000E+00
         0.00000E+00
         0.00000E+00
         0.00000E+00
         0.00000E+00
         0.00000E+00
         0.00000E+00
         0.00000E+00
         0.00000E+00
         0.00000E+00
         0.00000E+00
         0.00000E+00
         0.00000E+00
         0.00000E+00
         0.00000E+00
         0.00000E+00
         0.00000E+00
         0.00000E+00
         0.00000E+00
         0.00000E+00
         0.00000E+00
         0.00000E+00
         0.00000E+00
         0.00000E+00
         0.00000E+00
         0.00000E+00
         0.00000E+00
         0.00000E+00
         0.00000E+00
         0.00000E+00
         0.00000E+00
         0.00000E+00
         0.00000E+00
         0.00000E+00
         0.00000E+00
         0.00000E+00
         0.00000E+00
         0.00000E+00
         0.00000E+00
         0.00000E+00
         0.00000E+00
         0.00000E+00
         0.00000E+00
         0.00000E+00
         0.00000E+00
         0.00000E+00
         0.00000E+00
         0.00000E+00
         0.00000E+00
         0.00000E+00
         0.00000E+00
         0.00000E+00
         0.00000E+00
         0.00000E+00
         0.00000E+00
         0.00000E+00
         0.00000E+00
         0.00000E+00
         0.00000E+00
         0.00000E+00
         0.00000E+00
         0.00000E+00
         0.00000E+00
         0.00000E+00
         0.00000E+00
         0.00000E+00
         0.00000E+00
         0.00000E+00
         0.00000E+00
         0.00000E+00
         0.00000E+00
         0.00000E+00
         0.00000E+00
         0.00000E+00
         0.00000E+00
         0.00000E+00
         0.00000E+00
         0.00000E+00
         0.00000E+00
         0.00000E+00
         0.00000E+00
         0.00000E+00
         0.00000E+00
         0.00000E+00
         0.00000E+00
         0.00000E+00
         0.00000E+00
         0.00000E+00
         0.00000E+00
         0.00000E+00
         0.00000E+00
         0.00000E+00
         0.00000E+00
         0.00000E+00
         0.00000E+00
         0.00000E+00
         0.00000E+00
         0.00000E+00
         0.00000E+00
         0.00000E+00
         0.00000E+00
         0.00000E+00
         0.00000E+00
         0.00000E+00
         0.00000E+00
         0.00000E+00
         0.00000E+00
         0.00000E+00
         0.00000E+00
         0.00000E+00
         0.00000E+00
         0.00000E+00
         0.00000E+00
         0.00000E+00
         0.00000E+00
         0.00000E+00
         0.00000E+00
         0.00000E+00
         0.00000E+00
         0.00000E+00
         0.00000E+00
         0.00000E+00
         0.00000E+00
         0.00000E+00
         0.00000E+00
         0.00000E+00
         0.00000E+00
         0.00000E+00
         0.00000E+00
         0.00000E+00
         0.00000E+00
         0.00000E+00
         0.00000E+00
         0.00000E+00
         0.00000E+00
         0.00000E+00
         0.00000E+00
         0.00000E+00
         0.00000E+00
         0.00000E+00
         0.00000E+00
         0.00000E+00
         0.00000E+00
         0.00000E+00
         0.00000E+00
         0.00000E+00
         0.00000E+00
         0.00000E+00
         0.00000E+00
         0.00000E+00
         0.00000E+00
         0.00000E+00
         0.00000E+00
         0.00000E+00
         0.00000E+00
         0.00000E+00
         0.00000E+00
         0.00000E+00
         0.00000E+00
         0.00000E+00
         0.00000E+00
         0.00000E+00
         0.00000E+00
         0.00000E+00
         0.00000E+00
         0.00000E+00
         0.00000E+00
         0.00000E+00
         0.00000E+00
         0.00000E+00
         0.00000E+00
         0.00000E+00
         0.00000E+00
         0.00000E+00
         0.00000E+00
         0.00000E+00
         0.00000E+00
         0.00000E+00
         0.00000E+00
         0.00000E+00
         0.00000E+00
         0.00000E+00
         0.00000E+00
         0.00000E+00
         0.00000E+00
         0.00000E+00
         0.00000E+00
         0.00000E+00
         0.00000E+00
         0.00000E+00
         0.00000E+00
         0.00000E+00
         0.00000E+00
         0.00000E+00
         0.00000E+00
         0.00000E+00
         0.00000E+00
         0.00000E+00
         0.00000E+00
         0.00000E+00
         0.00000E+00
         0.00000E+00
         0.00000E+00
         0.00000E+00
         0.00000E+00
         0.00000E+00
         0.00000E+00
         0.00000E+00
         0.00000E+00
         0.00000E+00
         0.00000E+00
         0.00000E+00
         0.00000E+00
         0.00000E+00
         0.00000E+00
         0.00000E+00
         0.00000E+00
         0.00000E+00
         0.00000E+00
         0.00000E+00
  
SCALARS                init_velocity_z  double 1
LOOKUP_TABLE default
        -0.37300E+03
        -0.37300E+03
        -0.37300E+03
        -0.37300E+03
        -0.37300E+03
        -0.37300E+03
        -0.37300E+03
        -0.37300E+03
        -0.37300E+03
        -0.37300E+03
        -0.37300E+03
        -0.37300E+03
        -0.37300E+03
        -0.37300E+03
        -0.37300E+03
        -0.37300E+03
        -0.37300E+03
        -0.37300E+03
        -0.37300E+03
        -0.37300E+03
        -0.37300E+03
        -0.37300E+03
        -0.37300E+03
        -0.37300E+03
        -0.37300E+03
        -0.37300E+03
        -0.37300E+03
        -0.37300E+03
        -0.37300E+03
        -0.37300E+03
        -0.37300E+03
        -0.37300E+03
        -0.37300E+03
        -0.37300E+03
        -0.37300E+03
        -0.37300E+03
        -0.37300E+03
        -0.37300E+03
        -0.37300E+03
        -0.37300E+03
        -0.37300E+03
        -0.37300E+03
        -0.37300E+03
        -0.37300E+03
        -0.37300E+03
        -0.37300E+03
        -0.37300E+03
        -0.37300E+03
        -0.37300E+03
        -0.37300E+03
        -0.37300E+03
        -0.37300E+03
        -0.37300E+03
        -0.37300E+03
        -0.37300E+03
        -0.37300E+03
        -0.37300E+03
        -0.37300E+03
        -0.37300E+03
        -0.37300E+03
        -0.37300E+03
        -0.37300E+03
        -0.37300E+03
        -0.37300E+03
        -0.37300E+03
        -0.37300E+03
        -0.37300E+03
        -0.37300E+03
        -0.37300E+03
        -0.37300E+03
        -0.37300E+03
        -0.37300E+03
        -0.37300E+03
        -0.37300E+03
        -0.37300E+03
        -0.37300E+03
        -0.37300E+03
        -0.37300E+03
        -0.37300E+03
        -0.37300E+03
        -0.37300E+03
        -0.37300E+03
        -0.37300E+03
        -0.37300E+03
        -0.37300E+03
        -0.37300E+03
        -0.37300E+03
        -0.37300E+03
        -0.37300E+03
        -0.37300E+03
        -0.37300E+03
        -0.37300E+03
        -0.37300E+03
        -0.37300E+03
        -0.37300E+03
        -0.37300E+03
        -0.37300E+03
        -0.37300E+03
        -0.37300E+03
        -0.37300E+03
        -0.37300E+03
        -0.37300E+03
        -0.37300E+03
        -0.37300E+03
        -0.37300E+03
        -0.37300E+03
        -0.37300E+03
        -0.37300E+03
        -0.37300E+03
        -0.37300E+03
        -0.37300E+03
        -0.37300E+03
        -0.37300E+03
        -0.37300E+03
        -0.37300E+03
        -0.37300E+03
        -0.37300E+03
        -0.37300E+03
        -0.37300E+03
        -0.37300E+03
        -0.37300E+03
        -0.37300E+03
        -0.37300E+03
        -0.37300E+03
        -0.37300E+03
        -0.37300E+03
        -0.37300E+03
        -0.37300E+03
        -0.37300E+03
        -0.37300E+03
        -0.37300E+03
        -0.37300E+03
        -0.37300E+03
        -0.37300E+03
        -0.37300E+03
        -0.37300E+03
        -0.37300E+03
        -0.37300E+03
        -0.37300E+03
        -0.37300E+03
        -0.37300E+03
        -0.37300E+03
        -0.37300E+03
        -0.37300E+03
        -0.37300E+03
        -0.37300E+03
        -0.37300E+03
        -0.37300E+03
        -0.37300E+03
        -0.37300E+03
        -0.37300E+03
        -0.37300E+03
        -0.37300E+03
        -0.37300E+03
        -0.37300E+03
        -0.37300E+03
        -0.37300E+03
        -0.37300E+03
        -0.37300E+03
        -0.37300E+03
        -0.37300E+03
        -0.37300E+03
        -0.37300E+03
        -0.37300E+03
        -0.37300E+03
        -0.37300E+03
        -0.37300E+03
        -0.37300E+03
        -0.37300E+03
        -0.37300E+03
        -0.37300E+03
        -0.37300E+03
        -0.37300E+03
        -0.37300E+03
        -0.37300E+03
        -0.37300E+03
        -0.37300E+03
        -0.37300E+03
        -0.37300E+03
        -0.37300E+03
        -0.37300E+03
        -0.37300E+03
        -0.37300E+03
        -0.37300E+03
        -0.37300E+03
        -0.37300E+03
        -0.37300E+03
        -0.37300E+03
        -0.37300E+03
        -0.37300E+03
        -0.37300E+03
        -0.37300E+03
        -0.37300E+03
        -0.37300E+03
        -0.37300E+03
        -0.37300E+03
        -0.37300E+03
        -0.37300E+03
        -0.37300E+03
        -0.37300E+03
        -0.37300E+03
        -0.37300E+03
        -0.37300E+03
        -0.37300E+03
        -0.37300E+03
        -0.37300E+03
        -0.37300E+03
        -0.37300E+03
        -0.37300E+03
        -0.37300E+03
        -0.37300E+03
        -0.37300E+03
        -0.37300E+03
        -0.37300E+03
        -0.37300E+03
        -0.37300E+03
        -0.37300E+03
        -0.37300E+03
        -0.37300E+03
        -0.37300E+03
        -0.37300E+03
        -0.37300E+03
        -0.37300E+03
        -0.37300E+03
        -0.37300E+03
        -0.37300E+03
        -0.37300E+03
        -0.37300E+03
        -0.37300E+03
        -0.37300E+03
        -0.37300E+03
        -0.37300E+03
        -0.37300E+03
        -0.37300E+03
        -0.37300E+03
        -0.37300E+03
        -0.37300E+03
        -0.37300E+03
        -0.37300E+03
        -0.37300E+03
        -0.37300E+03
        -0.37300E+03
        -0.37300E+03
        -0.37300E+03
        -0.37300E+03
        -0.37300E+03
        -0.37300E+03
        -0.37300E+03
        -0.37300E+03
        -0.37300E+03
        -0.37300E+03
        -0.37300E+03
        -0.37300E+03
        -0.37300E+03
        -0.37300E+03
        -0.37300E+03
        -0.37300E+03
        -0.37300E+03
        -0.37300E+03
        -0.37300E+03
        -0.37300E+03
        -0.37300E+03
        -0.37300E+03
        -0.37300E+03
        -0.37300E+03
        -0.37300E+03
        -0.37300E+03
        -0.37300E+03
        -0.37300E+03
        -0.37300E+03
        -0.37300E+03
        -0.37300E+03
        -0.37300E+03
        -0.37300E+03
        -0.37300E+03
        -0.37300E+03
        -0.37300E+03
        -0.37300E+03
        -0.37300E+03
        -0.37300E+03
        -0.37300E+03
        -0.37300E+03
        -0.37300E+03
        -0.37300E+03
        -0.37300E+03
        -0.37300E+03
        -0.37300E+03
        -0.37300E+03
        -0.37300E+03
        -0.37300E+03
        -0.37300E+03
        -0.37300E+03
        -0.37300E+03
        -0.37300E+03
        -0.37300E+03
        -0.37300E+03
        -0.37300E+03
        -0.37300E+03
        -0.37300E+03
        -0.37300E+03
        -0.37300E+03
        -0.37300E+03
        -0.37300E+03
        -0.37300E+03
        -0.37300E+03
        -0.37300E+03
        -0.37300E+03
        -0.37300E+03
        -0.37300E+03
        -0.37300E+03
        -0.37300E+03
        -0.37300E+03
        -0.37300E+03
        -0.37300E+03
        -0.37300E+03
        -0.37300E+03
        -0.37300E+03
        -0.37300E+03
        -0.37300E+03
        -0.37300E+03
        -0.37300E+03
        -0.37300E+03
        -0.37300E+03
        -0.37300E+03
        -0.37300E+03
        -0.37300E+03
        -0.37300E+03
        -0.37300E+03
        -0.37300E+03
        -0.37300E+03
        -0.37300E+03
        -0.37300E+03
        -0.37300E+03
        -0.37300E+03
        -0.37300E+03
        -0.37300E+03
        -0.37300E+03
        -0.37300E+03
        -0.37300E+03
        -0.37300E+03
        -0.37300E+03
        -0.37300E+03
        -0.37300E+03
        -0.37300E+03
        -0.37300E+03
        -0.37300E+03
        -0.37300E+03
        -0.37300E+03
        -0.37300E+03
        -0.37300E+03
        -0.37300E+03
        -0.37300E+03
        -0.37300E+03
        -0.37300E+03
        -0.37300E+03
        -0.37300E+03
        -0.37300E+03
        -0.37300E+03
        -0.37300E+03
        -0.37300E+03
        -0.37300E+03
        -0.37300E+03
        -0.37300E+03
        -0.37300E+03
        -0.37300E+03
        -0.37300E+03
        -0.37300E+03
        -0.37300E+03
        -0.37300E+03
        -0.37300E+03
        -0.37300E+03
        -0.37300E+03
        -0.37300E+03
        -0.37300E+03
        -0.37300E+03
        -0.37300E+03
        -0.37300E+03
        -0.37300E+03
        -0.37300E+03
        -0.37300E+03
        -0.37300E+03
        -0.37300E+03
        -0.37300E+03
        -0.37300E+03
        -0.37300E+03
        -0.37300E+03
        -0.37300E+03
        -0.37300E+03
        -0.37300E+03
        -0.37300E+03
        -0.37300E+03
        -0.37300E+03
        -0.37300E+03
        -0.37300E+03
        -0.37300E+03
        -0.37300E+03
        -0.37300E+03
        -0.37300E+03
        -0.37300E+03
        -0.37300E+03
        -0.37300E+03
        -0.37300E+03
        -0.37300E+03
        -0.37300E+03
        -0.37300E+03
        -0.37300E+03
        -0.37300E+03
        -0.37300E+03
        -0.37300E+03
        -0.37300E+03
        -0.37300E+03
        -0.37300E+03
        -0.37300E+03
        -0.37300E+03
        -0.37300E+03
        -0.37300E+03
        -0.37300E+03
        -0.37300E+03
        -0.37300E+03
        -0.37300E+03
        -0.37300E+03
        -0.37300E+03
        -0.37300E+03
        -0.37300E+03
        -0.37300E+03
        -0.37300E+03
        -0.37300E+03
        -0.37300E+03
        -0.37300E+03
        -0.37300E+03
        -0.37300E+03
        -0.37300E+03
        -0.37300E+03
        -0.37300E+03
        -0.37300E+03
        -0.37300E+03
        -0.37300E+03
        -0.37300E+03
        -0.37300E+03
        -0.37300E+03
        -0.37300E+03
        -0.37300E+03
        -0.37300E+03
        -0.37300E+03
        -0.37300E+03
        -0.37300E+03
        -0.37300E+03
        -0.37300E+03
        -0.37300E+03
        -0.37300E+03
        -0.37300E+03
        -0.37300E+03
        -0.37300E+03
        -0.37300E+03
        -0.37300E+03
        -0.37300E+03
        -0.37300E+03
        -0.37300E+03
        -0.37300E+03
        -0.37300E+03
        -0.37300E+03
        -0.37300E+03
        -0.37300E+03
        -0.37300E+03
        -0.37300E+03
        -0.37300E+03
        -0.37300E+03
        -0.37300E+03
        -0.37300E+03
        -0.37300E+03
        -0.37300E+03
        -0.37300E+03
        -0.37300E+03
        -0.37300E+03
        -0.37300E+03
        -0.37300E+03
        -0.37300E+03
        -0.37300E+03
        -0.37300E+03
        -0.37300E+03
        -0.37300E+03
        -0.37300E+03
        -0.37300E+03
        -0.37300E+03
        -0.37300E+03
        -0.37300E+03
        -0.37300E+03
        -0.37300E+03
        -0.37300E+03
        -0.37300E+03
        -0.37300E+03
        -0.37300E+03
        -0.37300E+03
        -0.37300E+03
        -0.37300E+03
        -0.37300E+03
        -0.37300E+03
        -0.37300E+03
        -0.37300E+03
        -0.37300E+03
        -0.37300E+03
        -0.37300E+03
        -0.37300E+03
        -0.37300E+03
        -0.37300E+03
        -0.37300E+03
        -0.37300E+03
        -0.37300E+03
        -0.37300E+03
        -0.37300E+03
        -0.37300E+03
        -0.37300E+03
        -0.37300E+03
        -0.37300E+03
        -0.37300E+03
        -0.37300E+03
        -0.37300E+03
        -0.37300E+03
        -0.37300E+03
        -0.37300E+03
        -0.37300E+03
        -0.37300E+03
        -0.37300E+03
        -0.37300E+03
        -0.37300E+03
        -0.37300E+03
        -0.37300E+03
        -0.37300E+03
        -0.37300E+03
        -0.37300E+03
        -0.37300E+03
        -0.37300E+03
        -0.37300E+03
        -0.37300E+03
        -0.37300E+03
        -0.37300E+03
        -0.37300E+03
        -0.37300E+03
        -0.37300E+03
        -0.37300E+03
        -0.37300E+03
        -0.37300E+03
        -0.37300E+03
        -0.37300E+03
        -0.37300E+03
        -0.37300E+03
        -0.37300E+03
        -0.37300E+03
        -0.37300E+03
        -0.37300E+03
        -0.37300E+03
        -0.37300E+03
        -0.37300E+03
        -0.37300E+03
        -0.37300E+03
        -0.37300E+03
        -0.37300E+03
        -0.37300E+03
        -0.37300E+03
        -0.37300E+03
        -0.37300E+03
        -0.37300E+03
        -0.37300E+03
        -0.37300E+03
        -0.37300E+03
        -0.37300E+03
        -0.37300E+03
        -0.37300E+03
        -0.37300E+03
        -0.37300E+03
        -0.37300E+03
        -0.37300E+03
        -0.37300E+03
        -0.37300E+03
        -0.37300E+03
        -0.37300E+03
        -0.37300E+03
        -0.37300E+03
        -0.37300E+03
        -0.37300E+03
        -0.37300E+03
        -0.37300E+03
        -0.37300E+03
        -0.37300E+03
        -0.37300E+03
        -0.37300E+03
        -0.37300E+03
        -0.37300E+03
        -0.37300E+03
        -0.37300E+03
        -0.37300E+03
        -0.37300E+03
        -0.37300E+03
        -0.37300E+03
        -0.37300E+03
        -0.37300E+03
        -0.37300E+03
        -0.37300E+03
        -0.37300E+03
        -0.37300E+03
        -0.37300E+03
        -0.37300E+03
        -0.37300E+03
        -0.37300E+03
        -0.37300E+03
        -0.37300E+03
        -0.37300E+03
        -0.37300E+03
        -0.37300E+03
        -0.37300E+03
        -0.37300E+03
        -0.37300E+03
        -0.37300E+03
        -0.37300E+03
        -0.37300E+03
        -0.37300E+03
        -0.37300E+03
        -0.37300E+03
        -0.37300E+03
        -0.37300E+03
        -0.37300E+03
        -0.37300E+03
        -0.37300E+03
        -0.37300E+03
        -0.37300E+03
        -0.37300E+03
        -0.37300E+03
        -0.37300E+03
        -0.37300E+03
        -0.37300E+03
        -0.37300E+03
        -0.37300E+03
        -0.37300E+03
        -0.37300E+03
        -0.37300E+03
        -0.37300E+03
        -0.37300E+03
        -0.37300E+03
        -0.37300E+03
        -0.37300E+03
        -0.37300E+03
        -0.37300E+03
        -0.37300E+03
        -0.37300E+03
        -0.37300E+03
        -0.37300E+03
        -0.37300E+03
        -0.37300E+03
        -0.37300E+03
        -0.37300E+03
        -0.37300E+03
        -0.37300E+03
        -0.37300E+03
        -0.37300E+03
        -0.37300E+03
        -0.37300E+03
        -0.37300E+03
        -0.37300E+03
        -0.37300E+03
        -0.37300E+03
        -0.37300E+03
        -0.37300E+03
        -0.37300E+03
        -0.37300E+03
        -0.37300E+03
        -0.37300E+03
        -0.37300E+03
        -0.37300E+03
        -0.37300E+03
        -0.37300E+03
        -0.37300E+03
        -0.37300E+03
        -0.37300E+03
        -0.37300E+03
        -0.37300E+03
        -0.37300E+03
        -0.37300E+03
        -0.37300E+03
        -0.37300E+03
        -0.37300E+03
        -0.37300E+03
        -0.37300E+03
        -0.37300E+03
        -0.37300E+03
        -0.37300E+03
        -0.37300E+03
        -0.37300E+03
        -0.37300E+03
        -0.37300E+03
        -0.37300E+03
        -0.37300E+03
        -0.37300E+03
        -0.37300E+03
        -0.37300E+03
        -0.37300E+03
        -0.37300E+03
        -0.37300E+03
        -0.37300E+03
        -0.37300E+03
        -0.37300E+03
        -0.37300E+03
        -0.37300E+03
        -0.37300E+03
        -0.37300E+03
        -0.37300E+03
        -0.37300E+03
        -0.37300E+03
        -0.37300E+03
        -0.37300E+03
        -0.37300E+03
        -0.37300E+03
        -0.37300E+03
        -0.37300E+03
        -0.37300E+03
        -0.37300E+03
        -0.37300E+03
        -0.37300E+03
        -0.37300E+03
        -0.37300E+03
        -0.37300E+03
        -0.37300E+03
        -0.37300E+03
        -0.37300E+03
        -0.37300E+03
        -0.37300E+03
        -0.37300E+03
        -0.37300E+03
        -0.37300E+03
        -0.37300E+03
        -0.37300E+03
        -0.37300E+03
        -0.37300E+03
        -0.37300E+03
        -0.37300E+03
        -0.37300E+03
        -0.37300E+03
        -0.37300E+03
        -0.37300E+03
        -0.37300E+03
        -0.37300E+03
        -0.37300E+03
        -0.37300E+03
        -0.37300E+03
        -0.37300E+03
        -0.37300E+03
        -0.37300E+03
        -0.37300E+03
        -0.37300E+03
        -0.37300E+03
        -0.37300E+03
        -0.37300E+03
        -0.37300E+03
        -0.37300E+03
        -0.37300E+03
        -0.37300E+03
        -0.37300E+03
        -0.37300E+03
        -0.37300E+03
        -0.37300E+03
        -0.37300E+03
        -0.37300E+03
        -0.37300E+03
        -0.37300E+03
        -0.37300E+03
        -0.37300E+03
        -0.37300E+03
        -0.37300E+03
        -0.37300E+03
        -0.37300E+03
        -0.37300E+03
        -0.37300E+03
        -0.37300E+03
        -0.37300E+03
        -0.37300E+03
        -0.37300E+03
        -0.37300E+03
        -0.37300E+03
        -0.37300E+03
        -0.37300E+03
        -0.37300E+03
        -0.37300E+03
        -0.37300E+03
        -0.37300E+03
        -0.37300E+03
        -0.37300E+03
        -0.37300E+03
        -0.37300E+03
        -0.37300E+03
        -0.37300E+03
        -0.37300E+03
        -0.37300E+03
        -0.37300E+03
        -0.37300E+03
        -0.37300E+03
        -0.37300E+03
        -0.37300E+03
        -0.37300E+03
        -0.37300E+03
        -0.37300E+03
        -0.37300E+03
        -0.37300E+03
        -0.37300E+03
        -0.37300E+03
        -0.37300E+03
        -0.37300E+03
        -0.37300E+03
        -0.37300E+03
        -0.37300E+03
        -0.37300E+03
        -0.37300E+03
        -0.37300E+03
        -0.37300E+03
        -0.37300E+03
        -0.37300E+03
        -0.37300E+03
        -0.37300E+03
        -0.37300E+03
        -0.37300E+03
        -0.37300E+03
        -0.37300E+03
        -0.37300E+03
        -0.37300E+03
        -0.37300E+03
        -0.37300E+03
        -0.37300E+03
        -0.37300E+03
        -0.37300E+03
        -0.37300E+03
        -0.37300E+03
        -0.37300E+03
        -0.37300E+03
        -0.37300E+03
        -0.37300E+03
        -0.37300E+03
        -0.37300E+03
        -0.37300E+03
        -0.37300E+03
        -0.37300E+03
        -0.37300E+03
        -0.37300E+03
        -0.37300E+03
        -0.37300E+03
        -0.37300E+03
        -0.37300E+03
        -0.37300E+03
        -0.37300E+03
        -0.37300E+03
        -0.37300E+03
        -0.37300E+03
        -0.37300E+03
        -0.37300E+03
        -0.37300E+03
        -0.37300E+03
        -0.37300E+03
        -0.37300E+03
        -0.37300E+03
        -0.37300E+03
        -0.37300E+03
        -0.37300E+03
        -0.37300E+03
        -0.37300E+03
        -0.37300E+03
        -0.37300E+03
        -0.37300E+03
        -0.37300E+03
        -0.37300E+03
        -0.37300E+03
        -0.37300E+03
        -0.37300E+03
        -0.37300E+03
        -0.37300E+03
        -0.37300E+03
        -0.37300E+03
        -0.37300E+03
        -0.37300E+03
        -0.37300E+03
        -0.37300E+03
        -0.37300E+03
        -0.37300E+03
        -0.37300E+03
        -0.37300E+03
        -0.37300E+03
        -0.37300E+03
        -0.37300E+03
        -0.37300E+03
        -0.37300E+03
        -0.37300E+03
        -0.37300E+03
        -0.37300E+03
        -0.37300E+03
        -0.37300E+03
        -0.37300E+03
        -0.37300E+03
        -0.37300E+03
        -0.37300E+03
        -0.37300E+03
        -0.37300E+03
        -0.37300E+03
        -0.37300E+03
        -0.37300E+03
        -0.37300E+03
        -0.37300E+03
        -0.37300E+03
        -0.37300E+03
        -0.37300E+03
        -0.37300E+03
        -0.37300E+03
        -0.37300E+03
        -0.37300E+03
        -0.37300E+03
        -0.37300E+03
        -0.37300E+03
        -0.37300E+03
        -0.37300E+03
        -0.37300E+03
        -0.37300E+03
        -0.37300E+03
        -0.37300E+03
        -0.37300E+03
        -0.37300E+03
        -0.37300E+03
        -0.37300E+03
        -0.37300E+03
        -0.37300E+03
        -0.37300E+03
        -0.37300E+03
        -0.37300E+03
        -0.37300E+03
        -0.37300E+03
        -0.37300E+03
        -0.37300E+03
        -0.37300E+03
        -0.37300E+03
        -0.37300E+03
        -0.37300E+03
        -0.37300E+03
        -0.37300E+03
        -0.37300E+03
        -0.37300E+03
        -0.37300E+03
        -0.37300E+03
        -0.37300E+03
        -0.37300E+03
        -0.37300E+03
        -0.37300E+03
        -0.37300E+03
        -0.37300E+03
        -0.37300E+03
        -0.37300E+03
        -0.37300E+03
        -0.37300E+03
        -0.37300E+03
        -0.37300E+03
        -0.37300E+03
        -0.37300E+03
        -0.37300E+03
        -0.37300E+03
        -0.37300E+03
        -0.37300E+03
        -0.37300E+03
        -0.37300E+03
        -0.37300E+03
        -0.37300E+03
        -0.37300E+03
        -0.37300E+03
        -0.37300E+03
        -0.37300E+03
        -0.37300E+03
        -0.37300E+03
        -0.37300E+03
        -0.37300E+03
        -0.37300E+03
        -0.37300E+03
        -0.37300E+03
        -0.37300E+03
        -0.37300E+03
        -0.37300E+03
        -0.37300E+03
        -0.37300E+03
        -0.37300E+03
        -0.37300E+03
        -0.37300E+03
        -0.37300E+03
        -0.37300E+03
        -0.37300E+03
        -0.37300E+03
        -0.37300E+03
        -0.37300E+03
        -0.37300E+03
        -0.37300E+03
        -0.37300E+03
        -0.37300E+03
        -0.37300E+03
        -0.37300E+03
        -0.37300E+03
        -0.37300E+03
        -0.37300E+03
        -0.37300E+03
        -0.37300E+03
        -0.37300E+03
        -0.37300E+03
        -0.37300E+03
        -0.37300E+03
        -0.37300E+03
        -0.37300E+03
        -0.37300E+03
        -0.37300E+03
        -0.37300E+03
        -0.37300E+03
        -0.37300E+03
        -0.37300E+03
        -0.37300E+03
        -0.37300E+03
        -0.37300E+03
        -0.37300E+03
        -0.37300E+03
        -0.37300E+03
        -0.37300E+03
        -0.37300E+03
        -0.37300E+03
        -0.37300E+03
        -0.37300E+03
        -0.37300E+03
        -0.37300E+03
        -0.37300E+03
        -0.37300E+03
        -0.37300E+03
        -0.37300E+03
        -0.37300E+03
        -0.37300E+03
        -0.37300E+03
        -0.37300E+03
        -0.37300E+03
        -0.37300E+03
        -0.37300E+03
        -0.37300E+03
        -0.37300E+03
        -0.37300E+03
        -0.37300E+03
        -0.37300E+03
        -0.37300E+03
        -0.37300E+03
        -0.37300E+03
        -0.37300E+03
        -0.37300E+03
        -0.37300E+03
        -0.37300E+03
        -0.37300E+03
        -0.37300E+03
        -0.37300E+03
        -0.37300E+03
        -0.37300E+03
        -0.37300E+03
        -0.37300E+03
        -0.37300E+03
        -0.37300E+03
        -0.37300E+03
        -0.37300E+03
        -0.37300E+03
        -0.37300E+03
        -0.37300E+03
        -0.37300E+03
        -0.37300E+03
        -0.37300E+03
        -0.37300E+03
        -0.37300E+03
        -0.37300E+03
        -0.37300E+03
        -0.37300E+03
        -0.37300E+03
        -0.37300E+03
        -0.37300E+03
        -0.37300E+03
        -0.37300E+03
        -0.37300E+03
        -0.37300E+03
        -0.37300E+03
        -0.37300E+03
        -0.37300E+03
        -0.37300E+03
        -0.37300E+03
        -0.37300E+03
        -0.37300E+03
        -0.37300E+03
        -0.37300E+03
        -0.37300E+03
        -0.37300E+03
        -0.37300E+03
        -0.37300E+03
        -0.37300E+03
        -0.37300E+03
        -0.37300E+03
        -0.37300E+03
        -0.37300E+03
        -0.37300E+03
        -0.37300E+03
        -0.37300E+03
        -0.37300E+03
        -0.37300E+03
        -0.37300E+03
        -0.37300E+03
        -0.37300E+03
        -0.37300E+03
        -0.37300E+03
        -0.37300E+03
        -0.37300E+03
        -0.37300E+03
        -0.37300E+03
        -0.37300E+03
        -0.37300E+03
        -0.37300E+03
        -0.37300E+03
        -0.37300E+03
        -0.37300E+03
        -0.37300E+03
        -0.37300E+03
        -0.37300E+03
        -0.37300E+03
        -0.37300E+03
        -0.37300E+03
        -0.37300E+03
        -0.37300E+03
        -0.37300E+03
        -0.37300E+03
        -0.37300E+03
        -0.37300E+03
        -0.37300E+03
        -0.37300E+03
        -0.37300E+03
        -0.37300E+03
        -0.37300E+03
        -0.37300E+03
        -0.37300E+03
        -0.37300E+03
        -0.37300E+03
        -0.37300E+03
        -0.37300E+03
        -0.37300E+03
        -0.37300E+03
        -0.37300E+03
        -0.37300E+03
        -0.37300E+03
        -0.37300E+03
        -0.37300E+03
        -0.37300E+03
        -0.37300E+03
        -0.37300E+03
        -0.37300E+03
        -0.37300E+03
        -0.37300E+03
        -0.37300E+03
        -0.37300E+03
        -0.37300E+03
        -0.37300E+03
        -0.37300E+03
        -0.37300E+03
        -0.37300E+03
        -0.37300E+03
        -0.37300E+03
        -0.37300E+03
        -0.37300E+03
        -0.37300E+03
        -0.37300E+03
        -0.37300E+03
        -0.37300E+03
        -0.37300E+03
        -0.37300E+03
        -0.37300E+03
        -0.37300E+03
        -0.37300E+03
        -0.37300E+03
        -0.37300E+03
        -0.37300E+03
        -0.37300E+03
        -0.37300E+03
        -0.37300E+03
        -0.37300E+03
        -0.37300E+03
        -0.37300E+03
        -0.37300E+03
        -0.37300E+03
        -0.37300E+03
        -0.37300E+03
        -0.37300E+03
        -0.37300E+03
        -0.37300E+03
        -0.37300E+03
        -0.37300E+03
        -0.37300E+03
        -0.37300E+03
        -0.37300E+03
        -0.37300E+03
        -0.37300E+03
        -0.37300E+03
        -0.37300E+03
        -0.37300E+03
        -0.37300E+03
        -0.37300E+03
        -0.37300E+03
        -0.37300E+03
        -0.37300E+03
        -0.37300E+03
        -0.37300E+03
        -0.37300E+03
        -0.37300E+03
        -0.37300E+03
        -0.37300E+03
        -0.37300E+03
        -0.37300E+03
        -0.37300E+03
        -0.37300E+03
        -0.37300E+03
        -0.37300E+03
        -0.37300E+03
        -0.37300E+03
        -0.37300E+03
        -0.37300E+03
        -0.37300E+03
        -0.37300E+03
        -0.37300E+03
        -0.37300E+03
        -0.37300E+03
        -0.37300E+03
        -0.37300E+03
        -0.37300E+03
        -0.37300E+03
        -0.37300E+03
        -0.37300E+03
        -0.37300E+03
        -0.37300E+03
        -0.37300E+03
        -0.37300E+03
        -0.37300E+03
        -0.37300E+03
        -0.37300E+03
        -0.37300E+03
        -0.37300E+03
        -0.37300E+03
        -0.37300E+03
        -0.37300E+03
        -0.37300E+03
        -0.37300E+03
        -0.37300E+03
        -0.37300E+03
        -0.37300E+03
        -0.37300E+03
        -0.37300E+03
        -0.37300E+03
        -0.37300E+03
        -0.37300E+03
        -0.37300E+03
        -0.37300E+03
        -0.37300E+03
        -0.37300E+03
        -0.37300E+03
        -0.37300E+03
        -0.37300E+03
        -0.37300E+03
        -0.37300E+03
        -0.37300E+03
        -0.37300E+03
        -0.37300E+03
        -0.37300E+03
        -0.37300E+03
        -0.37300E+03
        -0.37300E+03
        -0.37300E+03
        -0.37300E+03
        -0.37300E+03
        -0.37300E+03
        -0.37300E+03
        -0.37300E+03
        -0.37300E+03
        -0.37300E+03
        -0.37300E+03
        -0.37300E+03
        -0.37300E+03
        -0.37300E+03
        -0.37300E+03
        -0.37300E+03
        -0.37300E+03
        -0.37300E+03
        -0.37300E+03
        -0.37300E+03
        -0.37300E+03
        -0.37300E+03
        -0.37300E+03
        -0.37300E+03
        -0.37300E+03
        -0.37300E+03
        -0.37300E+03
        -0.37300E+03
        -0.37300E+03
        -0.37300E+03
        -0.37300E+03
        -0.37300E+03
        -0.37300E+03
        -0.37300E+03
        -0.37300E+03
        -0.37300E+03
        -0.37300E+03
        -0.37300E+03
        -0.37300E+03
        -0.37300E+03
        -0.37300E+03
        -0.37300E+03
        -0.37300E+03
        -0.37300E+03
        -0.37300E+03
        -0.37300E+03
        -0.37300E+03
        -0.37300E+03
        -0.37300E+03
        -0.37300E+03
        -0.37300E+03
        -0.37300E+03
        -0.37300E+03
        -0.37300E+03
        -0.37300E+03
        -0.37300E+03
        -0.37300E+03
        -0.37300E+03
        -0.37300E+03
        -0.37300E+03
        -0.37300E+03
        -0.37300E+03
        -0.37300E+03
        -0.37300E+03
        -0.37300E+03
        -0.37300E+03
        -0.37300E+03
        -0.37300E+03
        -0.37300E+03
        -0.37300E+03
        -0.37300E+03
        -0.37300E+03
        -0.37300E+03
        -0.37300E+03
        -0.37300E+03
        -0.37300E+03
        -0.37300E+03
        -0.37300E+03
        -0.37300E+03
        -0.37300E+03
        -0.37300E+03
        -0.37300E+03
        -0.37300E+03
        -0.37300E+03
        -0.37300E+03
        -0.37300E+03
        -0.37300E+03
        -0.37300E+03
        -0.37300E+03
        -0.37300E+03
        -0.37300E+03
        -0.37300E+03
        -0.37300E+03
        -0.37300E+03
        -0.37300E+03
        -0.37300E+03
        -0.37300E+03
        -0.37300E+03
        -0.37300E+03
        -0.37300E+03
        -0.37300E+03
        -0.37300E+03
        -0.37300E+03
        -0.37300E+03
        -0.37300E+03
        -0.37300E+03
        -0.37300E+03
        -0.37300E+03
        -0.37300E+03
        -0.37300E+03
        -0.37300E+03
        -0.37300E+03
        -0.37300E+03
        -0.37300E+03
        -0.37300E+03
        -0.37300E+03
        -0.37300E+03
        -0.37300E+03
        -0.37300E+03
        -0.37300E+03
        -0.37300E+03
        -0.37300E+03
        -0.37300E+03
        -0.37300E+03
        -0.37300E+03
        -0.37300E+03
        -0.37300E+03
        -0.37300E+03
        -0.37300E+03
        -0.37300E+03
        -0.37300E+03
        -0.37300E+03
        -0.37300E+03
        -0.37300E+03
        -0.37300E+03
        -0.37300E+03
        -0.37300E+03
        -0.37300E+03
        -0.37300E+03
        -0.37300E+03
        -0.37300E+03
        -0.37300E+03
        -0.37300E+03
        -0.37300E+03
        -0.37300E+03
        -0.37300E+03
        -0.37300E+03
        -0.37300E+03
        -0.37300E+03
        -0.37300E+03
        -0.37300E+03
        -0.37300E+03
        -0.37300E+03
        -0.37300E+03
        -0.37300E+03
        -0.37300E+03
        -0.37300E+03
        -0.37300E+03
        -0.37300E+03
        -0.37300E+03
        -0.37300E+03
        -0.37300E+03
        -0.37300E+03
        -0.37300E+03
        -0.37300E+03
        -0.37300E+03
        -0.37300E+03
        -0.37300E+03
        -0.37300E+03
        -0.37300E+03
        -0.37300E+03
        -0.37300E+03
        -0.37300E+03
        -0.37300E+03
        -0.37300E+03
        -0.37300E+03
        -0.37300E+03
        -0.37300E+03
        -0.37300E+03
        -0.37300E+03
        -0.37300E+03
        -0.37300E+03
        -0.37300E+03
        -0.37300E+03
        -0.37300E+03
        -0.37300E+03
        -0.37300E+03
        -0.37300E+03
        -0.37300E+03
        -0.37300E+03
        -0.37300E+03
        -0.37300E+03
        -0.37300E+03
        -0.37300E+03
        -0.37300E+03
        -0.37300E+03
        -0.37300E+03
        -0.37300E+03
        -0.37300E+03
        -0.37300E+03
        -0.37300E+03
        -0.37300E+03
        -0.37300E+03
        -0.37300E+03
        -0.37300E+03
        -0.37300E+03
        -0.37300E+03
        -0.37300E+03
        -0.37300E+03
        -0.37300E+03
        -0.37300E+03
        -0.37300E+03
        -0.37300E+03
        -0.37300E+03
        -0.37300E+03
        -0.37300E+03
        -0.37300E+03
        -0.37300E+03
        -0.37300E+03
        -0.37300E+03
        -0.37300E+03
        -0.37300E+03
        -0.37300E+03
        -0.37300E+03
        -0.37300E+03
        -0.37300E+03
        -0.37300E+03
        -0.37300E+03
        -0.37300E+03
        -0.37300E+03
        -0.37300E+03
        -0.37300E+03
        -0.37300E+03
        -0.37300E+03
        -0.37300E+03
        -0.37300E+03
        -0.37300E+03
        -0.37300E+03
        -0.37300E+03
        -0.37300E+03
        -0.37300E+03
        -0.37300E+03
        -0.37300E+03
        -0.37300E+03
        -0.37300E+03
        -0.37300E+03
        -0.37300E+03
        -0.37300E+03
        -0.37300E+03
        -0.37300E+03
        -0.37300E+03
        -0.37300E+03
        -0.37300E+03
        -0.37300E+03
        -0.37300E+03
        -0.37300E+03
        -0.37300E+03
        -0.37300E+03
        -0.37300E+03
        -0.37300E+03
        -0.37300E+03
        -0.37300E+03
        -0.37300E+03
        -0.37300E+03
        -0.37300E+03
        -0.37300E+03
        -0.37300E+03
        -0.37300E+03
        -0.37300E+03
        -0.37300E+03
        -0.37300E+03
        -0.37300E+03
        -0.37300E+03
        -0.37300E+03
        -0.37300E+03
        -0.37300E+03
        -0.37300E+03
        -0.37300E+03
        -0.37300E+03
        -0.37300E+03
        -0.37300E+03
        -0.37300E+03
        -0.37300E+03
        -0.37300E+03
        -0.37300E+03
        -0.37300E+03
        -0.37300E+03
        -0.37300E+03
        -0.37300E+03
        -0.37300E+03
        -0.37300E+03
        -0.37300E+03
        -0.37300E+03
        -0.37300E+03
        -0.37300E+03
        -0.37300E+03
        -0.37300E+03
        -0.37300E+03
        -0.37300E+03
        -0.37300E+03
        -0.37300E+03
        -0.37300E+03
        -0.37300E+03
        -0.37300E+03
        -0.37300E+03
        -0.37300E+03
        -0.37300E+03
        -0.37300E+03
        -0.37300E+03
        -0.37300E+03
        -0.37300E+03
        -0.37300E+03
        -0.37300E+03
        -0.37300E+03
        -0.37300E+03
        -0.37300E+03
        -0.37300E+03
        -0.37300E+03
        -0.37300E+03
        -0.37300E+03
        -0.37300E+03
        -0.37300E+03
        -0.37300E+03
        -0.37300E+03
        -0.37300E+03
        -0.37300E+03
        -0.37300E+03
        -0.37300E+03
        -0.37300E+03
        -0.37300E+03
        -0.37300E+03
        -0.37300E+03
        -0.37300E+03
        -0.37300E+03
        -0.37300E+03
        -0.37300E+03
        -0.37300E+03
        -0.37300E+03
        -0.37300E+03
        -0.37300E+03
        -0.37300E+03
        -0.37300E+03
        -0.37300E+03
        -0.37300E+03
        -0.37300E+03
        -0.37300E+03
        -0.37300E+03
        -0.37300E+03
        -0.37300E+03
        -0.37300E+03
        -0.37300E+03
        -0.37300E+03
        -0.37300E+03
        -0.37300E+03
        -0.37300E+03
        -0.37300E+03
        -0.37300E+03
        -0.37300E+03
        -0.37300E+03
        -0.37300E+03
        -0.37300E+03
        -0.37300E+03
        -0.37300E+03
        -0.37300E+03
        -0.37300E+03
        -0.37300E+03
        -0.37300E+03
        -0.37300E+03
        -0.37300E+03
        -0.37300E+03
        -0.37300E+03
        -0.37300E+03
        -0.37300E+03
        -0.37300E+03
        -0.37300E+03
        -0.37300E+03
        -0.37300E+03
        -0.37300E+03
        -0.37300E+03
        -0.37300E+03
        -0.37300E+03
        -0.37300E+03
        -0.37300E+03
        -0.37300E+03
        -0.37300E+03
        -0.37300E+03
        -0.37300E+03
        -0.37300E+03
        -0.37300E+03
        -0.37300E+03
        -0.37300E+03
        -0.37300E+03
        -0.37300E+03
        -0.37300E+03
        -0.37300E+03
        -0.37300E+03
        -0.37300E+03
        -0.37300E+03
        -0.37300E+03
        -0.37300E+03
        -0.37300E+03
        -0.37300E+03
        -0.37300E+03
        -0.37300E+03
        -0.37300E+03
        -0.37300E+03
        -0.37300E+03
        -0.37300E+03
        -0.37300E+03
        -0.37300E+03
        -0.37300E+03
        -0.37300E+03
        -0.37300E+03
        -0.37300E+03
        -0.37300E+03
        -0.37300E+03
        -0.37300E+03
        -0.37300E+03
        -0.37300E+03
        -0.37300E+03
        -0.37300E+03
        -0.37300E+03
        -0.37300E+03
        -0.37300E+03
        -0.37300E+03
        -0.37300E+03
        -0.37300E+03
        -0.37300E+03
        -0.37300E+03
        -0.37300E+03
        -0.37300E+03
        -0.37300E+03
        -0.37300E+03
        -0.37300E+03
        -0.37300E+03
        -0.37300E+03
        -0.37300E+03
        -0.37300E+03
        -0.37300E+03
        -0.37300E+03
        -0.37300E+03
        -0.37300E+03
        -0.37300E+03
        -0.37300E+03
        -0.37300E+03
        -0.37300E+03
        -0.37300E+03
        -0.37300E+03
        -0.37300E+03
        -0.37300E+03
        -0.37300E+03
        -0.37300E+03
        -0.37300E+03
        -0.37300E+03
        -0.37300E+03
        -0.37300E+03
        -0.37300E+03
        -0.37300E+03
        -0.37300E+03
        -0.37300E+03
        -0.37300E+03
        -0.37300E+03
        -0.37300E+03
        -0.37300E+03
        -0.37300E+03
        -0.37300E+03
        -0.37300E+03
        -0.37300E+03
        -0.37300E+03
        -0.37300E+03
        -0.37300E+03
        -0.37300E+03
        -0.37300E+03
        -0.37300E+03
        -0.37300E+03
        -0.37300E+03
        -0.37300E+03
        -0.37300E+03
        -0.37300E+03
        -0.37300E+03
        -0.37300E+03
        -0.37300E+03
        -0.37300E+03
        -0.37300E+03
        -0.37300E+03
        -0.37300E+03
        -0.37300E+03
        -0.37300E+03
        -0.37300E+03
        -0.37300E+03
        -0.37300E+03
        -0.37300E+03
        -0.37300E+03
        -0.37300E+03
        -0.37300E+03
        -0.37300E+03
        -0.37300E+03
        -0.37300E+03
        -0.37300E+03
        -0.37300E+03
        -0.37300E+03
        -0.37300E+03
        -0.37300E+03
        -0.37300E+03
        -0.37300E+03
        -0.37300E+03
        -0.37300E+03
        -0.37300E+03
        -0.37300E+03
        -0.37300E+03
        -0.37300E+03
        -0.37300E+03
        -0.37300E+03
        -0.37300E+03
        -0.37300E+03
        -0.37300E+03
        -0.37300E+03
        -0.37300E+03
        -0.37300E+03
        -0.37300E+03
        -0.37300E+03
        -0.37300E+03
        -0.37300E+03
        -0.37300E+03
        -0.37300E+03
        -0.37300E+03
        -0.37300E+03
        -0.37300E+03
        -0.37300E+03
        -0.37300E+03
        -0.37300E+03
        -0.37300E+03
        -0.37300E+03
        -0.37300E+03
        -0.37300E+03
        -0.37300E+03
        -0.37300E+03
        -0.37300E+03
        -0.37300E+03
        -0.37300E+03
        -0.37300E+03
        -0.37300E+03
        -0.37300E+03
        -0.37300E+03
        -0.37300E+03
        -0.37300E+03
        -0.37300E+03
        -0.37300E+03
        -0.37300E+03
        -0.37300E+03
        -0.37300E+03
        -0.37300E+03
        -0.37300E+03
        -0.37300E+03
        -0.37300E+03
        -0.37300E+03
        -0.37300E+03
        -0.37300E+03
        -0.37300E+03
        -0.37300E+03
        -0.37300E+03
        -0.37300E+03
        -0.37300E+03
        -0.37300E+03
        -0.37300E+03
        -0.37300E+03
        -0.37300E+03
        -0.37300E+03
        -0.37300E+03
        -0.37300E+03
        -0.37300E+03
        -0.37300E+03
        -0.37300E+03
        -0.37300E+03
        -0.37300E+03
        -0.37300E+03
        -0.37300E+03
        -0.37300E+03
        -0.37300E+03
        -0.37300E+03
        -0.37300E+03
        -0.37300E+03
        -0.37300E+03
        -0.37300E+03
        -0.37300E+03
        -0.37300E+03
        -0.37300E+03
        -0.37300E+03
        -0.37300E+03
        -0.37300E+03
        -0.37300E+03
        -0.37300E+03
        -0.37300E+03
        -0.37300E+03
        -0.37300E+03
        -0.37300E+03
        -0.37300E+03
        -0.37300E+03
        -0.37300E+03
        -0.37300E+03
        -0.37300E+03
        -0.37300E+03
        -0.37300E+03
        -0.37300E+03
        -0.37300E+03
        -0.37300E+03
        -0.37300E+03
        -0.37300E+03
        -0.37300E+03
        -0.37300E+03
        -0.37300E+03
        -0.37300E+03
        -0.37300E+03
        -0.37300E+03
        -0.37300E+03
        -0.37300E+03
        -0.37300E+03
        -0.37300E+03
        -0.37300E+03
        -0.37300E+03
        -0.37300E+03
        -0.37300E+03
        -0.37300E+03
        -0.37300E+03
        -0.37300E+03
        -0.37300E+03
        -0.37300E+03
        -0.37300E+03
        -0.37300E+03
        -0.37300E+03
        -0.37300E+03
        -0.37300E+03
        -0.37300E+03
        -0.37300E+03
        -0.37300E+03
        -0.37300E+03
        -0.37300E+03
        -0.37300E+03
        -0.37300E+03
        -0.37300E+03
        -0.37300E+03
        -0.37300E+03
        -0.37300E+03
        -0.37300E+03
        -0.37300E+03
        -0.37300E+03
        -0.37300E+03
        -0.37300E+03
        -0.37300E+03
        -0.37300E+03
        -0.37300E+03
        -0.37300E+03
        -0.37300E+03
        -0.37300E+03
        -0.37300E+03
        -0.37300E+03
        -0.37300E+03
        -0.37300E+03
        -0.37300E+03
        -0.37300E+03
        -0.37300E+03
        -0.37300E+03
        -0.37300E+03
        -0.37300E+03
        -0.37300E+03
        -0.37300E+03
        -0.37300E+03
        -0.37300E+03
        -0.37300E+03
        -0.37300E+03
        -0.37300E+03
        -0.37300E+03
        -0.37300E+03
        -0.37300E+03
        -0.37300E+03
        -0.37300E+03
        -0.37300E+03
        -0.37300E+03
        -0.37300E+03
        -0.37300E+03
        -0.37300E+03
        -0.37300E+03
        -0.37300E+03
        -0.37300E+03
        -0.37300E+03
        -0.37300E+03
  
SCALARS              normalized_window  double 1
LOOKUP_TABLE default
         0.27500E+01
         0.27500E+01
         0.27500E+01
         0.27500E+01
         0.27500E+01
         0.27500E+01
         0.27500E+01
         0.27500E+01
         0.27500E+01
         0.27500E+01
         0.27500E+01
         0.27500E+01
         0.27500E+01
         0.27500E+01
         0.27500E+01
         0.27500E+01
         0.27500E+01
         0.27500E+01
         0.27500E+01
         0.27500E+01
         0.27500E+01
         0.27500E+01
         0.27500E+01
         0.27500E+01
         0.27500E+01
         0.27500E+01
         0.27500E+01
         0.27500E+01
         0.27500E+01
         0.27500E+01
         0.27500E+01
         0.27500E+01
         0.27500E+01
         0.27500E+01
         0.27500E+01
         0.27500E+01
         0.27500E+01
         0.27500E+01
         0.27500E+01
         0.27500E+01
         0.27500E+01
         0.27500E+01
         0.27500E+01
         0.27500E+01
         0.27500E+01
         0.27500E+01
         0.27500E+01
         0.27500E+01
         0.27500E+01
         0.27500E+01
         0.27500E+01
         0.27500E+01
         0.27500E+01
         0.27500E+01
         0.27500E+01
         0.27500E+01
         0.27500E+01
         0.27500E+01
         0.27500E+01
         0.27500E+01
         0.27500E+01
         0.27500E+01
         0.27500E+01
         0.27500E+01
         0.27500E+01
         0.27500E+01
         0.27500E+01
         0.27500E+01
         0.27500E+01
         0.27500E+01
         0.27500E+01
         0.27500E+01
         0.27500E+01
         0.27500E+01
         0.27500E+01
         0.27500E+01
         0.27500E+01
         0.27500E+01
         0.27500E+01
         0.27500E+01
         0.27500E+01
         0.27500E+01
         0.27500E+01
         0.27500E+01
         0.27500E+01
         0.27500E+01
         0.27500E+01
         0.27500E+01
         0.27500E+01
         0.27500E+01
         0.27500E+01
         0.27500E+01
         0.27500E+01
         0.27500E+01
         0.27500E+01
         0.27500E+01
         0.27500E+01
         0.27500E+01
         0.27500E+01
         0.27500E+01
         0.27500E+01
         0.27500E+01
         0.27500E+01
         0.27500E+01
         0.27500E+01
         0.27500E+01
         0.27500E+01
         0.27500E+01
         0.27500E+01
         0.27500E+01
         0.27500E+01
         0.27500E+01
         0.27500E+01
         0.27500E+01
         0.27500E+01
         0.27500E+01
         0.27500E+01
         0.27500E+01
         0.27500E+01
         0.27500E+01
         0.27500E+01
         0.27500E+01
         0.27500E+01
         0.27500E+01
         0.27500E+01
         0.27500E+01
         0.27500E+01
         0.27500E+01
         0.27500E+01
         0.27500E+01
         0.27500E+01
         0.27500E+01
         0.27500E+01
         0.27500E+01
         0.27500E+01
         0.27500E+01
         0.27500E+01
         0.27500E+01
         0.27500E+01
         0.27500E+01
         0.27500E+01
         0.27500E+01
         0.27500E+01
         0.27500E+01
         0.27500E+01
         0.27500E+01
         0.27500E+01
         0.27500E+01
         0.27500E+01
         0.27500E+01
         0.27500E+01
         0.27500E+01
         0.27500E+01
         0.27500E+01
         0.27500E+01
         0.27500E+01
         0.27500E+01
         0.27500E+01
         0.27500E+01
         0.27500E+01
         0.27500E+01
         0.27500E+01
         0.27500E+01
         0.27500E+01
         0.27500E+01
         0.27500E+01
         0.27500E+01
         0.27500E+01
         0.27500E+01
         0.27500E+01
         0.27500E+01
         0.27500E+01
         0.27500E+01
         0.27500E+01
         0.27500E+01
         0.27500E+01
         0.27500E+01
         0.27500E+01
         0.27500E+01
         0.27500E+01
         0.27500E+01
         0.27500E+01
         0.27500E+01
         0.27500E+01
         0.27500E+01
         0.27500E+01
         0.27500E+01
         0.27500E+01
         0.27500E+01
         0.27500E+01
         0.27500E+01
         0.27500E+01
         0.27500E+01
         0.27500E+01
         0.27500E+01
         0.27500E+01
         0.27500E+01
         0.27500E+01
         0.27500E+01
         0.27500E+01
         0.27500E+01
         0.27500E+01
         0.27500E+01
         0.27500E+01
         0.27500E+01
         0.27500E+01
         0.27500E+01
         0.27500E+01
         0.27500E+01
         0.27500E+01
         0.27500E+01
         0.27500E+01
         0.27500E+01
         0.27500E+01
         0.27500E+01
         0.27500E+01
         0.27500E+01
         0.27500E+01
         0.27500E+01
         0.27500E+01
         0.27500E+01
         0.27500E+01
         0.27500E+01
         0.27500E+01
         0.27500E+01
         0.27500E+01
         0.27500E+01
         0.27500E+01
         0.27500E+01
         0.27500E+01
         0.27500E+01
         0.27500E+01
         0.27500E+01
         0.27500E+01
         0.27500E+01
         0.27500E+01
         0.27500E+01
         0.27500E+01
         0.27500E+01
         0.27500E+01
         0.27500E+01
         0.27500E+01
         0.27500E+01
         0.27500E+01
         0.27500E+01
         0.27500E+01
         0.27500E+01
         0.27500E+01
         0.27500E+01
         0.27500E+01
         0.27500E+01
         0.27500E+01
         0.27500E+01
         0.27500E+01
         0.27500E+01
         0.27500E+01
         0.27500E+01
         0.27500E+01
         0.27500E+01
         0.27500E+01
         0.27500E+01
         0.27500E+01
         0.27500E+01
         0.27500E+01
         0.27500E+01
         0.27500E+01
         0.27500E+01
         0.27500E+01
         0.27500E+01
         0.27500E+01
         0.27500E+01
         0.27500E+01
         0.27500E+01
         0.27500E+01
         0.27500E+01
         0.27500E+01
         0.27500E+01
         0.27500E+01
         0.27500E+01
         0.27500E+01
         0.27500E+01
         0.27500E+01
         0.27500E+01
         0.27500E+01
         0.27500E+01
         0.27500E+01
         0.27500E+01
         0.27500E+01
         0.27500E+01
         0.27500E+01
         0.27500E+01
         0.27500E+01
         0.27500E+01
         0.27500E+01
         0.27500E+01
         0.27500E+01
         0.27500E+01
         0.27500E+01
         0.27500E+01
         0.27500E+01
         0.27500E+01
         0.27500E+01
         0.27500E+01
         0.27500E+01
         0.27500E+01
         0.27500E+01
         0.27500E+01
         0.27500E+01
         0.27500E+01
         0.27500E+01
         0.27500E+01
         0.27500E+01
         0.27500E+01
         0.27500E+01
         0.27500E+01
         0.27500E+01
         0.27500E+01
         0.27500E+01
         0.27500E+01
         0.27500E+01
         0.27500E+01
         0.27500E+01
         0.27500E+01
         0.27500E+01
         0.27500E+01
         0.27500E+01
         0.27500E+01
         0.27500E+01
         0.27500E+01
         0.27500E+01
         0.27500E+01
         0.27500E+01
         0.27500E+01
         0.27500E+01
         0.27500E+01
         0.27500E+01
         0.27500E+01
         0.27500E+01
         0.27500E+01
         0.27500E+01
         0.27500E+01
         0.27500E+01
         0.27500E+01
         0.27500E+01
         0.27500E+01
         0.27500E+01
         0.27500E+01
         0.27500E+01
         0.27500E+01
         0.27500E+01
         0.27500E+01
         0.27500E+01
         0.27500E+01
         0.27500E+01
         0.27500E+01
         0.27500E+01
         0.27500E+01
         0.27500E+01
         0.27500E+01
         0.27500E+01
         0.27500E+01
         0.27500E+01
         0.27500E+01
         0.27500E+01
         0.27500E+01
         0.27500E+01
         0.27500E+01
         0.27500E+01
         0.27500E+01
         0.27500E+01
         0.27500E+01
         0.27500E+01
         0.27500E+01
         0.27500E+01
         0.27500E+01
         0.27500E+01
         0.27500E+01
         0.27500E+01
         0.27500E+01
         0.27500E+01
         0.27500E+01
         0.27500E+01
         0.27500E+01
         0.27500E+01
         0.27500E+01
         0.27500E+01
         0.27500E+01
         0.27500E+01
         0.27500E+01
         0.27500E+01
         0.27500E+01
         0.27500E+01
         0.27500E+01
         0.27500E+01
         0.27500E+01
         0.27500E+01
         0.27500E+01
         0.27500E+01
         0.27500E+01
         0.27500E+01
         0.27500E+01
         0.27500E+01
         0.27500E+01
         0.27500E+01
         0.27500E+01
         0.27500E+01
         0.27500E+01
         0.27500E+01
         0.27500E+01
         0.27500E+01
         0.27500E+01
         0.27500E+01
         0.27500E+01
         0.27500E+01
         0.27500E+01
         0.27500E+01
         0.27500E+01
         0.27500E+01
         0.27500E+01
         0.27500E+01
         0.27500E+01
         0.27500E+01
         0.27500E+01
         0.27500E+01
         0.27500E+01
         0.27500E+01
         0.27500E+01
         0.27500E+01
         0.27500E+01
         0.27500E+01
         0.27500E+01
         0.27500E+01
         0.27500E+01
         0.27500E+01
         0.27500E+01
         0.27500E+01
         0.27500E+01
         0.27500E+01
         0.27500E+01
         0.27500E+01
         0.27500E+01
         0.27500E+01
         0.27500E+01
         0.27500E+01
         0.27500E+01
         0.27500E+01
         0.27500E+01
         0.27500E+01
         0.27500E+01
         0.27500E+01
         0.27500E+01
         0.27500E+01
         0.27500E+01
         0.27500E+01
         0.27500E+01
         0.27500E+01
         0.27500E+01
         0.27500E+01
         0.27500E+01
         0.27500E+01
         0.27500E+01
         0.27500E+01
         0.27500E+01
         0.27500E+01
         0.27500E+01
         0.27500E+01
         0.27500E+01
         0.27500E+01
         0.27500E+01
         0.27500E+01
         0.27500E+01
         0.27500E+01
         0.27500E+01
         0.27500E+01
         0.27500E+01
         0.27500E+01
         0.27500E+01
         0.27500E+01
         0.27500E+01
         0.27500E+01
         0.27500E+01
         0.27500E+01
         0.27500E+01
         0.27500E+01
         0.27500E+01
         0.27500E+01
         0.27500E+01
         0.27500E+01
         0.27500E+01
         0.27500E+01
         0.27500E+01
         0.27500E+01
         0.27500E+01
         0.27500E+01
         0.27500E+01
         0.27500E+01
         0.27500E+01
         0.27500E+01
         0.27500E+01
         0.27500E+01
         0.27500E+01
         0.27500E+01
         0.27500E+01
         0.27500E+01
         0.27500E+01
         0.27500E+01
         0.27500E+01
         0.27500E+01
         0.27500E+01
         0.27500E+01
         0.27500E+01
         0.27500E+01
         0.27500E+01
         0.27500E+01
         0.27500E+01
         0.27500E+01
         0.27500E+01
         0.27500E+01
         0.27500E+01
         0.27500E+01
         0.27500E+01
         0.27500E+01
         0.27500E+01
         0.27500E+01
         0.27500E+01
         0.27500E+01
         0.27500E+01
         0.27500E+01
         0.27500E+01
         0.27500E+01
         0.27500E+01
         0.27500E+01
         0.27500E+01
         0.27500E+01
         0.27500E+01
         0.27500E+01
         0.27500E+01
         0.27500E+01
         0.27500E+01
         0.27500E+01
         0.27500E+01
         0.27500E+01
         0.27500E+01
         0.27500E+01
         0.27500E+01
         0.27500E+01
         0.27500E+01
         0.27500E+01
         0.27500E+01
         0.27500E+01
         0.27500E+01
         0.27500E+01
         0.27500E+01
         0.27500E+01
         0.27500E+01
         0.27500E+01
         0.27500E+01
         0.27500E+01
         0.27500E+01
         0.27500E+01
         0.27500E+01
         0.27500E+01
         0.27500E+01
         0.27500E+01
         0.27500E+01
         0.27500E+01
         0.27500E+01
         0.27500E+01
         0.27500E+01
         0.27500E+01
         0.27500E+01
         0.27500E+01
         0.27500E+01
         0.27500E+01
         0.27500E+01
         0.27500E+01
         0.27500E+01
         0.27500E+01
         0.27500E+01
         0.27500E+01
         0.27500E+01
         0.27500E+01
         0.27500E+01
         0.27500E+01
         0.27500E+01
         0.27500E+01
         0.27500E+01
         0.27500E+01
         0.27500E+01
         0.27500E+01
         0.27500E+01
         0.27500E+01
         0.27500E+01
         0.27500E+01
         0.27500E+01
         0.27500E+01
         0.27500E+01
         0.27500E+01
         0.27500E+01
         0.27500E+01
         0.27500E+01
         0.27500E+01
         0.27500E+01
         0.27500E+01
         0.27500E+01
         0.27500E+01
         0.27500E+01
         0.27500E+01
         0.27500E+01
         0.27500E+01
         0.27500E+01
         0.27500E+01
         0.27500E+01
         0.27500E+01
         0.27500E+01
         0.27500E+01
         0.27500E+01
         0.27500E+01
         0.27500E+01
         0.27500E+01
         0.27500E+01
         0.27500E+01
         0.27500E+01
         0.27500E+01
         0.27500E+01
         0.27500E+01
         0.27500E+01
         0.27500E+01
         0.27500E+01
         0.27500E+01
         0.27500E+01
         0.27500E+01
         0.27500E+01
         0.27500E+01
         0.27500E+01
         0.27500E+01
         0.27500E+01
         0.27500E+01
         0.27500E+01
         0.27500E+01
         0.27500E+01
         0.27500E+01
         0.27500E+01
         0.27500E+01
         0.27500E+01
         0.27500E+01
         0.27500E+01
         0.27500E+01
         0.27500E+01
         0.27500E+01
         0.27500E+01
         0.27500E+01
         0.27500E+01
         0.27500E+01
         0.27500E+01
         0.27500E+01
         0.27500E+01
         0.27500E+01
         0.27500E+01
         0.27500E+01
         0.27500E+01
         0.27500E+01
         0.27500E+01
         0.27500E+01
         0.27500E+01
         0.27500E+01
         0.27500E+01
         0.27500E+01
         0.27500E+01
         0.27500E+01
         0.27500E+01
         0.27500E+01
         0.27500E+01
         0.27500E+01
         0.27500E+01
         0.27500E+01
         0.27500E+01
         0.27500E+01
         0.27500E+01
         0.27500E+01
         0.27500E+01
         0.27500E+01
         0.27500E+01
         0.27500E+01
         0.27500E+01
         0.27500E+01
         0.27500E+01
         0.27500E+01
         0.27500E+01
         0.27500E+01
         0.27500E+01
         0.27500E+01
         0.27500E+01
         0.27500E+01
         0.27500E+01
         0.27500E+01
         0.27500E+01
         0.27500E+01
         0.27500E+01
         0.27500E+01
         0.27500E+01
         0.27500E+01
         0.27500E+01
         0.27500E+01
         0.27500E+01
         0.27500E+01
         0.27500E+01
         0.27500E+01
         0.27500E+01
         0.27500E+01
         0.27500E+01
         0.27500E+01
         0.27500E+01
         0.27500E+01
         0.27500E+01
         0.27500E+01
         0.27500E+01
         0.27500E+01
         0.27500E+01
         0.27500E+01
         0.27500E+01
         0.27500E+01
         0.27500E+01
         0.27500E+01
         0.27500E+01
         0.27500E+01
         0.27500E+01
         0.27500E+01
         0.27500E+01
         0.27500E+01
         0.27500E+01
         0.27500E+01
         0.27500E+01
         0.27500E+01
         0.27500E+01
         0.27500E+01
         0.27500E+01
         0.27500E+01
         0.27500E+01
         0.27500E+01
         0.27500E+01
         0.27500E+01
         0.27500E+01
         0.27500E+01
         0.27500E+01
         0.27500E+01
         0.27500E+01
         0.27500E+01
         0.27500E+01
         0.27500E+01
         0.27500E+01
         0.27500E+01
         0.27500E+01
         0.27500E+01
         0.27500E+01
         0.27500E+01
         0.27500E+01
         0.27500E+01
         0.27500E+01
         0.27500E+01
         0.27500E+01
         0.27500E+01
         0.27500E+01
         0.27500E+01
         0.27500E+01
         0.27500E+01
         0.27500E+01
         0.27500E+01
         0.27500E+01
         0.27500E+01
         0.27500E+01
         0.27500E+01
         0.27500E+01
         0.27500E+01
         0.27500E+01
         0.27500E+01
         0.27500E+01
         0.27500E+01
         0.27500E+01
         0.27500E+01
         0.27500E+01
         0.27500E+01
         0.27500E+01
         0.27500E+01
         0.27500E+01
         0.27500E+01
         0.27500E+01
         0.27500E+01
         0.27500E+01
         0.27500E+01
         0.27500E+01
         0.27500E+01
         0.27500E+01
         0.27500E+01
         0.27500E+01
         0.27500E+01
         0.27500E+01
         0.27500E+01
         0.27500E+01
         0.27500E+01
         0.27500E+01
         0.27500E+01
         0.27500E+01
         0.27500E+01
         0.27500E+01
         0.27500E+01
         0.27500E+01
         0.27500E+01
         0.27500E+01
         0.27500E+01
         0.27500E+01
         0.27500E+01
         0.27500E+01
         0.27500E+01
         0.27500E+01
         0.27500E+01
         0.27500E+01
         0.27500E+01
         0.27500E+01
         0.27500E+01
         0.27500E+01
         0.27500E+01
         0.27500E+01
         0.27500E+01
         0.27500E+01
         0.27500E+01
         0.27500E+01
         0.27500E+01
         0.27500E+01
         0.27500E+01
         0.27500E+01
         0.27500E+01
         0.27500E+01
         0.27500E+01
         0.27500E+01
         0.27500E+01
         0.27500E+01
         0.27500E+01
         0.27500E+01
         0.27500E+01
         0.27500E+01
         0.27500E+01
         0.27500E+01
         0.27500E+01
         0.27500E+01
         0.27500E+01
         0.27500E+01
         0.27500E+01
         0.27500E+01
         0.27500E+01
         0.27500E+01
         0.27500E+01
         0.27500E+01
         0.27500E+01
         0.27500E+01
         0.27500E+01
         0.27500E+01
         0.27500E+01
         0.27500E+01
         0.27500E+01
         0.27500E+01
         0.27500E+01
         0.27500E+01
         0.27500E+01
         0.27500E+01
         0.27500E+01
         0.27500E+01
         0.27500E+01
         0.27500E+01
         0.27500E+01
         0.27500E+01
         0.27500E+01
         0.27500E+01
         0.27500E+01
         0.27500E+01
         0.27500E+01
         0.27500E+01
         0.27500E+01
         0.27500E+01
         0.27500E+01
         0.27500E+01
         0.27500E+01
         0.27500E+01
         0.27500E+01
         0.27500E+01
         0.27500E+01
         0.27500E+01
         0.27500E+01
         0.27500E+01
         0.27500E+01
         0.27500E+01
         0.27500E+01
         0.27500E+01
         0.27500E+01
         0.27500E+01
         0.27500E+01
         0.27500E+01
         0.27500E+01
         0.27500E+01
         0.27500E+01
         0.27500E+01
         0.27500E+01
         0.27500E+01
         0.27500E+01
         0.27500E+01
         0.27500E+01
         0.27500E+01
         0.27500E+01
         0.27500E+01
         0.27500E+01
         0.27500E+01
         0.27500E+01
         0.27500E+01
         0.27500E+01
         0.27500E+01
         0.27500E+01
         0.27500E+01
         0.27500E+01
         0.27500E+01
         0.27500E+01
         0.27500E+01
         0.27500E+01
         0.27500E+01
         0.27500E+01
         0.27500E+01
         0.27500E+01
         0.27500E+01
         0.27500E+01
         0.27500E+01
         0.27500E+01
         0.27500E+01
         0.27500E+01
         0.27500E+01
         0.27500E+01
         0.27500E+01
         0.27500E+01
         0.27500E+01
         0.27500E+01
         0.27500E+01
         0.27500E+01
         0.27500E+01
         0.27500E+01
         0.27500E+01
         0.27500E+01
         0.27500E+01
         0.27500E+01
         0.27500E+01
         0.27500E+01
         0.27500E+01
         0.27500E+01
         0.27500E+01
         0.27500E+01
         0.27500E+01
         0.27500E+01
         0.27500E+01
         0.27500E+01
         0.27500E+01
         0.27500E+01
         0.27500E+01
         0.27500E+01
         0.27500E+01
         0.27500E+01
         0.27500E+01
         0.27500E+01
         0.27500E+01
         0.27500E+01
         0.27500E+01
         0.27500E+01
         0.27500E+01
         0.27500E+01
         0.27500E+01
         0.27500E+01
         0.27500E+01
         0.27500E+01
         0.27500E+01
         0.27500E+01
         0.27500E+01
         0.27500E+01
         0.27500E+01
         0.27500E+01
         0.27500E+01
         0.27500E+01
         0.27500E+01
         0.27500E+01
         0.27500E+01
         0.27500E+01
         0.27500E+01
         0.27500E+01
         0.27500E+01
         0.27500E+01
         0.27500E+01
         0.27500E+01
         0.27500E+01
         0.27500E+01
         0.27500E+01
         0.27500E+01
         0.27500E+01
         0.27500E+01
         0.27500E+01
         0.27500E+01
         0.27500E+01
         0.27500E+01
         0.27500E+01
         0.27500E+01
         0.27500E+01
         0.27500E+01
         0.27500E+01
         0.27500E+01
         0.27500E+01
         0.27500E+01
         0.27500E+01
         0.27500E+01
         0.27500E+01
         0.27500E+01
         0.27500E+01
         0.27500E+01
         0.27500E+01
         0.27500E+01
         0.27500E+01
         0.27500E+01
         0.27500E+01
         0.27500E+01
         0.27500E+01
         0.27500E+01
         0.27500E+01
         0.27500E+01
         0.27500E+01
         0.27500E+01
         0.27500E+01
         0.27500E+01
         0.27500E+01
         0.27500E+01
         0.27500E+01
         0.27500E+01
         0.27500E+01
         0.27500E+01
         0.27500E+01
         0.27500E+01
         0.27500E+01
         0.27500E+01
         0.27500E+01
         0.27500E+01
         0.27500E+01
         0.27500E+01
         0.27500E+01
         0.27500E+01
         0.27500E+01
         0.27500E+01
         0.27500E+01
         0.27500E+01
         0.27500E+01
         0.27500E+01
         0.27500E+01
         0.27500E+01
         0.27500E+01
         0.27500E+01
         0.27500E+01
         0.27500E+01
         0.27500E+01
         0.27500E+01
         0.27500E+01
         0.27500E+01
         0.27500E+01
         0.27500E+01
         0.27500E+01
         0.27500E+01
         0.27500E+01
         0.27500E+01
         0.27500E+01
         0.27500E+01
         0.27500E+01
         0.27500E+01
         0.27500E+01
         0.27500E+01
         0.27500E+01
         0.27500E+01
         0.27500E+01
         0.27500E+01
         0.27500E+01
         0.27500E+01
         0.27500E+01
         0.27500E+01
         0.27500E+01
         0.27500E+01
         0.27500E+01
         0.27500E+01
         0.27500E+01
         0.27500E+01
         0.27500E+01
         0.27500E+01
         0.27500E+01
         0.27500E+01
         0.27500E+01
         0.27500E+01
         0.27500E+01
         0.27500E+01
         0.27500E+01
         0.27500E+01
         0.27500E+01
         0.27500E+01
         0.27500E+01
         0.27500E+01
         0.27500E+01
         0.27500E+01
         0.27500E+01
         0.27500E+01
         0.27500E+01
         0.27500E+01
         0.27500E+01
         0.27500E+01
         0.27500E+01
         0.27500E+01
         0.27500E+01
         0.27500E+01
         0.27500E+01
         0.27500E+01
         0.27500E+01
         0.27500E+01
         0.27500E+01
         0.27500E+01
         0.27500E+01
         0.27500E+01
         0.27500E+01
         0.27500E+01
         0.27500E+01
         0.27500E+01
         0.27500E+01
         0.27500E+01
         0.27500E+01
         0.27500E+01
         0.27500E+01
         0.27500E+01
         0.27500E+01
         0.27500E+01
         0.27500E+01
         0.27500E+01
         0.27500E+01
         0.27500E+01
         0.27500E+01
         0.27500E+01
         0.27500E+01
         0.27500E+01
         0.27500E+01
         0.27500E+01
         0.27500E+01
         0.27500E+01
         0.27500E+01
         0.27500E+01
         0.27500E+01
         0.27500E+01
         0.27500E+01
         0.27500E+01
         0.27500E+01
         0.27500E+01
         0.27500E+01
         0.27500E+01
         0.27500E+01
         0.27500E+01
         0.27500E+01
         0.27500E+01
         0.27500E+01
         0.27500E+01
         0.27500E+01
         0.27500E+01
         0.27500E+01
         0.27500E+01
         0.27500E+01
         0.27500E+01
         0.27500E+01
         0.27500E+01
         0.27500E+01
         0.27500E+01
         0.27500E+01
         0.27500E+01
         0.27500E+01
         0.27500E+01
         0.27500E+01
         0.27500E+01
         0.27500E+01
         0.27500E+01
         0.27500E+01
         0.27500E+01
         0.27500E+01
         0.27500E+01
         0.27500E+01
         0.27500E+01
         0.27500E+01
         0.27500E+01
         0.27500E+01
         0.27500E+01
         0.27500E+01
         0.27500E+01
         0.27500E+01
         0.27500E+01
         0.27500E+01
         0.27500E+01
         0.27500E+01
         0.27500E+01
         0.27500E+01
         0.27500E+01
         0.27500E+01
         0.27500E+01
         0.27500E+01
         0.27500E+01
         0.27500E+01
         0.27500E+01
         0.27500E+01
         0.27500E+01
         0.27500E+01
         0.27500E+01
         0.27500E+01
         0.27500E+01
         0.27500E+01
         0.27500E+01
         0.27500E+01
         0.27500E+01
         0.27500E+01
         0.27500E+01
         0.27500E+01
         0.27500E+01
         0.27500E+01
         0.27500E+01
         0.27500E+01
         0.27500E+01
         0.27500E+01
         0.27500E+01
         0.27500E+01
         0.27500E+01
         0.27500E+01
         0.27500E+01
         0.27500E+01
         0.27500E+01
         0.27500E+01
         0.27500E+01
         0.27500E+01
         0.27500E+01
         0.27500E+01
         0.27500E+01
         0.27500E+01
         0.27500E+01
         0.27500E+01
         0.27500E+01
         0.27500E+01
         0.27500E+01
         0.27500E+01
         0.27500E+01
         0.27500E+01
         0.27500E+01
         0.27500E+01
         0.27500E+01
         0.27500E+01
         0.27500E+01
         0.27500E+01
         0.27500E+01
         0.27500E+01
         0.27500E+01
         0.27500E+01
         0.27500E+01
         0.27500E+01
         0.27500E+01
         0.27500E+01
         0.27500E+01
         0.27500E+01
         0.27500E+01
         0.27500E+01
         0.27500E+01
         0.27500E+01
         0.27500E+01
         0.27500E+01
         0.27500E+01
         0.27500E+01
         0.27500E+01
         0.27500E+01
         0.27500E+01
         0.27500E+01
         0.27500E+01
         0.27500E+01
         0.27500E+01
         0.27500E+01
         0.27500E+01
         0.27500E+01
         0.27500E+01
         0.27500E+01
         0.27500E+01
         0.27500E+01
         0.27500E+01
         0.27500E+01
         0.27500E+01
         0.27500E+01
         0.27500E+01
         0.27500E+01
         0.27500E+01
         0.27500E+01
         0.27500E+01
         0.27500E+01
         0.27500E+01
         0.27500E+01
         0.27500E+01
         0.27500E+01
         0.27500E+01
         0.27500E+01
         0.27500E+01
         0.27500E+01
         0.27500E+01
         0.27500E+01
         0.27500E+01
         0.27500E+01
         0.27500E+01
         0.27500E+01
         0.27500E+01
         0.27500E+01
         0.27500E+01
         0.27500E+01
         0.27500E+01
         0.27500E+01
         0.27500E+01
         0.27500E+01
         0.27500E+01
         0.27500E+01
         0.27500E+01
         0.27500E+01
         0.27500E+01
         0.27500E+01
         0.27500E+01
         0.27500E+01
         0.27500E+01
         0.27500E+01
         0.27500E+01
         0.27500E+01
         0.27500E+01
         0.27500E+01
         0.27500E+01
         0.27500E+01
         0.27500E+01
         0.27500E+01
         0.27500E+01
         0.27500E+01
         0.27500E+01
         0.27500E+01
         0.27500E+01
         0.27500E+01
         0.27500E+01
         0.27500E+01
         0.27500E+01
         0.27500E+01
         0.27500E+01
         0.27500E+01
         0.27500E+01
         0.27500E+01
         0.27500E+01
         0.27500E+01
         0.27500E+01
         0.27500E+01
         0.27500E+01
         0.27500E+01
         0.27500E+01
         0.27500E+01
         0.27500E+01
         0.27500E+01
         0.27500E+01
         0.27500E+01
         0.27500E+01
         0.27500E+01
         0.27500E+01
         0.27500E+01
         0.27500E+01
         0.27500E+01
         0.27500E+01
         0.27500E+01
         0.27500E+01
         0.27500E+01
         0.27500E+01
         0.27500E+01
         0.27500E+01
         0.27500E+01
         0.27500E+01
         0.27500E+01
         0.27500E+01
         0.27500E+01
         0.27500E+01
         0.27500E+01
         0.27500E+01
         0.27500E+01
         0.27500E+01
         0.27500E+01
         0.27500E+01
         0.27500E+01
         0.27500E+01
         0.27500E+01
         0.27500E+01
         0.27500E+01
         0.27500E+01
         0.27500E+01
         0.27500E+01
         0.27500E+01
         0.27500E+01
         0.27500E+01
         0.27500E+01
         0.27500E+01
         0.27500E+01
         0.27500E+01
         0.27500E+01
         0.27500E+01
         0.27500E+01
         0.27500E+01
         0.27500E+01
         0.27500E+01
         0.27500E+01
         0.27500E+01
         0.27500E+01
         0.27500E+01
         0.27500E+01
         0.27500E+01
         0.27500E+01
         0.27500E+01
         0.27500E+01
         0.27500E+01
         0.27500E+01
         0.27500E+01
         0.27500E+01
         0.27500E+01
         0.27500E+01
         0.27500E+01
         0.27500E+01
         0.27500E+01
         0.27500E+01
         0.27500E+01
         0.27500E+01
         0.27500E+01
         0.27500E+01
         0.27500E+01
         0.27500E+01
         0.27500E+01
         0.27500E+01
         0.27500E+01
         0.27500E+01
         0.27500E+01
         0.27500E+01
         0.27500E+01
         0.27500E+01
         0.27500E+01
         0.27500E+01
         0.27500E+01
         0.27500E+01
         0.27500E+01
         0.27500E+01
         0.27500E+01
         0.27500E+01
         0.27500E+01
         0.27500E+01
         0.27500E+01
         0.27500E+01
         0.27500E+01
         0.27500E+01
         0.27500E+01
         0.27500E+01
         0.27500E+01
         0.27500E+01
         0.27500E+01
         0.27500E+01
         0.27500E+01
         0.27500E+01
         0.27500E+01
         0.27500E+01
         0.27500E+01
         0.27500E+01
         0.27500E+01
         0.27500E+01
         0.27500E+01
         0.27500E+01
         0.27500E+01
         0.27500E+01
         0.27500E+01
         0.27500E+01
         0.27500E+01
         0.27500E+01
         0.27500E+01
         0.27500E+01
         0.27500E+01
         0.27500E+01
         0.27500E+01
         0.27500E+01
         0.27500E+01
         0.27500E+01
         0.27500E+01
         0.27500E+01
         0.27500E+01
         0.27500E+01
         0.27500E+01
         0.27500E+01
         0.27500E+01
         0.27500E+01
         0.27500E+01
         0.27500E+01
         0.27500E+01
         0.27500E+01
         0.27500E+01
         0.27500E+01
         0.27500E+01
         0.27500E+01
         0.27500E+01
         0.27500E+01
         0.27500E+01
         0.27500E+01
         0.27500E+01
         0.27500E+01
         0.27500E+01
         0.27500E+01
         0.27500E+01
         0.27500E+01
         0.27500E+01
         0.27500E+01
         0.27500E+01
         0.27500E+01
         0.27500E+01
         0.27500E+01
         0.27500E+01
         0.27500E+01
         0.27500E+01
         0.27500E+01
         0.27500E+01
         0.27500E+01
         0.27500E+01
         0.27500E+01
         0.27500E+01
         0.27500E+01
         0.27500E+01
         0.27500E+01
         0.27500E+01
         0.27500E+01
         0.27500E+01
         0.27500E+01
         0.27500E+01
         0.27500E+01
         0.27500E+01
         0.27500E+01
         0.27500E+01
         0.27500E+01
         0.27500E+01
         0.27500E+01
         0.27500E+01
         0.27500E+01
         0.27500E+01
         0.27500E+01
         0.27500E+01
         0.27500E+01
         0.27500E+01
         0.27500E+01
         0.27500E+01
         0.27500E+01
         0.27500E+01
         0.27500E+01
         0.27500E+01
         0.27500E+01
         0.27500E+01
         0.27500E+01
         0.27500E+01
         0.27500E+01
         0.27500E+01
         0.27500E+01
         0.27500E+01
         0.27500E+01
         0.27500E+01
         0.27500E+01
         0.27500E+01
         0.27500E+01
         0.27500E+01
         0.27500E+01
         0.27500E+01
         0.27500E+01
         0.27500E+01
         0.27500E+01
         0.27500E+01
         0.27500E+01
         0.27500E+01
         0.27500E+01
         0.27500E+01
         0.27500E+01
         0.27500E+01
         0.27500E+01
         0.27500E+01
         0.27500E+01
         0.27500E+01
         0.27500E+01
         0.27500E+01
         0.27500E+01
         0.27500E+01
         0.27500E+01
         0.27500E+01
         0.27500E+01
         0.27500E+01
         0.27500E+01
         0.27500E+01
         0.27500E+01
         0.27500E+01
         0.27500E+01
         0.27500E+01
         0.27500E+01
         0.27500E+01
         0.27500E+01
         0.27500E+01
         0.27500E+01
         0.27500E+01
         0.27500E+01
         0.27500E+01
         0.27500E+01
         0.27500E+01
         0.27500E+01
         0.27500E+01
         0.27500E+01
         0.27500E+01
         0.27500E+01
         0.27500E+01
         0.27500E+01
         0.27500E+01
         0.27500E+01
         0.27500E+01
         0.27500E+01
         0.27500E+01
         0.27500E+01
         0.27500E+01
         0.27500E+01
         0.27500E+01
         0.27500E+01
         0.27500E+01
         0.27500E+01
         0.27500E+01
         0.27500E+01
         0.27500E+01
         0.27500E+01
         0.27500E+01
         0.27500E+01
         0.27500E+01
         0.27500E+01
         0.27500E+01
         0.27500E+01
         0.27500E+01
         0.27500E+01
         0.27500E+01
         0.27500E+01
         0.27500E+01
         0.27500E+01
         0.27500E+01
         0.27500E+01
         0.27500E+01
         0.27500E+01
         0.27500E+01
         0.27500E+01
         0.27500E+01
         0.27500E+01
         0.27500E+01
         0.27500E+01
         0.27500E+01
         0.27500E+01
         0.27500E+01
         0.27500E+01
         0.27500E+01
         0.27500E+01
         0.27500E+01
         0.27500E+01
         0.27500E+01
         0.27500E+01
         0.27500E+01
         0.27500E+01
         0.27500E+01
         0.27500E+01
         0.27500E+01
         0.27500E+01
         0.27500E+01
         0.27500E+01
         0.27500E+01
         0.27500E+01
         0.27500E+01
         0.27500E+01
         0.27500E+01
         0.27500E+01
         0.27500E+01
         0.27500E+01
         0.27500E+01
         0.27500E+01
         0.27500E+01
         0.27500E+01
         0.27500E+01
         0.27500E+01
         0.27500E+01
         0.27500E+01
         0.27500E+01
         0.27500E+01
         0.27500E+01
         0.27500E+01
         0.27500E+01
         0.27500E+01
         0.27500E+01
         0.27500E+01
         0.27500E+01
         0.27500E+01
         0.27500E+01
         0.27500E+01
         0.27500E+01
         0.27500E+01
         0.27500E+01
         0.27500E+01
         0.27500E+01
         0.27500E+01
         0.27500E+01
         0.27500E+01
         0.27500E+01
         0.27500E+01
         0.27500E+01
         0.27500E+01
         0.27500E+01
         0.27500E+01
         0.27500E+01
         0.27500E+01
         0.27500E+01
         0.27500E+01
         0.27500E+01
         0.27500E+01
         0.27500E+01
         0.27500E+01
         0.27500E+01
         0.27500E+01
         0.27500E+01
         0.27500E+01
         0.27500E+01
         0.27500E+01
         0.27500E+01
         0.27500E+01
         0.27500E+01
         0.27500E+01
         0.27500E+01
         0.27500E+01
         0.27500E+01
         0.27500E+01
         0.27500E+01
         0.27500E+01
         0.27500E+01
         0.27500E+01
         0.27500E+01
         0.27500E+01
         0.27500E+01
         0.27500E+01
         0.27500E+01
         0.27500E+01
         0.27500E+01
         0.27500E+01
         0.27500E+01
         0.27500E+01
         0.27500E+01
         0.27500E+01
         0.27500E+01
         0.27500E+01
         0.27500E+01
         0.27500E+01
         0.27500E+01
         0.27500E+01
         0.27500E+01
         0.27500E+01
         0.27500E+01
         0.27500E+01
         0.27500E+01
         0.27500E+01
         0.27500E+01
         0.27500E+01
         0.27500E+01
         0.27500E+01
         0.27500E+01
         0.27500E+01
         0.27500E+01
         0.27500E+01
         0.27500E+01
         0.27500E+01
         0.27500E+01
         0.27500E+01
         0.27500E+01
         0.27500E+01
         0.27500E+01
         0.27500E+01
         0.27500E+01
         0.27500E+01
         0.27500E+01
         0.27500E+01
         0.27500E+01
         0.27500E+01
         0.27500E+01
         0.27500E+01
         0.27500E+01
         0.27500E+01
         0.27500E+01
         0.27500E+01
         0.27500E+01
         0.27500E+01
         0.27500E+01
         0.27500E+01
         0.27500E+01
         0.27500E+01
         0.27500E+01
         0.27500E+01
         0.27500E+01
         0.27500E+01
         0.27500E+01
         0.27500E+01
         0.27500E+01
         0.27500E+01
         0.27500E+01
         0.27500E+01
         0.27500E+01
         0.27500E+01
         0.27500E+01
         0.27500E+01
         0.27500E+01
         0.27500E+01
         0.27500E+01
         0.27500E+01
         0.27500E+01
         0.27500E+01
         0.27500E+01
         0.27500E+01
         0.27500E+01
         0.27500E+01
         0.27500E+01
         0.27500E+01
         0.27500E+01
         0.27500E+01
         0.27500E+01
         0.27500E+01
         0.27500E+01
         0.27500E+01
         0.27500E+01
         0.27500E+01
         0.27500E+01
         0.27500E+01
         0.27500E+01
         0.27500E+01
         0.27500E+01
         0.27500E+01
         0.27500E+01
         0.27500E+01
         0.27500E+01
         0.27500E+01
         0.27500E+01
         0.27500E+01
         0.27500E+01
         0.27500E+01
         0.27500E+01
         0.27500E+01
         0.27500E+01
         0.27500E+01
         0.27500E+01
         0.27500E+01
         0.27500E+01
         0.27500E+01
         0.27500E+01
         0.27500E+01
         0.27500E+01
         0.27500E+01
         0.27500E+01
         0.27500E+01
         0.27500E+01
         0.27500E+01
         0.27500E+01
         0.27500E+01
         0.27500E+01
         0.27500E+01
         0.27500E+01
         0.27500E+01
         0.27500E+01
         0.27500E+01
         0.27500E+01
         0.27500E+01
         0.27500E+01
         0.27500E+01
         0.27500E+01
         0.27500E+01
         0.27500E+01
         0.27500E+01
         0.27500E+01
         0.27500E+01
         0.27500E+01
         0.27500E+01
         0.27500E+01
         0.27500E+01
         0.27500E+01
         0.27500E+01
         0.27500E+01
         0.27500E+01
         0.27500E+01
         0.27500E+01
         0.27500E+01
         0.27500E+01
         0.27500E+01
         0.27500E+01
         0.27500E+01
         0.27500E+01
         0.27500E+01
         0.27500E+01
         0.27500E+01
         0.27500E+01
         0.27500E+01
         0.27500E+01
         0.27500E+01
         0.27500E+01
         0.27500E+01
         0.27500E+01
         0.27500E+01
         0.27500E+01
         0.27500E+01
         0.27500E+01
         0.27500E+01
         0.27500E+01
         0.27500E+01
         0.27500E+01
         0.27500E+01
         0.27500E+01
         0.27500E+01
         0.27500E+01
         0.27500E+01
         0.27500E+01
         0.27500E+01
         0.27500E+01
         0.27500E+01
         0.27500E+01
         0.27500E+01
         0.27500E+01
         0.27500E+01
         0.27500E+01
         0.27500E+01
         0.27500E+01
         0.27500E+01
         0.27500E+01
         0.27500E+01
         0.27500E+01
         0.27500E+01
         0.27500E+01
         0.27500E+01
         0.27500E+01
         0.27500E+01
         0.27500E+01
         0.27500E+01
         0.27500E+01
         0.27500E+01
         0.27500E+01
         0.27500E+01
         0.27500E+01
         0.27500E+01
         0.27500E+01
         0.27500E+01
         0.27500E+01
         0.27500E+01
         0.27500E+01
  
SCALARS              physical_window_x  double 1
LOOKUP_TABLE default
         0.42419E-02
         0.35201E-02
         0.37624E-02
         0.42419E-02
         0.42417E-02
         0.35201E-02
         0.37618E-02
         0.42417E-02
         0.37624E-02
         0.37624E-02
         0.37618E-02
         0.37618E-02
         0.30086E-02
         0.32069E-02
         0.30084E-02
         0.32067E-02
         0.42419E-02
         0.32069E-02
         0.42417E-02
         0.32067E-02
         0.24180E-02
         0.29942E-02
         0.32396E-02
         0.24180E-02
         0.29933E-02
         0.32385E-02
         0.26608E-02
         0.27190E-02
         0.26608E-02
         0.27190E-02
         0.42687E-02
         0.36511E-02
         0.42687E-02
         0.42687E-02
         0.36511E-02
         0.42687E-02
         0.32069E-02
         0.29739E-02
         0.32066E-02
         0.29739E-02
         0.34652E-02
         0.32621E-02
         0.34652E-02
         0.32621E-02
         0.37123E-02
         0.32069E-02
         0.37123E-02
         0.32066E-02
         0.30844E-02
         0.30844E-02
         0.35191E-02
         0.35189E-02
         0.26925E-02
         0.26925E-02
         0.26925E-02
         0.26925E-02
         0.24643E-02
         0.27651E-02
         0.24643E-02
         0.27651E-02
         0.42687E-02
         0.35191E-02
         0.42687E-02
         0.35189E-02
         0.42687E-02
         0.42687E-02
         0.34658E-02
         0.34648E-02
         0.27274E-02
         0.31799E-02
         0.27273E-02
         0.31796E-02
         0.32396E-02
         0.32385E-02
         0.26964E-02
         0.26960E-02
         0.27828E-02
         0.27828E-02
         0.27828E-02
         0.27828E-02
         0.27004E-02
         0.31883E-02
         0.27003E-02
         0.31880E-02
         0.31883E-02
         0.31880E-02
         0.37123E-02
         0.37123E-02
         0.36245E-02
         0.36245E-02
         0.28253E-02
         0.31642E-02
         0.28253E-02
         0.31636E-02
         0.33485E-02
         0.33485E-02
         0.33485E-02
         0.33485E-02
         0.31978E-02
         0.31969E-02
         0.29849E-02
         0.32843E-02
         0.29849E-02
         0.32843E-02
         0.27274E-02
         0.31109E-02
         0.27273E-02
         0.31109E-02
         0.31799E-02
         0.31796E-02
         0.32396E-02
         0.32385E-02
         0.32396E-02
         0.32385E-02
         0.29942E-02
         0.29933E-02
         0.27190E-02
         0.27190E-02
         0.26964E-02
         0.26960E-02
         0.27828E-02
         0.27828E-02
         0.27828E-02
         0.27828E-02
         0.27004E-02
         0.27003E-02
         0.31883E-02
         0.31880E-02
         0.31883E-02
         0.31880E-02
         0.32621E-02
         0.32621E-02
         0.34652E-02
         0.34652E-02
         0.37123E-02
         0.37123E-02
         0.37123E-02
         0.37123E-02
         0.36245E-02
         0.36245E-02
         0.28253E-02
         0.28253E-02
         0.29097E-02
         0.29087E-02
         0.32389E-02
         0.32378E-02
         0.32389E-02
         0.32378E-02
         0.31978E-02
         0.31969E-02
         0.29849E-02
         0.29849E-02
         0.32843E-02
         0.32843E-02
         0.32843E-02
         0.32843E-02
         0.42420E-02
         0.35201E-02
         0.37629E-02
         0.42420E-02
         0.37629E-02
         0.37629E-02
         0.30087E-02
         0.32071E-02
         0.42420E-02
         0.32071E-02
         0.24178E-02
         0.29952E-02
         0.32407E-02
         0.26596E-02
         0.27191E-02
         0.42679E-02
         0.36502E-02
         0.42679E-02
         0.32071E-02
         0.29727E-02
         0.34648E-02
         0.32622E-02
         0.37119E-02
         0.32071E-02
         0.30833E-02
         0.35193E-02
         0.26910E-02
         0.26910E-02
         0.24638E-02
         0.27644E-02
         0.42679E-02
         0.35193E-02
         0.42679E-02
         0.34670E-02
         0.27274E-02
         0.31802E-02
         0.32407E-02
         0.26968E-02
         0.27828E-02
         0.27828E-02
         0.27005E-02
         0.31885E-02
         0.31885E-02
         0.37119E-02
         0.36244E-02
         0.28250E-02
         0.31647E-02
         0.33484E-02
         0.33484E-02
         0.31986E-02
         0.29848E-02
         0.32841E-02
         0.27274E-02
         0.31099E-02
         0.31802E-02
         0.32407E-02
         0.32407E-02
         0.29952E-02
         0.27191E-02
         0.26968E-02
         0.27828E-02
         0.27828E-02
         0.27005E-02
         0.31885E-02
         0.31885E-02
         0.32622E-02
         0.34648E-02
         0.37119E-02
         0.37119E-02
         0.36244E-02
         0.28250E-02
         0.29106E-02
         0.32401E-02
         0.32401E-02
         0.31986E-02
         0.29848E-02
         0.32841E-02
         0.32841E-02
         0.42421E-02
         0.35201E-02
         0.37634E-02
         0.42421E-02
         0.37634E-02
         0.37634E-02
         0.30089E-02
         0.32073E-02
         0.42421E-02
         0.32073E-02
         0.24177E-02
         0.29961E-02
         0.32418E-02
         0.26584E-02
         0.27191E-02
         0.42670E-02
         0.36493E-02
         0.42670E-02
         0.32073E-02
         0.29714E-02
         0.34644E-02
         0.32623E-02
         0.37115E-02
         0.32073E-02
         0.30822E-02
         0.35195E-02
         0.26896E-02
         0.26896E-02
         0.24633E-02
         0.27638E-02
         0.42670E-02
         0.35195E-02
         0.42670E-02
         0.34681E-02
         0.27275E-02
         0.31805E-02
         0.32418E-02
         0.26972E-02
         0.27828E-02
         0.27828E-02
         0.27006E-02
         0.31888E-02
         0.31888E-02
         0.37115E-02
         0.36243E-02
         0.28247E-02
         0.31652E-02
         0.33483E-02
         0.33483E-02
         0.31995E-02
         0.29847E-02
         0.32839E-02
         0.27275E-02
         0.31090E-02
         0.31805E-02
         0.32418E-02
         0.32418E-02
         0.29961E-02
         0.27191E-02
         0.26972E-02
         0.27828E-02
         0.27828E-02
         0.27006E-02
         0.31888E-02
         0.31888E-02
         0.32623E-02
         0.34644E-02
         0.37115E-02
         0.37115E-02
         0.36243E-02
         0.28247E-02
         0.29116E-02
         0.32412E-02
         0.32412E-02
         0.31995E-02
         0.29847E-02
         0.32839E-02
         0.32839E-02
         0.42423E-02
         0.35200E-02
         0.37639E-02
         0.42423E-02
         0.37639E-02
         0.37639E-02
         0.30091E-02
         0.32075E-02
         0.42423E-02
         0.32075E-02
         0.24176E-02
         0.29970E-02
         0.32428E-02
         0.26572E-02
         0.27192E-02
         0.42662E-02
         0.36483E-02
         0.42662E-02
         0.32075E-02
         0.29702E-02
         0.34639E-02
         0.32624E-02
         0.37111E-02
         0.32075E-02
         0.30811E-02
         0.35197E-02
         0.26881E-02
         0.26881E-02
         0.24628E-02
         0.27631E-02
         0.42662E-02
         0.35197E-02
         0.42662E-02
         0.34692E-02
         0.27276E-02
         0.31808E-02
         0.32428E-02
         0.26975E-02
         0.27828E-02
         0.27828E-02
         0.27007E-02
         0.31890E-02
         0.31890E-02
         0.37111E-02
         0.36242E-02
         0.28243E-02
         0.31658E-02
         0.33482E-02
         0.33482E-02
         0.32003E-02
         0.29846E-02
         0.32837E-02
         0.27276E-02
         0.31081E-02
         0.31808E-02
         0.32428E-02
         0.32428E-02
         0.29970E-02
         0.27192E-02
         0.26975E-02
         0.27828E-02
         0.27828E-02
         0.27007E-02
         0.31890E-02
         0.31890E-02
         0.32624E-02
         0.34639E-02
         0.37111E-02
         0.37111E-02
         0.36242E-02
         0.28243E-02
         0.29125E-02
         0.32423E-02
         0.32423E-02
         0.32003E-02
         0.29846E-02
         0.32837E-02
         0.32837E-02
         0.42424E-02
         0.35200E-02
         0.37644E-02
         0.42424E-02
         0.37644E-02
         0.37644E-02
         0.30093E-02
         0.32077E-02
         0.42424E-02
         0.32077E-02
         0.24174E-02
         0.29979E-02
         0.32439E-02
         0.26559E-02
         0.27192E-02
         0.42653E-02
         0.36474E-02
         0.42653E-02
         0.32077E-02
         0.29690E-02
         0.34635E-02
         0.32624E-02
         0.37108E-02
         0.32077E-02
         0.30799E-02
         0.35199E-02
         0.26867E-02
         0.26867E-02
         0.24623E-02
         0.27625E-02
         0.42653E-02
         0.35199E-02
         0.42653E-02
         0.34703E-02
         0.27276E-02
         0.31812E-02
         0.32439E-02
         0.26979E-02
         0.27828E-02
         0.27828E-02
         0.27008E-02
         0.31893E-02
         0.31893E-02
         0.37108E-02
         0.36241E-02
         0.28240E-02
         0.31663E-02
         0.33481E-02
         0.33481E-02
         0.32012E-02
         0.29844E-02
         0.32835E-02
         0.27276E-02
         0.31071E-02
         0.31812E-02
         0.32439E-02
         0.32439E-02
         0.29979E-02
         0.27192E-02
         0.26979E-02
         0.27828E-02
         0.27828E-02
         0.27008E-02
         0.31893E-02
         0.31893E-02
         0.32624E-02
         0.34635E-02
         0.37108E-02
         0.37108E-02
         0.36241E-02
         0.28240E-02
         0.29135E-02
         0.32434E-02
         0.32434E-02
         0.32012E-02
         0.29844E-02
         0.32835E-02
         0.32835E-02
         0.42425E-02
         0.35200E-02
         0.37649E-02
         0.42425E-02
         0.37649E-02
         0.37649E-02
         0.30095E-02
         0.32079E-02
         0.42425E-02
         0.32079E-02
         0.24173E-02
         0.29989E-02
         0.32450E-02
         0.26547E-02
         0.27193E-02
         0.42645E-02
         0.36465E-02
         0.42645E-02
         0.32079E-02
         0.29677E-02
         0.34631E-02
         0.32625E-02
         0.37104E-02
         0.32079E-02
         0.30788E-02
         0.35201E-02
         0.26852E-02
         0.26852E-02
         0.24618E-02
         0.27618E-02
         0.42645E-02
         0.35201E-02
         0.42645E-02
         0.34715E-02
         0.27277E-02
         0.31815E-02
         0.32450E-02
         0.26983E-02
         0.27828E-02
         0.27828E-02
         0.27009E-02
         0.31895E-02
         0.31895E-02
         0.37104E-02
         0.36239E-02
         0.28237E-02
         0.31668E-02
         0.33480E-02
         0.33480E-02
         0.32020E-02
         0.29843E-02
         0.32833E-02
         0.27277E-02
         0.31062E-02
         0.31815E-02
         0.32450E-02
         0.32450E-02
         0.29989E-02
         0.27193E-02
         0.26983E-02
         0.27828E-02
         0.27828E-02
         0.27009E-02
         0.31895E-02
         0.31895E-02
         0.32625E-02
         0.34631E-02
         0.37104E-02
         0.37104E-02
         0.36239E-02
         0.28237E-02
         0.29145E-02
         0.32445E-02
         0.32445E-02
         0.32020E-02
         0.29843E-02
         0.32833E-02
         0.32833E-02
         0.42427E-02
         0.35200E-02
         0.37654E-02
         0.42427E-02
         0.37654E-02
         0.37654E-02
         0.30097E-02
         0.32081E-02
         0.42427E-02
         0.32081E-02
         0.24171E-02
         0.29998E-02
         0.32461E-02
         0.26535E-02
         0.27193E-02
         0.42636E-02
         0.36455E-02
         0.42636E-02
         0.32081E-02
         0.29665E-02
         0.34626E-02
         0.32626E-02
         0.37100E-02
         0.32081E-02
         0.30777E-02
         0.35203E-02
         0.26838E-02
         0.26838E-02
         0.24613E-02
         0.27611E-02
         0.42636E-02
         0.35203E-02
         0.42636E-02
         0.34726E-02
         0.27278E-02
         0.31818E-02
         0.32461E-02
         0.26987E-02
         0.27827E-02
         0.27827E-02
         0.27010E-02
         0.31898E-02
         0.31898E-02
         0.37100E-02
         0.36238E-02
         0.28234E-02
         0.31673E-02
         0.33479E-02
         0.33479E-02
         0.32029E-02
         0.29842E-02
         0.32831E-02
         0.27278E-02
         0.31052E-02
         0.31818E-02
         0.32461E-02
         0.32461E-02
         0.29998E-02
         0.27193E-02
         0.26987E-02
         0.27827E-02
         0.27827E-02
         0.27010E-02
         0.31898E-02
         0.31898E-02
         0.32626E-02
         0.34626E-02
         0.37100E-02
         0.37100E-02
         0.36238E-02
         0.28234E-02
         0.29154E-02
         0.32457E-02
         0.32457E-02
         0.32029E-02
         0.29842E-02
         0.32831E-02
         0.32831E-02
         0.42428E-02
         0.35199E-02
         0.37660E-02
         0.42428E-02
         0.37660E-02
         0.37660E-02
         0.30099E-02
         0.32083E-02
         0.42428E-02
         0.32083E-02
         0.24170E-02
         0.30007E-02
         0.32471E-02
         0.26523E-02
         0.27194E-02
         0.42628E-02
         0.36446E-02
         0.42628E-02
         0.32083E-02
         0.29652E-02
         0.34622E-02
         0.32627E-02
         0.37096E-02
         0.32083E-02
         0.30766E-02
         0.35205E-02
         0.26823E-02
         0.26823E-02
         0.24608E-02
         0.27605E-02
         0.42628E-02
         0.35205E-02
         0.42628E-02
         0.34737E-02
         0.27279E-02
         0.31821E-02
         0.32471E-02
         0.26991E-02
         0.27827E-02
         0.27827E-02
         0.27011E-02
         0.31900E-02
         0.31900E-02
         0.37096E-02
         0.36237E-02
         0.28231E-02
         0.31679E-02
         0.33478E-02
         0.33478E-02
         0.32038E-02
         0.29841E-02
         0.32829E-02
         0.27279E-02
         0.31043E-02
         0.31821E-02
         0.32471E-02
         0.32471E-02
         0.30007E-02
         0.27194E-02
         0.26991E-02
         0.27827E-02
         0.27827E-02
         0.27011E-02
         0.31900E-02
         0.31900E-02
         0.32627E-02
         0.34622E-02
         0.37096E-02
         0.37096E-02
         0.36237E-02
         0.28231E-02
         0.29164E-02
         0.32468E-02
         0.32468E-02
         0.32038E-02
         0.29841E-02
         0.32829E-02
         0.32829E-02
         0.42429E-02
         0.35199E-02
         0.37665E-02
         0.42429E-02
         0.37665E-02
         0.37665E-02
         0.30101E-02
         0.32085E-02
         0.42429E-02
         0.32085E-02
         0.24168E-02
         0.30017E-02
         0.32482E-02
         0.26510E-02
         0.27194E-02
         0.42619E-02
         0.36437E-02
         0.42619E-02
         0.32085E-02
         0.29640E-02
         0.34618E-02
         0.32627E-02
         0.37092E-02
         0.32085E-02
         0.30755E-02
         0.35207E-02
         0.26808E-02
         0.26808E-02
         0.24603E-02
         0.27599E-02
         0.42619E-02
         0.35207E-02
         0.42619E-02
         0.34748E-02
         0.27279E-02
         0.31824E-02
         0.32482E-02
         0.26994E-02
         0.27827E-02
         0.27827E-02
         0.27012E-02
         0.31902E-02
         0.31902E-02
         0.37092E-02
         0.36236E-02
         0.28227E-02
         0.31684E-02
         0.33477E-02
         0.33477E-02
         0.32046E-02
         0.29840E-02
         0.32827E-02
         0.27279E-02
         0.31034E-02
         0.31824E-02
         0.32482E-02
         0.32482E-02
         0.30017E-02
         0.27194E-02
         0.26994E-02
         0.27827E-02
         0.27827E-02
         0.27012E-02
         0.31902E-02
         0.31902E-02
         0.32627E-02
         0.34618E-02
         0.37092E-02
         0.37092E-02
         0.36236E-02
         0.28227E-02
         0.29173E-02
         0.32479E-02
         0.32479E-02
         0.32046E-02
         0.29840E-02
         0.32827E-02
         0.32827E-02
         0.42431E-02
         0.35199E-02
         0.37670E-02
         0.42431E-02
         0.37670E-02
         0.37670E-02
         0.30102E-02
         0.32087E-02
         0.42431E-02
         0.32087E-02
         0.24167E-02
         0.30026E-02
         0.32493E-02
         0.26498E-02
         0.27194E-02
         0.42611E-02
         0.36427E-02
         0.42611E-02
         0.32087E-02
         0.29628E-02
         0.34613E-02
         0.32628E-02
         0.37089E-02
         0.32087E-02
         0.30744E-02
         0.35209E-02
         0.26794E-02
         0.26794E-02
         0.24598E-02
         0.27592E-02
         0.42611E-02
         0.35209E-02
         0.42611E-02
         0.34759E-02
         0.27280E-02
         0.31827E-02
         0.32493E-02
         0.26998E-02
         0.27827E-02
         0.27827E-02
         0.27013E-02
         0.31905E-02
         0.31905E-02
         0.37089E-02
         0.36235E-02
         0.28224E-02
         0.31689E-02
         0.33476E-02
         0.33476E-02
         0.32055E-02
         0.29839E-02
         0.32825E-02
         0.27280E-02
         0.31024E-02
         0.31827E-02
         0.32493E-02
         0.32493E-02
         0.30026E-02
         0.27194E-02
         0.26998E-02
         0.27827E-02
         0.27827E-02
         0.27013E-02
         0.31905E-02
         0.31905E-02
         0.32628E-02
         0.34613E-02
         0.37089E-02
         0.37089E-02
         0.36235E-02
         0.28224E-02
         0.29183E-02
         0.32490E-02
         0.32490E-02
         0.32055E-02
         0.29839E-02
         0.32825E-02
         0.32825E-02
         0.42432E-02
         0.35199E-02
         0.37675E-02
         0.42432E-02
         0.37675E-02
         0.37675E-02
         0.30104E-02
         0.32089E-02
         0.42432E-02
         0.32089E-02
         0.24166E-02
         0.30035E-02
         0.32504E-02
         0.26486E-02
         0.27195E-02
         0.42603E-02
         0.36418E-02
         0.42603E-02
         0.32089E-02
         0.29615E-02
         0.34609E-02
         0.32629E-02
         0.37085E-02
         0.32089E-02
         0.30732E-02
         0.35211E-02
         0.26779E-02
         0.26779E-02
         0.24593E-02
         0.27585E-02
         0.42603E-02
         0.35211E-02
         0.42603E-02
         0.34771E-02
         0.27281E-02
         0.31830E-02
         0.32504E-02
         0.27002E-02
         0.27827E-02
         0.27827E-02
         0.27014E-02
         0.31907E-02
         0.31907E-02
         0.37085E-02
         0.36233E-02
         0.28221E-02
         0.31694E-02
         0.33475E-02
         0.33475E-02
         0.32063E-02
         0.29838E-02
         0.32823E-02
         0.27281E-02
         0.31015E-02
         0.31830E-02
         0.32504E-02
         0.32504E-02
         0.30035E-02
         0.27195E-02
         0.27002E-02
         0.27827E-02
         0.27827E-02
         0.27014E-02
         0.31907E-02
         0.31907E-02
         0.32629E-02
         0.34609E-02
         0.37085E-02
         0.37085E-02
         0.36233E-02
         0.28221E-02
         0.29193E-02
         0.32501E-02
         0.32501E-02
         0.32063E-02
         0.29838E-02
         0.32823E-02
         0.32823E-02
         0.42433E-02
         0.35199E-02
         0.37680E-02
         0.42433E-02
         0.37680E-02
         0.37680E-02
         0.30106E-02
         0.32091E-02
         0.42433E-02
         0.32091E-02
         0.24164E-02
         0.30045E-02
         0.32514E-02
         0.26474E-02
         0.27195E-02
         0.42594E-02
         0.36409E-02
         0.42594E-02
         0.32091E-02
         0.29603E-02
         0.34605E-02
         0.32630E-02
         0.37081E-02
         0.32091E-02
         0.30721E-02
         0.35213E-02
         0.26765E-02
         0.26765E-02
         0.24588E-02
         0.27579E-02
         0.42594E-02
         0.35213E-02
         0.42594E-02
         0.34782E-02
         0.27281E-02
         0.31833E-02
         0.32514E-02
         0.27006E-02
         0.27826E-02
         0.27826E-02
         0.27015E-02
         0.31910E-02
         0.31910E-02
         0.37081E-02
         0.36232E-02
         0.28218E-02
         0.31700E-02
         0.33474E-02
         0.33474E-02
         0.32072E-02
         0.29836E-02
         0.32821E-02
         0.27281E-02
         0.31005E-02
         0.31833E-02
         0.32514E-02
         0.32514E-02
         0.30045E-02
         0.27195E-02
         0.27006E-02
         0.27826E-02
         0.27826E-02
         0.27015E-02
         0.31910E-02
         0.31910E-02
         0.32630E-02
         0.34605E-02
         0.37081E-02
         0.37081E-02
         0.36232E-02
         0.28218E-02
         0.29202E-02
         0.32512E-02
         0.32512E-02
         0.32072E-02
         0.29836E-02
         0.32821E-02
         0.32821E-02
         0.42435E-02
         0.35199E-02
         0.37685E-02
         0.42435E-02
         0.37685E-02
         0.37685E-02
         0.30108E-02
         0.32093E-02
         0.42435E-02
         0.32093E-02
         0.24163E-02
         0.30054E-02
         0.32525E-02
         0.26461E-02
         0.27196E-02
         0.42586E-02
         0.36399E-02
         0.42586E-02
         0.32093E-02
         0.29591E-02
         0.34601E-02
         0.32630E-02
         0.37077E-02
         0.32093E-02
         0.30710E-02
         0.35215E-02
         0.26750E-02
         0.26750E-02
         0.24583E-02
         0.27572E-02
         0.42586E-02
         0.35215E-02
         0.42586E-02
         0.34793E-02
         0.27282E-02
         0.31836E-02
         0.32525E-02
         0.27010E-02
         0.27826E-02
         0.27826E-02
         0.27016E-02
         0.31912E-02
         0.31912E-02
         0.37077E-02
         0.36231E-02
         0.28215E-02
         0.31705E-02
         0.33473E-02
         0.33473E-02
         0.32080E-02
         0.29835E-02
         0.32819E-02
         0.27282E-02
         0.30996E-02
         0.31836E-02
         0.32525E-02
         0.32525E-02
         0.30054E-02
         0.27196E-02
         0.27010E-02
         0.27826E-02
         0.27826E-02
         0.27016E-02
         0.31912E-02
         0.31912E-02
         0.32630E-02
         0.34601E-02
         0.37077E-02
         0.37077E-02
         0.36231E-02
         0.28215E-02
         0.29212E-02
         0.32524E-02
         0.32524E-02
         0.32080E-02
         0.29835E-02
         0.32819E-02
         0.32819E-02
         0.42436E-02
         0.35198E-02
         0.37690E-02
         0.42436E-02
         0.37690E-02
         0.37690E-02
         0.30110E-02
         0.32095E-02
         0.42436E-02
         0.32095E-02
         0.24162E-02
         0.30064E-02
         0.32536E-02
         0.26449E-02
         0.27196E-02
         0.42577E-02
         0.36390E-02
         0.42577E-02
         0.32096E-02
         0.29578E-02
         0.34596E-02
         0.32631E-02
         0.37074E-02
         0.32096E-02
         0.30699E-02
         0.35217E-02
         0.26735E-02
         0.26735E-02
         0.24578E-02
         0.27566E-02
         0.42577E-02
         0.35217E-02
         0.42577E-02
         0.34804E-02
         0.27283E-02
         0.31839E-02
         0.32536E-02
         0.27013E-02
         0.27826E-02
         0.27826E-02
         0.27017E-02
         0.31915E-02
         0.31915E-02
         0.37074E-02
         0.36230E-02
         0.28211E-02
         0.31710E-02
         0.33472E-02
         0.33472E-02
         0.32089E-02
         0.29834E-02
         0.32817E-02
         0.27283E-02
         0.30986E-02
         0.31839E-02
         0.32536E-02
         0.32536E-02
         0.30064E-02
         0.27196E-02
         0.27013E-02
         0.27826E-02
         0.27826E-02
         0.27017E-02
         0.31915E-02
         0.31915E-02
         0.32631E-02
         0.34596E-02
         0.37074E-02
         0.37074E-02
         0.36230E-02
         0.28211E-02
         0.29221E-02
         0.32535E-02
         0.32535E-02
         0.32089E-02
         0.29834E-02
         0.32817E-02
         0.32817E-02
         0.42437E-02
         0.35198E-02
         0.37695E-02
         0.42437E-02
         0.37695E-02
         0.37695E-02
         0.30112E-02
         0.32097E-02
         0.42437E-02
         0.32097E-02
         0.24160E-02
         0.30073E-02
         0.32547E-02
         0.26437E-02
         0.27197E-02
         0.42569E-02
         0.36381E-02
         0.42569E-02
         0.32098E-02
         0.29566E-02
         0.34592E-02
         0.32632E-02
         0.37070E-02
         0.32098E-02
         0.30688E-02
         0.35219E-02
         0.26721E-02
         0.26721E-02
         0.24573E-02
         0.27560E-02
         0.42569E-02
         0.35219E-02
         0.42569E-02
         0.34815E-02
         0.27284E-02
         0.31843E-02
         0.32547E-02
         0.27017E-02
         0.27826E-02
         0.27826E-02
         0.27018E-02
         0.31917E-02
         0.31917E-02
         0.37070E-02
         0.36229E-02
         0.28208E-02
         0.31716E-02
         0.33471E-02
         0.33471E-02
         0.32097E-02
         0.29833E-02
         0.32815E-02
         0.27284E-02
         0.30977E-02
         0.31843E-02
         0.32547E-02
         0.32547E-02
         0.30073E-02
         0.27197E-02
         0.27017E-02
         0.27826E-02
         0.27826E-02
         0.27018E-02
         0.31917E-02
         0.31917E-02
         0.32632E-02
         0.34592E-02
         0.37070E-02
         0.37070E-02
         0.36229E-02
         0.28208E-02
         0.29231E-02
         0.32546E-02
         0.32546E-02
         0.32097E-02
         0.29833E-02
         0.32815E-02
         0.32815E-02
         0.42439E-02
         0.35198E-02
         0.37701E-02
         0.42439E-02
         0.37701E-02
         0.37701E-02
         0.30113E-02
         0.32099E-02
         0.42439E-02
         0.32099E-02
         0.24159E-02
         0.30082E-02
         0.32558E-02
         0.26425E-02
         0.27197E-02
         0.42560E-02
         0.36371E-02
         0.42560E-02
         0.32100E-02
         0.29554E-02
         0.34588E-02
         0.32633E-02
         0.37066E-02
         0.32100E-02
         0.30677E-02
         0.35221E-02
         0.26706E-02
         0.26706E-02
         0.24568E-02
         0.27553E-02
         0.42560E-02
         0.35221E-02
         0.42560E-02
         0.34827E-02
         0.27284E-02
         0.31846E-02
         0.32558E-02
         0.27021E-02
         0.27826E-02
         0.27826E-02
         0.27019E-02
         0.31920E-02
         0.31920E-02
         0.37066E-02
         0.36227E-02
         0.28205E-02
         0.31721E-02
         0.33470E-02
         0.33470E-02
         0.32106E-02
         0.29831E-02
         0.32813E-02
         0.27284E-02
         0.30968E-02
         0.31846E-02
         0.32558E-02
         0.32558E-02
         0.30082E-02
         0.27197E-02
         0.27021E-02
         0.27826E-02
         0.27826E-02
         0.27019E-02
         0.31920E-02
         0.31920E-02
         0.32633E-02
         0.34588E-02
         0.37066E-02
         0.37066E-02
         0.36227E-02
         0.28205E-02
         0.29241E-02
         0.32557E-02
         0.32557E-02
         0.32106E-02
         0.29831E-02
         0.32813E-02
         0.32813E-02
         0.42440E-02
         0.35198E-02
         0.37706E-02
         0.42440E-02
         0.37706E-02
         0.37706E-02
         0.30115E-02
         0.32101E-02
         0.42440E-02
         0.32101E-02
         0.24158E-02
         0.30091E-02
         0.32568E-02
         0.26412E-02
         0.27198E-02
         0.42552E-02
         0.36362E-02
         0.42552E-02
         0.32102E-02
         0.29541E-02
         0.34583E-02
         0.32633E-02
         0.37062E-02
         0.32102E-02
         0.30665E-02
         0.35223E-02
         0.26692E-02
         0.26692E-02
         0.24563E-02
         0.27546E-02
         0.42552E-02
         0.35223E-02
         0.42552E-02
         0.34838E-02
         0.27285E-02
         0.31849E-02
         0.32568E-02
         0.27025E-02
         0.27826E-02
         0.27826E-02
         0.27020E-02
         0.31922E-02
         0.31922E-02
         0.37062E-02
         0.36226E-02
         0.28202E-02
         0.31726E-02
         0.33469E-02
         0.33469E-02
         0.32114E-02
         0.29830E-02
         0.32811E-02
         0.27285E-02
         0.30958E-02
         0.31849E-02
         0.32568E-02
         0.32568E-02
         0.30091E-02
         0.27198E-02
         0.27025E-02
         0.27826E-02
         0.27826E-02
         0.27020E-02
         0.31922E-02
         0.31922E-02
         0.32633E-02
         0.34583E-02
         0.37062E-02
         0.37062E-02
         0.36226E-02
         0.28202E-02
         0.29250E-02
         0.32568E-02
         0.32568E-02
         0.32114E-02
         0.29830E-02
         0.32811E-02
         0.32811E-02
         0.42441E-02
         0.35198E-02
         0.37711E-02
         0.42441E-02
         0.37711E-02
         0.37711E-02
         0.30117E-02
         0.32103E-02
         0.42441E-02
         0.32103E-02
         0.24156E-02
         0.30101E-02
         0.32579E-02
         0.26400E-02
         0.27198E-02
         0.42543E-02
         0.36353E-02
         0.42543E-02
         0.32104E-02
         0.29529E-02
         0.34579E-02
         0.32634E-02
         0.37058E-02
         0.32104E-02
         0.30654E-02
         0.35225E-02
         0.26677E-02
         0.26677E-02
         0.24558E-02
         0.27540E-02
         0.42543E-02
         0.35225E-02
         0.42543E-02
         0.34849E-02
         0.27286E-02
         0.31852E-02
         0.32579E-02
         0.27029E-02
         0.27826E-02
         0.27826E-02
         0.27021E-02
         0.31924E-02
         0.31924E-02
         0.37058E-02
         0.36225E-02
         0.28198E-02
         0.31731E-02
         0.33468E-02
         0.33468E-02
         0.32123E-02
         0.29829E-02
         0.32809E-02
         0.27286E-02
         0.30949E-02
         0.31852E-02
         0.32579E-02
         0.32579E-02
         0.30101E-02
         0.27198E-02
         0.27029E-02
         0.27826E-02
         0.27826E-02
         0.27021E-02
         0.31924E-02
         0.31924E-02
         0.32634E-02
         0.34579E-02
         0.37058E-02
         0.37058E-02
         0.36225E-02
         0.28198E-02
         0.29260E-02
         0.32579E-02
         0.32579E-02
         0.32123E-02
         0.29829E-02
         0.32809E-02
         0.32809E-02
         0.42443E-02
         0.35197E-02
         0.37716E-02
         0.42443E-02
         0.37716E-02
         0.37716E-02
         0.30119E-02
         0.32105E-02
         0.42443E-02
         0.32105E-02
         0.24155E-02
         0.30110E-02
         0.32590E-02
         0.26388E-02
         0.27199E-02
         0.42535E-02
         0.36343E-02
         0.42535E-02
         0.32106E-02
         0.29517E-02
         0.34575E-02
         0.32635E-02
         0.37055E-02
         0.32106E-02
         0.30643E-02
         0.35227E-02
         0.26663E-02
         0.26663E-02
         0.24553E-02
         0.27533E-02
         0.42535E-02
         0.35227E-02
         0.42535E-02
         0.34860E-02
         0.27286E-02
         0.31855E-02
         0.32590E-02
         0.27032E-02
         0.27826E-02
         0.27826E-02
         0.27022E-02
         0.31927E-02
         0.31927E-02
         0.37055E-02
         0.36224E-02
         0.28195E-02
         0.31737E-02
         0.33467E-02
         0.33467E-02
         0.32132E-02
         0.29828E-02
         0.32807E-02
         0.27286E-02
         0.30939E-02
         0.31855E-02
         0.32590E-02
         0.32590E-02
         0.30110E-02
         0.27199E-02
         0.27032E-02
         0.27826E-02
         0.27826E-02
         0.27022E-02
         0.31927E-02
         0.31927E-02
         0.32635E-02
         0.34575E-02
         0.37055E-02
         0.37055E-02
         0.36224E-02
         0.28195E-02
         0.29269E-02
         0.32591E-02
         0.32591E-02
         0.32132E-02
         0.29828E-02
         0.32807E-02
         0.32807E-02
         0.42444E-02
         0.35197E-02
         0.37721E-02
         0.42444E-02
         0.37721E-02
         0.37721E-02
         0.30121E-02
         0.32107E-02
         0.42444E-02
         0.32107E-02
         0.24154E-02
         0.30119E-02
         0.32601E-02
         0.26376E-02
         0.27199E-02
         0.42527E-02
         0.36334E-02
         0.42527E-02
         0.32108E-02
         0.29504E-02
         0.34571E-02
         0.32636E-02
         0.37051E-02
         0.32108E-02
         0.30632E-02
         0.35229E-02
         0.26648E-02
         0.26648E-02
         0.24552E-02
         0.27527E-02
         0.42527E-02
         0.35229E-02
         0.42527E-02
         0.34871E-02
         0.27287E-02
         0.31858E-02
         0.32601E-02
         0.27036E-02
         0.27825E-02
         0.27825E-02
         0.27023E-02
         0.31929E-02
         0.31929E-02
         0.37051E-02
         0.36223E-02
         0.28192E-02
         0.31742E-02
         0.33466E-02
         0.33466E-02
         0.32140E-02
         0.29827E-02
         0.32805E-02
         0.27287E-02
         0.30930E-02
         0.31858E-02
         0.32601E-02
         0.32601E-02
         0.30119E-02
         0.27199E-02
         0.27036E-02
         0.27825E-02
         0.27825E-02
         0.27023E-02
         0.31929E-02
         0.31929E-02
         0.32636E-02
         0.34571E-02
         0.37051E-02
         0.37051E-02
         0.36223E-02
         0.28192E-02
         0.29279E-02
         0.32602E-02
         0.32602E-02
         0.32140E-02
         0.29827E-02
         0.32805E-02
         0.32805E-02
         0.42445E-02
         0.35197E-02
         0.37726E-02
         0.42445E-02
         0.37726E-02
         0.37726E-02
         0.30123E-02
         0.32108E-02
         0.42445E-02
         0.32108E-02
         0.24152E-02
         0.30129E-02
         0.32611E-02
         0.26363E-02
         0.27200E-02
         0.42518E-02
         0.36325E-02
         0.42518E-02
         0.32110E-02
         0.29492E-02
         0.34566E-02
         0.32636E-02
         0.37047E-02
         0.32110E-02
         0.30621E-02
         0.35231E-02
         0.26633E-02
         0.26633E-02
         0.24554E-02
         0.27520E-02
         0.42518E-02
         0.35231E-02
         0.42518E-02
         0.34882E-02
         0.27288E-02
         0.31861E-02
         0.32611E-02
         0.27040E-02
         0.27825E-02
         0.27825E-02
         0.27024E-02
         0.31932E-02
         0.31932E-02
         0.37047E-02
         0.36222E-02
         0.28189E-02
         0.31747E-02
         0.33465E-02
         0.33465E-02
         0.32149E-02
         0.29826E-02
         0.32803E-02
         0.27288E-02
         0.30921E-02
         0.31861E-02
         0.32611E-02
         0.32611E-02
         0.30129E-02
         0.27200E-02
         0.27040E-02
         0.27825E-02
         0.27825E-02
         0.27024E-02
         0.31932E-02
         0.31932E-02
         0.32636E-02
         0.34566E-02
         0.37047E-02
         0.37047E-02
         0.36222E-02
         0.28189E-02
         0.29289E-02
         0.32613E-02
         0.32613E-02
         0.32149E-02
         0.29826E-02
         0.32803E-02
         0.32803E-02
         0.42447E-02
         0.35196E-02
         0.37732E-02
         0.42447E-02
         0.37732E-02
         0.37732E-02
         0.30125E-02
         0.32111E-02
         0.42447E-02
         0.32111E-02
         0.24151E-02
         0.30138E-02
         0.32622E-02
         0.26351E-02
         0.27200E-02
         0.42510E-02
         0.36315E-02
         0.42510E-02
         0.32112E-02
         0.29480E-02
         0.34562E-02
         0.32637E-02
         0.37043E-02
         0.32112E-02
         0.30610E-02
         0.35233E-02
         0.26619E-02
         0.26619E-02
         0.24557E-02
         0.27514E-02
         0.42510E-02
         0.35233E-02
         0.42510E-02
         0.34894E-02
         0.27289E-02
         0.31864E-02
         0.32622E-02
         0.27044E-02
         0.27825E-02
         0.27825E-02
         0.27025E-02
         0.31934E-02
         0.31934E-02
         0.37043E-02
         0.36220E-02
         0.28186E-02
         0.31753E-02
         0.33464E-02
         0.33464E-02
         0.32157E-02
         0.29824E-02
         0.32801E-02
         0.27289E-02
         0.30911E-02
         0.31864E-02
         0.32622E-02
         0.32622E-02
         0.30138E-02
         0.27200E-02
         0.27044E-02
         0.27825E-02
         0.27825E-02
         0.27025E-02
         0.31934E-02
         0.31934E-02
         0.32637E-02
         0.34562E-02
         0.37043E-02
         0.37043E-02
         0.36220E-02
         0.28186E-02
         0.29298E-02
         0.32624E-02
         0.32624E-02
         0.32157E-02
         0.29824E-02
         0.32801E-02
         0.32801E-02
         0.42448E-02
         0.35196E-02
         0.37737E-02
         0.42448E-02
         0.37737E-02
         0.37737E-02
         0.30126E-02
         0.32112E-02
         0.42448E-02
         0.32112E-02
         0.24150E-02
         0.30147E-02
         0.32633E-02
         0.26339E-02
         0.27200E-02
         0.42501E-02
         0.36306E-02
         0.42501E-02
         0.32114E-02
         0.29467E-02
         0.34558E-02
         0.32638E-02
         0.37039E-02
         0.32114E-02
         0.30598E-02
         0.35235E-02
         0.26604E-02
         0.26604E-02
         0.24559E-02
         0.27507E-02
         0.42501E-02
         0.35235E-02
         0.42501E-02
         0.34905E-02
         0.27289E-02
         0.31867E-02
         0.32633E-02
         0.27048E-02
         0.27825E-02
         0.27825E-02
         0.27026E-02
         0.31937E-02
         0.31937E-02
         0.37039E-02
         0.36219E-02
         0.28183E-02
         0.31758E-02
         0.33463E-02
         0.33463E-02
         0.32166E-02
         0.29823E-02
         0.32799E-02
         0.27289E-02
         0.30902E-02
         0.31867E-02
         0.32633E-02
         0.32633E-02
         0.30147E-02
         0.27200E-02
         0.27048E-02
         0.27825E-02
         0.27825E-02
         0.27026E-02
         0.31937E-02
         0.31937E-02
         0.32638E-02
         0.34558E-02
         0.37039E-02
         0.37039E-02
         0.36219E-02
         0.28183E-02
         0.29308E-02
         0.32635E-02
         0.32635E-02
         0.32166E-02
         0.29823E-02
         0.32799E-02
         0.32799E-02
         0.42448E-02
         0.35196E-02
         0.37737E-02
         0.42448E-02
         0.37737E-02
         0.37737E-02
         0.30126E-02
         0.32112E-02
         0.42448E-02
         0.32112E-02
         0.24148E-02
         0.30147E-02
         0.32633E-02
         0.26327E-02
         0.27200E-02
         0.42493E-02
         0.36297E-02
         0.42493E-02
         0.32114E-02
         0.29455E-02
         0.34553E-02
         0.32638E-02
         0.37036E-02
         0.32114E-02
         0.30587E-02
         0.35235E-02
         0.26590E-02
         0.26590E-02
         0.24559E-02
         0.27501E-02
         0.42493E-02
         0.35235E-02
         0.42493E-02
         0.34905E-02
         0.27289E-02
         0.31867E-02
         0.32633E-02
         0.27048E-02
         0.27825E-02
         0.27825E-02
         0.27026E-02
         0.31937E-02
         0.31937E-02
         0.37036E-02
         0.36218E-02
         0.28180E-02
         0.31758E-02
         0.33462E-02
         0.33462E-02
         0.32166E-02
         0.29822E-02
         0.32797E-02
         0.27289E-02
         0.30892E-02
         0.31867E-02
         0.32633E-02
         0.32633E-02
         0.30147E-02
         0.27200E-02
         0.27048E-02
         0.27825E-02
         0.27825E-02
         0.27026E-02
         0.31937E-02
         0.31937E-02
         0.32638E-02
         0.34553E-02
         0.37036E-02
         0.37036E-02
         0.36218E-02
         0.28180E-02
         0.29308E-02
         0.32635E-02
         0.32635E-02
         0.32166E-02
         0.29822E-02
         0.32797E-02
         0.32797E-02
  
SCALARS              physical_window_y  double 1
LOOKUP_TABLE default
         0.43155E-02
         0.43155E-02
         0.43155E-02
         0.43155E-02
         0.43155E-02
         0.43155E-02
         0.43155E-02
         0.43155E-02
         0.34883E-02
         0.34883E-02
         0.34882E-02
         0.34882E-02
         0.32826E-02
         0.32142E-02
         0.32826E-02
         0.32142E-02
         0.37863E-02
         0.31884E-02
         0.37863E-02
         0.31884E-02
         0.27172E-02
         0.33887E-02
         0.37164E-02
         0.27172E-02
         0.33887E-02
         0.37164E-02
         0.27582E-02
         0.28966E-02
         0.27582E-02
         0.28954E-02
         0.37007E-02
         0.35859E-02
         0.37863E-02
         0.37007E-02
         0.35824E-02
         0.37863E-02
         0.29875E-02
         0.29875E-02
         0.29867E-02
         0.29867E-02
         0.28561E-02
         0.26860E-02
         0.28556E-02
         0.26852E-02
         0.29518E-02
         0.28068E-02
         0.29517E-02
         0.28066E-02
         0.29975E-02
         0.29949E-02
         0.37007E-02
         0.37007E-02
         0.28693E-02
         0.28693E-02
         0.28693E-02
         0.28693E-02
         0.27602E-02
         0.26193E-02
         0.27602E-02
         0.26193E-02
         0.37007E-02
         0.37007E-02
         0.37007E-02
         0.37007E-02
         0.37685E-02
         0.37665E-02
         0.37685E-02
         0.37665E-02
         0.30230E-02
         0.37003E-02
         0.30229E-02
         0.37003E-02
         0.37164E-02
         0.37164E-02
         0.31934E-02
         0.31921E-02
         0.32777E-02
         0.32771E-02
         0.32777E-02
         0.32771E-02
         0.27006E-02
         0.25920E-02
         0.27006E-02
         0.25920E-02
         0.25916E-02
         0.25916E-02
         0.29715E-02
         0.29715E-02
         0.29715E-02
         0.29715E-02
         0.26477E-02
         0.29102E-02
         0.26477E-02
         0.29102E-02
         0.34085E-02
         0.34085E-02
         0.35350E-02
         0.35350E-02
         0.35350E-02
         0.35350E-02
         0.29766E-02
         0.32272E-02
         0.29763E-02
         0.32254E-02
         0.29087E-02
         0.29835E-02
         0.29087E-02
         0.29825E-02
         0.37003E-02
         0.37003E-02
         0.37164E-02
         0.37164E-02
         0.37164E-02
         0.37164E-02
         0.33887E-02
         0.33887E-02
         0.28966E-02
         0.28954E-02
         0.31934E-02
         0.31921E-02
         0.32777E-02
         0.32771E-02
         0.32777E-02
         0.32771E-02
         0.27006E-02
         0.27006E-02
         0.25920E-02
         0.25920E-02
         0.25916E-02
         0.25916E-02
         0.26860E-02
         0.26852E-02
         0.28561E-02
         0.28556E-02
         0.29518E-02
         0.29517E-02
         0.29715E-02
         0.29715E-02
         0.29715E-02
         0.29715E-02
         0.26477E-02
         0.26477E-02
         0.27685E-02
         0.27685E-02
         0.34085E-02
         0.34085E-02
         0.35350E-02
         0.35350E-02
         0.35350E-02
         0.35350E-02
         0.29766E-02
         0.29763E-02
         0.31381E-02
         0.31368E-02
         0.31381E-02
         0.31368E-02
         0.43153E-02
         0.43153E-02
         0.43153E-02
         0.43153E-02
         0.34883E-02
         0.34883E-02
         0.32812E-02
         0.32132E-02
         0.37858E-02
         0.31880E-02
         0.27155E-02
         0.33883E-02
         0.37163E-02
         0.27535E-02
         0.28978E-02
         0.37004E-02
         0.35894E-02
         0.37858E-02
         0.29882E-02
         0.29882E-02
         0.28566E-02
         0.26867E-02
         0.29519E-02
         0.28071E-02
         0.30001E-02
         0.37004E-02
         0.28667E-02
         0.28667E-02
         0.27589E-02
         0.26183E-02
         0.37004E-02
         0.37004E-02
         0.37706E-02
         0.37706E-02
         0.30232E-02
         0.36991E-02
         0.37163E-02
         0.31947E-02
         0.32784E-02
         0.32784E-02
         0.27006E-02
         0.25920E-02
         0.25909E-02
         0.29715E-02
         0.29715E-02
         0.26476E-02
         0.29101E-02
         0.34078E-02
         0.35344E-02
         0.35344E-02
         0.29769E-02
         0.32290E-02
         0.29059E-02
         0.29845E-02
         0.36991E-02
         0.37163E-02
         0.37163E-02
         0.33883E-02
         0.28978E-02
         0.31947E-02
         0.32784E-02
         0.32784E-02
         0.27006E-02
         0.25920E-02
         0.25909E-02
         0.26867E-02
         0.28566E-02
         0.29519E-02
         0.29715E-02
         0.29715E-02
         0.26476E-02
         0.27685E-02
         0.34078E-02
         0.35344E-02
         0.35344E-02
         0.29769E-02
         0.31395E-02
         0.31395E-02
         0.43150E-02
         0.43150E-02
         0.43150E-02
         0.43150E-02
         0.34884E-02
         0.34884E-02
         0.32798E-02
         0.32122E-02
         0.37853E-02
         0.31876E-02
         0.27137E-02
         0.33879E-02
         0.37162E-02
         0.27488E-02
         0.28990E-02
         0.37001E-02
         0.35930E-02
         0.37853E-02
         0.29889E-02
         0.29889E-02
         0.28571E-02
         0.26875E-02
         0.29521E-02
         0.28074E-02
         0.30027E-02
         0.37001E-02
         0.28641E-02
         0.28641E-02
         0.27576E-02
         0.26173E-02
         0.37001E-02
         0.37001E-02
         0.37727E-02
         0.37727E-02
         0.30234E-02
         0.36979E-02
         0.37162E-02
         0.31960E-02
         0.32790E-02
         0.32790E-02
         0.27006E-02
         0.25920E-02
         0.25902E-02
         0.29715E-02
         0.29715E-02
         0.26476E-02
         0.29100E-02
         0.34071E-02
         0.35339E-02
         0.35339E-02
         0.29772E-02
         0.32307E-02
         0.29032E-02
         0.29855E-02
         0.36979E-02
         0.37162E-02
         0.37162E-02
         0.33879E-02
         0.28990E-02
         0.31960E-02
         0.32790E-02
         0.32790E-02
         0.27006E-02
         0.25920E-02
         0.25902E-02
         0.26875E-02
         0.28571E-02
         0.29521E-02
         0.29715E-02
         0.29715E-02
         0.26476E-02
         0.27684E-02
         0.34071E-02
         0.35339E-02
         0.35339E-02
         0.29772E-02
         0.31408E-02
         0.31408E-02
         0.43148E-02
         0.43148E-02
         0.43148E-02
         0.43148E-02
         0.34885E-02
         0.34885E-02
         0.32783E-02
         0.32112E-02
         0.37849E-02
         0.31872E-02
         0.27120E-02
         0.33875E-02
         0.37161E-02
         0.27441E-02
         0.29003E-02
         0.36998E-02
         0.35965E-02
         0.37849E-02
         0.29896E-02
         0.29896E-02
         0.28575E-02
         0.26882E-02
         0.29522E-02
         0.28077E-02
         0.30053E-02
         0.36998E-02
         0.28615E-02
         0.28615E-02
         0.27563E-02
         0.26163E-02
         0.36998E-02
         0.36998E-02
         0.37747E-02
         0.37747E-02
         0.30236E-02
         0.36967E-02
         0.37161E-02
         0.31973E-02
         0.32796E-02
         0.32796E-02
         0.27006E-02
         0.25920E-02
         0.25895E-02
         0.29714E-02
         0.29714E-02
         0.26475E-02
         0.29099E-02
         0.34063E-02
         0.35333E-02
         0.35333E-02
         0.29775E-02
         0.32325E-02
         0.29004E-02
         0.29865E-02
         0.36967E-02
         0.37161E-02
         0.37161E-02
         0.33875E-02
         0.29003E-02
         0.31973E-02
         0.32796E-02
         0.32796E-02
         0.27006E-02
         0.25920E-02
         0.25895E-02
         0.26882E-02
         0.28575E-02
         0.29522E-02
         0.29714E-02
         0.29714E-02
         0.26475E-02
         0.27684E-02
         0.34063E-02
         0.35333E-02
         0.35333E-02
         0.29775E-02
         0.31422E-02
         0.31422E-02
         0.43145E-02
         0.43145E-02
         0.43145E-02
         0.43145E-02
         0.34886E-02
         0.34886E-02
         0.32769E-02
         0.32102E-02
         0.37844E-02
         0.31868E-02
         0.27103E-02
         0.33871E-02
         0.37160E-02
         0.27394E-02
         0.29015E-02
         0.36995E-02
         0.36000E-02
         0.37844E-02
         0.29903E-02
         0.29903E-02
         0.28580E-02
         0.26890E-02
         0.29523E-02
         0.28079E-02
         0.30079E-02
         0.36995E-02
         0.28589E-02
         0.28589E-02
         0.27550E-02
         0.26152E-02
         0.36995E-02
         0.36995E-02
         0.37768E-02
         0.37768E-02
         0.30238E-02
         0.36956E-02
         0.37160E-02
         0.31986E-02
         0.32802E-02
         0.32802E-02
         0.27006E-02
         0.25920E-02
         0.25887E-02
         0.29714E-02
         0.29714E-02
         0.26475E-02
         0.29098E-02
         0.34056E-02
         0.35327E-02
         0.35327E-02
         0.29778E-02
         0.32342E-02
         0.28977E-02
         0.29875E-02
         0.36956E-02
         0.37160E-02
         0.37160E-02
         0.33871E-02
         0.29015E-02
         0.31986E-02
         0.32802E-02
         0.32802E-02
         0.27006E-02
         0.25920E-02
         0.25887E-02
         0.26890E-02
         0.28580E-02
         0.29523E-02
         0.29714E-02
         0.29714E-02
         0.26475E-02
         0.27683E-02
         0.34056E-02
         0.35327E-02
         0.35327E-02
         0.29778E-02
         0.31435E-02
         0.31435E-02
         0.43143E-02
         0.43143E-02
         0.43143E-02
         0.43143E-02
         0.34887E-02
         0.34887E-02
         0.32755E-02
         0.32091E-02
         0.37839E-02
         0.31864E-02
         0.27086E-02
         0.33867E-02
         0.37159E-02
         0.27347E-02
         0.29027E-02
         0.36991E-02
         0.36036E-02
         0.37839E-02
         0.29920E-02
         0.29920E-02
         0.28585E-02
         0.26897E-02
         0.29525E-02
         0.28082E-02
         0.30105E-02
         0.36991E-02
         0.28563E-02
         0.28563E-02
         0.27537E-02
         0.26142E-02
         0.36991E-02
         0.36991E-02
         0.37789E-02
         0.37789E-02
         0.30240E-02
         0.36944E-02
         0.37159E-02
         0.31999E-02
         0.32808E-02
         0.32808E-02
         0.27006E-02
         0.25920E-02
         0.25880E-02
         0.29714E-02
         0.29714E-02
         0.26474E-02
         0.29097E-02
         0.34049E-02
         0.35322E-02
         0.35322E-02
         0.29781E-02
         0.32360E-02
         0.28949E-02
         0.29885E-02
         0.36944E-02
         0.37159E-02
         0.37159E-02
         0.33867E-02
         0.29027E-02
         0.31999E-02
         0.32808E-02
         0.32808E-02
         0.27006E-02
         0.25920E-02
         0.25880E-02
         0.26897E-02
         0.28585E-02
         0.29525E-02
         0.29714E-02
         0.29714E-02
         0.26474E-02
         0.27683E-02
         0.34049E-02
         0.35322E-02
         0.35322E-02
         0.29781E-02
         0.31449E-02
         0.31449E-02
         0.43140E-02
         0.43140E-02
         0.43140E-02
         0.43140E-02
         0.34888E-02
         0.34888E-02
         0.32740E-02
         0.32081E-02
         0.37834E-02
         0.31860E-02
         0.27069E-02
         0.33863E-02
         0.37158E-02
         0.27299E-02
         0.29039E-02
         0.36988E-02
         0.36071E-02
         0.37834E-02
         0.29946E-02
         0.29946E-02
         0.28589E-02
         0.26905E-02
         0.29526E-02
         0.28085E-02
         0.30131E-02
         0.36988E-02
         0.28538E-02
         0.28538E-02
         0.27524E-02
         0.26132E-02
         0.36988E-02
         0.36988E-02
         0.37809E-02
         0.37809E-02
         0.30241E-02
         0.36932E-02
         0.37158E-02
         0.32012E-02
         0.32814E-02
         0.32814E-02
         0.27006E-02
         0.25920E-02
         0.25873E-02
         0.29714E-02
         0.29714E-02
         0.26473E-02
         0.29097E-02
         0.34041E-02
         0.35316E-02
         0.35316E-02
         0.29784E-02
         0.32378E-02
         0.28921E-02
         0.29895E-02
         0.36932E-02
         0.37158E-02
         0.37158E-02
         0.33863E-02
         0.29039E-02
         0.32012E-02
         0.32814E-02
         0.32814E-02
         0.27006E-02
         0.25920E-02
         0.25873E-02
         0.26905E-02
         0.28589E-02
         0.29526E-02
         0.29714E-02
         0.29714E-02
         0.26473E-02
         0.27683E-02
         0.34041E-02
         0.35316E-02
         0.35316E-02
         0.29784E-02
         0.31463E-02
         0.31463E-02
         0.43138E-02
         0.43138E-02
         0.43138E-02
         0.43138E-02
         0.34888E-02
         0.34888E-02
         0.32726E-02
         0.32071E-02
         0.37830E-02
         0.31856E-02
         0.27051E-02
         0.33859E-02
         0.37157E-02
         0.27252E-02
         0.29051E-02
         0.36985E-02
         0.36106E-02
         0.37830E-02
         0.29972E-02
         0.29972E-02
         0.28594E-02
         0.26912E-02
         0.29528E-02
         0.28087E-02
         0.30156E-02
         0.36985E-02
         0.28512E-02
         0.28512E-02
         0.27512E-02
         0.26122E-02
         0.36985E-02
         0.36985E-02
         0.37830E-02
         0.37830E-02
         0.30243E-02
         0.36920E-02
         0.37157E-02
         0.32025E-02
         0.32821E-02
         0.32821E-02
         0.27006E-02
         0.25920E-02
         0.25866E-02
         0.29714E-02
         0.29714E-02
         0.26473E-02
         0.29096E-02
         0.34034E-02
         0.35310E-02
         0.35310E-02
         0.29787E-02
         0.32396E-02
         0.28894E-02
         0.29905E-02
         0.36920E-02
         0.37157E-02
         0.37157E-02
         0.33859E-02
         0.29051E-02
         0.32025E-02
         0.32821E-02
         0.32821E-02
         0.27006E-02
         0.25920E-02
         0.25866E-02
         0.26912E-02
         0.28594E-02
         0.29528E-02
         0.29714E-02
         0.29714E-02
         0.26473E-02
         0.27682E-02
         0.34034E-02
         0.35310E-02
         0.35310E-02
         0.29787E-02
         0.31476E-02
         0.31476E-02
         0.43135E-02
         0.43135E-02
         0.43135E-02
         0.43135E-02
         0.34889E-02
         0.34889E-02
         0.32712E-02
         0.32061E-02
         0.37825E-02
         0.31852E-02
         0.27034E-02
         0.33856E-02
         0.37156E-02
         0.27205E-02
         0.29063E-02
         0.36982E-02
         0.36142E-02
         0.37851E-02
         0.29998E-02
         0.29998E-02
         0.28599E-02
         0.26920E-02
         0.29529E-02
         0.28090E-02
         0.30182E-02
         0.36982E-02
         0.28486E-02
         0.28486E-02
         0.27499E-02
         0.26112E-02
         0.36982E-02
         0.36982E-02
         0.37851E-02
         0.37851E-02
         0.30245E-02
         0.36908E-02
         0.37156E-02
         0.32038E-02
         0.32827E-02
         0.32827E-02
         0.27006E-02
         0.25920E-02
         0.25859E-02
         0.29714E-02
         0.29714E-02
         0.26472E-02
         0.29095E-02
         0.34027E-02
         0.35304E-02
         0.35304E-02
         0.29790E-02
         0.32413E-02
         0.28866E-02
         0.29915E-02
         0.36908E-02
         0.37156E-02
         0.37156E-02
         0.33856E-02
         0.29063E-02
         0.32038E-02
         0.32827E-02
         0.32827E-02
         0.27006E-02
         0.25920E-02
         0.25859E-02
         0.26920E-02
         0.28599E-02
         0.29529E-02
         0.29714E-02
         0.29714E-02
         0.26472E-02
         0.27682E-02
         0.34027E-02
         0.35304E-02
         0.35304E-02
         0.29790E-02
         0.31490E-02
         0.31490E-02
         0.43133E-02
         0.43133E-02
         0.43133E-02
         0.43133E-02
         0.34890E-02
         0.34890E-02
         0.32698E-02
         0.32051E-02
         0.37820E-02
         0.31848E-02
         0.27017E-02
         0.33851E-02
         0.37155E-02
         0.27158E-02
         0.29075E-02
         0.36979E-02
         0.36177E-02
         0.37871E-02
         0.30024E-02
         0.30024E-02
         0.28603E-02
         0.26927E-02
         0.29530E-02
         0.28093E-02
         0.30208E-02
         0.36979E-02
         0.28460E-02
         0.28460E-02
         0.27486E-02
         0.26101E-02
         0.36979E-02
         0.36979E-02
         0.37871E-02
         0.37871E-02
         0.30247E-02
         0.36896E-02
         0.37155E-02
         0.32051E-02
         0.32833E-02
         0.32833E-02
         0.27006E-02
         0.25920E-02
         0.25851E-02
         0.29714E-02
         0.29714E-02
         0.26472E-02
         0.29094E-02
         0.34019E-02
         0.35299E-02
         0.35299E-02
         0.29793E-02
         0.32431E-02
         0.28838E-02
         0.29925E-02
         0.36896E-02
         0.37155E-02
         0.37155E-02
         0.33851E-02
         0.29075E-02
         0.32051E-02
         0.32833E-02
         0.32833E-02
         0.27006E-02
         0.25920E-02
         0.25851E-02
         0.26927E-02
         0.28603E-02
         0.29530E-02
         0.29714E-02
         0.29714E-02
         0.26472E-02
         0.27681E-02
         0.34019E-02
         0.35299E-02
         0.35299E-02
         0.29793E-02
         0.31503E-02
         0.31503E-02
         0.43130E-02
         0.43130E-02
         0.43130E-02
         0.43130E-02
         0.34891E-02
         0.34891E-02
         0.32683E-02
         0.32041E-02
         0.37816E-02
         0.31844E-02
         0.27000E-02
         0.33848E-02
         0.37154E-02
         0.27111E-02
         0.29087E-02
         0.36976E-02
         0.36213E-02
         0.37892E-02
         0.30050E-02
         0.30050E-02
         0.28608E-02
         0.26935E-02
         0.29532E-02
         0.28096E-02
         0.30234E-02
         0.36976E-02
         0.28434E-02
         0.28434E-02
         0.27472E-02
         0.26091E-02
         0.36976E-02
         0.36976E-02
         0.37892E-02
         0.37892E-02
         0.30249E-02
         0.36885E-02
         0.37154E-02
         0.32064E-02
         0.32839E-02
         0.32839E-02
         0.27006E-02
         0.25920E-02
         0.25844E-02
         0.29714E-02
         0.29714E-02
         0.26471E-02
         0.29094E-02
         0.34012E-02
         0.35293E-02
         0.35293E-02
         0.29797E-02
         0.32449E-02
         0.28811E-02
         0.29935E-02
         0.36885E-02
         0.37154E-02
         0.37154E-02
         0.33848E-02
         0.29087E-02
         0.32064E-02
         0.32839E-02
         0.32839E-02
         0.27006E-02
         0.25920E-02
         0.25844E-02
         0.26935E-02
         0.28608E-02
         0.29532E-02
         0.29714E-02
         0.29714E-02
         0.26471E-02
         0.27681E-02
         0.34012E-02
         0.35293E-02
         0.35293E-02
         0.29797E-02
         0.31517E-02
         0.31517E-02
         0.43128E-02
         0.43128E-02
         0.43128E-02
         0.43128E-02
         0.34892E-02
         0.34892E-02
         0.32669E-02
         0.32031E-02
         0.37811E-02
         0.31840E-02
         0.26982E-02
         0.33844E-02
         0.37152E-02
         0.27063E-02
         0.29099E-02
         0.36973E-02
         0.36248E-02
         0.37913E-02
         0.30076E-02
         0.30076E-02
         0.28613E-02
         0.26942E-02
         0.29533E-02
         0.28099E-02
         0.30260E-02
         0.36973E-02
         0.28408E-02
         0.28408E-02
         0.27460E-02
         0.26081E-02
         0.36973E-02
         0.36973E-02
         0.37913E-02
         0.37913E-02
         0.30250E-02
         0.36873E-02
         0.37152E-02
         0.32077E-02
         0.32845E-02
         0.32845E-02
         0.27006E-02
         0.25920E-02
         0.25837E-02
         0.29714E-02
         0.29714E-02
         0.26471E-02
         0.29093E-02
         0.34005E-02
         0.35287E-02
         0.35287E-02
         0.29800E-02
         0.32467E-02
         0.28783E-02
         0.29945E-02
         0.36873E-02
         0.37152E-02
         0.37152E-02
         0.33844E-02
         0.29099E-02
         0.32077E-02
         0.32845E-02
         0.32845E-02
         0.27006E-02
         0.25920E-02
         0.25837E-02
         0.26942E-02
         0.28613E-02
         0.29533E-02
         0.29714E-02
         0.29714E-02
         0.26471E-02
         0.27681E-02
         0.34005E-02
         0.35287E-02
         0.35287E-02
         0.29800E-02
         0.31530E-02
         0.31530E-02
         0.43125E-02
         0.43125E-02
         0.43125E-02
         0.43125E-02
         0.34893E-02
         0.34893E-02
         0.32655E-02
         0.32021E-02
         0.37806E-02
         0.31836E-02
         0.26965E-02
         0.33840E-02
         0.37151E-02
         0.27016E-02
         0.29111E-02
         0.36969E-02
         0.36283E-02
         0.37933E-02
         0.30102E-02
         0.30102E-02
         0.28617E-02
         0.26950E-02
         0.29535E-02
         0.28101E-02
         0.30286E-02
         0.36969E-02
         0.28382E-02
         0.28382E-02
         0.27447E-02
         0.26071E-02
         0.36969E-02
         0.36969E-02
         0.37933E-02
         0.37933E-02
         0.30252E-02
         0.36861E-02
         0.37151E-02
         0.32090E-02
         0.32852E-02
         0.32852E-02
         0.27006E-02
         0.25920E-02
         0.25830E-02
         0.29714E-02
         0.29714E-02
         0.26470E-02
         0.29092E-02
         0.33997E-02
         0.35282E-02
         0.35282E-02
         0.29803E-02
         0.32484E-02
         0.28755E-02
         0.29955E-02
         0.36861E-02
         0.37151E-02
         0.37151E-02
         0.33840E-02
         0.29111E-02
         0.32090E-02
         0.32852E-02
         0.32852E-02
         0.27006E-02
         0.25920E-02
         0.25830E-02
         0.26950E-02
         0.28617E-02
         0.29535E-02
         0.29714E-02
         0.29714E-02
         0.26470E-02
         0.27680E-02
         0.33997E-02
         0.35282E-02
         0.35282E-02
         0.29803E-02
         0.31544E-02
         0.31544E-02
         0.43123E-02
         0.43123E-02
         0.43123E-02
         0.43123E-02
         0.34893E-02
         0.34893E-02
         0.32640E-02
         0.32011E-02
         0.37801E-02
         0.31832E-02
         0.26948E-02
         0.33836E-02
         0.37150E-02
         0.26969E-02
         0.29123E-02
         0.36966E-02
         0.36319E-02
         0.37954E-02
         0.30128E-02
         0.30128E-02
         0.28622E-02
         0.26957E-02
         0.29536E-02
         0.28104E-02
         0.30312E-02
         0.36966E-02
         0.28357E-02
         0.28357E-02
         0.27434E-02
         0.26061E-02
         0.36966E-02
         0.36966E-02
         0.37954E-02
         0.37954E-02
         0.30254E-02
         0.36849E-02
         0.37150E-02
         0.32103E-02
         0.32858E-02
         0.32858E-02
         0.27006E-02
         0.25920E-02
         0.25823E-02
         0.29714E-02
         0.29714E-02
         0.26470E-02
         0.29091E-02
         0.33990E-02
         0.35276E-02
         0.35276E-02
         0.29806E-02
         0.32502E-02
         0.28728E-02
         0.29965E-02
         0.36849E-02
         0.37150E-02
         0.37150E-02
         0.33836E-02
         0.29123E-02
         0.32103E-02
         0.32858E-02
         0.32858E-02
         0.27006E-02
         0.25920E-02
         0.25823E-02
         0.26957E-02
         0.28622E-02
         0.29536E-02
         0.29714E-02
         0.29714E-02
         0.26470E-02
         0.27680E-02
         0.33990E-02
         0.35276E-02
         0.35276E-02
         0.29806E-02
         0.31557E-02
         0.31557E-02
         0.43120E-02
         0.43120E-02
         0.43120E-02
         0.43120E-02
         0.34894E-02
         0.34894E-02
         0.32626E-02
         0.32001E-02
         0.37797E-02
         0.31828E-02
         0.26931E-02
         0.33832E-02
         0.37149E-02
         0.26922E-02
         0.29135E-02
         0.36963E-02
         0.36354E-02
         0.37975E-02
         0.30154E-02
         0.30154E-02
         0.28627E-02
         0.26965E-02
         0.29537E-02
         0.28107E-02
         0.30338E-02
         0.36963E-02
         0.28331E-02
         0.28331E-02
         0.27421E-02
         0.26051E-02
         0.36963E-02
         0.36963E-02
         0.37975E-02
         0.37975E-02
         0.30256E-02
         0.36838E-02
         0.37149E-02
         0.32116E-02
         0.32864E-02
         0.32864E-02
         0.27006E-02
         0.25920E-02
         0.25815E-02
         0.29714E-02
         0.29714E-02
         0.26469E-02
         0.29090E-02
         0.33983E-02
         0.35270E-02
         0.35270E-02
         0.29809E-02
         0.32519E-02
         0.28700E-02
         0.29975E-02
         0.36838E-02
         0.37149E-02
         0.37149E-02
         0.33832E-02
         0.29135E-02
         0.32116E-02
         0.32864E-02
         0.32864E-02
         0.27006E-02
         0.25920E-02
         0.25815E-02
         0.26965E-02
         0.28627E-02
         0.29537E-02
         0.29714E-02
         0.29714E-02
         0.26469E-02
         0.27680E-02
         0.33983E-02
         0.35270E-02
         0.35270E-02
         0.29809E-02
         0.31571E-02
         0.31571E-02
         0.43118E-02
         0.43118E-02
         0.43118E-02
         0.43118E-02
         0.34895E-02
         0.34895E-02
         0.32612E-02
         0.31990E-02
         0.37792E-02
         0.31824E-02
         0.26913E-02
         0.33828E-02
         0.37148E-02
         0.26875E-02
         0.29148E-02
         0.36960E-02
         0.36390E-02
         0.37995E-02
         0.30180E-02
         0.30180E-02
         0.28631E-02
         0.26972E-02
         0.29539E-02
         0.28110E-02
         0.30364E-02
         0.36960E-02
         0.28305E-02
         0.28305E-02
         0.27408E-02
         0.26040E-02
         0.36960E-02
         0.36960E-02
         0.37995E-02
         0.37995E-02
         0.30258E-02
         0.36826E-02
         0.37148E-02
         0.32129E-02
         0.32870E-02
         0.32870E-02
         0.27006E-02
         0.25920E-02
         0.25808E-02
         0.29713E-02
         0.29713E-02
         0.26468E-02
         0.29089E-02
         0.33975E-02
         0.35264E-02
         0.35264E-02
         0.29812E-02
         0.32537E-02
         0.28672E-02
         0.29985E-02
         0.36826E-02
         0.37148E-02
         0.37148E-02
         0.33828E-02
         0.29148E-02
         0.32129E-02
         0.32870E-02
         0.32870E-02
         0.27006E-02
         0.25920E-02
         0.25808E-02
         0.26972E-02
         0.28631E-02
         0.29539E-02
         0.29713E-02
         0.29713E-02
         0.26468E-02
         0.27679E-02
         0.33975E-02
         0.35264E-02
         0.35264E-02
         0.29812E-02
         0.31585E-02
         0.31585E-02
         0.43115E-02
         0.43115E-02
         0.43115E-02
         0.43115E-02
         0.34896E-02
         0.34896E-02
         0.32597E-02
         0.31980E-02
         0.37787E-02
         0.31820E-02
         0.26896E-02
         0.33824E-02
         0.37147E-02
         0.26827E-02
         0.29160E-02
         0.36957E-02
         0.36425E-02
         0.38016E-02
         0.30206E-02
         0.30206E-02
         0.28636E-02
         0.26980E-02
         0.29540E-02
         0.28112E-02
         0.30390E-02
         0.36957E-02
         0.28279E-02
         0.28279E-02
         0.27395E-02
         0.26030E-02
         0.36957E-02
         0.36957E-02
         0.38016E-02
         0.38016E-02
         0.30260E-02
         0.36814E-02
         0.37147E-02
         0.32141E-02
         0.32876E-02
         0.32876E-02
         0.27006E-02
         0.25920E-02
         0.25801E-02
         0.29713E-02
         0.29713E-02
         0.26468E-02
         0.29089E-02
         0.33968E-02
         0.35259E-02
         0.35259E-02
         0.29815E-02
         0.32555E-02
         0.28645E-02
         0.29995E-02
         0.36814E-02
         0.37147E-02
         0.37147E-02
         0.33824E-02
         0.29160E-02
         0.32141E-02
         0.32876E-02
         0.32876E-02
         0.27006E-02
         0.25920E-02
         0.25801E-02
         0.26980E-02
         0.28636E-02
         0.29540E-02
         0.29713E-02
         0.29713E-02
         0.26468E-02
         0.27679E-02
         0.33968E-02
         0.35259E-02
         0.35259E-02
         0.29815E-02
         0.31598E-02
         0.31598E-02
         0.43113E-02
         0.43113E-02
         0.43113E-02
         0.43113E-02
         0.34897E-02
         0.34897E-02
         0.32583E-02
         0.31970E-02
         0.37783E-02
         0.31816E-02
         0.26879E-02
         0.33820E-02
         0.37146E-02
         0.26780E-02
         0.29172E-02
         0.36954E-02
         0.36460E-02
         0.38037E-02
         0.30232E-02
         0.30232E-02
         0.28641E-02
         0.26987E-02
         0.29542E-02
         0.28115E-02
         0.30416E-02
         0.36954E-02
         0.28253E-02
         0.28253E-02
         0.27382E-02
         0.26020E-02
         0.36954E-02
         0.36954E-02
         0.38037E-02
         0.38037E-02
         0.30261E-02
         0.36802E-02
         0.37146E-02
         0.32154E-02
         0.32882E-02
         0.32882E-02
         0.27006E-02
         0.25921E-02
         0.25794E-02
         0.29713E-02
         0.29713E-02
         0.26467E-02
         0.29088E-02
         0.33961E-02
         0.35253E-02
         0.35253E-02
         0.29818E-02
         0.32573E-02
         0.28617E-02
         0.30005E-02
         0.36802E-02
         0.37146E-02
         0.37146E-02
         0.33820E-02
         0.29172E-02
         0.32154E-02
         0.32882E-02
         0.32882E-02
         0.27006E-02
         0.25921E-02
         0.25794E-02
         0.26987E-02
         0.28641E-02
         0.29542E-02
         0.29713E-02
         0.29713E-02
         0.26467E-02
         0.27678E-02
         0.33961E-02
         0.35253E-02
         0.35253E-02
         0.29818E-02
         0.31612E-02
         0.31612E-02
         0.43110E-02
         0.43110E-02
         0.43110E-02
         0.43110E-02
         0.34898E-02
         0.34898E-02
         0.32569E-02
         0.31960E-02
         0.37778E-02
         0.31812E-02
         0.26862E-02
         0.33816E-02
         0.37145E-02
         0.26733E-02
         0.29184E-02
         0.36950E-02
         0.36495E-02
         0.38057E-02
         0.30258E-02
         0.30258E-02
         0.28645E-02
         0.26995E-02
         0.29543E-02
         0.28118E-02
         0.30442E-02
         0.36950E-02
         0.28227E-02
         0.28227E-02
         0.27369E-02
         0.26010E-02
         0.36950E-02
         0.36950E-02
         0.38057E-02
         0.38057E-02
         0.30263E-02
         0.36790E-02
         0.37145E-02
         0.32167E-02
         0.32889E-02
         0.32889E-02
         0.27006E-02
         0.25921E-02
         0.25787E-02
         0.29713E-02
         0.29713E-02
         0.26467E-02
         0.29087E-02
         0.33953E-02
         0.35247E-02
         0.35247E-02
         0.29821E-02
         0.32590E-02
         0.28589E-02
         0.30015E-02
         0.36790E-02
         0.37145E-02
         0.37145E-02
         0.33816E-02
         0.29184E-02
         0.32167E-02
         0.32889E-02
         0.32889E-02
         0.27006E-02
         0.25921E-02
         0.25787E-02
         0.26995E-02
         0.28645E-02
         0.29543E-02
         0.29713E-02
         0.29713E-02
         0.26467E-02
         0.27678E-02
         0.33953E-02
         0.35247E-02
         0.35247E-02
         0.29821E-02
         0.31625E-02
         0.31625E-02
         0.43108E-02
         0.43108E-02
         0.43108E-02
         0.43108E-02
         0.34898E-02
         0.34898E-02
         0.32555E-02
         0.31950E-02
         0.37773E-02
         0.31808E-02
         0.26845E-02
         0.33812E-02
         0.37144E-02
         0.26686E-02
         0.29196E-02
         0.36948E-02
         0.36531E-02
         0.38078E-02
         0.30285E-02
         0.30285E-02
         0.28650E-02
         0.27002E-02
         0.29544E-02
         0.28120E-02
         0.30467E-02
         0.36948E-02
         0.28201E-02
         0.28201E-02
         0.27356E-02
         0.26000E-02
         0.36948E-02
         0.36948E-02
         0.38078E-02
         0.38078E-02
         0.30265E-02
         0.36779E-02
         0.37144E-02
         0.32181E-02
         0.32895E-02
         0.32895E-02
         0.27006E-02
         0.25921E-02
         0.25779E-02
         0.29713E-02
         0.29713E-02
         0.26466E-02
         0.29086E-02
         0.33946E-02
         0.35242E-02
         0.35242E-02
         0.29824E-02
         0.32608E-02
         0.28562E-02
         0.30025E-02
         0.36779E-02
         0.37144E-02
         0.37144E-02
         0.33812E-02
         0.29196E-02
         0.32181E-02
         0.32895E-02
         0.32895E-02
         0.27006E-02
         0.25921E-02
         0.25779E-02
         0.27002E-02
         0.28650E-02
         0.29544E-02
         0.29713E-02
         0.29713E-02
         0.26466E-02
         0.27678E-02
         0.33946E-02
         0.35242E-02
         0.35242E-02
         0.29824E-02
         0.31639E-02
         0.31639E-02
         0.43105E-02
         0.43105E-02
         0.43105E-02
         0.43105E-02
         0.34899E-02
         0.34899E-02
         0.32540E-02
         0.31940E-02
         0.37768E-02
         0.31804E-02
         0.26827E-02
         0.33808E-02
         0.37143E-02
         0.26639E-02
         0.29208E-02
         0.36944E-02
         0.36566E-02
         0.38099E-02
         0.30311E-02
         0.30311E-02
         0.28655E-02
         0.27010E-02
         0.29546E-02
         0.28123E-02
         0.30493E-02
         0.36944E-02
         0.28175E-02
         0.28175E-02
         0.27343E-02
         0.25990E-02
         0.36944E-02
         0.36944E-02
         0.38099E-02
         0.38099E-02
         0.30267E-02
         0.36767E-02
         0.37143E-02
         0.32193E-02
         0.32901E-02
         0.32901E-02
         0.27006E-02
         0.25921E-02
         0.25772E-02
         0.29713E-02
         0.29713E-02
         0.26466E-02
         0.29085E-02
         0.33939E-02
         0.35236E-02
         0.35236E-02
         0.29827E-02
         0.32626E-02
         0.28534E-02
         0.30035E-02
         0.36767E-02
         0.37143E-02
         0.37143E-02
         0.33808E-02
         0.29208E-02
         0.32193E-02
         0.32901E-02
         0.32901E-02
         0.27006E-02
         0.25921E-02
         0.25772E-02
         0.27010E-02
         0.28655E-02
         0.29546E-02
         0.29713E-02
         0.29713E-02
         0.26466E-02
         0.27677E-02
         0.33939E-02
         0.35236E-02
         0.35236E-02
         0.29827E-02
         0.31652E-02
         0.31652E-02
         0.43103E-02
         0.43103E-02
         0.43103E-02
         0.43103E-02
         0.34900E-02
         0.34900E-02
         0.32526E-02
         0.31930E-02
         0.37764E-02
         0.31800E-02
         0.26810E-02
         0.33804E-02
         0.37142E-02
         0.26591E-02
         0.29220E-02
         0.36941E-02
         0.36602E-02
         0.38119E-02
         0.30337E-02
         0.30337E-02
         0.28660E-02
         0.27017E-02
         0.29547E-02
         0.28126E-02
         0.30519E-02
         0.36941E-02
         0.28150E-02
         0.28150E-02
         0.27330E-02
         0.25979E-02
         0.36941E-02
         0.36941E-02
         0.38119E-02
         0.38119E-02
         0.30269E-02
         0.36755E-02
         0.37142E-02
         0.32206E-02
         0.32907E-02
         0.32907E-02
         0.27006E-02
         0.25921E-02
         0.25765E-02
         0.29713E-02
         0.29713E-02
         0.26465E-02
         0.29085E-02
         0.33931E-02
         0.35230E-02
         0.35230E-02
         0.29830E-02
         0.32643E-02
         0.28507E-02
         0.30045E-02
         0.36755E-02
         0.37142E-02
         0.37142E-02
         0.33804E-02
         0.29220E-02
         0.32206E-02
         0.32907E-02
         0.32907E-02
         0.27006E-02
         0.25921E-02
         0.25765E-02
         0.27017E-02
         0.28660E-02
         0.29547E-02
         0.29713E-02
         0.29713E-02
         0.26465E-02
         0.27677E-02
         0.33931E-02
         0.35230E-02
         0.35230E-02
         0.29830E-02
         0.31666E-02
         0.31666E-02
         0.43100E-02
         0.43100E-02
         0.43100E-02
         0.43100E-02
         0.34901E-02
         0.34901E-02
         0.32512E-02
         0.31920E-02
         0.37759E-02
         0.31796E-02
         0.26793E-02
         0.33800E-02
         0.37141E-02
         0.26544E-02
         0.29232E-02
         0.36938E-02
         0.36637E-02
         0.38140E-02
         0.30363E-02
         0.30363E-02
         0.28664E-02
         0.27025E-02
         0.29548E-02
         0.28129E-02
         0.30545E-02
         0.36938E-02
         0.28124E-02
         0.28124E-02
         0.27317E-02
         0.25969E-02
         0.36938E-02
         0.36938E-02
         0.38140E-02
         0.38140E-02
         0.30271E-02
         0.36743E-02
         0.37141E-02
         0.32219E-02
         0.32913E-02
         0.32913E-02
         0.27006E-02
         0.25921E-02
         0.25758E-02
         0.29713E-02
         0.29713E-02
         0.26465E-02
         0.29084E-02
         0.33924E-02
         0.35224E-02
         0.35224E-02
         0.29833E-02
         0.32661E-02
         0.28479E-02
         0.30055E-02
         0.36743E-02
         0.37141E-02
         0.37141E-02
         0.33800E-02
         0.29232E-02
         0.32219E-02
         0.32913E-02
         0.32913E-02
         0.27006E-02
         0.25921E-02
         0.25758E-02
         0.27025E-02
         0.28664E-02
         0.29548E-02
         0.29713E-02
         0.29713E-02
         0.26465E-02
         0.27677E-02
         0.33924E-02
         0.35224E-02
         0.35224E-02
         0.29833E-02
         0.31680E-02
         0.31680E-02
         0.43098E-02
         0.43098E-02
         0.43098E-02
         0.43098E-02
         0.34901E-02
         0.34901E-02
         0.32498E-02
         0.31910E-02
         0.37754E-02
         0.31792E-02
         0.26776E-02
         0.33796E-02
         0.37140E-02
         0.26497E-02
         0.29232E-02
         0.36935E-02
         0.36637E-02
         0.38140E-02
         0.30363E-02
         0.30363E-02
         0.28664E-02
         0.27025E-02
         0.29548E-02
         0.28129E-02
         0.30545E-02
         0.36935E-02
         0.28098E-02
         0.28098E-02
         0.27304E-02
         0.25959E-02
         0.36935E-02
         0.36935E-02
         0.38140E-02
         0.38140E-02
         0.30271E-02
         0.36731E-02
         0.37140E-02
         0.32219E-02
         0.32913E-02
         0.32913E-02
         0.27006E-02
         0.25921E-02
         0.25751E-02
         0.29713E-02
         0.29713E-02
         0.26464E-02
         0.29083E-02
         0.33916E-02
         0.35219E-02
         0.35219E-02
         0.29833E-02
         0.32661E-02
         0.28451E-02
         0.30055E-02
         0.36731E-02
         0.37140E-02
         0.37140E-02
         0.33796E-02
         0.29232E-02
         0.32219E-02
         0.32913E-02
         0.32913E-02
         0.27006E-02
         0.25921E-02
         0.25751E-02
         0.27025E-02
         0.28664E-02
         0.29548E-02
         0.29713E-02
         0.29713E-02
         0.26464E-02
         0.27676E-02
         0.33916E-02
         0.35219E-02
         0.35219E-02
         0.29833E-02
         0.31680E-02
         0.31680E-02
  
SCALARS              physical_window_z  double 1
LOOKUP_TABLE default
         0.26928E-02
         0.26928E-02
         0.26928E-02
         0.26928E-02
         0.26928E-02
         0.26928E-02
         0.26928E-02
         0.26928E-02
         0.26928E-02
         0.26928E-02
         0.26928E-02
         0.26928E-02
         0.26928E-02
         0.26928E-02
         0.26928E-02
         0.26928E-02
         0.26928E-02
         0.26928E-02
         0.26928E-02
         0.26928E-02
         0.26928E-02
         0.26928E-02
         0.26928E-02
         0.26928E-02
         0.26928E-02
         0.26928E-02
         0.26928E-02
         0.26928E-02
         0.26928E-02
         0.26928E-02
         0.26928E-02
         0.26928E-02
         0.26928E-02
         0.26928E-02
         0.26928E-02
         0.26928E-02
         0.26928E-02
         0.26928E-02
         0.26928E-02
         0.26928E-02
         0.26928E-02
         0.26928E-02
         0.26928E-02
         0.26928E-02
         0.26928E-02
         0.26928E-02
         0.26928E-02
         0.26928E-02
         0.26928E-02
         0.26928E-02
         0.26928E-02
         0.26928E-02
         0.26928E-02
         0.26928E-02
         0.26928E-02
         0.26928E-02
         0.26928E-02
         0.26928E-02
         0.26928E-02
         0.26928E-02
         0.26928E-02
         0.26928E-02
         0.26928E-02
         0.26928E-02
         0.26928E-02
         0.26928E-02
         0.26928E-02
         0.26928E-02
         0.26928E-02
         0.26928E-02
         0.26928E-02
         0.26928E-02
         0.26928E-02
         0.26928E-02
         0.26928E-02
         0.26928E-02
         0.26928E-02
         0.26928E-02
         0.26928E-02
         0.26928E-02
         0.26928E-02
         0.26928E-02
         0.26928E-02
         0.26928E-02
         0.26928E-02
         0.26928E-02
         0.26928E-02
         0.26928E-02
         0.26928E-02
         0.26928E-02
         0.26928E-02
         0.26928E-02
         0.26928E-02
         0.26928E-02
         0.26928E-02
         0.26928E-02
         0.26928E-02
         0.26928E-02
         0.26928E-02
         0.26928E-02
         0.26928E-02
         0.26928E-02
         0.26928E-02
         0.26928E-02
         0.26928E-02
         0.26928E-02
         0.26928E-02
         0.26928E-02
         0.26928E-02
         0.26928E-02
         0.26928E-02
         0.26928E-02
         0.26928E-02
         0.26928E-02
         0.26928E-02
         0.26928E-02
         0.26928E-02
         0.26928E-02
         0.26928E-02
         0.26928E-02
         0.26928E-02
         0.26928E-02
         0.26928E-02
         0.26928E-02
         0.26928E-02
         0.26928E-02
         0.26928E-02
         0.26928E-02
         0.26928E-02
         0.26928E-02
         0.26928E-02
         0.26928E-02
         0.26928E-02
         0.26928E-02
         0.26928E-02
         0.26928E-02
         0.26928E-02
         0.26928E-02
         0.26928E-02
         0.26928E-02
         0.26928E-02
         0.26928E-02
         0.26928E-02
         0.26928E-02
         0.26928E-02
         0.26928E-02
         0.26928E-02
         0.26928E-02
         0.26928E-02
         0.26928E-02
         0.26928E-02
         0.26928E-02
         0.26928E-02
         0.26928E-02
         0.26928E-02
         0.26928E-02
         0.26927E-02
         0.26927E-02
         0.26927E-02
         0.26927E-02
         0.26927E-02
         0.26927E-02
         0.26927E-02
         0.26927E-02
         0.26927E-02
         0.26927E-02
         0.26927E-02
         0.26927E-02
         0.26927E-02
         0.26927E-02
         0.26927E-02
         0.26927E-02
         0.26927E-02
         0.26927E-02
         0.26927E-02
         0.26927E-02
         0.26927E-02
         0.26927E-02
         0.26927E-02
         0.26927E-02
         0.26927E-02
         0.26927E-02
         0.26927E-02
         0.26927E-02
         0.26927E-02
         0.26927E-02
         0.26927E-02
         0.26927E-02
         0.26927E-02
         0.26927E-02
         0.26927E-02
         0.26927E-02
         0.26927E-02
         0.26927E-02
         0.26927E-02
         0.26927E-02
         0.26927E-02
         0.26927E-02
         0.26927E-02
         0.26927E-02
         0.26927E-02
         0.26927E-02
         0.26927E-02
         0.26927E-02
         0.26927E-02
         0.26927E-02
         0.26927E-02
         0.26927E-02
         0.26927E-02
         0.26927E-02
         0.26927E-02
         0.26927E-02
         0.26927E-02
         0.26927E-02
         0.26927E-02
         0.26927E-02
         0.26927E-02
         0.26927E-02
         0.26927E-02
         0.26927E-02
         0.26927E-02
         0.26927E-02
         0.26927E-02
         0.26927E-02
         0.26927E-02
         0.26927E-02
         0.26927E-02
         0.26927E-02
         0.26927E-02
         0.26927E-02
         0.26927E-02
         0.26927E-02
         0.26927E-02
         0.26927E-02
         0.26927E-02
         0.26927E-02
         0.26927E-02
         0.26927E-02
         0.26927E-02
         0.26927E-02
         0.26927E-02
         0.26927E-02
         0.26927E-02
         0.26927E-02
         0.26927E-02
         0.26927E-02
         0.26927E-02
         0.26927E-02
         0.26927E-02
         0.26927E-02
         0.26927E-02
         0.26927E-02
         0.26927E-02
         0.26927E-02
         0.26927E-02
         0.26927E-02
         0.26927E-02
         0.26927E-02
         0.26927E-02
         0.26927E-02
         0.26927E-02
         0.26927E-02
         0.26927E-02
         0.26927E-02
         0.26927E-02
         0.26927E-02
         0.26927E-02
         0.26927E-02
         0.26927E-02
         0.26927E-02
         0.26927E-02
         0.26927E-02
         0.26927E-02
         0.26927E-02
         0.26927E-02
         0.26927E-02
         0.26927E-02
         0.26927E-02
         0.26927E-02
         0.26927E-02
         0.26927E-02
         0.26927E-02
         0.26927E-02
         0.26927E-02
         0.26927E-02
         0.26927E-02
         0.26927E-02
         0.26927E-02
         0.26927E-02
         0.26927E-02
         0.26927E-02
         0.26927E-02
         0.26927E-02
         0.26927E-02
         0.26927E-02
         0.26927E-02
         0.26927E-02
         0.26927E-02
         0.26927E-02
         0.26927E-02
         0.26927E-02
         0.26927E-02
         0.26927E-02
         0.26927E-02
         0.26927E-02
         0.26927E-02
         0.26927E-02
         0.26927E-02
         0.26927E-02
         0.26927E-02
         0.26927E-02
         0.26927E-02
         0.26927E-02
         0.26927E-02
         0.26927E-02
         0.26927E-02
         0.26927E-02
         0.26927E-02
         0.26927E-02
         0.26927E-02
         0.26927E-02
         0.26927E-02
         0.26927E-02
         0.26927E-02
         0.26927E-02
         0.26927E-02
         0.26927E-02
         0.26927E-02
         0.26927E-02
         0.26927E-02
         0.26927E-02
         0.26927E-02
         0.26927E-02
         0.26927E-02
         0.26927E-02
         0.26927E-02
         0.26927E-02
         0.26927E-02
         0.26927E-02
         0.26927E-02
         0.26927E-02
         0.26927E-02
         0.26927E-02
         0.26927E-02
         0.26927E-02
         0.26927E-02
         0.26927E-02
         0.26927E-02
         0.26927E-02
         0.26927E-02
         0.26927E-02
         0.26927E-02
         0.26927E-02
         0.26927E-02
         0.26927E-02
         0.26927E-02
         0.26927E-02
         0.26927E-02
         0.26927E-02
         0.26927E-02
         0.26927E-02
         0.26927E-02
         0.26927E-02
         0.26927E-02
         0.26927E-02
         0.26927E-02
         0.26927E-02
         0.26927E-02
         0.26927E-02
         0.26927E-02
         0.26927E-02
         0.26927E-02
         0.26927E-02
         0.26927E-02
         0.26927E-02
         0.26927E-02
         0.26927E-02
         0.26927E-02
         0.26927E-02
         0.26927E-02
         0.26927E-02
         0.26927E-02
         0.26927E-02
         0.26927E-02
         0.26927E-02
         0.26927E-02
         0.26927E-02
         0.26927E-02
         0.26927E-02
         0.26927E-02
         0.26927E-02
         0.26927E-02
         0.26927E-02
         0.26927E-02
         0.26927E-02
         0.26927E-02
         0.26927E-02
         0.26927E-02
         0.26927E-02
         0.26927E-02
         0.26927E-02
         0.26927E-02
         0.26927E-02
         0.26927E-02
         0.26927E-02
         0.26927E-02
         0.26927E-02
         0.26927E-02
         0.26927E-02
         0.26927E-02
         0.26927E-02
         0.26927E-02
         0.26927E-02
         0.26927E-02
         0.26927E-02
         0.26927E-02
         0.26927E-02
         0.26927E-02
         0.26927E-02
         0.26927E-02
         0.26927E-02
         0.26927E-02
         0.26927E-02
         0.26927E-02
         0.26927E-02
         0.26927E-02
         0.26927E-02
         0.26927E-02
         0.26927E-02
         0.26927E-02
         0.26927E-02
         0.26927E-02
         0.26927E-02
         0.26927E-02
         0.26927E-02
         0.26927E-02
         0.26927E-02
         0.26927E-02
         0.26927E-02
         0.26927E-02
         0.26927E-02
         0.26927E-02
         0.26927E-02
         0.26927E-02
         0.26927E-02
         0.26927E-02
         0.26927E-02
         0.26927E-02
         0.26927E-02
         0.26927E-02
         0.26927E-02
         0.26927E-02
         0.26927E-02
         0.26927E-02
         0.26927E-02
         0.26927E-02
         0.26927E-02
         0.26927E-02
         0.26927E-02
         0.26927E-02
         0.26927E-02
         0.26927E-02
         0.26927E-02
         0.26927E-02
         0.26927E-02
         0.26927E-02
         0.26927E-02
         0.26927E-02
         0.26927E-02
         0.26927E-02
         0.26927E-02
         0.26927E-02
         0.26927E-02
         0.26927E-02
         0.26927E-02
         0.26927E-02
         0.26927E-02
         0.26927E-02
         0.26927E-02
         0.26927E-02
         0.26927E-02
         0.26927E-02
         0.26927E-02
         0.26927E-02
         0.26927E-02
         0.26927E-02
         0.26927E-02
         0.26927E-02
         0.26927E-02
         0.26927E-02
         0.26927E-02
         0.26927E-02
         0.26927E-02
         0.26927E-02
         0.26927E-02
         0.26927E-02
         0.26927E-02
         0.26927E-02
         0.26927E-02
         0.26927E-02
         0.26927E-02
         0.26927E-02
         0.26927E-02
         0.26927E-02
         0.26927E-02
         0.26927E-02
         0.26927E-02
         0.26927E-02
         0.26927E-02
         0.26927E-02
         0.26927E-02
         0.26927E-02
         0.26927E-02
         0.26927E-02
         0.26927E-02
         0.26927E-02
         0.26927E-02
         0.26927E-02
         0.26927E-02
         0.26927E-02
         0.26927E-02
         0.26927E-02
         0.26927E-02
         0.26927E-02
         0.26927E-02
         0.26927E-02
         0.26927E-02
         0.26927E-02
         0.26927E-02
         0.26927E-02
         0.26927E-02
         0.26927E-02
         0.26927E-02
         0.26927E-02
         0.26927E-02
         0.26927E-02
         0.26927E-02
         0.26927E-02
         0.26927E-02
         0.26927E-02
         0.26927E-02
         0.26927E-02
         0.26927E-02
         0.26927E-02
         0.26927E-02
         0.26927E-02
         0.26927E-02
         0.26927E-02
         0.26927E-02
         0.26927E-02
         0.26927E-02
         0.26927E-02
         0.26927E-02
         0.26927E-02
         0.26927E-02
         0.26927E-02
         0.26927E-02
         0.26927E-02
         0.26927E-02
         0.26927E-02
         0.26927E-02
         0.26927E-02
         0.26927E-02
         0.26927E-02
         0.26927E-02
         0.26927E-02
         0.26927E-02
         0.26927E-02
         0.26927E-02
         0.26927E-02
         0.26927E-02
         0.26927E-02
         0.26927E-02
         0.26927E-02
         0.26927E-02
         0.26927E-02
         0.26927E-02
         0.26927E-02
         0.26927E-02
         0.26927E-02
         0.26927E-02
         0.26927E-02
         0.26927E-02
         0.26927E-02
         0.26927E-02
         0.26927E-02
         0.26927E-02
         0.26927E-02
         0.26927E-02
         0.26927E-02
         0.26927E-02
         0.26927E-02
         0.26927E-02
         0.26927E-02
         0.26927E-02
         0.26927E-02
         0.26927E-02
         0.26927E-02
         0.26927E-02
         0.26927E-02
         0.26927E-02
         0.26927E-02
         0.26927E-02
         0.26927E-02
         0.26927E-02
         0.26927E-02
         0.26927E-02
         0.26927E-02
         0.26927E-02
         0.26927E-02
         0.26927E-02
         0.26927E-02
         0.26927E-02
         0.26927E-02
         0.26927E-02
         0.26927E-02
         0.26927E-02
         0.26927E-02
         0.26927E-02
         0.26927E-02
         0.26927E-02
         0.26927E-02
         0.26927E-02
         0.26927E-02
         0.26927E-02
         0.26927E-02
         0.26927E-02
         0.26927E-02
         0.26927E-02
         0.26927E-02
         0.26927E-02
         0.26927E-02
         0.26927E-02
         0.26927E-02
         0.26927E-02
         0.26927E-02
         0.26927E-02
         0.26927E-02
         0.26927E-02
         0.26927E-02
         0.26927E-02
         0.26927E-02
         0.26927E-02
         0.26927E-02
         0.26927E-02
         0.26927E-02
         0.26927E-02
         0.26927E-02
         0.26927E-02
         0.26927E-02
         0.26927E-02
         0.26927E-02
         0.26927E-02
         0.26927E-02
         0.26927E-02
         0.26927E-02
         0.26927E-02
         0.26927E-02
         0.26927E-02
         0.26927E-02
         0.26927E-02
         0.26927E-02
         0.26927E-02
         0.26927E-02
         0.26927E-02
         0.26927E-02
         0.26927E-02
         0.26927E-02
         0.26927E-02
         0.26927E-02
         0.26927E-02
         0.26927E-02
         0.26927E-02
         0.26927E-02
         0.26927E-02
         0.26927E-02
         0.26927E-02
         0.26927E-02
         0.26927E-02
         0.26927E-02
         0.26927E-02
         0.26927E-02
         0.26927E-02
         0.26927E-02
         0.26927E-02
         0.26927E-02
         0.26927E-02
         0.26927E-02
         0.26927E-02
         0.26927E-02
         0.26927E-02
         0.26927E-02
         0.26927E-02
         0.26927E-02
         0.26927E-02
         0.26927E-02
         0.26927E-02
         0.26927E-02
         0.26927E-02
         0.26927E-02
         0.26927E-02
         0.26927E-02
         0.26927E-02
         0.26927E-02
         0.26927E-02
         0.26927E-02
         0.26927E-02
         0.26927E-02
         0.26927E-02
         0.26927E-02
         0.26927E-02
         0.26927E-02
         0.26927E-02
         0.26927E-02
         0.26927E-02
         0.26927E-02
         0.26927E-02
         0.26927E-02
         0.26927E-02
         0.26927E-02
         0.26927E-02
         0.26927E-02
         0.26927E-02
         0.26927E-02
         0.26927E-02
         0.26927E-02
         0.26927E-02
         0.26927E-02
         0.26927E-02
         0.26927E-02
         0.26927E-02
         0.26927E-02
         0.26927E-02
         0.26927E-02
         0.26927E-02
         0.26927E-02
         0.26927E-02
         0.26927E-02
         0.26927E-02
         0.26927E-02
         0.26927E-02
         0.26927E-02
         0.26927E-02
         0.26927E-02
         0.26927E-02
         0.26927E-02
         0.26927E-02
         0.26927E-02
         0.26927E-02
         0.26927E-02
         0.26927E-02
         0.26927E-02
         0.26927E-02
         0.26927E-02
         0.26927E-02
         0.26927E-02
         0.26927E-02
         0.26927E-02
         0.26927E-02
         0.26927E-02
         0.26927E-02
         0.26927E-02
         0.26927E-02
         0.26927E-02
         0.26927E-02
         0.26927E-02
         0.26927E-02
         0.26927E-02
         0.26927E-02
         0.26927E-02
         0.26927E-02
         0.26927E-02
         0.26927E-02
         0.26927E-02
         0.26927E-02
         0.26927E-02
         0.26927E-02
         0.26927E-02
         0.26927E-02
         0.26927E-02
         0.26927E-02
         0.26927E-02
         0.26927E-02
         0.26927E-02
         0.26927E-02
         0.26927E-02
         0.26927E-02
         0.26927E-02
         0.26927E-02
         0.26927E-02
         0.26927E-02
         0.26927E-02
         0.26927E-02
         0.26927E-02
         0.26927E-02
         0.26927E-02
         0.26927E-02
         0.26927E-02
         0.26927E-02
         0.26927E-02
         0.26927E-02
         0.26927E-02
         0.26927E-02
         0.26927E-02
         0.26927E-02
         0.26927E-02
         0.26927E-02
         0.26927E-02
         0.26927E-02
         0.26927E-02
         0.26927E-02
         0.26927E-02
         0.26927E-02
         0.26927E-02
         0.26927E-02
         0.26927E-02
         0.26927E-02
         0.26927E-02
         0.26927E-02
         0.26927E-02
         0.26927E-02
         0.26927E-02
         0.26927E-02
         0.26927E-02
         0.26927E-02
         0.26927E-02
         0.26927E-02
         0.26927E-02
         0.26927E-02
         0.26927E-02
         0.26927E-02
         0.26927E-02
         0.26927E-02
         0.26927E-02
         0.26927E-02
         0.26927E-02
         0.26927E-02
         0.26927E-02
         0.26927E-02
         0.26927E-02
         0.26927E-02
         0.26927E-02
         0.26927E-02
         0.26927E-02
         0.26927E-02
         0.26927E-02
         0.26927E-02
         0.26927E-02
         0.26927E-02
         0.26927E-02
         0.26927E-02
         0.26927E-02
         0.26927E-02
         0.26927E-02
         0.26927E-02
         0.26927E-02
         0.26927E-02
         0.26927E-02
         0.26927E-02
         0.26927E-02
         0.26927E-02
         0.26927E-02
         0.26927E-02
         0.26927E-02
         0.26927E-02
         0.26927E-02
         0.26927E-02
         0.26927E-02
         0.26927E-02
         0.26927E-02
         0.26927E-02
         0.26927E-02
         0.26927E-02
         0.26927E-02
         0.26927E-02
         0.26927E-02
         0.26927E-02
         0.26927E-02
         0.26927E-02
         0.26927E-02
         0.26927E-02
         0.26927E-02
         0.26927E-02
         0.26927E-02
         0.26927E-02
         0.26927E-02
         0.26927E-02
         0.26927E-02
         0.26927E-02
         0.26927E-02
         0.26927E-02
         0.26927E-02
         0.26927E-02
         0.26927E-02
         0.26927E-02
         0.26927E-02
         0.26927E-02
         0.26927E-02
         0.26927E-02
         0.26927E-02
         0.26927E-02
         0.26927E-02
         0.26927E-02
         0.26927E-02
         0.26927E-02
         0.26927E-02
         0.26927E-02
         0.26927E-02
         0.26927E-02
         0.26927E-02
         0.26927E-02
         0.26927E-02
         0.26927E-02
         0.26927E-02
         0.26927E-02
         0.26927E-02
         0.26927E-02
         0.26927E-02
         0.26927E-02
         0.26927E-02
         0.26927E-02
         0.26927E-02
         0.26927E-02
         0.26927E-02
         0.26927E-02
         0.26927E-02
         0.26927E-02
         0.26927E-02
         0.26927E-02
         0.26927E-02
         0.26927E-02
         0.26927E-02
         0.26927E-02
         0.26927E-02
         0.26927E-02
         0.26927E-02
         0.26927E-02
         0.26927E-02
         0.26927E-02
         0.26927E-02
         0.26927E-02
         0.26927E-02
         0.26927E-02
         0.26927E-02
         0.26927E-02
         0.26927E-02
         0.26927E-02
         0.26927E-02
         0.26927E-02
         0.26927E-02
         0.26927E-02
         0.26927E-02
         0.26927E-02
         0.26927E-02
         0.26927E-02
         0.26927E-02
         0.26927E-02
         0.26927E-02
         0.26927E-02
         0.26927E-02
         0.26927E-02
         0.26927E-02
         0.26927E-02
         0.26927E-02
         0.26927E-02
         0.26927E-02
         0.26927E-02
         0.26927E-02
         0.26927E-02
         0.26927E-02
         0.26927E-02
         0.26927E-02
         0.26927E-02
         0.26927E-02
         0.26927E-02
         0.26927E-02
         0.26927E-02
         0.26927E-02
         0.26927E-02
         0.26927E-02
         0.26927E-02
         0.26927E-02
         0.26927E-02
         0.26927E-02
         0.26927E-02
         0.26927E-02
         0.26927E-02
         0.26927E-02
         0.26927E-02
         0.26927E-02
         0.26927E-02
         0.26927E-02
         0.26927E-02
         0.26927E-02
         0.26927E-02
         0.26927E-02
         0.26927E-02
         0.26927E-02
         0.26927E-02
         0.26927E-02
         0.26927E-02
         0.26927E-02
         0.26927E-02
         0.26927E-02
         0.26927E-02
         0.26927E-02
         0.26927E-02
         0.26927E-02
         0.26927E-02
         0.26927E-02
         0.26927E-02
         0.26927E-02
         0.26927E-02
         0.26927E-02
         0.26927E-02
         0.26927E-02
         0.26927E-02
         0.26927E-02
         0.26927E-02
         0.26927E-02
         0.26927E-02
         0.26927E-02
         0.26927E-02
         0.26927E-02
         0.26927E-02
         0.26927E-02
         0.26927E-02
         0.26927E-02
         0.26927E-02
         0.26927E-02
         0.26927E-02
         0.26927E-02
         0.26927E-02
         0.26927E-02
         0.26927E-02
         0.26927E-02
         0.26927E-02
         0.26927E-02
         0.26927E-02
         0.26927E-02
         0.26927E-02
         0.26927E-02
         0.26927E-02
         0.26927E-02
         0.26927E-02
         0.26927E-02
         0.26927E-02
         0.26927E-02
         0.26927E-02
         0.26927E-02
         0.26927E-02
         0.26927E-02
         0.26927E-02
         0.26927E-02
         0.26927E-02
         0.26927E-02
         0.26927E-02
         0.26927E-02
         0.26927E-02
         0.26927E-02
         0.26927E-02
         0.26927E-02
         0.26927E-02
         0.26927E-02
         0.26927E-02
         0.26927E-02
         0.26927E-02
         0.26927E-02
         0.26927E-02
         0.26927E-02
         0.26927E-02
         0.26927E-02
         0.26927E-02
         0.26927E-02
         0.26927E-02
         0.26927E-02
         0.26927E-02
         0.26927E-02
         0.26927E-02
         0.26927E-02
         0.26927E-02
         0.26927E-02
         0.26927E-02
         0.26927E-02
         0.26927E-02
         0.26927E-02
         0.26927E-02
         0.26927E-02
         0.26927E-02
         0.26927E-02
         0.26927E-02
         0.26927E-02
         0.26927E-02
         0.26927E-02
         0.26927E-02
         0.26927E-02
         0.26927E-02
         0.26927E-02
         0.26927E-02
         0.26927E-02
         0.26927E-02
         0.26927E-02
         0.26927E-02
         0.26927E-02
         0.26927E-02
         0.26927E-02
         0.26927E-02
         0.26927E-02
         0.26927E-02
         0.26927E-02
         0.26927E-02
         0.26927E-02
         0.26927E-02
         0.26927E-02
         0.26927E-02
         0.26927E-02
         0.26927E-02
         0.26927E-02
         0.26927E-02
         0.26927E-02
         0.26927E-02
         0.26927E-02
         0.26927E-02
         0.26927E-02
         0.26927E-02
         0.26927E-02
         0.26927E-02
         0.26927E-02
         0.26927E-02
         0.26927E-02
         0.26927E-02
         0.26927E-02
         0.26927E-02
         0.26927E-02
         0.26927E-02
         0.26927E-02
         0.26927E-02
         0.26927E-02
         0.26927E-02
         0.26927E-02
         0.26927E-02
         0.26927E-02
         0.26927E-02
         0.26927E-02
         0.26927E-02
         0.26927E-02
         0.26927E-02
         0.26927E-02
         0.26927E-02
         0.26927E-02
         0.26927E-02
         0.26927E-02
         0.26927E-02
         0.26927E-02
         0.26927E-02
         0.26927E-02
         0.26927E-02
         0.26927E-02
         0.26927E-02
         0.26927E-02
         0.26927E-02
         0.26927E-02
         0.26927E-02
         0.26927E-02
         0.26927E-02
         0.26927E-02
         0.26927E-02
         0.26927E-02
         0.26927E-02
         0.26927E-02
         0.26927E-02
         0.26927E-02
         0.26927E-02
         0.26927E-02
         0.26927E-02
         0.26927E-02
         0.26927E-02
         0.26927E-02
         0.26927E-02
         0.26927E-02
         0.26927E-02
         0.26927E-02
         0.26927E-02
         0.26927E-02
         0.26927E-02
         0.26927E-02
         0.26927E-02
         0.26927E-02
         0.26927E-02
         0.26927E-02
         0.26927E-02
         0.26927E-02
         0.26927E-02
         0.26927E-02
         0.26927E-02
         0.26927E-02
         0.26927E-02
         0.26927E-02
         0.26927E-02
         0.26927E-02
         0.26927E-02
         0.26927E-02
         0.26927E-02
         0.26927E-02
         0.26927E-02
         0.26927E-02
         0.26927E-02
         0.26927E-02
         0.26927E-02
         0.26927E-02
         0.26927E-02
         0.26927E-02
         0.26927E-02
         0.26927E-02
         0.26927E-02
         0.26927E-02
         0.26927E-02
         0.26927E-02
         0.26927E-02
         0.26927E-02
         0.26927E-02
         0.26927E-02
         0.26927E-02
         0.26927E-02
         0.26927E-02
         0.26927E-02
         0.26927E-02
         0.26927E-02
         0.26927E-02
         0.26927E-02
         0.26927E-02
         0.26927E-02
         0.26927E-02
         0.26927E-02
         0.26927E-02
         0.26927E-02
         0.26927E-02
         0.26927E-02
         0.26927E-02
         0.26927E-02
         0.26927E-02
         0.26927E-02
         0.26927E-02
         0.26927E-02
         0.26927E-02
         0.26927E-02
         0.26927E-02
         0.26927E-02
         0.26927E-02
         0.26927E-02
         0.26927E-02
         0.26927E-02
         0.26927E-02
         0.26927E-02
         0.26927E-02
         0.26927E-02
         0.26927E-02
         0.26927E-02
         0.26927E-02
         0.26927E-02
         0.26927E-02
         0.26927E-02
         0.26927E-02
         0.26927E-02
         0.26927E-02
         0.26927E-02
         0.26927E-02
         0.26927E-02
         0.26927E-02
         0.26927E-02
         0.26927E-02
         0.26927E-02
         0.26927E-02
         0.26927E-02
         0.26927E-02
         0.26927E-02
         0.26927E-02
         0.26927E-02
         0.26927E-02
         0.26927E-02
         0.26927E-02
         0.26927E-02
         0.26927E-02
         0.26927E-02
         0.26927E-02
         0.26927E-02
         0.26927E-02
         0.26927E-02
         0.26927E-02
         0.26927E-02
         0.26927E-02
         0.26927E-02
         0.26927E-02
         0.26927E-02
         0.26927E-02
         0.26927E-02
         0.26927E-02
         0.26927E-02
         0.26927E-02
         0.26927E-02
         0.26927E-02
         0.26927E-02
         0.26927E-02
         0.26927E-02
         0.26927E-02
         0.26927E-02
         0.26927E-02
         0.26927E-02
         0.26927E-02
         0.26927E-02
         0.26927E-02
         0.26927E-02
         0.26927E-02
         0.26927E-02
         0.26927E-02
         0.26927E-02
         0.26927E-02
         0.26927E-02
         0.26927E-02
         0.26927E-02
         0.26927E-02
         0.26927E-02
         0.26927E-02
         0.26927E-02
         0.26927E-02
         0.26927E-02
         0.26927E-02
         0.26927E-02
         0.26927E-02
         0.26927E-02
         0.26927E-02
         0.26927E-02
         0.26927E-02
         0.26927E-02
         0.26927E-02
         0.26927E-02
         0.26927E-02
         0.26927E-02
         0.26927E-02
         0.26927E-02
         0.26927E-02
         0.26927E-02
         0.26927E-02
         0.26927E-02
         0.26927E-02
         0.26927E-02
         0.26927E-02
         0.26927E-02
         0.26927E-02
         0.26927E-02
         0.26927E-02
         0.26927E-02
         0.26927E-02
         0.26927E-02
         0.26927E-02
         0.26927E-02
         0.26927E-02
         0.26927E-02
         0.26927E-02
         0.26927E-02
         0.26927E-02
         0.26927E-02
         0.26927E-02
         0.26927E-02
         0.26927E-02
         0.26927E-02
         0.26927E-02
         0.26927E-02
         0.26927E-02
         0.26927E-02
         0.26927E-02
         0.26927E-02
         0.26927E-02
         0.26927E-02
         0.26927E-02
         0.26927E-02
         0.26927E-02
         0.26927E-02
         0.26927E-02
         0.26927E-02
         0.26927E-02
         0.26927E-02
         0.26927E-02
         0.26927E-02
         0.26927E-02
         0.26927E-02
         0.26927E-02
         0.26927E-02
         0.26927E-02
         0.26927E-02
         0.26927E-02
         0.26927E-02
         0.26927E-02
         0.26927E-02
         0.26927E-02
         0.26927E-02
         0.26927E-02
         0.26927E-02
         0.26927E-02
         0.26927E-02
         0.26927E-02
         0.26927E-02
         0.26927E-02
         0.26927E-02
         0.26927E-02
         0.26927E-02
         0.26927E-02
         0.26927E-02
         0.26927E-02
         0.26927E-02
         0.26927E-02
         0.26927E-02
         0.26927E-02
         0.26927E-02
         0.26927E-02
         0.26927E-02
         0.26927E-02
         0.26927E-02
         0.26927E-02
         0.26927E-02
         0.26927E-02
         0.26927E-02
         0.26927E-02
         0.26927E-02
         0.26927E-02
         0.26927E-02
         0.26927E-02
         0.26927E-02
         0.26927E-02
         0.26927E-02
         0.26927E-02
         0.26927E-02
         0.26927E-02
         0.26927E-02
         0.26927E-02
         0.26927E-02
         0.26927E-02
         0.26927E-02
         0.26927E-02
         0.26927E-02
         0.26927E-02
         0.26927E-02
         0.26927E-02
         0.26927E-02
         0.26927E-02
         0.26927E-02
         0.26927E-02
         0.26927E-02
         0.26927E-02
         0.26927E-02
         0.26927E-02
         0.26927E-02
         0.26927E-02
         0.26927E-02
         0.26927E-02
         0.26927E-02
         0.26927E-02
         0.26927E-02
         0.26927E-02
         0.26927E-02
         0.26927E-02
         0.26927E-02
         0.26927E-02
         0.26927E-02
         0.26927E-02
         0.26927E-02
         0.26927E-02
         0.26927E-02
         0.26927E-02
         0.26927E-02
         0.26927E-02
         0.26927E-02
         0.26927E-02
         0.26927E-02
         0.26927E-02
         0.26927E-02
         0.26927E-02
         0.26927E-02
         0.26927E-02
         0.26927E-02
         0.26927E-02
         0.26927E-02
         0.26927E-02
         0.26927E-02
         0.26927E-02
         0.26927E-02
         0.26927E-02
         0.26927E-02
         0.26927E-02
         0.26927E-02
         0.26927E-02
         0.26927E-02
         0.26927E-02
         0.26927E-02
         0.26927E-02
         0.26927E-02
         0.26927E-02
         0.26927E-02
         0.26927E-02
         0.26927E-02
         0.26927E-02
         0.26927E-02
         0.26927E-02
         0.26927E-02
         0.26927E-02
         0.26927E-02
         0.26927E-02
         0.26927E-02
         0.26927E-02
         0.26927E-02
         0.26927E-02
         0.26927E-02
         0.26927E-02
         0.26927E-02
         0.26927E-02
         0.26927E-02
         0.26927E-02
         0.26927E-02
         0.26927E-02
         0.26927E-02
         0.26927E-02
         0.26927E-02
         0.26927E-02
         0.26927E-02
         0.26927E-02
         0.26927E-02
         0.26927E-02
         0.26927E-02
         0.26927E-02
         0.26927E-02
         0.26927E-02
         0.26927E-02
         0.26927E-02
         0.26927E-02
         0.26927E-02
         0.26927E-02
         0.26927E-02
         0.26927E-02
         0.26927E-02
         0.26927E-02
         0.26927E-02
         0.26927E-02
         0.26927E-02
         0.26927E-02
         0.26927E-02
         0.26927E-02
         0.26927E-02
         0.26927E-02
         0.26927E-02
         0.26927E-02
         0.26927E-02
         0.26927E-02
         0.26927E-02
         0.26927E-02
         0.26927E-02
         0.26927E-02
         0.26927E-02
         0.26927E-02
         0.26927E-02
         0.26927E-02
         0.26927E-02
         0.26927E-02
         0.26927E-02
         0.26927E-02
         0.26927E-02
         0.26927E-02
         0.26927E-02
         0.26927E-02
         0.26927E-02
         0.26927E-02
         0.26927E-02
         0.26927E-02
         0.26927E-02
         0.26927E-02
         0.26927E-02
         0.26927E-02
         0.26927E-02
         0.26927E-02
         0.26927E-02
         0.26927E-02
         0.26927E-02
         0.26927E-02
         0.26927E-02
         0.26927E-02
         0.26927E-02
         0.26927E-02
         0.26927E-02
         0.26927E-02
         0.26927E-02
         0.26927E-02
         0.26927E-02
         0.26927E-02
         0.26927E-02
         0.26927E-02
         0.26927E-02
         0.26927E-02
         0.26927E-02
         0.26927E-02
         0.26927E-02
         0.26927E-02
         0.26927E-02
         0.26927E-02
         0.26927E-02
         0.26927E-02
         0.26927E-02
         0.26927E-02
         0.26927E-02
         0.26927E-02
         0.26927E-02
         0.26927E-02
         0.26927E-02
         0.26927E-02
         0.26927E-02
         0.26927E-02
         0.26927E-02
         0.26927E-02
         0.26927E-02
         0.26927E-02
         0.26927E-02
         0.26927E-02
         0.26927E-02
         0.26927E-02
         0.26927E-02
         0.26927E-02
         0.26927E-02
         0.26927E-02
         0.26927E-02
         0.26927E-02
         0.26927E-02
         0.26927E-02
         0.26927E-02
         0.26927E-02
         0.26927E-02
         0.26927E-02
         0.26927E-02
         0.26927E-02
         0.26927E-02
         0.26927E-02
         0.26927E-02
         0.26927E-02
         0.26927E-02
         0.26927E-02
         0.26927E-02
         0.26927E-02
         0.26927E-02
         0.26927E-02
         0.26927E-02
         0.26927E-02
         0.26927E-02
         0.26927E-02
         0.26927E-02
         0.26927E-02
         0.26927E-02
         0.26927E-02
         0.26927E-02
         0.26927E-02
         0.26927E-02
         0.26927E-02
         0.26927E-02
         0.26927E-02
         0.26927E-02
         0.26927E-02
         0.26927E-02
         0.26927E-02
         0.26927E-02
         0.26927E-02
         0.26927E-02
         0.26927E-02
         0.26927E-02
         0.26927E-02
         0.26927E-02
         0.26927E-02
         0.26927E-02
         0.26927E-02
         0.26927E-02
         0.26927E-02
         0.26927E-02
         0.26927E-02
         0.26927E-02
         0.26927E-02
         0.26927E-02
         0.26927E-02
         0.26927E-02
         0.26927E-02
         0.26927E-02
         0.26927E-02
         0.26927E-02
         0.26927E-02
         0.26927E-02
         0.26927E-02
         0.26927E-02
         0.26927E-02
         0.26927E-02
         0.26927E-02
         0.26927E-02
         0.26927E-02
         0.26927E-02
         0.26927E-02
         0.26927E-02
         0.26927E-02
         0.26927E-02
         0.26927E-02
         0.26927E-02
         0.26927E-02
         0.26927E-02
         0.26927E-02
         0.26927E-02
         0.26927E-02
         0.26927E-02
         0.26927E-02
         0.26927E-02
         0.26927E-02
         0.26927E-02
         0.26927E-02
         0.26927E-02
         0.26927E-02
         0.26927E-02
         0.26927E-02
         0.26927E-02
         0.26927E-02
         0.26927E-02
         0.26927E-02
         0.26927E-02
         0.26927E-02
         0.26927E-02
         0.26927E-02
         0.26927E-02
         0.26927E-02
         0.26927E-02
         0.26927E-02
         0.26927E-02
         0.26927E-02
         0.26927E-02
         0.26927E-02
         0.26927E-02
         0.26927E-02
         0.26927E-02
         0.26927E-02
         0.26927E-02
         0.26927E-02
         0.26927E-02
         0.26927E-02
         0.26927E-02
         0.26927E-02
         0.26927E-02
         0.26927E-02
         0.26927E-02
         0.26927E-02
         0.26927E-02
         0.26927E-02
         0.26927E-02
         0.26927E-02
         0.26927E-02
         0.26927E-02
         0.26927E-02
         0.26927E-02
         0.26927E-02
         0.26927E-02
         0.26927E-02
         0.26927E-02
         0.26927E-02
         0.26927E-02
         0.26927E-02
         0.26927E-02
         0.26927E-02
         0.26927E-02
         0.26927E-02
         0.26927E-02
         0.26927E-02
         0.26927E-02
         0.26927E-02
         0.26927E-02
         0.26927E-02
         0.26927E-02
         0.26927E-02
         0.26927E-02
         0.26927E-02
         0.26927E-02
         0.26927E-02
         0.26927E-02
         0.26927E-02
         0.26927E-02
         0.26927E-02
         0.26927E-02
         0.26927E-02
         0.26927E-02
         0.26927E-02
         0.26927E-02
         0.26927E-02
         0.26927E-02
         0.26927E-02
         0.26927E-02
         0.26927E-02
         0.26927E-02
         0.26928E-02
         0.26928E-02
         0.26928E-02
         0.26928E-02
         0.26928E-02
         0.26928E-02
         0.26928E-02
         0.26928E-02
         0.26928E-02
         0.26928E-02
         0.26928E-02
         0.26928E-02
         0.26928E-02
         0.26928E-02
         0.26928E-02
         0.26928E-02
         0.26928E-02
         0.26928E-02
         0.26928E-02
         0.26928E-02
         0.26928E-02
         0.26928E-02
         0.26928E-02
         0.26928E-02
         0.26928E-02
         0.26928E-02
         0.26928E-02
         0.26928E-02
         0.26928E-02
         0.26928E-02
         0.26928E-02
         0.26928E-02
         0.26928E-02
         0.26928E-02
         0.26928E-02
         0.26928E-02
         0.26928E-02
         0.26928E-02
         0.26928E-02
         0.26928E-02
         0.26928E-02
         0.26928E-02
         0.26928E-02
         0.26928E-02
         0.26928E-02
         0.26928E-02
         0.26928E-02
         0.26928E-02
         0.26928E-02
         0.26928E-02
         0.26928E-02
         0.26928E-02
         0.26928E-02
         0.26928E-02
         0.26928E-02
         0.26928E-02
         0.26928E-02
         0.26928E-02
         0.26928E-02
         0.26928E-02
         0.26928E-02
         0.26928E-02
         0.26928E-02
         0.26928E-02
         0.26928E-02
         0.26928E-02
         0.26928E-02
         0.26928E-02
         0.26928E-02
         0.26928E-02
         0.26928E-02
         0.26928E-02
         0.26928E-02
         0.26928E-02
         0.26928E-02
         0.26928E-02
         0.26928E-02
         0.26928E-02
         0.26928E-02
         0.26928E-02
         0.26928E-02
         0.26928E-02
         0.26928E-02
         0.26928E-02
         0.26928E-02
         0.26928E-02
         0.26928E-02
         0.26928E-02
         0.26928E-02
         0.26928E-02
         0.26928E-02
         0.26928E-02
         0.26928E-02
         0.26928E-02
         0.26928E-02
         0.26928E-02
         0.26928E-02
         0.26928E-02
         0.26928E-02
         0.26928E-02
         0.26928E-02
         0.26928E-02
         0.26928E-02
         0.26928E-02
         0.26928E-02
         0.26928E-02
         0.26928E-02
         0.26928E-02
         0.26928E-02
         0.26928E-02
         0.26928E-02
         0.26928E-02
         0.26928E-02
         0.26928E-02
         0.26928E-02
         0.26928E-02
         0.26928E-02
         0.26928E-02
         0.26928E-02
         0.26928E-02
         0.26928E-02
         0.26928E-02
         0.26928E-02
         0.26928E-02
         0.26928E-02
         0.26928E-02
         0.26928E-02
         0.26928E-02
         0.26928E-02
         0.26928E-02
         0.26928E-02
         0.26928E-02
         0.26928E-02
         0.26928E-02
         0.26928E-02
         0.26928E-02
         0.26928E-02
         0.26928E-02
         0.26928E-02
         0.26928E-02
         0.26928E-02
         0.26928E-02
         0.26928E-02
         0.26928E-02
         0.26928E-02
         0.26928E-02
         0.26928E-02
         0.26928E-02
         0.26928E-02
         0.26928E-02
         0.26928E-02
         0.26928E-02
         0.26928E-02
         0.26928E-02
         0.26928E-02
         0.26928E-02
  
SCALARS                   nodal_volume  double 1
LOOKUP_TABLE default
         0.91140E-09
         0.72412E-09
         0.77574E-09
         0.13316E-08
         0.45570E-09
         0.36211E-09
         0.38787E-09
         0.66566E-09
         0.71537E-09
         0.91211E-09
         0.35767E-09
         0.45600E-09
         0.51195E-09
         0.61532E-09
         0.25605E-09
         0.30776E-09
         0.10101E-08
         0.74536E-09
         0.50500E-09
         0.37281E-09
         0.30273E-09
         0.57012E-09
         0.62699E-09
         0.15144E-09
         0.28509E-09
         0.31352E-09
         0.51329E-09
         0.64933E-09
         0.25683E-09
         0.32471E-09
         0.12026E-08
         0.93909E-09
         0.11935E-08
         0.60122E-09
         0.46945E-09
         0.59663E-09
         0.70296E-09
         0.80270E-09
         0.35149E-09
         0.40134E-09
         0.75859E-09
         0.84013E-09
         0.37932E-09
         0.42007E-09
         0.64542E-09
         0.40086E-09
         0.32274E-09
         0.20045E-09
         0.76288E-09
         0.38153E-09
         0.63346E-09
         0.31675E-09
         0.66583E-09
         0.33318E-09
         0.68008E-09
         0.34022E-09
         0.58930E-09
         0.71738E-09
         0.29472E-09
         0.35874E-09
         0.90938E-09
         0.64302E-09
         0.45469E-09
         0.32154E-09
         0.10152E-08
         0.50747E-09
         0.88120E-09
         0.44042E-09
         0.40077E-09
         0.61872E-09
         0.20039E-09
         0.30940E-09
         0.70206E-09
         0.35106E-09
         0.74172E-09
         0.37089E-09
         0.71539E-09
         0.35770E-09
         0.56226E-09
         0.28113E-09
         0.35349E-09
         0.58452E-09
         0.17675E-09
         0.29229E-09
         0.77354E-09
         0.38679E-09
         0.62469E-09
         0.31238E-09
         0.54957E-09
         0.27483E-09
         0.36009E-09
         0.61365E-09
         0.18007E-09
         0.30685E-09
         0.83268E-09
         0.41635E-09
         0.87287E-09
         0.43642E-09
         0.70438E-09
         0.35217E-09
         0.43365E-09
         0.74413E-09
         0.21683E-09
         0.37198E-09
         0.27660E-09
         0.35144E-09
         0.13833E-09
         0.17573E-09
         0.32921E-09
         0.16465E-09
         0.38764E-09
         0.19382E-09
         0.37797E-09
         0.18897E-09
         0.36707E-09
         0.18352E-09
         0.39112E-09
         0.19552E-09
         0.41268E-09
         0.20627E-09
         0.38876E-09
         0.19433E-09
         0.30402E-09
         0.15200E-09
         0.24796E-09
         0.12398E-09
         0.31999E-09
         0.16000E-09
         0.42608E-09
         0.21303E-09
         0.46805E-09
         0.23401E-09
         0.44933E-09
         0.22466E-09
         0.40550E-09
         0.20276E-09
         0.36826E-09
         0.18414E-09
         0.29911E-09
         0.14956E-09
         0.25178E-09
         0.12591E-09
         0.32888E-09
         0.16445E-09
         0.43529E-09
         0.21765E-09
         0.44963E-09
         0.22482E-09
         0.36384E-09
         0.18194E-09
         0.29543E-09
         0.14774E-09
         0.36126E-09
         0.18063E-09
         0.42771E-09
         0.21386E-09
         0.91143E-09
         0.72396E-09
         0.77579E-09
         0.13322E-08
         0.71547E-09
         0.91237E-09
         0.51167E-09
         0.61494E-09
         0.10105E-08
         0.74486E-09
         0.30244E-09
         0.57001E-09
         0.62694E-09
         0.51257E-09
         0.64918E-09
         0.12029E-08
         0.93950E-09
         0.11941E-08
         0.70298E-09
         0.80279E-09
         0.75855E-09
         0.84015E-09
         0.64535E-09
         0.40081E-09
         0.76254E-09
         0.63339E-09
         0.66483E-09
         0.67941E-09
         0.58904E-09
         0.71721E-09
         0.90946E-09
         0.64293E-09
         0.10157E-08
         0.88199E-09
         0.40076E-09
         0.61859E-09
         0.70195E-09
         0.74166E-09
         0.71543E-09
         0.56228E-09
         0.35349E-09
         0.58443E-09
         0.77349E-09
         0.62459E-09
         0.54943E-09
         0.35999E-09
         0.61359E-09
         0.83268E-09
         0.87299E-09
         0.70451E-09
         0.43366E-09
         0.74449E-09
         0.27651E-09
         0.35143E-09
         0.32904E-09
         0.38765E-09
         0.37805E-09
         0.36714E-09
         0.39129E-09
         0.41297E-09
         0.38899E-09
         0.30408E-09
         0.24798E-09
         0.31999E-09
         0.42613E-09
         0.46815E-09
         0.44938E-09
         0.40548E-09
         0.36823E-09
         0.29908E-09
         0.25174E-09
         0.32885E-09
         0.43527E-09
         0.44962E-09
         0.36376E-09
         0.29536E-09
         0.36130E-09
         0.42769E-09
         0.91151E-09
         0.72383E-09
         0.77587E-09
         0.13329E-08
         0.71560E-09
         0.91267E-09
         0.51142E-09
         0.61459E-09
         0.10109E-08
         0.74439E-09
         0.30216E-09
         0.56992E-09
         0.62691E-09
         0.51187E-09
         0.64906E-09
         0.12033E-08
         0.93995E-09
         0.11947E-08
         0.70302E-09
         0.80291E-09
         0.75853E-09
         0.84020E-09
         0.64530E-09
         0.40078E-09
         0.76223E-09
         0.63335E-09
         0.66385E-09
         0.67875E-09
         0.58880E-09
         0.71706E-09
         0.90957E-09
         0.64286E-09
         0.10162E-08
         0.88281E-09
         0.40076E-09
         0.61849E-09
         0.70188E-09
         0.74162E-09
         0.71550E-09
         0.56232E-09
         0.35350E-09
         0.58436E-09
         0.77347E-09
         0.62452E-09
         0.54931E-09
         0.35990E-09
         0.61355E-09
         0.83270E-09
         0.87315E-09
         0.70467E-09
         0.43368E-09
         0.74487E-09
         0.27643E-09
         0.35143E-09
         0.32889E-09
         0.38767E-09
         0.37814E-09
         0.36723E-09
         0.39147E-09
         0.41328E-09
         0.38923E-09
         0.30416E-09
         0.24800E-09
         0.32001E-09
         0.42620E-09
         0.46826E-09
         0.44944E-09
         0.40548E-09
         0.36821E-09
         0.29906E-09
         0.25171E-09
         0.32883E-09
         0.43527E-09
         0.44963E-09
         0.36369E-09
         0.29530E-09
         0.36135E-09
         0.42769E-09
         0.91156E-09
         0.72368E-09
         0.77594E-09
         0.13335E-08
         0.71571E-09
         0.91295E-09
         0.51115E-09
         0.61422E-09
         0.10112E-08
         0.74389E-09
         0.30187E-09
         0.56982E-09
         0.62686E-09
         0.51116E-09
         0.64892E-09
         0.12036E-08
         0.94038E-09
         0.11953E-08
         0.70304E-09
         0.80300E-09
         0.75850E-09
         0.84023E-09
         0.64523E-09
         0.40073E-09
         0.76190E-09
         0.63330E-09
         0.66285E-09
         0.67809E-09
         0.58855E-09
         0.71689E-09
         0.90966E-09
         0.64278E-09
         0.10168E-08
         0.88361E-09
         0.40076E-09
         0.61837E-09
         0.70178E-09
         0.74156E-09
         0.71554E-09
         0.56234E-09
         0.35350E-09
         0.58428E-09
         0.77343E-09
         0.62442E-09
         0.54918E-09
         0.35981E-09
         0.61349E-09
         0.83271E-09
         0.87328E-09
         0.70481E-09
         0.43369E-09
         0.74524E-09
         0.27634E-09
         0.35142E-09
         0.32873E-09
         0.38768E-09
         0.37823E-09
         0.36731E-09
         0.39163E-09
         0.41358E-09
         0.38945E-09
         0.30422E-09
         0.24802E-09
         0.32001E-09
         0.42625E-09
         0.46837E-09
         0.44949E-09
         0.40546E-09
         0.36819E-09
         0.29904E-09
         0.25167E-09
         0.32881E-09
         0.43526E-09
         0.44963E-09
         0.36362E-09
         0.29523E-09
         0.36139E-09
         0.42768E-09
         0.91161E-09
         0.72353E-09
         0.77600E-09
         0.13341E-08
         0.71583E-09
         0.91323E-09
         0.51088E-09
         0.61386E-09
         0.10116E-08
         0.74341E-09
         0.30158E-09
         0.56972E-09
         0.62682E-09
         0.51045E-09
         0.64879E-09
         0.12040E-08
         0.94081E-09
         0.11959E-08
         0.70307E-09
         0.80310E-09
         0.75847E-09
         0.84027E-09
         0.64517E-09
         0.40069E-09
         0.76158E-09
         0.63325E-09
         0.66186E-09
         0.67742E-09
         0.58831E-09
         0.71673E-09
         0.90975E-09
         0.64270E-09
         0.10173E-08
         0.88441E-09
         0.40075E-09
         0.61825E-09
         0.70169E-09
         0.74151E-09
         0.71559E-09
         0.56237E-09
         0.35350E-09
         0.58420E-09
         0.77339E-09
         0.62433E-09
         0.54905E-09
         0.35972E-09
         0.61344E-09
         0.83272E-09
         0.87341E-09
         0.70496E-09
         0.43370E-09
         0.74562E-09
         0.27626E-09
         0.35142E-09
         0.32857E-09
         0.38770E-09
         0.37832E-09
         0.36739E-09
         0.39181E-09
         0.41387E-09
         0.38968E-09
         0.30429E-09
         0.24804E-09
         0.32002E-09
         0.42631E-09
         0.46847E-09
         0.44954E-09
         0.40545E-09
         0.36816E-09
         0.29901E-09
         0.25163E-09
         0.32878E-09
         0.43525E-09
         0.44963E-09
         0.36354E-09
         0.29517E-09
         0.36144E-09
         0.42766E-09
         0.91167E-09
         0.72338E-09
         0.77607E-09
         0.13348E-08
         0.71594E-09
         0.91351E-09
         0.51062E-09
         0.61349E-09
         0.10119E-08
         0.74292E-09
         0.30129E-09
         0.56962E-09
         0.62678E-09
         0.50974E-09
         0.64865E-09
         0.12044E-08
         0.94125E-09
         0.11965E-08
         0.70310E-09
         0.80321E-09
         0.75844E-09
         0.84031E-09
         0.64511E-09
         0.40065E-09
         0.76125E-09
         0.63320E-09
         0.66087E-09
         0.67676E-09
         0.58806E-09
         0.71657E-09
         0.90984E-09
         0.64263E-09
         0.10179E-08
         0.88522E-09
         0.40075E-09
         0.61813E-09
         0.70160E-09
         0.74146E-09
         0.71564E-09
         0.56240E-09
         0.35350E-09
         0.58412E-09
         0.77336E-09
         0.62425E-09
         0.54892E-09
         0.35963E-09
         0.61339E-09
         0.83274E-09
         0.87355E-09
         0.70511E-09
         0.43371E-09
         0.74599E-09
         0.27618E-09
         0.35141E-09
         0.32841E-09
         0.38771E-09
         0.37841E-09
         0.36747E-09
         0.39198E-09
         0.41417E-09
         0.38992E-09
         0.30436E-09
         0.24806E-09
         0.32003E-09
         0.42637E-09
         0.46858E-09
         0.44960E-09
         0.40544E-09
         0.36814E-09
         0.29899E-09
         0.25159E-09
         0.32876E-09
         0.43525E-09
         0.44963E-09
         0.36347E-09
         0.29511E-09
         0.36148E-09
         0.42766E-09
         0.91171E-09
         0.72323E-09
         0.77613E-09
         0.13354E-08
         0.71606E-09
         0.91379E-09
         0.51035E-09
         0.61313E-09
         0.10123E-08
         0.74243E-09
         0.30101E-09
         0.56952E-09
         0.62674E-09
         0.50903E-09
         0.64851E-09
         0.12047E-08
         0.94167E-09
         0.11971E-08
         0.70312E-09
         0.80331E-09
         0.75840E-09
         0.84034E-09
         0.64504E-09
         0.40061E-09
         0.76092E-09
         0.63314E-09
         0.65988E-09
         0.67609E-09
         0.58781E-09
         0.71641E-09
         0.90993E-09
         0.64255E-09
         0.10184E-08
         0.88601E-09
         0.40075E-09
         0.61801E-09
         0.70151E-09
         0.74140E-09
         0.71569E-09
         0.56243E-09
         0.35350E-09
         0.58404E-09
         0.77332E-09
         0.62416E-09
         0.54879E-09
         0.35953E-09
         0.61334E-09
         0.83274E-09
         0.87368E-09
         0.70525E-09
         0.43372E-09
         0.74636E-09
         0.27609E-09
         0.35141E-09
         0.32825E-09
         0.38772E-09
         0.37849E-09
         0.36754E-09
         0.39215E-09
         0.41447E-09
         0.39014E-09
         0.30443E-09
         0.24808E-09
         0.32004E-09
         0.42642E-09
         0.46868E-09
         0.44965E-09
         0.40543E-09
         0.36812E-09
         0.29897E-09
         0.25155E-09
         0.32874E-09
         0.43524E-09
         0.44963E-09
         0.36340E-09
         0.29504E-09
         0.36153E-09
         0.42764E-09
         0.91176E-09
         0.72308E-09
         0.77620E-09
         0.13360E-08
         0.71617E-09
         0.91407E-09
         0.51008E-09
         0.61276E-09
         0.10126E-08
         0.74195E-09
         0.30072E-09
         0.56942E-09
         0.62670E-09
         0.50832E-09
         0.64838E-09
         0.12051E-08
         0.94210E-09
         0.11977E-08
         0.70314E-09
         0.80341E-09
         0.75837E-09
         0.84038E-09
         0.64498E-09
         0.40056E-09
         0.76060E-09
         0.63309E-09
         0.65888E-09
         0.67542E-09
         0.58756E-09
         0.71624E-09
         0.91002E-09
         0.64247E-09
         0.10189E-08
         0.88682E-09
         0.40074E-09
         0.61790E-09
         0.70142E-09
         0.74135E-09
         0.71574E-09
         0.56245E-09
         0.35351E-09
         0.58396E-09
         0.77328E-09
         0.62407E-09
         0.54866E-09
         0.35944E-09
         0.61329E-09
         0.83275E-09
         0.87382E-09
         0.70539E-09
         0.43373E-09
         0.74673E-09
         0.27601E-09
         0.35140E-09
         0.32809E-09
         0.38774E-09
         0.37858E-09
         0.36762E-09
         0.39232E-09
         0.41477E-09
         0.39037E-09
         0.30450E-09
         0.24810E-09
         0.32005E-09
         0.42648E-09
         0.46879E-09
         0.44970E-09
         0.40541E-09
         0.36809E-09
         0.29894E-09
         0.25151E-09
         0.32871E-09
         0.43523E-09
         0.44963E-09
         0.36333E-09
         0.29497E-09
         0.36157E-09
         0.42763E-09
         0.91182E-09
         0.72293E-09
         0.77627E-09
         0.13367E-08
         0.71629E-09
         0.91436E-09
         0.50982E-09
         0.61240E-09
         0.10130E-08
         0.74146E-09
         0.30043E-09
         0.56932E-09
         0.62666E-09
         0.50762E-09
         0.64825E-09
         0.12054E-08
         0.94253E-09
         0.11983E-08
         0.70317E-09
         0.80351E-09
         0.75834E-09
         0.84041E-09
         0.64491E-09
         0.40053E-09
         0.76028E-09
         0.63304E-09
         0.65790E-09
         0.67476E-09
         0.58731E-09
         0.71609E-09
         0.91012E-09
         0.64239E-09
         0.10195E-08
         0.88762E-09
         0.40074E-09
         0.61778E-09
         0.70133E-09
         0.74130E-09
         0.71579E-09
         0.56249E-09
         0.35351E-09
         0.58388E-09
         0.77324E-09
         0.62398E-09
         0.54853E-09
         0.35935E-09
         0.61324E-09
         0.83277E-09
         0.87396E-09
         0.70554E-09
         0.43375E-09
         0.74711E-09
         0.27592E-09
         0.35140E-09
         0.32793E-09
         0.38775E-09
         0.37867E-09
         0.36770E-09
         0.39249E-09
         0.41507E-09
         0.39061E-09
         0.30457E-09
         0.24812E-09
         0.32006E-09
         0.42654E-09
         0.46890E-09
         0.44975E-09
         0.40540E-09
         0.36807E-09
         0.29892E-09
         0.25148E-09
         0.32869E-09
         0.43522E-09
         0.44963E-09
         0.36325E-09
         0.29491E-09
         0.36162E-09
         0.42762E-09
         0.91187E-09
         0.72278E-09
         0.77633E-09
         0.13373E-08
         0.71640E-09
         0.91463E-09
         0.50955E-09
         0.61204E-09
         0.10134E-08
         0.74098E-09
         0.30015E-09
         0.56922E-09
         0.62662E-09
         0.50691E-09
         0.64811E-09
         0.12058E-08
         0.94296E-09
         0.11989E-08
         0.70320E-09
         0.80361E-09
         0.75831E-09
         0.84045E-09
         0.64485E-09
         0.40048E-09
         0.75995E-09
         0.63298E-09
         0.65690E-09
         0.67409E-09
         0.58706E-09
         0.71592E-09
         0.91020E-09
         0.64231E-09
         0.10200E-08
         0.88843E-09
         0.40074E-09
         0.61766E-09
         0.70124E-09
         0.74124E-09
         0.71584E-09
         0.56251E-09
         0.35351E-09
         0.58380E-09
         0.77320E-09
         0.62389E-09
         0.54840E-09
         0.35926E-09
         0.61318E-09
         0.83277E-09
         0.87409E-09
         0.70568E-09
         0.43376E-09
         0.74748E-09
         0.27584E-09
         0.35139E-09
         0.32777E-09
         0.38777E-09
         0.37876E-09
         0.36778E-09
         0.39266E-09
         0.41536E-09
         0.39084E-09
         0.30464E-09
         0.24814E-09
         0.32006E-09
         0.42659E-09
         0.46900E-09
         0.44980E-09
         0.40539E-09
         0.36805E-09
         0.29890E-09
         0.25144E-09
         0.32867E-09
         0.43521E-09
         0.44963E-09
         0.36318E-09
         0.29485E-09
         0.36166E-09
         0.42761E-09
         0.91192E-09
         0.72263E-09
         0.77640E-09
         0.13380E-08
         0.71652E-09
         0.91491E-09
         0.50928E-09
         0.61167E-09
         0.10137E-08
         0.74049E-09
         0.29986E-09
         0.56912E-09
         0.62657E-09
         0.50620E-09
         0.64797E-09
         0.12061E-08
         0.94339E-09
         0.11995E-08
         0.70322E-09
         0.80371E-09
         0.75827E-09
         0.84048E-09
         0.64478E-09
         0.40044E-09
         0.75962E-09
         0.63293E-09
         0.65591E-09
         0.67343E-09
         0.58681E-09
         0.71576E-09
         0.91029E-09
         0.64223E-09
         0.10205E-08
         0.88923E-09
         0.40073E-09
         0.61754E-09
         0.70114E-09
         0.74119E-09
         0.71588E-09
         0.56254E-09
         0.35351E-09
         0.58372E-09
         0.77316E-09
         0.62380E-09
         0.54827E-09
         0.35917E-09
         0.61313E-09
         0.83278E-09
         0.87422E-09
         0.70582E-09
         0.43377E-09
         0.74785E-09
         0.27575E-09
         0.35138E-09
         0.32761E-09
         0.38778E-09
         0.37885E-09
         0.36786E-09
         0.39283E-09
         0.41566E-09
         0.39107E-09
         0.30470E-09
         0.24816E-09
         0.32007E-09
         0.42665E-09
         0.46911E-09
         0.44985E-09
         0.40538E-09
         0.36802E-09
         0.29887E-09
         0.25140E-09
         0.32864E-09
         0.43520E-09
         0.44963E-09
         0.36310E-09
         0.29478E-09
         0.36170E-09
         0.42760E-09
         0.91198E-09
         0.72248E-09
         0.77646E-09
         0.13386E-08
         0.71663E-09
         0.91520E-09
         0.50901E-09
         0.61131E-09
         0.10141E-08
         0.74000E-09
         0.29957E-09
         0.56902E-09
         0.62653E-09
         0.50549E-09
         0.64784E-09
         0.12065E-08
         0.94382E-09
         0.12002E-08
         0.70325E-09
         0.80381E-09
         0.75824E-09
         0.84052E-09
         0.64472E-09
         0.40040E-09
         0.75929E-09
         0.63288E-09
         0.65492E-09
         0.67276E-09
         0.58657E-09
         0.71560E-09
         0.91038E-09
         0.64216E-09
         0.10211E-08
         0.89003E-09
         0.40073E-09
         0.61742E-09
         0.70105E-09
         0.74114E-09
         0.71593E-09
         0.56257E-09
         0.35351E-09
         0.58364E-09
         0.77313E-09
         0.62371E-09
         0.54814E-09
         0.35908E-09
         0.61308E-09
         0.83280E-09
         0.87436E-09
         0.70597E-09
         0.43378E-09
         0.74823E-09
         0.27567E-09
         0.35138E-09
         0.32745E-09
         0.38779E-09
         0.37893E-09
         0.36794E-09
         0.39300E-09
         0.41596E-09
         0.39130E-09
         0.30477E-09
         0.24818E-09
         0.32008E-09
         0.42671E-09
         0.46921E-09
         0.44991E-09
         0.40537E-09
         0.36800E-09
         0.29885E-09
         0.25136E-09
         0.32862E-09
         0.43520E-09
         0.44963E-09
         0.36303E-09
         0.29472E-09
         0.36175E-09
         0.42759E-09
         0.91203E-09
         0.72233E-09
         0.77653E-09
         0.13392E-08
         0.71675E-09
         0.91547E-09
         0.50875E-09
         0.61094E-09
         0.10144E-08
         0.73952E-09
         0.29928E-09
         0.56892E-09
         0.62649E-09
         0.50478E-09
         0.64770E-09
         0.12068E-08
         0.94424E-09
         0.12008E-08
         0.70327E-09
         0.80391E-09
         0.75821E-09
         0.84055E-09
         0.64465E-09
         0.40035E-09
         0.75896E-09
         0.63282E-09
         0.65393E-09
         0.67210E-09
         0.58632E-09
         0.71543E-09
         0.91047E-09
         0.64208E-09
         0.10216E-08
         0.89084E-09
         0.40073E-09
         0.61730E-09
         0.70096E-09
         0.74108E-09
         0.71598E-09
         0.56259E-09
         0.35351E-09
         0.58356E-09
         0.77309E-09
         0.62362E-09
         0.54801E-09
         0.35898E-09
         0.61303E-09
         0.83281E-09
         0.87449E-09
         0.70611E-09
         0.43379E-09
         0.74860E-09
         0.27558E-09
         0.35137E-09
         0.32729E-09
         0.38781E-09
         0.37902E-09
         0.36802E-09
         0.39317E-09
         0.41625E-09
         0.39153E-09
         0.30484E-09
         0.24820E-09
         0.32009E-09
         0.42677E-09
         0.46932E-09
         0.44996E-09
         0.40536E-09
         0.36798E-09
         0.29883E-09
         0.25132E-09
         0.32859E-09
         0.43519E-09
         0.44963E-09
         0.36296E-09
         0.29465E-09
         0.36179E-09
         0.42758E-09
         0.91208E-09
         0.72218E-09
         0.77659E-09
         0.13399E-08
         0.71686E-09
         0.91576E-09
         0.50848E-09
         0.61058E-09
         0.10148E-08
         0.73903E-09
         0.29900E-09
         0.56882E-09
         0.62645E-09
         0.50408E-09
         0.64757E-09
         0.12072E-08
         0.94467E-09
         0.12014E-08
         0.70330E-09
         0.80401E-09
         0.75818E-09
         0.84059E-09
         0.64459E-09
         0.40031E-09
         0.75864E-09
         0.63277E-09
         0.65294E-09
         0.67143E-09
         0.58607E-09
         0.71527E-09
         0.91057E-09
         0.64200E-09
         0.10221E-08
         0.89164E-09
         0.40072E-09
         0.61719E-09
         0.70087E-09
         0.74103E-09
         0.71603E-09
         0.56262E-09
         0.35352E-09
         0.58348E-09
         0.77305E-09
         0.62354E-09
         0.54788E-09
         0.35889E-09
         0.61298E-09
         0.83282E-09
         0.87463E-09
         0.70626E-09
         0.43380E-09
         0.74897E-09
         0.27550E-09
         0.35137E-09
         0.32713E-09
         0.38782E-09
         0.37911E-09
         0.36810E-09
         0.39334E-09
         0.41655E-09
         0.39176E-09
         0.30491E-09
         0.24822E-09
         0.32010E-09
         0.42682E-09
         0.46942E-09
         0.45001E-09
         0.40534E-09
         0.36796E-09
         0.29881E-09
         0.25128E-09
         0.32857E-09
         0.43518E-09
         0.44963E-09
         0.36288E-09
         0.29459E-09
         0.36184E-09
         0.42757E-09
         0.91214E-09
         0.72204E-09
         0.77666E-09
         0.13405E-08
         0.71698E-09
         0.91604E-09
         0.50822E-09
         0.61022E-09
         0.10151E-08
         0.73855E-09
         0.29871E-09
         0.56872E-09
         0.62641E-09
         0.50337E-09
         0.64743E-09
         0.12075E-08
         0.94510E-09
         0.12020E-08
         0.70333E-09
         0.80411E-09
         0.75815E-09
         0.84063E-09
         0.64453E-09
         0.40027E-09
         0.75831E-09
         0.63272E-09
         0.65196E-09
         0.67077E-09
         0.58582E-09
         0.71511E-09
         0.91066E-09
         0.64192E-09
         0.10227E-08
         0.89245E-09
         0.40072E-09
         0.61707E-09
         0.70078E-09
         0.74098E-09
         0.71608E-09
         0.56265E-09
         0.35352E-09
         0.58340E-09
         0.77301E-09
         0.62345E-09
         0.54775E-09
         0.35880E-09
         0.61293E-09
         0.83283E-09
         0.87476E-09
         0.70641E-09
         0.43382E-09
         0.74935E-09
         0.27541E-09
         0.35136E-09
         0.32697E-09
         0.38784E-09
         0.37920E-09
         0.36818E-09
         0.39352E-09
         0.41685E-09
         0.39199E-09
         0.30498E-09
         0.24824E-09
         0.32011E-09
         0.42688E-09
         0.46953E-09
         0.45007E-09
         0.40533E-09
         0.36793E-09
         0.29878E-09
         0.25124E-09
         0.32855E-09
         0.43517E-09
         0.44963E-09
         0.36281E-09
         0.29452E-09
         0.36188E-09
         0.42756E-09
         0.91219E-09
         0.72188E-09
         0.77672E-09
         0.13412E-08
         0.71709E-09
         0.91632E-09
         0.50795E-09
         0.60986E-09
         0.10155E-08
         0.73806E-09
         0.29842E-09
         0.56862E-09
         0.62636E-09
         0.50266E-09
         0.64730E-09
         0.12079E-08
         0.94552E-09
         0.12026E-08
         0.70335E-09
         0.80421E-09
         0.75811E-09
         0.84066E-09
         0.64446E-09
         0.40023E-09
         0.75798E-09
         0.63267E-09
         0.65096E-09
         0.67010E-09
         0.58557E-09
         0.71494E-09
         0.91074E-09
         0.64184E-09
         0.10232E-08
         0.89325E-09
         0.40072E-09
         0.61695E-09
         0.70069E-09
         0.74092E-09
         0.71612E-09
         0.56268E-09
         0.35352E-09
         0.58332E-09
         0.77297E-09
         0.62336E-09
         0.54762E-09
         0.35871E-09
         0.61287E-09
         0.83284E-09
         0.87489E-09
         0.70655E-09
         0.43383E-09
         0.74972E-09
         0.27533E-09
         0.35136E-09
         0.32681E-09
         0.38785E-09
         0.37929E-09
         0.36825E-09
         0.39369E-09
         0.41715E-09
         0.39222E-09
         0.30505E-09
         0.24826E-09
         0.32011E-09
         0.42694E-09
         0.46963E-09
         0.45011E-09
         0.40532E-09
         0.36791E-09
         0.29876E-09
         0.25120E-09
         0.32853E-09
         0.43516E-09
         0.44962E-09
         0.36274E-09
         0.29445E-09
         0.36192E-09
         0.42755E-09
         0.91224E-09
         0.72173E-09
         0.77679E-09
         0.13418E-08
         0.71720E-09
         0.91660E-09
         0.50768E-09
         0.60949E-09
         0.10158E-08
         0.73758E-09
         0.29814E-09
         0.56852E-09
         0.62632E-09
         0.50195E-09
         0.64716E-09
         0.12082E-08
         0.94595E-09
         0.12032E-08
         0.70337E-09
         0.80431E-09
         0.75808E-09
         0.84069E-09
         0.64440E-09
         0.40018E-09
         0.75766E-09
         0.63262E-09
         0.64998E-09
         0.66943E-09
         0.58532E-09
         0.71478E-09
         0.91083E-09
         0.64176E-09
         0.10238E-08
         0.89406E-09
         0.40071E-09
         0.61683E-09
         0.70059E-09
         0.74087E-09
         0.71617E-09
         0.56270E-09
         0.35352E-09
         0.58324E-09
         0.77294E-09
         0.62327E-09
         0.54749E-09
         0.35861E-09
         0.61282E-09
         0.83284E-09
         0.87503E-09
         0.70669E-09
         0.43384E-09
         0.75009E-09
         0.27524E-09
         0.35135E-09
         0.32665E-09
         0.38786E-09
         0.37937E-09
         0.36833E-09
         0.39386E-09
         0.41745E-09
         0.39245E-09
         0.30512E-09
         0.24828E-09
         0.32012E-09
         0.42699E-09
         0.46974E-09
         0.45017E-09
         0.40531E-09
         0.36788E-09
         0.29873E-09
         0.25117E-09
         0.32850E-09
         0.43515E-09
         0.44962E-09
         0.36266E-09
         0.29439E-09
         0.36197E-09
         0.42754E-09
         0.91230E-09
         0.72159E-09
         0.77686E-09
         0.13425E-08
         0.71732E-09
         0.91688E-09
         0.50742E-09
         0.60913E-09
         0.10162E-08
         0.73710E-09
         0.29785E-09
         0.56842E-09
         0.62628E-09
         0.50125E-09
         0.64703E-09
         0.12086E-08
         0.94638E-09
         0.12038E-08
         0.70340E-09
         0.80441E-09
         0.75805E-09
         0.84073E-09
         0.64433E-09
         0.40014E-09
         0.75733E-09
         0.63257E-09
         0.64899E-09
         0.66877E-09
         0.58508E-09
         0.71462E-09
         0.91093E-09
         0.64169E-09
         0.10243E-08
         0.89487E-09
         0.40071E-09
         0.61671E-09
         0.70051E-09
         0.74082E-09
         0.71622E-09
         0.56273E-09
         0.35352E-09
         0.58316E-09
         0.77290E-09
         0.62318E-09
         0.54737E-09
         0.35852E-09
         0.61277E-09
         0.83286E-09
         0.87517E-09
         0.70684E-09
         0.43385E-09
         0.75047E-09
         0.27516E-09
         0.35135E-09
         0.32649E-09
         0.38788E-09
         0.37946E-09
         0.36841E-09
         0.39403E-09
         0.41775E-09
         0.39268E-09
         0.30519E-09
         0.24830E-09
         0.32013E-09
         0.42705E-09
         0.46985E-09
         0.45022E-09
         0.40530E-09
         0.36786E-09
         0.29871E-09
         0.25113E-09
         0.32848E-09
         0.43515E-09
         0.44962E-09
         0.36259E-09
         0.29433E-09
         0.36201E-09
         0.42753E-09
         0.91235E-09
         0.72143E-09
         0.77692E-09
         0.13431E-08
         0.71743E-09
         0.91716E-09
         0.50715E-09
         0.60877E-09
         0.10165E-08
         0.73661E-09
         0.29757E-09
         0.56832E-09
         0.62624E-09
         0.50054E-09
         0.64689E-09
         0.12089E-08
         0.94680E-09
         0.12044E-08
         0.70342E-09
         0.80450E-09
         0.75802E-09
         0.84076E-09
         0.64427E-09
         0.40010E-09
         0.75700E-09
         0.63251E-09
         0.64800E-09
         0.66810E-09
         0.58482E-09
         0.71445E-09
         0.91101E-09
         0.64161E-09
         0.10248E-08
         0.89567E-09
         0.40071E-09
         0.61659E-09
         0.70041E-09
         0.74077E-09
         0.71627E-09
         0.56276E-09
         0.35352E-09
         0.58308E-09
         0.77286E-09
         0.62309E-09
         0.54723E-09
         0.35843E-09
         0.61272E-09
         0.83287E-09
         0.87530E-09
         0.70698E-09
         0.43386E-09
         0.75084E-09
         0.27507E-09
         0.35134E-09
         0.32633E-09
         0.38789E-09
         0.37955E-09
         0.36849E-09
         0.39420E-09
         0.41804E-09
         0.39291E-09
         0.30525E-09
         0.24832E-09
         0.32014E-09
         0.42711E-09
         0.46995E-09
         0.45027E-09
         0.40528E-09
         0.36784E-09
         0.29869E-09
         0.25109E-09
         0.32845E-09
         0.43514E-09
         0.44962E-09
         0.36252E-09
         0.29426E-09
         0.36206E-09
         0.42751E-09
         0.91240E-09
         0.72128E-09
         0.77698E-09
         0.13437E-08
         0.71755E-09
         0.91744E-09
         0.50688E-09
         0.60841E-09
         0.10169E-08
         0.73612E-09
         0.29728E-09
         0.56822E-09
         0.62619E-09
         0.49984E-09
         0.64676E-09
         0.12093E-08
         0.94723E-09
         0.12050E-08
         0.70345E-09
         0.80460E-09
         0.75798E-09
         0.84080E-09
         0.64420E-09
         0.40006E-09
         0.75667E-09
         0.63246E-09
         0.64701E-09
         0.66744E-09
         0.58457E-09
         0.71429E-09
         0.91110E-09
         0.64153E-09
         0.10254E-08
         0.89648E-09
         0.40070E-09
         0.61647E-09
         0.70032E-09
         0.74071E-09
         0.71632E-09
         0.56279E-09
         0.35353E-09
         0.58300E-09
         0.77282E-09
         0.62300E-09
         0.54710E-09
         0.35834E-09
         0.61266E-09
         0.83288E-09
         0.87543E-09
         0.70713E-09
         0.43387E-09
         0.75122E-09
         0.27499E-09
         0.35133E-09
         0.32617E-09
         0.38790E-09
         0.37964E-09
         0.36857E-09
         0.39437E-09
         0.41834E-09
         0.39314E-09
         0.30532E-09
         0.24834E-09
         0.32014E-09
         0.42716E-09
         0.47005E-09
         0.45032E-09
         0.40527E-09
         0.36781E-09
         0.29866E-09
         0.25105E-09
         0.32843E-09
         0.43513E-09
         0.44962E-09
         0.36244E-09
         0.29419E-09
         0.36210E-09
         0.42750E-09
         0.91246E-09
         0.72114E-09
         0.77705E-09
         0.13444E-08
         0.71767E-09
         0.91773E-09
         0.50662E-09
         0.60805E-09
         0.10173E-08
         0.73564E-09
         0.29700E-09
         0.56812E-09
         0.62616E-09
         0.49914E-09
         0.64663E-09
         0.12097E-08
         0.94766E-09
         0.12056E-08
         0.70348E-09
         0.80471E-09
         0.75796E-09
         0.84084E-09
         0.64414E-09
         0.40002E-09
         0.75635E-09
         0.63241E-09
         0.64603E-09
         0.66678E-09
         0.58433E-09
         0.71413E-09
         0.91120E-09
         0.64146E-09
         0.10259E-08
         0.89729E-09
         0.40070E-09
         0.61636E-09
         0.70023E-09
         0.74067E-09
         0.71637E-09
         0.56282E-09
         0.35353E-09
         0.58293E-09
         0.77279E-09
         0.62291E-09
         0.54698E-09
         0.35825E-09
         0.61261E-09
         0.83289E-09
         0.87557E-09
         0.70728E-09
         0.43389E-09
         0.75160E-09
         0.27491E-09
         0.35133E-09
         0.32601E-09
         0.38792E-09
         0.37972E-09
         0.36865E-09
         0.39454E-09
         0.41864E-09
         0.39337E-09
         0.30539E-09
         0.24836E-09
         0.32015E-09
         0.42722E-09
         0.47016E-09
         0.45038E-09
         0.40526E-09
         0.36779E-09
         0.29864E-09
         0.25101E-09
         0.32841E-09
         0.43512E-09
         0.44962E-09
         0.36237E-09
         0.29413E-09
         0.36215E-09
         0.42750E-09
         0.91249E-09
         0.72097E-09
         0.77710E-09
         0.13450E-08
         0.71777E-09
         0.91799E-09
         0.50634E-09
         0.60767E-09
         0.10176E-08
         0.73514E-09
         0.29670E-09
         0.56801E-09
         0.62610E-09
         0.49842E-09
         0.64648E-09
         0.12100E-08
         0.94806E-09
         0.12062E-08
         0.70349E-09
         0.80479E-09
         0.75791E-09
         0.84086E-09
         0.64406E-09
         0.39997E-09
         0.75600E-09
         0.63234E-09
         0.64503E-09
         0.66610E-09
         0.58407E-09
         0.71395E-09
         0.91127E-09
         0.64136E-09
         0.10264E-08
         0.89808E-09
         0.40069E-09
         0.61622E-09
         0.70012E-09
         0.74060E-09
         0.71641E-09
         0.56283E-09
         0.35352E-09
         0.58283E-09
         0.77273E-09
         0.62281E-09
         0.54684E-09
         0.35815E-09
         0.61255E-09
         0.83288E-09
         0.87569E-09
         0.70741E-09
         0.43389E-09
         0.75195E-09
         0.27482E-09
         0.35132E-09
         0.32584E-09
         0.38793E-09
         0.37980E-09
         0.36872E-09
         0.39470E-09
         0.41893E-09
         0.39360E-09
         0.30545E-09
         0.24837E-09
         0.32016E-09
         0.42727E-09
         0.47026E-09
         0.45042E-09
         0.40524E-09
         0.36776E-09
         0.29861E-09
         0.25097E-09
         0.32838E-09
         0.43510E-09
         0.44961E-09
         0.36229E-09
         0.29406E-09
         0.36218E-09
         0.42748E-09
         0.91256E-09
         0.72083E-09
         0.77718E-09
         0.13457E-08
         0.71789E-09
         0.91829E-09
         0.50608E-09
         0.60732E-09
         0.10180E-08
         0.73467E-09
         0.29642E-09
         0.56792E-09
         0.62607E-09
         0.49772E-09
         0.64636E-09
         0.12103E-08
         0.94850E-09
         0.12068E-08
         0.70352E-09
         0.80490E-09
         0.75789E-09
         0.84091E-09
         0.64401E-09
         0.39993E-09
         0.75569E-09
         0.63230E-09
         0.64405E-09
         0.66544E-09
         0.58382E-09
         0.71379E-09
         0.91137E-09
         0.64129E-09
         0.10270E-08
         0.89890E-09
         0.40069E-09
         0.61611E-09
         0.70004E-09
         0.74056E-09
         0.71646E-09
         0.56287E-09
         0.35353E-09
         0.58276E-09
         0.77271E-09
         0.62273E-09
         0.54672E-09
         0.35806E-09
         0.61251E-09
         0.83291E-09
         0.87583E-09
         0.70756E-09
         0.43391E-09
         0.75234E-09
         0.27474E-09
         0.35132E-09
         0.32569E-09
         0.38794E-09
         0.37990E-09
         0.36881E-09
         0.39488E-09
         0.41923E-09
         0.39383E-09
         0.30553E-09
         0.24840E-09
         0.32017E-09
         0.42734E-09
         0.47037E-09
         0.45048E-09
         0.40524E-09
         0.36774E-09
         0.29859E-09
         0.25093E-09
         0.32836E-09
         0.43510E-09
         0.44962E-09
         0.36222E-09
         0.29400E-09
         0.36223E-09
         0.42747E-09
         0.45631E-09
         0.36039E-09
         0.38862E-09
         0.67302E-09
         0.35899E-09
         0.45923E-09
         0.25298E-09
         0.30358E-09
         0.50909E-09
         0.36723E-09
         0.14815E-09
         0.28394E-09
         0.31303E-09
         0.24869E-09
         0.32316E-09
         0.60528E-09
         0.47437E-09
         0.60357E-09
         0.35178E-09
         0.40249E-09
         0.37895E-09
         0.42048E-09
         0.32200E-09
         0.19996E-09
         0.37777E-09
         0.31615E-09
         0.32179E-09
         0.33257E-09
         0.29186E-09
         0.35687E-09
         0.45572E-09
         0.32064E-09
         0.51365E-09
         0.44967E-09
         0.20035E-09
         0.30804E-09
         0.35001E-09
         0.37028E-09
         0.35826E-09
         0.28145E-09
         0.17677E-09
         0.29137E-09
         0.38636E-09
         0.31135E-09
         0.27333E-09
         0.17901E-09
         0.30625E-09
         0.41647E-09
         0.43797E-09
         0.35383E-09
         0.21697E-09
         0.37628E-09
         0.13735E-09
         0.17566E-09
         0.16281E-09
         0.19398E-09
         0.18998E-09
         0.18443E-09
         0.19749E-09
         0.20970E-09
         0.19698E-09
         0.15279E-09
         0.12421E-09
         0.16009E-09
         0.21369E-09
         0.23522E-09
         0.22526E-09
         0.20262E-09
         0.18387E-09
         0.14930E-09
         0.12546E-09
         0.16418E-09
         0.21756E-09
         0.22482E-09
         0.18110E-09
         0.14699E-09
         0.18113E-09
         0.21374E-09
  
SCALARS               pre_disp_force_x  double 1
LOOKUP_TABLE default
         0.00000E+00
         0.00000E+00
         0.00000E+00
         0.00000E+00
         0.00000E+00
         0.00000E+00
         0.00000E+00
         0.00000E+00
         0.00000E+00
         0.00000E+00
         0.00000E+00
         0.00000E+00
         0.00000E+00
         0.00000E+00
         0.00000E+00
         0.00000E+00
         0.00000E+00
         0.00000E+00
         0.00000E+00
         0.00000E+00
         0.00000E+00
         0.00000E+00
         0.00000E+00
         0.00000E+00
         0.00000E+00
         0.00000E+00
         0.00000E+00
         0.00000E+00
         0.00000E+00
         0.00000E+00
         0.00000E+00
         0.00000E+00
         0.00000E+00
         0.00000E+00
         0.00000E+00
         0.00000E+00
         0.00000E+00
         0.00000E+00
         0.00000E+00
         0.00000E+00
         0.00000E+00
         0.00000E+00
         0.00000E+00
         0.00000E+00
         0.00000E+00
         0.00000E+00
         0.00000E+00
         0.00000E+00
         0.00000E+00
         0.00000E+00
         0.00000E+00
         0.00000E+00
         0.00000E+00
         0.00000E+00
         0.00000E+00
         0.00000E+00
         0.00000E+00
         0.00000E+00
         0.00000E+00
         0.00000E+00
         0.00000E+00
         0.00000E+00
         0.00000E+00
         0.00000E+00
         0.00000E+00
         0.00000E+00
         0.00000E+00
         0.00000E+00
         0.00000E+00
         0.00000E+00
         0.00000E+00
         0.00000E+00
         0.00000E+00
         0.00000E+00
         0.00000E+00
         0.00000E+00
         0.00000E+00
         0.00000E+00
         0.00000E+00
         0.00000E+00
         0.00000E+00
         0.00000E+00
         0.00000E+00
         0.00000E+00
         0.00000E+00
         0.00000E+00
         0.00000E+00
         0.00000E+00
         0.00000E+00
         0.00000E+00
         0.00000E+00
         0.00000E+00
         0.00000E+00
         0.00000E+00
         0.00000E+00
         0.00000E+00
         0.00000E+00
         0.00000E+00
         0.00000E+00
         0.00000E+00
         0.00000E+00
         0.00000E+00
         0.00000E+00
         0.00000E+00
         0.00000E+00
         0.00000E+00
         0.00000E+00
         0.00000E+00
         0.00000E+00
         0.00000E+00
         0.00000E+00
         0.00000E+00
         0.00000E+00
         0.00000E+00
         0.00000E+00
         0.00000E+00
         0.00000E+00
         0.00000E+00
         0.00000E+00
         0.00000E+00
         0.00000E+00
         0.00000E+00
         0.00000E+00
         0.00000E+00
         0.00000E+00
         0.00000E+00
         0.00000E+00
         0.00000E+00
         0.00000E+00
         0.00000E+00
         0.00000E+00
         0.00000E+00
         0.00000E+00
         0.00000E+00
         0.00000E+00
         0.00000E+00
         0.00000E+00
         0.00000E+00
         0.00000E+00
         0.00000E+00
         0.00000E+00
         0.00000E+00
         0.00000E+00
         0.00000E+00
         0.00000E+00
         0.00000E+00
         0.00000E+00
         0.00000E+00
         0.00000E+00
         0.00000E+00
         0.00000E+00
         0.00000E+00
         0.00000E+00
         0.00000E+00
         0.00000E+00
         0.00000E+00
         0.00000E+00
         0.00000E+00
         0.00000E+00
         0.00000E+00
         0.00000E+00
         0.00000E+00
         0.00000E+00
         0.00000E+00
         0.00000E+00
         0.00000E+00
         0.00000E+00
         0.00000E+00
         0.00000E+00
         0.00000E+00
         0.00000E+00
         0.00000E+00
         0.00000E+00
         0.00000E+00
         0.00000E+00
         0.00000E+00
         0.00000E+00
         0.00000E+00
         0.00000E+00
         0.00000E+00
         0.00000E+00
         0.00000E+00
         0.00000E+00
         0.00000E+00
         0.00000E+00
         0.00000E+00
         0.00000E+00
         0.00000E+00
         0.00000E+00
         0.00000E+00
         0.00000E+00
         0.00000E+00
         0.00000E+00
         0.00000E+00
         0.00000E+00
         0.00000E+00
         0.00000E+00
         0.00000E+00
         0.00000E+00
         0.00000E+00
         0.00000E+00
         0.00000E+00
         0.00000E+00
         0.00000E+00
         0.00000E+00
         0.00000E+00
         0.00000E+00
         0.00000E+00
         0.00000E+00
         0.00000E+00
         0.00000E+00
         0.00000E+00
         0.00000E+00
         0.00000E+00
         0.00000E+00
         0.00000E+00
         0.00000E+00
         0.00000E+00
         0.00000E+00
         0.00000E+00
         0.00000E+00
         0.00000E+00
         0.00000E+00
         0.00000E+00
         0.00000E+00
         0.00000E+00
         0.00000E+00
         0.00000E+00
         0.00000E+00
         0.00000E+00
         0.00000E+00
         0.00000E+00
         0.00000E+00
         0.00000E+00
         0.00000E+00
         0.00000E+00
         0.00000E+00
         0.00000E+00
         0.00000E+00
         0.00000E+00
         0.00000E+00
         0.00000E+00
         0.00000E+00
         0.00000E+00
         0.00000E+00
         0.00000E+00
         0.00000E+00
         0.00000E+00
         0.00000E+00
         0.00000E+00
         0.00000E+00
         0.00000E+00
         0.00000E+00
         0.00000E+00
         0.00000E+00
         0.00000E+00
         0.00000E+00
         0.00000E+00
         0.00000E+00
         0.00000E+00
         0.00000E+00
         0.00000E+00
         0.00000E+00
         0.00000E+00
         0.00000E+00
         0.00000E+00
         0.00000E+00
         0.00000E+00
         0.00000E+00
         0.00000E+00
         0.00000E+00
         0.00000E+00
         0.00000E+00
         0.00000E+00
         0.00000E+00
         0.00000E+00
         0.00000E+00
         0.00000E+00
         0.00000E+00
         0.00000E+00
         0.00000E+00
         0.00000E+00
         0.00000E+00
         0.00000E+00
         0.00000E+00
         0.00000E+00
         0.00000E+00
         0.00000E+00
         0.00000E+00
         0.00000E+00
         0.00000E+00
         0.00000E+00
         0.00000E+00
         0.00000E+00
         0.00000E+00
         0.00000E+00
         0.00000E+00
         0.00000E+00
         0.00000E+00
         0.00000E+00
         0.00000E+00
         0.00000E+00
         0.00000E+00
         0.00000E+00
         0.00000E+00
         0.00000E+00
         0.00000E+00
         0.00000E+00
         0.00000E+00
         0.00000E+00
         0.00000E+00
         0.00000E+00
         0.00000E+00
         0.00000E+00
         0.00000E+00
         0.00000E+00
         0.00000E+00
         0.00000E+00
         0.00000E+00
         0.00000E+00
         0.00000E+00
         0.00000E+00
         0.00000E+00
         0.00000E+00
         0.00000E+00
         0.00000E+00
         0.00000E+00
         0.00000E+00
         0.00000E+00
         0.00000E+00
         0.00000E+00
         0.00000E+00
         0.00000E+00
         0.00000E+00
         0.00000E+00
         0.00000E+00
         0.00000E+00
         0.00000E+00
         0.00000E+00
         0.00000E+00
         0.00000E+00
         0.00000E+00
         0.00000E+00
         0.00000E+00
         0.00000E+00
         0.00000E+00
         0.00000E+00
         0.00000E+00
         0.00000E+00
         0.00000E+00
         0.00000E+00
         0.00000E+00
         0.00000E+00
         0.00000E+00
         0.00000E+00
         0.00000E+00
         0.00000E+00
         0.00000E+00
         0.00000E+00
         0.00000E+00
         0.00000E+00
         0.00000E+00
         0.00000E+00
         0.00000E+00
         0.00000E+00
         0.00000E+00
         0.00000E+00
         0.00000E+00
         0.00000E+00
         0.00000E+00
         0.00000E+00
         0.00000E+00
         0.00000E+00
         0.00000E+00
         0.00000E+00
         0.00000E+00
         0.00000E+00
         0.00000E+00
         0.00000E+00
         0.00000E+00
         0.00000E+00
         0.00000E+00
         0.00000E+00
         0.00000E+00
         0.00000E+00
         0.00000E+00
         0.00000E+00
         0.00000E+00
         0.00000E+00
         0.00000E+00
         0.00000E+00
         0.00000E+00
         0.00000E+00
         0.00000E+00
         0.00000E+00
         0.00000E+00
         0.00000E+00
         0.00000E+00
         0.00000E+00
         0.00000E+00
         0.00000E+00
         0.00000E+00
         0.00000E+00
         0.00000E+00
         0.00000E+00
         0.00000E+00
         0.00000E+00
         0.00000E+00
         0.00000E+00
         0.00000E+00
         0.00000E+00
         0.00000E+00
         0.00000E+00
         0.00000E+00
         0.00000E+00
         0.00000E+00
         0.00000E+00
         0.00000E+00
         0.00000E+00
         0.00000E+00
         0.00000E+00
         0.00000E+00
         0.00000E+00
         0.00000E+00
         0.00000E+00
         0.00000E+00
         0.00000E+00
         0.00000E+00
         0.00000E+00
         0.00000E+00
         0.00000E+00
         0.00000E+00
         0.00000E+00
         0.00000E+00
         0.00000E+00
         0.00000E+00
         0.00000E+00
         0.00000E+00
         0.00000E+00
         0.00000E+00
         0.00000E+00
         0.00000E+00
         0.00000E+00
         0.00000E+00
         0.00000E+00
         0.00000E+00
         0.00000E+00
         0.00000E+00
         0.00000E+00
         0.00000E+00
         0.00000E+00
         0.00000E+00
         0.00000E+00
         0.00000E+00
         0.00000E+00
         0.00000E+00
         0.00000E+00
         0.00000E+00
         0.00000E+00
         0.00000E+00
         0.00000E+00
         0.00000E+00
         0.00000E+00
         0.00000E+00
         0.00000E+00
         0.00000E+00
         0.00000E+00
         0.00000E+00
         0.00000E+00
         0.00000E+00
         0.00000E+00
         0.00000E+00
         0.00000E+00
         0.00000E+00
         0.00000E+00
         0.00000E+00
         0.00000E+00
         0.00000E+00
         0.00000E+00
         0.00000E+00
         0.00000E+00
         0.00000E+00
         0.00000E+00
         0.00000E+00
         0.00000E+00
         0.00000E+00
         0.00000E+00
         0.00000E+00
         0.00000E+00
         0.00000E+00
         0.00000E+00
         0.00000E+00
         0.00000E+00
         0.00000E+00
         0.00000E+00
         0.00000E+00
         0.00000E+00
         0.00000E+00
         0.00000E+00
         0.00000E+00
         0.00000E+00
         0.00000E+00
         0.00000E+00
         0.00000E+00
         0.00000E+00
         0.00000E+00
         0.00000E+00
         0.00000E+00
         0.00000E+00
         0.00000E+00
         0.00000E+00
         0.00000E+00
         0.00000E+00
         0.00000E+00
         0.00000E+00
         0.00000E+00
         0.00000E+00
         0.00000E+00
         0.00000E+00
         0.00000E+00
         0.00000E+00
         0.00000E+00
         0.00000E+00
         0.00000E+00
         0.00000E+00
         0.00000E+00
         0.00000E+00
         0.00000E+00
         0.00000E+00
         0.00000E+00
         0.00000E+00
         0.00000E+00
         0.00000E+00
         0.00000E+00
         0.00000E+00
         0.00000E+00
         0.00000E+00
         0.00000E+00
         0.00000E+00
         0.00000E+00
         0.00000E+00
         0.00000E+00
         0.00000E+00
         0.00000E+00
         0.00000E+00
         0.00000E+00
         0.00000E+00
         0.00000E+00
         0.00000E+00
         0.00000E+00
         0.00000E+00
         0.00000E+00
         0.00000E+00
         0.00000E+00
         0.00000E+00
         0.00000E+00
         0.00000E+00
         0.00000E+00
         0.00000E+00
         0.00000E+00
         0.00000E+00
         0.00000E+00
         0.00000E+00
         0.00000E+00
         0.00000E+00
         0.00000E+00
         0.00000E+00
         0.00000E+00
         0.00000E+00
         0.00000E+00
         0.00000E+00
         0.00000E+00
         0.00000E+00
         0.00000E+00
         0.00000E+00
         0.00000E+00
         0.00000E+00
         0.00000E+00
         0.00000E+00
         0.00000E+00
         0.00000E+00
         0.00000E+00
         0.00000E+00
         0.00000E+00
         0.00000E+00
         0.00000E+00
         0.00000E+00
         0.00000E+00
         0.00000E+00
         0.00000E+00
         0.00000E+00
         0.00000E+00
         0.00000E+00
         0.00000E+00
         0.00000E+00
         0.00000E+00
         0.00000E+00
         0.00000E+00
         0.00000E+00
         0.00000E+00
         0.00000E+00
         0.00000E+00
         0.00000E+00
         0.00000E+00
         0.00000E+00
         0.00000E+00
         0.00000E+00
         0.00000E+00
         0.00000E+00
         0.00000E+00
         0.00000E+00
         0.00000E+00
         0.00000E+00
         0.00000E+00
         0.00000E+00
         0.00000E+00
         0.00000E+00
         0.00000E+00
         0.00000E+00
         0.00000E+00
         0.00000E+00
         0.00000E+00
         0.00000E+00
         0.00000E+00
         0.00000E+00
         0.00000E+00
         0.00000E+00
         0.00000E+00
         0.00000E+00
         0.00000E+00
         0.00000E+00
         0.00000E+00
         0.00000E+00
         0.00000E+00
         0.00000E+00
         0.00000E+00
         0.00000E+00
         0.00000E+00
         0.00000E+00
         0.00000E+00
         0.00000E+00
         0.00000E+00
         0.00000E+00
         0.00000E+00
         0.00000E+00
         0.00000E+00
         0.00000E+00
         0.00000E+00
         0.00000E+00
         0.00000E+00
         0.00000E+00
         0.00000E+00
         0.00000E+00
         0.00000E+00
         0.00000E+00
         0.00000E+00
         0.00000E+00
         0.00000E+00
         0.00000E+00
         0.00000E+00
         0.00000E+00
         0.00000E+00
         0.00000E+00
         0.00000E+00
         0.00000E+00
         0.00000E+00
         0.00000E+00
         0.00000E+00
         0.00000E+00
         0.00000E+00
         0.00000E+00
         0.00000E+00
         0.00000E+00
         0.00000E+00
         0.00000E+00
         0.00000E+00
         0.00000E+00
         0.00000E+00
         0.00000E+00
         0.00000E+00
         0.00000E+00
         0.00000E+00
         0.00000E+00
         0.00000E+00
         0.00000E+00
         0.00000E+00
         0.00000E+00
         0.00000E+00
         0.00000E+00
         0.00000E+00
         0.00000E+00
         0.00000E+00
         0.00000E+00
         0.00000E+00
         0.00000E+00
         0.00000E+00
         0.00000E+00
         0.00000E+00
         0.00000E+00
         0.00000E+00
         0.00000E+00
         0.00000E+00
         0.00000E+00
         0.00000E+00
         0.00000E+00
         0.00000E+00
         0.00000E+00
         0.00000E+00
         0.00000E+00
         0.00000E+00
         0.00000E+00
         0.00000E+00
         0.00000E+00
         0.00000E+00
         0.00000E+00
         0.00000E+00
         0.00000E+00
         0.00000E+00
         0.00000E+00
         0.00000E+00
         0.00000E+00
         0.00000E+00
         0.00000E+00
         0.00000E+00
         0.00000E+00
         0.00000E+00
         0.00000E+00
         0.00000E+00
         0.00000E+00
         0.00000E+00
         0.00000E+00
         0.00000E+00
         0.00000E+00
         0.00000E+00
         0.00000E+00
         0.00000E+00
         0.00000E+00
         0.00000E+00
         0.00000E+00
         0.00000E+00
         0.00000E+00
         0.00000E+00
         0.00000E+00
         0.00000E+00
         0.00000E+00
         0.00000E+00
         0.00000E+00
         0.00000E+00
         0.00000E+00
         0.00000E+00
         0.00000E+00
         0.00000E+00
         0.00000E+00
         0.00000E+00
         0.00000E+00
         0.00000E+00
         0.00000E+00
         0.00000E+00
         0.00000E+00
         0.00000E+00
         0.00000E+00
         0.00000E+00
         0.00000E+00
         0.00000E+00
         0.00000E+00
         0.00000E+00
         0.00000E+00
         0.00000E+00
         0.00000E+00
         0.00000E+00
         0.00000E+00
         0.00000E+00
         0.00000E+00
         0.00000E+00
         0.00000E+00
         0.00000E+00
         0.00000E+00
         0.00000E+00
         0.00000E+00
         0.00000E+00
         0.00000E+00
         0.00000E+00
         0.00000E+00
         0.00000E+00
         0.00000E+00
         0.00000E+00
         0.00000E+00
         0.00000E+00
         0.00000E+00
         0.00000E+00
         0.00000E+00
         0.00000E+00
         0.00000E+00
         0.00000E+00
         0.00000E+00
         0.00000E+00
         0.00000E+00
         0.00000E+00
         0.00000E+00
         0.00000E+00
         0.00000E+00
         0.00000E+00
         0.00000E+00
         0.00000E+00
         0.00000E+00
         0.00000E+00
         0.00000E+00
         0.00000E+00
         0.00000E+00
         0.00000E+00
         0.00000E+00
         0.00000E+00
         0.00000E+00
         0.00000E+00
         0.00000E+00
         0.00000E+00
         0.00000E+00
         0.00000E+00
         0.00000E+00
         0.00000E+00
         0.00000E+00
         0.00000E+00
         0.00000E+00
         0.00000E+00
         0.00000E+00
         0.00000E+00
         0.00000E+00
         0.00000E+00
         0.00000E+00
         0.00000E+00
         0.00000E+00
         0.00000E+00
         0.00000E+00
         0.00000E+00
         0.00000E+00
         0.00000E+00
         0.00000E+00
         0.00000E+00
         0.00000E+00
         0.00000E+00
         0.00000E+00
         0.00000E+00
         0.00000E+00
         0.00000E+00
         0.00000E+00
         0.00000E+00
         0.00000E+00
         0.00000E+00
         0.00000E+00
         0.00000E+00
         0.00000E+00
         0.00000E+00
         0.00000E+00
         0.00000E+00
         0.00000E+00
         0.00000E+00
         0.00000E+00
         0.00000E+00
         0.00000E+00
         0.00000E+00
         0.00000E+00
         0.00000E+00
         0.00000E+00
         0.00000E+00
         0.00000E+00
         0.00000E+00
         0.00000E+00
         0.00000E+00
         0.00000E+00
         0.00000E+00
         0.00000E+00
         0.00000E+00
         0.00000E+00
         0.00000E+00
         0.00000E+00
         0.00000E+00
         0.00000E+00
         0.00000E+00
         0.00000E+00
         0.00000E+00
         0.00000E+00
         0.00000E+00
         0.00000E+00
         0.00000E+00
         0.00000E+00
         0.00000E+00
         0.00000E+00
         0.00000E+00
         0.00000E+00
         0.00000E+00
         0.00000E+00
         0.00000E+00
         0.00000E+00
         0.00000E+00
         0.00000E+00
         0.00000E+00
         0.00000E+00
         0.00000E+00
         0.00000E+00
         0.00000E+00
         0.00000E+00
         0.00000E+00
         0.00000E+00
         0.00000E+00
         0.00000E+00
         0.00000E+00
         0.00000E+00
         0.00000E+00
         0.00000E+00
         0.00000E+00
         0.00000E+00
         0.00000E+00
         0.00000E+00
         0.00000E+00
         0.00000E+00
         0.00000E+00
         0.00000E+00
         0.00000E+00
         0.00000E+00
         0.00000E+00
         0.00000E+00
         0.00000E+00
         0.00000E+00
         0.00000E+00
         0.00000E+00
         0.00000E+00
         0.00000E+00
         0.00000E+00
         0.00000E+00
         0.00000E+00
         0.00000E+00
         0.00000E+00
         0.00000E+00
         0.00000E+00
         0.00000E+00
         0.00000E+00
         0.00000E+00
         0.00000E+00
         0.00000E+00
         0.00000E+00
         0.00000E+00
         0.00000E+00
         0.00000E+00
         0.00000E+00
         0.00000E+00
         0.00000E+00
         0.00000E+00
         0.00000E+00
         0.00000E+00
         0.00000E+00
         0.00000E+00
         0.00000E+00
         0.00000E+00
         0.00000E+00
         0.00000E+00
         0.00000E+00
         0.00000E+00
         0.00000E+00
         0.00000E+00
         0.00000E+00
         0.00000E+00
         0.00000E+00
         0.00000E+00
         0.00000E+00
         0.00000E+00
         0.00000E+00
         0.00000E+00
         0.00000E+00
         0.00000E+00
         0.00000E+00
         0.00000E+00
         0.00000E+00
         0.00000E+00
         0.00000E+00
         0.00000E+00
         0.00000E+00
         0.00000E+00
         0.00000E+00
         0.00000E+00
         0.00000E+00
         0.00000E+00
         0.00000E+00
         0.00000E+00
         0.00000E+00
         0.00000E+00
         0.00000E+00
         0.00000E+00
         0.00000E+00
         0.00000E+00
         0.00000E+00
         0.00000E+00
         0.00000E+00
         0.00000E+00
         0.00000E+00
         0.00000E+00
         0.00000E+00
         0.00000E+00
         0.00000E+00
         0.00000E+00
         0.00000E+00
         0.00000E+00
         0.00000E+00
         0.00000E+00
         0.00000E+00
         0.00000E+00
         0.00000E+00
         0.00000E+00
         0.00000E+00
         0.00000E+00
         0.00000E+00
         0.00000E+00
         0.00000E+00
         0.00000E+00
         0.00000E+00
         0.00000E+00
         0.00000E+00
         0.00000E+00
         0.00000E+00
         0.00000E+00
         0.00000E+00
         0.00000E+00
         0.00000E+00
         0.00000E+00
         0.00000E+00
         0.00000E+00
         0.00000E+00
         0.00000E+00
         0.00000E+00
         0.00000E+00
         0.00000E+00
         0.00000E+00
         0.00000E+00
         0.00000E+00
         0.00000E+00
         0.00000E+00
         0.00000E+00
         0.00000E+00
         0.00000E+00
         0.00000E+00
         0.00000E+00
         0.00000E+00
         0.00000E+00
         0.00000E+00
         0.00000E+00
         0.00000E+00
         0.00000E+00
         0.00000E+00
         0.00000E+00
         0.00000E+00
         0.00000E+00
         0.00000E+00
         0.00000E+00
         0.00000E+00
         0.00000E+00
         0.00000E+00
         0.00000E+00
         0.00000E+00
         0.00000E+00
         0.00000E+00
         0.00000E+00
         0.00000E+00
         0.00000E+00
         0.00000E+00
         0.00000E+00
         0.00000E+00
         0.00000E+00
         0.00000E+00
         0.00000E+00
         0.00000E+00
         0.00000E+00
         0.00000E+00
         0.00000E+00
         0.00000E+00
         0.00000E+00
         0.00000E+00
         0.00000E+00
         0.00000E+00
         0.00000E+00
         0.00000E+00
         0.00000E+00
         0.00000E+00
         0.00000E+00
         0.00000E+00
         0.00000E+00
         0.00000E+00
         0.00000E+00
         0.00000E+00
         0.00000E+00
         0.00000E+00
         0.00000E+00
         0.00000E+00
         0.00000E+00
         0.00000E+00
         0.00000E+00
         0.00000E+00
         0.00000E+00
         0.00000E+00
         0.00000E+00
         0.00000E+00
         0.00000E+00
         0.00000E+00
         0.00000E+00
         0.00000E+00
         0.00000E+00
         0.00000E+00
         0.00000E+00
         0.00000E+00
         0.00000E+00
         0.00000E+00
         0.00000E+00
         0.00000E+00
         0.00000E+00
         0.00000E+00
         0.00000E+00
         0.00000E+00
         0.00000E+00
         0.00000E+00
         0.00000E+00
         0.00000E+00
         0.00000E+00
         0.00000E+00
         0.00000E+00
         0.00000E+00
         0.00000E+00
         0.00000E+00
         0.00000E+00
         0.00000E+00
         0.00000E+00
         0.00000E+00
         0.00000E+00
         0.00000E+00
         0.00000E+00
         0.00000E+00
         0.00000E+00
         0.00000E+00
         0.00000E+00
         0.00000E+00
         0.00000E+00
         0.00000E+00
         0.00000E+00
         0.00000E+00
         0.00000E+00
         0.00000E+00
         0.00000E+00
         0.00000E+00
         0.00000E+00
         0.00000E+00
         0.00000E+00
         0.00000E+00
         0.00000E+00
         0.00000E+00
         0.00000E+00
         0.00000E+00
         0.00000E+00
         0.00000E+00
         0.00000E+00
         0.00000E+00
         0.00000E+00
         0.00000E+00
         0.00000E+00
         0.00000E+00
         0.00000E+00
         0.00000E+00
         0.00000E+00
         0.00000E+00
         0.00000E+00
         0.00000E+00
         0.00000E+00
         0.00000E+00
         0.00000E+00
         0.00000E+00
         0.00000E+00
         0.00000E+00
         0.00000E+00
         0.00000E+00
         0.00000E+00
         0.00000E+00
         0.00000E+00
         0.00000E+00
         0.00000E+00
         0.00000E+00
         0.00000E+00
         0.00000E+00
         0.00000E+00
         0.00000E+00
         0.00000E+00
         0.00000E+00
         0.00000E+00
         0.00000E+00
         0.00000E+00
         0.00000E+00
         0.00000E+00
         0.00000E+00
         0.00000E+00
         0.00000E+00
         0.00000E+00
         0.00000E+00
         0.00000E+00
         0.00000E+00
         0.00000E+00
         0.00000E+00
         0.00000E+00
         0.00000E+00
         0.00000E+00
         0.00000E+00
         0.00000E+00
         0.00000E+00
         0.00000E+00
         0.00000E+00
         0.00000E+00
         0.00000E+00
         0.00000E+00
         0.00000E+00
         0.00000E+00
         0.00000E+00
         0.00000E+00
         0.00000E+00
         0.00000E+00
         0.00000E+00
         0.00000E+00
         0.00000E+00
         0.00000E+00
         0.00000E+00
         0.00000E+00
         0.00000E+00
         0.00000E+00
         0.00000E+00
         0.00000E+00
         0.00000E+00
         0.00000E+00
         0.00000E+00
         0.00000E+00
         0.00000E+00
         0.00000E+00
         0.00000E+00
         0.00000E+00
         0.00000E+00
         0.00000E+00
         0.00000E+00
         0.00000E+00
         0.00000E+00
         0.00000E+00
         0.00000E+00
         0.00000E+00
         0.00000E+00
         0.00000E+00
         0.00000E+00
         0.00000E+00
         0.00000E+00
         0.00000E+00
         0.00000E+00
         0.00000E+00
         0.00000E+00
         0.00000E+00
         0.00000E+00
         0.00000E+00
         0.00000E+00
         0.00000E+00
         0.00000E+00
         0.00000E+00
         0.00000E+00
         0.00000E+00
         0.00000E+00
         0.00000E+00
         0.00000E+00
         0.00000E+00
         0.00000E+00
         0.00000E+00
         0.00000E+00
         0.00000E+00
         0.00000E+00
         0.00000E+00
         0.00000E+00
         0.00000E+00
         0.00000E+00
         0.00000E+00
         0.00000E+00
         0.00000E+00
         0.00000E+00
         0.00000E+00
         0.00000E+00
         0.00000E+00
         0.00000E+00
         0.00000E+00
         0.00000E+00
         0.00000E+00
         0.00000E+00
         0.00000E+00
         0.00000E+00
         0.00000E+00
         0.00000E+00
         0.00000E+00
         0.00000E+00
         0.00000E+00
         0.00000E+00
         0.00000E+00
         0.00000E+00
         0.00000E+00
         0.00000E+00
         0.00000E+00
         0.00000E+00
         0.00000E+00
         0.00000E+00
         0.00000E+00
         0.00000E+00
         0.00000E+00
         0.00000E+00
         0.00000E+00
         0.00000E+00
         0.00000E+00
         0.00000E+00
         0.00000E+00
         0.00000E+00
         0.00000E+00
         0.00000E+00
         0.00000E+00
         0.00000E+00
         0.00000E+00
         0.00000E+00
         0.00000E+00
         0.00000E+00
         0.00000E+00
         0.00000E+00
         0.00000E+00
         0.00000E+00
         0.00000E+00
         0.00000E+00
         0.00000E+00
         0.00000E+00
         0.00000E+00
         0.00000E+00
         0.00000E+00
         0.00000E+00
         0.00000E+00
         0.00000E+00
         0.00000E+00
         0.00000E+00
         0.00000E+00
         0.00000E+00
         0.00000E+00
         0.00000E+00
         0.00000E+00
         0.00000E+00
         0.00000E+00
         0.00000E+00
         0.00000E+00
         0.00000E+00
         0.00000E+00
         0.00000E+00
         0.00000E+00
         0.00000E+00
         0.00000E+00
         0.00000E+00
         0.00000E+00
         0.00000E+00
         0.00000E+00
         0.00000E+00
         0.00000E+00
         0.00000E+00
         0.00000E+00
         0.00000E+00
         0.00000E+00
         0.00000E+00
         0.00000E+00
         0.00000E+00
         0.00000E+00
         0.00000E+00
         0.00000E+00
         0.00000E+00
         0.00000E+00
         0.00000E+00
         0.00000E+00
         0.00000E+00
         0.00000E+00
         0.00000E+00
         0.00000E+00
         0.00000E+00
         0.00000E+00
         0.00000E+00
         0.00000E+00
         0.00000E+00
         0.00000E+00
         0.00000E+00
         0.00000E+00
         0.00000E+00
         0.00000E+00
         0.00000E+00
         0.00000E+00
         0.00000E+00
         0.00000E+00
         0.00000E+00
         0.00000E+00
         0.00000E+00
         0.00000E+00
         0.00000E+00
         0.00000E+00
         0.00000E+00
         0.00000E+00
         0.00000E+00
         0.00000E+00
         0.00000E+00
         0.00000E+00
         0.00000E+00
         0.00000E+00
         0.00000E+00
         0.00000E+00
         0.00000E+00
         0.00000E+00
         0.00000E+00
         0.00000E+00
         0.00000E+00
         0.00000E+00
         0.00000E+00
         0.00000E+00
         0.00000E+00
         0.00000E+00
         0.00000E+00
         0.00000E+00
         0.00000E+00
         0.00000E+00
         0.00000E+00
         0.00000E+00
         0.00000E+00
         0.00000E+00
         0.00000E+00
         0.00000E+00
         0.00000E+00
         0.00000E+00
         0.00000E+00
         0.00000E+00
         0.00000E+00
         0.00000E+00
         0.00000E+00
         0.00000E+00
         0.00000E+00
         0.00000E+00
         0.00000E+00
         0.00000E+00
         0.00000E+00
         0.00000E+00
         0.00000E+00
         0.00000E+00
         0.00000E+00
         0.00000E+00
         0.00000E+00
         0.00000E+00
         0.00000E+00
         0.00000E+00
         0.00000E+00
         0.00000E+00
         0.00000E+00
         0.00000E+00
         0.00000E+00
         0.00000E+00
         0.00000E+00
         0.00000E+00
         0.00000E+00
         0.00000E+00
         0.00000E+00
         0.00000E+00
         0.00000E+00
         0.00000E+00
         0.00000E+00
         0.00000E+00
         0.00000E+00
         0.00000E+00
         0.00000E+00
         0.00000E+00
         0.00000E+00
         0.00000E+00
         0.00000E+00
         0.00000E+00
         0.00000E+00
         0.00000E+00
         0.00000E+00
         0.00000E+00
         0.00000E+00
         0.00000E+00
         0.00000E+00
         0.00000E+00
         0.00000E+00
         0.00000E+00
         0.00000E+00
         0.00000E+00
         0.00000E+00
         0.00000E+00
         0.00000E+00
         0.00000E+00
         0.00000E+00
         0.00000E+00
         0.00000E+00
         0.00000E+00
         0.00000E+00
         0.00000E+00
         0.00000E+00
         0.00000E+00
         0.00000E+00
         0.00000E+00
         0.00000E+00
         0.00000E+00
         0.00000E+00
         0.00000E+00
         0.00000E+00
         0.00000E+00
         0.00000E+00
         0.00000E+00
         0.00000E+00
         0.00000E+00
         0.00000E+00
         0.00000E+00
         0.00000E+00
         0.00000E+00
         0.00000E+00
         0.00000E+00
         0.00000E+00
         0.00000E+00
         0.00000E+00
         0.00000E+00
         0.00000E+00
         0.00000E+00
         0.00000E+00
         0.00000E+00
         0.00000E+00
         0.00000E+00
         0.00000E+00
         0.00000E+00
         0.00000E+00
         0.00000E+00
         0.00000E+00
         0.00000E+00
         0.00000E+00
         0.00000E+00
         0.00000E+00
         0.00000E+00
         0.00000E+00
         0.00000E+00
         0.00000E+00
         0.00000E+00
         0.00000E+00
         0.00000E+00
         0.00000E+00
         0.00000E+00
         0.00000E+00
         0.00000E+00
         0.00000E+00
         0.00000E+00
         0.00000E+00
         0.00000E+00
         0.00000E+00
         0.00000E+00
         0.00000E+00
         0.00000E+00
         0.00000E+00
         0.00000E+00
         0.00000E+00
         0.00000E+00
         0.00000E+00
         0.00000E+00
         0.00000E+00
         0.00000E+00
         0.00000E+00
         0.00000E+00
         0.00000E+00
         0.00000E+00
         0.00000E+00
         0.00000E+00
         0.00000E+00
         0.00000E+00
         0.00000E+00
         0.00000E+00
         0.00000E+00
         0.00000E+00
         0.00000E+00
         0.00000E+00
         0.00000E+00
         0.00000E+00
         0.00000E+00
         0.00000E+00
         0.00000E+00
         0.00000E+00
         0.00000E+00
         0.00000E+00
         0.00000E+00
         0.00000E+00
         0.00000E+00
         0.00000E+00
         0.00000E+00
         0.00000E+00
         0.00000E+00
         0.00000E+00
         0.00000E+00
         0.00000E+00
         0.00000E+00
         0.00000E+00
         0.00000E+00
         0.00000E+00
         0.00000E+00
         0.00000E+00
         0.00000E+00
         0.00000E+00
         0.00000E+00
         0.00000E+00
         0.00000E+00
         0.00000E+00
         0.00000E+00
         0.00000E+00
         0.00000E+00
         0.00000E+00
         0.00000E+00
         0.00000E+00
         0.00000E+00
         0.00000E+00
         0.00000E+00
         0.00000E+00
         0.00000E+00
         0.00000E+00
         0.00000E+00
         0.00000E+00
         0.00000E+00
         0.00000E+00
         0.00000E+00
         0.00000E+00
         0.00000E+00
         0.00000E+00
         0.00000E+00
         0.00000E+00
         0.00000E+00
         0.00000E+00
         0.00000E+00
         0.00000E+00
         0.00000E+00
         0.00000E+00
         0.00000E+00
         0.00000E+00
         0.00000E+00
         0.00000E+00
         0.00000E+00
         0.00000E+00
         0.00000E+00
         0.00000E+00
         0.00000E+00
         0.00000E+00
         0.00000E+00
         0.00000E+00
         0.00000E+00
         0.00000E+00
         0.00000E+00
         0.00000E+00
         0.00000E+00
         0.00000E+00
         0.00000E+00
         0.00000E+00
         0.00000E+00
         0.00000E+00
         0.00000E+00
         0.00000E+00
         0.00000E+00
         0.00000E+00
         0.00000E+00
         0.00000E+00
         0.00000E+00
         0.00000E+00
         0.00000E+00
         0.00000E+00
         0.00000E+00
         0.00000E+00
         0.00000E+00
         0.00000E+00
         0.00000E+00
         0.00000E+00
         0.00000E+00
         0.00000E+00
         0.00000E+00
         0.00000E+00
         0.00000E+00
         0.00000E+00
         0.00000E+00
         0.00000E+00
         0.00000E+00
         0.00000E+00
         0.00000E+00
         0.00000E+00
         0.00000E+00
         0.00000E+00
         0.00000E+00
         0.00000E+00
         0.00000E+00
         0.00000E+00
         0.00000E+00
         0.00000E+00
         0.00000E+00
         0.00000E+00
         0.00000E+00
         0.00000E+00
         0.00000E+00
         0.00000E+00
         0.00000E+00
         0.00000E+00
         0.00000E+00
         0.00000E+00
         0.00000E+00
         0.00000E+00
         0.00000E+00
         0.00000E+00
         0.00000E+00
         0.00000E+00
         0.00000E+00
         0.00000E+00
         0.00000E+00
         0.00000E+00
         0.00000E+00
         0.00000E+00
         0.00000E+00
         0.00000E+00
         0.00000E+00
         0.00000E+00
         0.00000E+00
         0.00000E+00
         0.00000E+00
         0.00000E+00
         0.00000E+00
         0.00000E+00
         0.00000E+00
         0.00000E+00
         0.00000E+00
         0.00000E+00
         0.00000E+00
         0.00000E+00
         0.00000E+00
         0.00000E+00
         0.00000E+00
         0.00000E+00
         0.00000E+00
         0.00000E+00
         0.00000E+00
         0.00000E+00
         0.00000E+00
         0.00000E+00
         0.00000E+00
         0.00000E+00
         0.00000E+00
         0.00000E+00
         0.00000E+00
         0.00000E+00
         0.00000E+00
         0.00000E+00
         0.00000E+00
         0.00000E+00
         0.00000E+00
         0.00000E+00
         0.00000E+00
         0.00000E+00
         0.00000E+00
         0.00000E+00
         0.00000E+00
         0.00000E+00
         0.00000E+00
         0.00000E+00
         0.00000E+00
         0.00000E+00
         0.00000E+00
         0.00000E+00
         0.00000E+00
         0.00000E+00
         0.00000E+00
         0.00000E+00
         0.00000E+00
         0.00000E+00
         0.00000E+00
         0.00000E+00
         0.00000E+00
         0.00000E+00
         0.00000E+00
         0.00000E+00
         0.00000E+00
         0.00000E+00
         0.00000E+00
         0.00000E+00
         0.00000E+00
         0.00000E+00
         0.00000E+00
         0.00000E+00
         0.00000E+00
         0.00000E+00
         0.00000E+00
         0.00000E+00
         0.00000E+00
         0.00000E+00
         0.00000E+00
         0.00000E+00
         0.00000E+00
         0.00000E+00
         0.00000E+00
         0.00000E+00
         0.00000E+00
         0.00000E+00
         0.00000E+00
         0.00000E+00
         0.00000E+00
         0.00000E+00
         0.00000E+00
         0.00000E+00
         0.00000E+00
         0.00000E+00
         0.00000E+00
         0.00000E+00
         0.00000E+00
         0.00000E+00
         0.00000E+00
         0.00000E+00
         0.00000E+00
         0.00000E+00
         0.00000E+00
         0.00000E+00
         0.00000E+00
         0.00000E+00
         0.00000E+00
         0.00000E+00
         0.00000E+00
         0.00000E+00
         0.00000E+00
         0.00000E+00
         0.00000E+00
         0.00000E+00
         0.00000E+00
         0.00000E+00
         0.00000E+00
         0.00000E+00
         0.00000E+00
         0.00000E+00
         0.00000E+00
         0.00000E+00
         0.00000E+00
         0.00000E+00
         0.00000E+00
         0.00000E+00
         0.00000E+00
         0.00000E+00
         0.00000E+00
         0.00000E+00
         0.00000E+00
         0.00000E+00
         0.00000E+00
         0.00000E+00
         0.00000E+00
         0.00000E+00
         0.00000E+00
         0.00000E+00
         0.00000E+00
         0.00000E+00
         0.00000E+00
         0.00000E+00
         0.00000E+00
         0.00000E+00
         0.00000E+00
         0.00000E+00
         0.00000E+00
         0.00000E+00
         0.00000E+00
         0.00000E+00
         0.00000E+00
         0.00000E+00
         0.00000E+00
         0.00000E+00
         0.00000E+00
         0.00000E+00
         0.00000E+00
         0.00000E+00
         0.00000E+00
         0.00000E+00
         0.00000E+00
         0.00000E+00
         0.00000E+00
         0.00000E+00
         0.00000E+00
         0.00000E+00
         0.00000E+00
         0.00000E+00
         0.00000E+00
         0.00000E+00
         0.00000E+00
         0.00000E+00
         0.00000E+00
         0.00000E+00
         0.00000E+00
         0.00000E+00
         0.00000E+00
         0.00000E+00
         0.00000E+00
         0.00000E+00
         0.00000E+00
         0.00000E+00
         0.00000E+00
         0.00000E+00
         0.00000E+00
         0.00000E+00
         0.00000E+00
         0.00000E+00
         0.00000E+00
         0.00000E+00
         0.00000E+00
         0.00000E+00
         0.00000E+00
         0.00000E+00
         0.00000E+00
         0.00000E+00
         0.00000E+00
         0.00000E+00
         0.00000E+00
         0.00000E+00
         0.00000E+00
         0.00000E+00
         0.00000E+00
         0.00000E+00
         0.00000E+00
         0.00000E+00
         0.00000E+00
         0.00000E+00
         0.00000E+00
         0.00000E+00
         0.00000E+00
         0.00000E+00
         0.00000E+00
         0.00000E+00
         0.00000E+00
         0.00000E+00
         0.00000E+00
         0.00000E+00
         0.00000E+00
         0.00000E+00
         0.00000E+00
         0.00000E+00
         0.00000E+00
         0.00000E+00
         0.00000E+00
         0.00000E+00
         0.00000E+00
         0.00000E+00
         0.00000E+00
         0.00000E+00
         0.00000E+00
         0.00000E+00
         0.00000E+00
         0.00000E+00
         0.00000E+00
         0.00000E+00
         0.00000E+00
         0.00000E+00
         0.00000E+00
         0.00000E+00
  
SCALARS               pre_disp_force_y  double 1
LOOKUP_TABLE default
         0.00000E+00
         0.00000E+00
         0.00000E+00
         0.00000E+00
         0.00000E+00
         0.00000E+00
         0.00000E+00
         0.00000E+00
         0.00000E+00
         0.00000E+00
         0.00000E+00
         0.00000E+00
         0.00000E+00
         0.00000E+00
         0.00000E+00
         0.00000E+00
         0.00000E+00
         0.00000E+00
         0.00000E+00
         0.00000E+00
         0.00000E+00
         0.00000E+00
         0.00000E+00
         0.00000E+00
         0.00000E+00
         0.00000E+00
         0.00000E+00
         0.00000E+00
         0.00000E+00
         0.00000E+00
         0.00000E+00
         0.00000E+00
         0.00000E+00
         0.00000E+00
         0.00000E+00
         0.00000E+00
         0.00000E+00
         0.00000E+00
         0.00000E+00
         0.00000E+00
         0.00000E+00
         0.00000E+00
         0.00000E+00
         0.00000E+00
         0.00000E+00
         0.00000E+00
         0.00000E+00
         0.00000E+00
         0.00000E+00
         0.00000E+00
         0.00000E+00
         0.00000E+00
         0.00000E+00
         0.00000E+00
         0.00000E+00
         0.00000E+00
         0.00000E+00
         0.00000E+00
         0.00000E+00
         0.00000E+00
         0.00000E+00
         0.00000E+00
         0.00000E+00
         0.00000E+00
         0.00000E+00
         0.00000E+00
         0.00000E+00
         0.00000E+00
         0.00000E+00
         0.00000E+00
         0.00000E+00
         0.00000E+00
         0.00000E+00
         0.00000E+00
         0.00000E+00
         0.00000E+00
         0.00000E+00
         0.00000E+00
         0.00000E+00
         0.00000E+00
         0.00000E+00
         0.00000E+00
         0.00000E+00
         0.00000E+00
         0.00000E+00
         0.00000E+00
         0.00000E+00
         0.00000E+00
         0.00000E+00
         0.00000E+00
         0.00000E+00
         0.00000E+00
         0.00000E+00
         0.00000E+00
         0.00000E+00
         0.00000E+00
         0.00000E+00
         0.00000E+00
         0.00000E+00
         0.00000E+00
         0.00000E+00
         0.00000E+00
         0.00000E+00
         0.00000E+00
         0.00000E+00
         0.00000E+00
         0.00000E+00
         0.00000E+00
         0.00000E+00
         0.00000E+00
         0.00000E+00
         0.00000E+00
         0.00000E+00
         0.00000E+00
         0.00000E+00
         0.00000E+00
         0.00000E+00
         0.00000E+00
         0.00000E+00
         0.00000E+00
         0.00000E+00
         0.00000E+00
         0.00000E+00
         0.00000E+00
         0.00000E+00
         0.00000E+00
         0.00000E+00
         0.00000E+00
         0.00000E+00
         0.00000E+00
         0.00000E+00
         0.00000E+00
         0.00000E+00
         0.00000E+00
         0.00000E+00
         0.00000E+00
         0.00000E+00
         0.00000E+00
         0.00000E+00
         0.00000E+00
         0.00000E+00
         0.00000E+00
         0.00000E+00
         0.00000E+00
         0.00000E+00
         0.00000E+00
         0.00000E+00
         0.00000E+00
         0.00000E+00
         0.00000E+00
         0.00000E+00
         0.00000E+00
         0.00000E+00
         0.00000E+00
         0.00000E+00
         0.00000E+00
         0.00000E+00
         0.00000E+00
         0.00000E+00
         0.00000E+00
         0.00000E+00
         0.00000E+00
         0.00000E+00
         0.00000E+00
         0.00000E+00
         0.00000E+00
         0.00000E+00
         0.00000E+00
         0.00000E+00
         0.00000E+00
         0.00000E+00
         0.00000E+00
         0.00000E+00
         0.00000E+00
         0.00000E+00
         0.00000E+00
         0.00000E+00
         0.00000E+00
         0.00000E+00
         0.00000E+00
         0.00000E+00
         0.00000E+00
         0.00000E+00
         0.00000E+00
         0.00000E+00
         0.00000E+00
         0.00000E+00
         0.00000E+00
         0.00000E+00
         0.00000E+00
         0.00000E+00
         0.00000E+00
         0.00000E+00
         0.00000E+00
         0.00000E+00
         0.00000E+00
         0.00000E+00
         0.00000E+00
         0.00000E+00
         0.00000E+00
         0.00000E+00
         0.00000E+00
         0.00000E+00
         0.00000E+00
         0.00000E+00
         0.00000E+00
         0.00000E+00
         0.00000E+00
         0.00000E+00
         0.00000E+00
         0.00000E+00
         0.00000E+00
         0.00000E+00
         0.00000E+00
         0.00000E+00
         0.00000E+00
         0.00000E+00
         0.00000E+00
         0.00000E+00
         0.00000E+00
         0.00000E+00
         0.00000E+00
         0.00000E+00
         0.00000E+00
         0.00000E+00
         0.00000E+00
         0.00000E+00
         0.00000E+00
         0.00000E+00
         0.00000E+00
         0.00000E+00
         0.00000E+00
         0.00000E+00
         0.00000E+00
         0.00000E+00
         0.00000E+00
         0.00000E+00
         0.00000E+00
         0.00000E+00
         0.00000E+00
         0.00000E+00
         0.00000E+00
         0.00000E+00
         0.00000E+00
         0.00000E+00
         0.00000E+00
         0.00000E+00
         0.00000E+00
         0.00000E+00
         0.00000E+00
         0.00000E+00
         0.00000E+00
         0.00000E+00
         0.00000E+00
         0.00000E+00
         0.00000E+00
         0.00000E+00
         0.00000E+00
         0.00000E+00
         0.00000E+00
         0.00000E+00
         0.00000E+00
         0.00000E+00
         0.00000E+00
         0.00000E+00
         0.00000E+00
         0.00000E+00
         0.00000E+00
         0.00000E+00
         0.00000E+00
         0.00000E+00
         0.00000E+00
         0.00000E+00
         0.00000E+00
         0.00000E+00
         0.00000E+00
         0.00000E+00
         0.00000E+00
         0.00000E+00
         0.00000E+00
         0.00000E+00
         0.00000E+00
         0.00000E+00
         0.00000E+00
         0.00000E+00
         0.00000E+00
         0.00000E+00
         0.00000E+00
         0.00000E+00
         0.00000E+00
         0.00000E+00
         0.00000E+00
         0.00000E+00
         0.00000E+00
         0.00000E+00
         0.00000E+00
         0.00000E+00
         0.00000E+00
         0.00000E+00
         0.00000E+00
         0.00000E+00
         0.00000E+00
         0.00000E+00
         0.00000E+00
         0.00000E+00
         0.00000E+00
         0.00000E+00
         0.00000E+00
         0.00000E+00
         0.00000E+00
         0.00000E+00
         0.00000E+00
         0.00000E+00
         0.00000E+00
         0.00000E+00
         0.00000E+00
         0.00000E+00
         0.00000E+00
         0.00000E+00
         0.00000E+00
         0.00000E+00
         0.00000E+00
         0.00000E+00
         0.00000E+00
         0.00000E+00
         0.00000E+00
         0.00000E+00
         0.00000E+00
         0.00000E+00
         0.00000E+00
         0.00000E+00
         0.00000E+00
         0.00000E+00
         0.00000E+00
         0.00000E+00
         0.00000E+00
         0.00000E+00
         0.00000E+00
         0.00000E+00
         0.00000E+00
         0.00000E+00
         0.00000E+00
         0.00000E+00
         0.00000E+00
         0.00000E+00
         0.00000E+00
         0.00000E+00
         0.00000E+00
         0.00000E+00
         0.00000E+00
         0.00000E+00
         0.00000E+00
         0.00000E+00
         0.00000E+00
         0.00000E+00
         0.00000E+00
         0.00000E+00
         0.00000E+00
         0.00000E+00
         0.00000E+00
         0.00000E+00
         0.00000E+00
         0.00000E+00
         0.00000E+00
         0.00000E+00
         0.00000E+00
         0.00000E+00
         0.00000E+00
         0.00000E+00
         0.00000E+00
         0.00000E+00
         0.00000E+00
         0.00000E+00
         0.00000E+00
         0.00000E+00
         0.00000E+00
         0.00000E+00
         0.00000E+00
         0.00000E+00
         0.00000E+00
         0.00000E+00
         0.00000E+00
         0.00000E+00
         0.00000E+00
         0.00000E+00
         0.00000E+00
         0.00000E+00
         0.00000E+00
         0.00000E+00
         0.00000E+00
         0.00000E+00
         0.00000E+00
         0.00000E+00
         0.00000E+00
         0.00000E+00
         0.00000E+00
         0.00000E+00
         0.00000E+00
         0.00000E+00
         0.00000E+00
         0.00000E+00
         0.00000E+00
         0.00000E+00
         0.00000E+00
         0.00000E+00
         0.00000E+00
         0.00000E+00
         0.00000E+00
         0.00000E+00
         0.00000E+00
         0.00000E+00
         0.00000E+00
         0.00000E+00
         0.00000E+00
         0.00000E+00
         0.00000E+00
         0.00000E+00
         0.00000E+00
         0.00000E+00
         0.00000E+00
         0.00000E+00
         0.00000E+00
         0.00000E+00
         0.00000E+00
         0.00000E+00
         0.00000E+00
         0.00000E+00
         0.00000E+00
         0.00000E+00
         0.00000E+00
         0.00000E+00
         0.00000E+00
         0.00000E+00
         0.00000E+00
         0.00000E+00
         0.00000E+00
         0.00000E+00
         0.00000E+00
         0.00000E+00
         0.00000E+00
         0.00000E+00
         0.00000E+00
         0.00000E+00
         0.00000E+00
         0.00000E+00
         0.00000E+00
         0.00000E+00
         0.00000E+00
         0.00000E+00
         0.00000E+00
         0.00000E+00
         0.00000E+00
         0.00000E+00
         0.00000E+00
         0.00000E+00
         0.00000E+00
         0.00000E+00
         0.00000E+00
         0.00000E+00
         0.00000E+00
         0.00000E+00
         0.00000E+00
         0.00000E+00
         0.00000E+00
         0.00000E+00
         0.00000E+00
         0.00000E+00
         0.00000E+00
         0.00000E+00
         0.00000E+00
         0.00000E+00
         0.00000E+00
         0.00000E+00
         0.00000E+00
         0.00000E+00
         0.00000E+00
         0.00000E+00
         0.00000E+00
         0.00000E+00
         0.00000E+00
         0.00000E+00
         0.00000E+00
         0.00000E+00
         0.00000E+00
         0.00000E+00
         0.00000E+00
         0.00000E+00
         0.00000E+00
         0.00000E+00
         0.00000E+00
         0.00000E+00
         0.00000E+00
         0.00000E+00
         0.00000E+00
         0.00000E+00
         0.00000E+00
         0.00000E+00
         0.00000E+00
         0.00000E+00
         0.00000E+00
         0.00000E+00
         0.00000E+00
         0.00000E+00
         0.00000E+00
         0.00000E+00
         0.00000E+00
         0.00000E+00
         0.00000E+00
         0.00000E+00
         0.00000E+00
         0.00000E+00
         0.00000E+00
         0.00000E+00
         0.00000E+00
         0.00000E+00
         0.00000E+00
         0.00000E+00
         0.00000E+00
         0.00000E+00
         0.00000E+00
         0.00000E+00
         0.00000E+00
         0.00000E+00
         0.00000E+00
         0.00000E+00
         0.00000E+00
         0.00000E+00
         0.00000E+00
         0.00000E+00
         0.00000E+00
         0.00000E+00
         0.00000E+00
         0.00000E+00
         0.00000E+00
         0.00000E+00
         0.00000E+00
         0.00000E+00
         0.00000E+00
         0.00000E+00
         0.00000E+00
         0.00000E+00
         0.00000E+00
         0.00000E+00
         0.00000E+00
         0.00000E+00
         0.00000E+00
         0.00000E+00
         0.00000E+00
         0.00000E+00
         0.00000E+00
         0.00000E+00
         0.00000E+00
         0.00000E+00
         0.00000E+00
         0.00000E+00
         0.00000E+00
         0.00000E+00
         0.00000E+00
         0.00000E+00
         0.00000E+00
         0.00000E+00
         0.00000E+00
         0.00000E+00
         0.00000E+00
         0.00000E+00
         0.00000E+00
         0.00000E+00
         0.00000E+00
         0.00000E+00
         0.00000E+00
         0.00000E+00
         0.00000E+00
         0.00000E+00
         0.00000E+00
         0.00000E+00
         0.00000E+00
         0.00000E+00
         0.00000E+00
         0.00000E+00
         0.00000E+00
         0.00000E+00
         0.00000E+00
         0.00000E+00
         0.00000E+00
         0.00000E+00
         0.00000E+00
         0.00000E+00
         0.00000E+00
         0.00000E+00
         0.00000E+00
         0.00000E+00
         0.00000E+00
         0.00000E+00
         0.00000E+00
         0.00000E+00
         0.00000E+00
         0.00000E+00
         0.00000E+00
         0.00000E+00
         0.00000E+00
         0.00000E+00
         0.00000E+00
         0.00000E+00
         0.00000E+00
         0.00000E+00
         0.00000E+00
         0.00000E+00
         0.00000E+00
         0.00000E+00
         0.00000E+00
         0.00000E+00
         0.00000E+00
         0.00000E+00
         0.00000E+00
         0.00000E+00
         0.00000E+00
         0.00000E+00
         0.00000E+00
         0.00000E+00
         0.00000E+00
         0.00000E+00
         0.00000E+00
         0.00000E+00
         0.00000E+00
         0.00000E+00
         0.00000E+00
         0.00000E+00
         0.00000E+00
         0.00000E+00
         0.00000E+00
         0.00000E+00
         0.00000E+00
         0.00000E+00
         0.00000E+00
         0.00000E+00
         0.00000E+00
         0.00000E+00
         0.00000E+00
         0.00000E+00
         0.00000E+00
         0.00000E+00
         0.00000E+00
         0.00000E+00
         0.00000E+00
         0.00000E+00
         0.00000E+00
         0.00000E+00
         0.00000E+00
         0.00000E+00
         0.00000E+00
         0.00000E+00
         0.00000E+00
         0.00000E+00
         0.00000E+00
         0.00000E+00
         0.00000E+00
         0.00000E+00
         0.00000E+00
         0.00000E+00
         0.00000E+00
         0.00000E+00
         0.00000E+00
         0.00000E+00
         0.00000E+00
         0.00000E+00
         0.00000E+00
         0.00000E+00
         0.00000E+00
         0.00000E+00
         0.00000E+00
         0.00000E+00
         0.00000E+00
         0.00000E+00
         0.00000E+00
         0.00000E+00
         0.00000E+00
         0.00000E+00
         0.00000E+00
         0.00000E+00
         0.00000E+00
         0.00000E+00
         0.00000E+00
         0.00000E+00
         0.00000E+00
         0.00000E+00
         0.00000E+00
         0.00000E+00
         0.00000E+00
         0.00000E+00
         0.00000E+00
         0.00000E+00
         0.00000E+00
         0.00000E+00
         0.00000E+00
         0.00000E+00
         0.00000E+00
         0.00000E+00
         0.00000E+00
         0.00000E+00
         0.00000E+00
         0.00000E+00
         0.00000E+00
         0.00000E+00
         0.00000E+00
         0.00000E+00
         0.00000E+00
         0.00000E+00
         0.00000E+00
         0.00000E+00
         0.00000E+00
         0.00000E+00
         0.00000E+00
         0.00000E+00
         0.00000E+00
         0.00000E+00
         0.00000E+00
         0.00000E+00
         0.00000E+00
         0.00000E+00
         0.00000E+00
         0.00000E+00
         0.00000E+00
         0.00000E+00
         0.00000E+00
         0.00000E+00
         0.00000E+00
         0.00000E+00
         0.00000E+00
         0.00000E+00
         0.00000E+00
         0.00000E+00
         0.00000E+00
         0.00000E+00
         0.00000E+00
         0.00000E+00
         0.00000E+00
         0.00000E+00
         0.00000E+00
         0.00000E+00
         0.00000E+00
         0.00000E+00
         0.00000E+00
         0.00000E+00
         0.00000E+00
         0.00000E+00
         0.00000E+00
         0.00000E+00
         0.00000E+00
         0.00000E+00
         0.00000E+00
         0.00000E+00
         0.00000E+00
         0.00000E+00
         0.00000E+00
         0.00000E+00
         0.00000E+00
         0.00000E+00
         0.00000E+00
         0.00000E+00
         0.00000E+00
         0.00000E+00
         0.00000E+00
         0.00000E+00
         0.00000E+00
         0.00000E+00
         0.00000E+00
         0.00000E+00
         0.00000E+00
         0.00000E+00
         0.00000E+00
         0.00000E+00
         0.00000E+00
         0.00000E+00
         0.00000E+00
         0.00000E+00
         0.00000E+00
         0.00000E+00
         0.00000E+00
         0.00000E+00
         0.00000E+00
         0.00000E+00
         0.00000E+00
         0.00000E+00
         0.00000E+00
         0.00000E+00
         0.00000E+00
         0.00000E+00
         0.00000E+00
         0.00000E+00
         0.00000E+00
         0.00000E+00
         0.00000E+00
         0.00000E+00
         0.00000E+00
         0.00000E+00
         0.00000E+00
         0.00000E+00
         0.00000E+00
         0.00000E+00
         0.00000E+00
         0.00000E+00
         0.00000E+00
         0.00000E+00
         0.00000E+00
         0.00000E+00
         0.00000E+00
         0.00000E+00
         0.00000E+00
         0.00000E+00
         0.00000E+00
         0.00000E+00
         0.00000E+00
         0.00000E+00
         0.00000E+00
         0.00000E+00
         0.00000E+00
         0.00000E+00
         0.00000E+00
         0.00000E+00
         0.00000E+00
         0.00000E+00
         0.00000E+00
         0.00000E+00
         0.00000E+00
         0.00000E+00
         0.00000E+00
         0.00000E+00
         0.00000E+00
         0.00000E+00
         0.00000E+00
         0.00000E+00
         0.00000E+00
         0.00000E+00
         0.00000E+00
         0.00000E+00
         0.00000E+00
         0.00000E+00
         0.00000E+00
         0.00000E+00
         0.00000E+00
         0.00000E+00
         0.00000E+00
         0.00000E+00
         0.00000E+00
         0.00000E+00
         0.00000E+00
         0.00000E+00
         0.00000E+00
         0.00000E+00
         0.00000E+00
         0.00000E+00
         0.00000E+00
         0.00000E+00
         0.00000E+00
         0.00000E+00
         0.00000E+00
         0.00000E+00
         0.00000E+00
         0.00000E+00
         0.00000E+00
         0.00000E+00
         0.00000E+00
         0.00000E+00
         0.00000E+00
         0.00000E+00
         0.00000E+00
         0.00000E+00
         0.00000E+00
         0.00000E+00
         0.00000E+00
         0.00000E+00
         0.00000E+00
         0.00000E+00
         0.00000E+00
         0.00000E+00
         0.00000E+00
         0.00000E+00
         0.00000E+00
         0.00000E+00
         0.00000E+00
         0.00000E+00
         0.00000E+00
         0.00000E+00
         0.00000E+00
         0.00000E+00
         0.00000E+00
         0.00000E+00
         0.00000E+00
         0.00000E+00
         0.00000E+00
         0.00000E+00
         0.00000E+00
         0.00000E+00
         0.00000E+00
         0.00000E+00
         0.00000E+00
         0.00000E+00
         0.00000E+00
         0.00000E+00
         0.00000E+00
         0.00000E+00
         0.00000E+00
         0.00000E+00
         0.00000E+00
         0.00000E+00
         0.00000E+00
         0.00000E+00
         0.00000E+00
         0.00000E+00
         0.00000E+00
         0.00000E+00
         0.00000E+00
         0.00000E+00
         0.00000E+00
         0.00000E+00
         0.00000E+00
         0.00000E+00
         0.00000E+00
         0.00000E+00
         0.00000E+00
         0.00000E+00
         0.00000E+00
         0.00000E+00
         0.00000E+00
         0.00000E+00
         0.00000E+00
         0.00000E+00
         0.00000E+00
         0.00000E+00
         0.00000E+00
         0.00000E+00
         0.00000E+00
         0.00000E+00
         0.00000E+00
         0.00000E+00
         0.00000E+00
         0.00000E+00
         0.00000E+00
         0.00000E+00
         0.00000E+00
         0.00000E+00
         0.00000E+00
         0.00000E+00
         0.00000E+00
         0.00000E+00
         0.00000E+00
         0.00000E+00
         0.00000E+00
         0.00000E+00
         0.00000E+00
         0.00000E+00
         0.00000E+00
         0.00000E+00
         0.00000E+00
         0.00000E+00
         0.00000E+00
         0.00000E+00
         0.00000E+00
         0.00000E+00
         0.00000E+00
         0.00000E+00
         0.00000E+00
         0.00000E+00
         0.00000E+00
         0.00000E+00
         0.00000E+00
         0.00000E+00
         0.00000E+00
         0.00000E+00
         0.00000E+00
         0.00000E+00
         0.00000E+00
         0.00000E+00
         0.00000E+00
         0.00000E+00
         0.00000E+00
         0.00000E+00
         0.00000E+00
         0.00000E+00
         0.00000E+00
         0.00000E+00
         0.00000E+00
         0.00000E+00
         0.00000E+00
         0.00000E+00
         0.00000E+00
         0.00000E+00
         0.00000E+00
         0.00000E+00
         0.00000E+00
         0.00000E+00
         0.00000E+00
         0.00000E+00
         0.00000E+00
         0.00000E+00
         0.00000E+00
         0.00000E+00
         0.00000E+00
         0.00000E+00
         0.00000E+00
         0.00000E+00
         0.00000E+00
         0.00000E+00
         0.00000E+00
         0.00000E+00
         0.00000E+00
         0.00000E+00
         0.00000E+00
         0.00000E+00
         0.00000E+00
         0.00000E+00
         0.00000E+00
         0.00000E+00
         0.00000E+00
         0.00000E+00
         0.00000E+00
         0.00000E+00
         0.00000E+00
         0.00000E+00
         0.00000E+00
         0.00000E+00
         0.00000E+00
         0.00000E+00
         0.00000E+00
         0.00000E+00
         0.00000E+00
         0.00000E+00
         0.00000E+00
         0.00000E+00
         0.00000E+00
         0.00000E+00
         0.00000E+00
         0.00000E+00
         0.00000E+00
         0.00000E+00
         0.00000E+00
         0.00000E+00
         0.00000E+00
         0.00000E+00
         0.00000E+00
         0.00000E+00
         0.00000E+00
         0.00000E+00
         0.00000E+00
         0.00000E+00
         0.00000E+00
         0.00000E+00
         0.00000E+00
         0.00000E+00
         0.00000E+00
         0.00000E+00
         0.00000E+00
         0.00000E+00
         0.00000E+00
         0.00000E+00
         0.00000E+00
         0.00000E+00
         0.00000E+00
         0.00000E+00
         0.00000E+00
         0.00000E+00
         0.00000E+00
         0.00000E+00
         0.00000E+00
         0.00000E+00
         0.00000E+00
         0.00000E+00
         0.00000E+00
         0.00000E+00
         0.00000E+00
         0.00000E+00
         0.00000E+00
         0.00000E+00
         0.00000E+00
         0.00000E+00
         0.00000E+00
         0.00000E+00
         0.00000E+00
         0.00000E+00
         0.00000E+00
         0.00000E+00
         0.00000E+00
         0.00000E+00
         0.00000E+00
         0.00000E+00
         0.00000E+00
         0.00000E+00
         0.00000E+00
         0.00000E+00
         0.00000E+00
         0.00000E+00
         0.00000E+00
         0.00000E+00
         0.00000E+00
         0.00000E+00
         0.00000E+00
         0.00000E+00
         0.00000E+00
         0.00000E+00
         0.00000E+00
         0.00000E+00
         0.00000E+00
         0.00000E+00
         0.00000E+00
         0.00000E+00
         0.00000E+00
         0.00000E+00
         0.00000E+00
         0.00000E+00
         0.00000E+00
         0.00000E+00
         0.00000E+00
         0.00000E+00
         0.00000E+00
         0.00000E+00
         0.00000E+00
         0.00000E+00
         0.00000E+00
         0.00000E+00
         0.00000E+00
         0.00000E+00
         0.00000E+00
         0.00000E+00
         0.00000E+00
         0.00000E+00
         0.00000E+00
         0.00000E+00
         0.00000E+00
         0.00000E+00
         0.00000E+00
         0.00000E+00
         0.00000E+00
         0.00000E+00
         0.00000E+00
         0.00000E+00
         0.00000E+00
         0.00000E+00
         0.00000E+00
         0.00000E+00
         0.00000E+00
         0.00000E+00
         0.00000E+00
         0.00000E+00
         0.00000E+00
         0.00000E+00
         0.00000E+00
         0.00000E+00
         0.00000E+00
         0.00000E+00
         0.00000E+00
         0.00000E+00
         0.00000E+00
         0.00000E+00
         0.00000E+00
         0.00000E+00
         0.00000E+00
         0.00000E+00
         0.00000E+00
         0.00000E+00
         0.00000E+00
         0.00000E+00
         0.00000E+00
         0.00000E+00
         0.00000E+00
         0.00000E+00
         0.00000E+00
         0.00000E+00
         0.00000E+00
         0.00000E+00
         0.00000E+00
         0.00000E+00
         0.00000E+00
         0.00000E+00
         0.00000E+00
         0.00000E+00
         0.00000E+00
         0.00000E+00
         0.00000E+00
         0.00000E+00
         0.00000E+00
         0.00000E+00
         0.00000E+00
         0.00000E+00
         0.00000E+00
         0.00000E+00
         0.00000E+00
         0.00000E+00
         0.00000E+00
         0.00000E+00
         0.00000E+00
         0.00000E+00
         0.00000E+00
         0.00000E+00
         0.00000E+00
         0.00000E+00
         0.00000E+00
         0.00000E+00
         0.00000E+00
         0.00000E+00
         0.00000E+00
         0.00000E+00
         0.00000E+00
         0.00000E+00
         0.00000E+00
         0.00000E+00
         0.00000E+00
         0.00000E+00
         0.00000E+00
         0.00000E+00
         0.00000E+00
         0.00000E+00
         0.00000E+00
         0.00000E+00
         0.00000E+00
         0.00000E+00
         0.00000E+00
         0.00000E+00
         0.00000E+00
         0.00000E+00
         0.00000E+00
         0.00000E+00
         0.00000E+00
         0.00000E+00
         0.00000E+00
         0.00000E+00
         0.00000E+00
         0.00000E+00
         0.00000E+00
         0.00000E+00
         0.00000E+00
         0.00000E+00
         0.00000E+00
         0.00000E+00
         0.00000E+00
         0.00000E+00
         0.00000E+00
         0.00000E+00
         0.00000E+00
         0.00000E+00
         0.00000E+00
         0.00000E+00
         0.00000E+00
         0.00000E+00
         0.00000E+00
         0.00000E+00
         0.00000E+00
         0.00000E+00
         0.00000E+00
         0.00000E+00
         0.00000E+00
         0.00000E+00
         0.00000E+00
         0.00000E+00
         0.00000E+00
         0.00000E+00
         0.00000E+00
         0.00000E+00
         0.00000E+00
         0.00000E+00
         0.00000E+00
         0.00000E+00
         0.00000E+00
         0.00000E+00
         0.00000E+00
         0.00000E+00
         0.00000E+00
         0.00000E+00
         0.00000E+00
         0.00000E+00
         0.00000E+00
         0.00000E+00
         0.00000E+00
         0.00000E+00
         0.00000E+00
         0.00000E+00
         0.00000E+00
         0.00000E+00
         0.00000E+00
         0.00000E+00
         0.00000E+00
         0.00000E+00
         0.00000E+00
         0.00000E+00
         0.00000E+00
         0.00000E+00
         0.00000E+00
         0.00000E+00
         0.00000E+00
         0.00000E+00
         0.00000E+00
         0.00000E+00
         0.00000E+00
         0.00000E+00
         0.00000E+00
         0.00000E+00
         0.00000E+00
         0.00000E+00
         0.00000E+00
         0.00000E+00
         0.00000E+00
         0.00000E+00
         0.00000E+00
         0.00000E+00
         0.00000E+00
         0.00000E+00
         0.00000E+00
         0.00000E+00
         0.00000E+00
         0.00000E+00
         0.00000E+00
         0.00000E+00
         0.00000E+00
         0.00000E+00
         0.00000E+00
         0.00000E+00
         0.00000E+00
         0.00000E+00
         0.00000E+00
         0.00000E+00
         0.00000E+00
         0.00000E+00
         0.00000E+00
         0.00000E+00
         0.00000E+00
         0.00000E+00
         0.00000E+00
         0.00000E+00
         0.00000E+00
         0.00000E+00
         0.00000E+00
         0.00000E+00
         0.00000E+00
         0.00000E+00
         0.00000E+00
         0.00000E+00
         0.00000E+00
         0.00000E+00
         0.00000E+00
         0.00000E+00
         0.00000E+00
         0.00000E+00
         0.00000E+00
         0.00000E+00
         0.00000E+00
         0.00000E+00
         0.00000E+00
         0.00000E+00
         0.00000E+00
         0.00000E+00
         0.00000E+00
         0.00000E+00
         0.00000E+00
         0.00000E+00
         0.00000E+00
         0.00000E+00
         0.00000E+00
         0.00000E+00
         0.00000E+00
         0.00000E+00
         0.00000E+00
         0.00000E+00
         0.00000E+00
         0.00000E+00
         0.00000E+00
         0.00000E+00
         0.00000E+00
         0.00000E+00
         0.00000E+00
         0.00000E+00
         0.00000E+00
         0.00000E+00
         0.00000E+00
         0.00000E+00
         0.00000E+00
         0.00000E+00
         0.00000E+00
         0.00000E+00
         0.00000E+00
         0.00000E+00
         0.00000E+00
         0.00000E+00
         0.00000E+00
         0.00000E+00
         0.00000E+00
         0.00000E+00
         0.00000E+00
         0.00000E+00
         0.00000E+00
         0.00000E+00
         0.00000E+00
         0.00000E+00
         0.00000E+00
         0.00000E+00
         0.00000E+00
         0.00000E+00
         0.00000E+00
         0.00000E+00
         0.00000E+00
         0.00000E+00
         0.00000E+00
         0.00000E+00
         0.00000E+00
         0.00000E+00
         0.00000E+00
         0.00000E+00
         0.00000E+00
         0.00000E+00
         0.00000E+00
         0.00000E+00
         0.00000E+00
         0.00000E+00
         0.00000E+00
         0.00000E+00
         0.00000E+00
         0.00000E+00
         0.00000E+00
         0.00000E+00
         0.00000E+00
         0.00000E+00
         0.00000E+00
         0.00000E+00
         0.00000E+00
         0.00000E+00
         0.00000E+00
         0.00000E+00
         0.00000E+00
         0.00000E+00
         0.00000E+00
         0.00000E+00
         0.00000E+00
         0.00000E+00
         0.00000E+00
         0.00000E+00
         0.00000E+00
         0.00000E+00
         0.00000E+00
         0.00000E+00
         0.00000E+00
         0.00000E+00
         0.00000E+00
         0.00000E+00
         0.00000E+00
         0.00000E+00
         0.00000E+00
         0.00000E+00
         0.00000E+00
         0.00000E+00
         0.00000E+00
         0.00000E+00
         0.00000E+00
         0.00000E+00
         0.00000E+00
         0.00000E+00
         0.00000E+00
         0.00000E+00
         0.00000E+00
         0.00000E+00
         0.00000E+00
         0.00000E+00
         0.00000E+00
         0.00000E+00
         0.00000E+00
         0.00000E+00
         0.00000E+00
         0.00000E+00
         0.00000E+00
         0.00000E+00
         0.00000E+00
         0.00000E+00
         0.00000E+00
         0.00000E+00
         0.00000E+00
         0.00000E+00
         0.00000E+00
         0.00000E+00
         0.00000E+00
         0.00000E+00
         0.00000E+00
         0.00000E+00
         0.00000E+00
         0.00000E+00
         0.00000E+00
         0.00000E+00
         0.00000E+00
         0.00000E+00
         0.00000E+00
         0.00000E+00
         0.00000E+00
         0.00000E+00
         0.00000E+00
         0.00000E+00
         0.00000E+00
         0.00000E+00
         0.00000E+00
         0.00000E+00
         0.00000E+00
         0.00000E+00
         0.00000E+00
         0.00000E+00
         0.00000E+00
         0.00000E+00
         0.00000E+00
         0.00000E+00
         0.00000E+00
         0.00000E+00
         0.00000E+00
         0.00000E+00
         0.00000E+00
         0.00000E+00
         0.00000E+00
         0.00000E+00
         0.00000E+00
         0.00000E+00
         0.00000E+00
         0.00000E+00
         0.00000E+00
         0.00000E+00
         0.00000E+00
         0.00000E+00
         0.00000E+00
         0.00000E+00
         0.00000E+00
         0.00000E+00
         0.00000E+00
         0.00000E+00
         0.00000E+00
         0.00000E+00
         0.00000E+00
         0.00000E+00
         0.00000E+00
         0.00000E+00
         0.00000E+00
         0.00000E+00
         0.00000E+00
         0.00000E+00
         0.00000E+00
         0.00000E+00
         0.00000E+00
         0.00000E+00
         0.00000E+00
         0.00000E+00
         0.00000E+00
         0.00000E+00
         0.00000E+00
         0.00000E+00
         0.00000E+00
         0.00000E+00
         0.00000E+00
         0.00000E+00
         0.00000E+00
         0.00000E+00
         0.00000E+00
         0.00000E+00
         0.00000E+00
         0.00000E+00
         0.00000E+00
         0.00000E+00
         0.00000E+00
         0.00000E+00
         0.00000E+00
         0.00000E+00
         0.00000E+00
         0.00000E+00
         0.00000E+00
         0.00000E+00
         0.00000E+00
         0.00000E+00
         0.00000E+00
         0.00000E+00
         0.00000E+00
         0.00000E+00
         0.00000E+00
         0.00000E+00
         0.00000E+00
         0.00000E+00
         0.00000E+00
         0.00000E+00
         0.00000E+00
         0.00000E+00
         0.00000E+00
         0.00000E+00
         0.00000E+00
         0.00000E+00
         0.00000E+00
         0.00000E+00
         0.00000E+00
         0.00000E+00
         0.00000E+00
         0.00000E+00
         0.00000E+00
         0.00000E+00
         0.00000E+00
         0.00000E+00
         0.00000E+00
         0.00000E+00
         0.00000E+00
         0.00000E+00
         0.00000E+00
         0.00000E+00
         0.00000E+00
         0.00000E+00
         0.00000E+00
         0.00000E+00
         0.00000E+00
         0.00000E+00
         0.00000E+00
         0.00000E+00
         0.00000E+00
         0.00000E+00
         0.00000E+00
         0.00000E+00
         0.00000E+00
         0.00000E+00
         0.00000E+00
         0.00000E+00
         0.00000E+00
         0.00000E+00
         0.00000E+00
         0.00000E+00
         0.00000E+00
         0.00000E+00
         0.00000E+00
         0.00000E+00
         0.00000E+00
         0.00000E+00
         0.00000E+00
         0.00000E+00
         0.00000E+00
         0.00000E+00
         0.00000E+00
         0.00000E+00
         0.00000E+00
         0.00000E+00
         0.00000E+00
         0.00000E+00
         0.00000E+00
         0.00000E+00
         0.00000E+00
         0.00000E+00
         0.00000E+00
         0.00000E+00
         0.00000E+00
         0.00000E+00
         0.00000E+00
         0.00000E+00
         0.00000E+00
         0.00000E+00
         0.00000E+00
         0.00000E+00
         0.00000E+00
         0.00000E+00
         0.00000E+00
         0.00000E+00
         0.00000E+00
         0.00000E+00
         0.00000E+00
         0.00000E+00
         0.00000E+00
         0.00000E+00
         0.00000E+00
         0.00000E+00
         0.00000E+00
         0.00000E+00
         0.00000E+00
         0.00000E+00
         0.00000E+00
         0.00000E+00
         0.00000E+00
         0.00000E+00
         0.00000E+00
         0.00000E+00
         0.00000E+00
         0.00000E+00
         0.00000E+00
         0.00000E+00
         0.00000E+00
         0.00000E+00
         0.00000E+00
         0.00000E+00
         0.00000E+00
         0.00000E+00
         0.00000E+00
         0.00000E+00
         0.00000E+00
         0.00000E+00
         0.00000E+00
         0.00000E+00
         0.00000E+00
         0.00000E+00
         0.00000E+00
         0.00000E+00
         0.00000E+00
         0.00000E+00
         0.00000E+00
         0.00000E+00
         0.00000E+00
         0.00000E+00
         0.00000E+00
         0.00000E+00
         0.00000E+00
         0.00000E+00
         0.00000E+00
         0.00000E+00
         0.00000E+00
         0.00000E+00
         0.00000E+00
         0.00000E+00
         0.00000E+00
         0.00000E+00
         0.00000E+00
         0.00000E+00
         0.00000E+00
         0.00000E+00
         0.00000E+00
         0.00000E+00
         0.00000E+00
         0.00000E+00
         0.00000E+00
         0.00000E+00
         0.00000E+00
         0.00000E+00
         0.00000E+00
         0.00000E+00
         0.00000E+00
         0.00000E+00
         0.00000E+00
         0.00000E+00
         0.00000E+00
         0.00000E+00
         0.00000E+00
         0.00000E+00
         0.00000E+00
         0.00000E+00
         0.00000E+00
         0.00000E+00
         0.00000E+00
         0.00000E+00
         0.00000E+00
         0.00000E+00
         0.00000E+00
         0.00000E+00
         0.00000E+00
         0.00000E+00
         0.00000E+00
         0.00000E+00
         0.00000E+00
         0.00000E+00
         0.00000E+00
         0.00000E+00
         0.00000E+00
         0.00000E+00
         0.00000E+00
         0.00000E+00
         0.00000E+00
         0.00000E+00
         0.00000E+00
         0.00000E+00
         0.00000E+00
         0.00000E+00
         0.00000E+00
         0.00000E+00
         0.00000E+00
         0.00000E+00
         0.00000E+00
         0.00000E+00
         0.00000E+00
         0.00000E+00
         0.00000E+00
         0.00000E+00
         0.00000E+00
         0.00000E+00
         0.00000E+00
         0.00000E+00
         0.00000E+00
         0.00000E+00
         0.00000E+00
         0.00000E+00
         0.00000E+00
         0.00000E+00
         0.00000E+00
         0.00000E+00
         0.00000E+00
         0.00000E+00
         0.00000E+00
         0.00000E+00
         0.00000E+00
         0.00000E+00
         0.00000E+00
         0.00000E+00
         0.00000E+00
         0.00000E+00
         0.00000E+00
         0.00000E+00
         0.00000E+00
         0.00000E+00
         0.00000E+00
         0.00000E+00
         0.00000E+00
         0.00000E+00
         0.00000E+00
         0.00000E+00
         0.00000E+00
         0.00000E+00
         0.00000E+00
         0.00000E+00
         0.00000E+00
         0.00000E+00
         0.00000E+00
         0.00000E+00
         0.00000E+00
         0.00000E+00
         0.00000E+00
         0.00000E+00
         0.00000E+00
         0.00000E+00
         0.00000E+00
         0.00000E+00
         0.00000E+00
         0.00000E+00
         0.00000E+00
         0.00000E+00
         0.00000E+00
         0.00000E+00
         0.00000E+00
         0.00000E+00
         0.00000E+00
         0.00000E+00
         0.00000E+00
         0.00000E+00
         0.00000E+00
         0.00000E+00
         0.00000E+00
         0.00000E+00
         0.00000E+00
         0.00000E+00
         0.00000E+00
         0.00000E+00
         0.00000E+00
         0.00000E+00
         0.00000E+00
         0.00000E+00
         0.00000E+00
         0.00000E+00
         0.00000E+00
         0.00000E+00
         0.00000E+00
         0.00000E+00
         0.00000E+00
         0.00000E+00
         0.00000E+00
         0.00000E+00
         0.00000E+00
         0.00000E+00
         0.00000E+00
         0.00000E+00
         0.00000E+00
         0.00000E+00
         0.00000E+00
         0.00000E+00
         0.00000E+00
         0.00000E+00
         0.00000E+00
         0.00000E+00
         0.00000E+00
         0.00000E+00
         0.00000E+00
         0.00000E+00
         0.00000E+00
         0.00000E+00
         0.00000E+00
         0.00000E+00
         0.00000E+00
         0.00000E+00
         0.00000E+00
         0.00000E+00
         0.00000E+00
         0.00000E+00
         0.00000E+00
         0.00000E+00
         0.00000E+00
         0.00000E+00
         0.00000E+00
         0.00000E+00
         0.00000E+00
         0.00000E+00
         0.00000E+00
         0.00000E+00
         0.00000E+00
         0.00000E+00
         0.00000E+00
         0.00000E+00
         0.00000E+00
         0.00000E+00
         0.00000E+00
         0.00000E+00
         0.00000E+00
         0.00000E+00
         0.00000E+00
         0.00000E+00
         0.00000E+00
         0.00000E+00
         0.00000E+00
         0.00000E+00
         0.00000E+00
         0.00000E+00
         0.00000E+00
         0.00000E+00
         0.00000E+00
         0.00000E+00
         0.00000E+00
         0.00000E+00
         0.00000E+00
         0.00000E+00
         0.00000E+00
         0.00000E+00
         0.00000E+00
         0.00000E+00
         0.00000E+00
         0.00000E+00
         0.00000E+00
         0.00000E+00
         0.00000E+00
         0.00000E+00
         0.00000E+00
         0.00000E+00
         0.00000E+00
         0.00000E+00
         0.00000E+00
         0.00000E+00
         0.00000E+00
         0.00000E+00
         0.00000E+00
         0.00000E+00
         0.00000E+00
         0.00000E+00
         0.00000E+00
         0.00000E+00
         0.00000E+00
         0.00000E+00
         0.00000E+00
         0.00000E+00
         0.00000E+00
         0.00000E+00
         0.00000E+00
         0.00000E+00
         0.00000E+00
         0.00000E+00
         0.00000E+00
         0.00000E+00
         0.00000E+00
  
SCALARS               pre_disp_force_z  double 1
LOOKUP_TABLE default
         0.00000E+00
         0.00000E+00
         0.00000E+00
         0.00000E+00
        -0.00000E+00
        -0.00000E+00
        -0.00000E+00
        -0.00000E+00
         0.00000E+00
         0.00000E+00
        -0.00000E+00
        -0.00000E+00
         0.00000E+00
         0.00000E+00
        -0.00000E+00
        -0.00000E+00
         0.00000E+00
         0.00000E+00
        -0.00000E+00
        -0.00000E+00
         0.00000E+00
         0.00000E+00
         0.00000E+00
        -0.00000E+00
        -0.00000E+00
        -0.00000E+00
         0.00000E+00
         0.00000E+00
        -0.00000E+00
        -0.00000E+00
         0.00000E+00
         0.00000E+00
         0.00000E+00
        -0.00000E+00
        -0.00000E+00
        -0.00000E+00
         0.00000E+00
         0.00000E+00
        -0.00000E+00
        -0.00000E+00
         0.00000E+00
         0.00000E+00
        -0.00000E+00
        -0.00000E+00
         0.00000E+00
         0.00000E+00
        -0.00000E+00
        -0.00000E+00
         0.00000E+00
        -0.00000E+00
         0.00000E+00
        -0.00000E+00
         0.00000E+00
        -0.00000E+00
         0.00000E+00
        -0.00000E+00
         0.00000E+00
         0.00000E+00
        -0.00000E+00
        -0.00000E+00
         0.00000E+00
         0.00000E+00
        -0.00000E+00
        -0.00000E+00
         0.00000E+00
        -0.00000E+00
         0.00000E+00
        -0.00000E+00
         0.00000E+00
         0.00000E+00
        -0.00000E+00
        -0.00000E+00
         0.00000E+00
        -0.00000E+00
         0.00000E+00
        -0.00000E+00
         0.00000E+00
        -0.00000E+00
         0.00000E+00
        -0.00000E+00
         0.00000E+00
         0.00000E+00
        -0.00000E+00
        -0.00000E+00
         0.00000E+00
        -0.00000E+00
         0.00000E+00
        -0.00000E+00
         0.00000E+00
        -0.00000E+00
         0.00000E+00
         0.00000E+00
        -0.00000E+00
        -0.00000E+00
         0.00000E+00
        -0.00000E+00
         0.00000E+00
        -0.00000E+00
         0.00000E+00
        -0.00000E+00
         0.00000E+00
         0.00000E+00
        -0.00000E+00
        -0.00000E+00
         0.00000E+00
         0.00000E+00
        -0.00000E+00
        -0.00000E+00
         0.00000E+00
        -0.00000E+00
         0.00000E+00
        -0.00000E+00
         0.00000E+00
        -0.00000E+00
         0.00000E+00
        -0.00000E+00
         0.00000E+00
        -0.00000E+00
         0.00000E+00
        -0.00000E+00
         0.00000E+00
        -0.00000E+00
         0.00000E+00
        -0.00000E+00
         0.00000E+00
        -0.00000E+00
         0.00000E+00
        -0.00000E+00
         0.00000E+00
        -0.00000E+00
         0.00000E+00
        -0.00000E+00
         0.00000E+00
        -0.00000E+00
         0.00000E+00
        -0.00000E+00
         0.00000E+00
        -0.00000E+00
         0.00000E+00
        -0.00000E+00
         0.00000E+00
        -0.00000E+00
         0.00000E+00
        -0.00000E+00
         0.00000E+00
        -0.00000E+00
         0.00000E+00
        -0.00000E+00
         0.00000E+00
        -0.00000E+00
         0.00000E+00
        -0.00000E+00
         0.00000E+00
        -0.00000E+00
         0.00000E+00
        -0.00000E+00
         0.00000E+00
         0.00000E+00
         0.00000E+00
         0.00000E+00
         0.00000E+00
         0.00000E+00
         0.00000E+00
         0.00000E+00
         0.00000E+00
         0.00000E+00
         0.00000E+00
         0.00000E+00
         0.00000E+00
         0.00000E+00
         0.00000E+00
         0.00000E+00
         0.00000E+00
         0.00000E+00
         0.00000E+00
         0.00000E+00
         0.00000E+00
         0.00000E+00
         0.00000E+00
         0.00000E+00
         0.00000E+00
         0.00000E+00
         0.00000E+00
         0.00000E+00
         0.00000E+00
         0.00000E+00
         0.00000E+00
         0.00000E+00
         0.00000E+00
         0.00000E+00
         0.00000E+00
         0.00000E+00
         0.00000E+00
         0.00000E+00
         0.00000E+00
         0.00000E+00
         0.00000E+00
         0.00000E+00
         0.00000E+00
         0.00000E+00
         0.00000E+00
         0.00000E+00
         0.00000E+00
         0.00000E+00
         0.00000E+00
         0.00000E+00
         0.00000E+00
         0.00000E+00
         0.00000E+00
         0.00000E+00
         0.00000E+00
         0.00000E+00
         0.00000E+00
         0.00000E+00
         0.00000E+00
         0.00000E+00
         0.00000E+00
         0.00000E+00
         0.00000E+00
         0.00000E+00
         0.00000E+00
         0.00000E+00
         0.00000E+00
         0.00000E+00
         0.00000E+00
         0.00000E+00
         0.00000E+00
         0.00000E+00
         0.00000E+00
         0.00000E+00
         0.00000E+00
         0.00000E+00
         0.00000E+00
         0.00000E+00
         0.00000E+00
         0.00000E+00
         0.00000E+00
         0.00000E+00
         0.00000E+00
         0.00000E+00
         0.00000E+00
         0.00000E+00
         0.00000E+00
         0.00000E+00
         0.00000E+00
         0.00000E+00
         0.00000E+00
         0.00000E+00
         0.00000E+00
         0.00000E+00
         0.00000E+00
         0.00000E+00
         0.00000E+00
         0.00000E+00
         0.00000E+00
         0.00000E+00
         0.00000E+00
         0.00000E+00
         0.00000E+00
         0.00000E+00
         0.00000E+00
         0.00000E+00
         0.00000E+00
         0.00000E+00
         0.00000E+00
         0.00000E+00
         0.00000E+00
         0.00000E+00
         0.00000E+00
         0.00000E+00
         0.00000E+00
         0.00000E+00
         0.00000E+00
         0.00000E+00
         0.00000E+00
         0.00000E+00
         0.00000E+00
         0.00000E+00
         0.00000E+00
         0.00000E+00
         0.00000E+00
         0.00000E+00
         0.00000E+00
         0.00000E+00
         0.00000E+00
         0.00000E+00
         0.00000E+00
         0.00000E+00
         0.00000E+00
         0.00000E+00
         0.00000E+00
         0.00000E+00
         0.00000E+00
         0.00000E+00
         0.00000E+00
         0.00000E+00
         0.00000E+00
         0.00000E+00
         0.00000E+00
         0.00000E+00
         0.00000E+00
         0.00000E+00
         0.00000E+00
         0.00000E+00
         0.00000E+00
         0.00000E+00
         0.00000E+00
         0.00000E+00
         0.00000E+00
         0.00000E+00
         0.00000E+00
         0.00000E+00
         0.00000E+00
         0.00000E+00
         0.00000E+00
         0.00000E+00
         0.00000E+00
         0.00000E+00
         0.00000E+00
         0.00000E+00
         0.00000E+00
         0.00000E+00
         0.00000E+00
         0.00000E+00
         0.00000E+00
         0.00000E+00
         0.00000E+00
         0.00000E+00
         0.00000E+00
         0.00000E+00
         0.00000E+00
         0.00000E+00
         0.00000E+00
         0.00000E+00
         0.00000E+00
         0.00000E+00
         0.00000E+00
         0.00000E+00
         0.00000E+00
         0.00000E+00
         0.00000E+00
         0.00000E+00
         0.00000E+00
         0.00000E+00
         0.00000E+00
         0.00000E+00
         0.00000E+00
         0.00000E+00
         0.00000E+00
         0.00000E+00
         0.00000E+00
         0.00000E+00
         0.00000E+00
         0.00000E+00
         0.00000E+00
         0.00000E+00
         0.00000E+00
         0.00000E+00
         0.00000E+00
         0.00000E+00
         0.00000E+00
         0.00000E+00
         0.00000E+00
         0.00000E+00
         0.00000E+00
         0.00000E+00
         0.00000E+00
         0.00000E+00
         0.00000E+00
         0.00000E+00
         0.00000E+00
         0.00000E+00
         0.00000E+00
         0.00000E+00
         0.00000E+00
         0.00000E+00
         0.00000E+00
         0.00000E+00
         0.00000E+00
         0.00000E+00
         0.00000E+00
         0.00000E+00
         0.00000E+00
         0.00000E+00
         0.00000E+00
         0.00000E+00
         0.00000E+00
         0.00000E+00
         0.00000E+00
         0.00000E+00
         0.00000E+00
         0.00000E+00
         0.00000E+00
         0.00000E+00
         0.00000E+00
         0.00000E+00
         0.00000E+00
         0.00000E+00
         0.00000E+00
         0.00000E+00
         0.00000E+00
         0.00000E+00
         0.00000E+00
         0.00000E+00
         0.00000E+00
         0.00000E+00
         0.00000E+00
         0.00000E+00
         0.00000E+00
         0.00000E+00
         0.00000E+00
         0.00000E+00
         0.00000E+00
         0.00000E+00
         0.00000E+00
         0.00000E+00
         0.00000E+00
         0.00000E+00
         0.00000E+00
         0.00000E+00
         0.00000E+00
         0.00000E+00
         0.00000E+00
         0.00000E+00
         0.00000E+00
         0.00000E+00
         0.00000E+00
         0.00000E+00
         0.00000E+00
         0.00000E+00
         0.00000E+00
         0.00000E+00
         0.00000E+00
         0.00000E+00
         0.00000E+00
         0.00000E+00
         0.00000E+00
         0.00000E+00
         0.00000E+00
         0.00000E+00
         0.00000E+00
         0.00000E+00
         0.00000E+00
         0.00000E+00
         0.00000E+00
         0.00000E+00
         0.00000E+00
         0.00000E+00
         0.00000E+00
         0.00000E+00
         0.00000E+00
         0.00000E+00
         0.00000E+00
         0.00000E+00
         0.00000E+00
         0.00000E+00
         0.00000E+00
         0.00000E+00
         0.00000E+00
         0.00000E+00
         0.00000E+00
         0.00000E+00
         0.00000E+00
         0.00000E+00
         0.00000E+00
         0.00000E+00
         0.00000E+00
         0.00000E+00
         0.00000E+00
         0.00000E+00
         0.00000E+00
         0.00000E+00
         0.00000E+00
         0.00000E+00
         0.00000E+00
         0.00000E+00
         0.00000E+00
         0.00000E+00
         0.00000E+00
         0.00000E+00
         0.00000E+00
         0.00000E+00
         0.00000E+00
         0.00000E+00
         0.00000E+00
         0.00000E+00
         0.00000E+00
         0.00000E+00
         0.00000E+00
         0.00000E+00
         0.00000E+00
         0.00000E+00
         0.00000E+00
         0.00000E+00
         0.00000E+00
         0.00000E+00
         0.00000E+00
         0.00000E+00
         0.00000E+00
         0.00000E+00
         0.00000E+00
         0.00000E+00
         0.00000E+00
         0.00000E+00
         0.00000E+00
         0.00000E+00
         0.00000E+00
         0.00000E+00
         0.00000E+00
         0.00000E+00
         0.00000E+00
         0.00000E+00
         0.00000E+00
         0.00000E+00
         0.00000E+00
         0.00000E+00
         0.00000E+00
         0.00000E+00
         0.00000E+00
         0.00000E+00
         0.00000E+00
         0.00000E+00
         0.00000E+00
         0.00000E+00
         0.00000E+00
         0.00000E+00
         0.00000E+00
         0.00000E+00
         0.00000E+00
         0.00000E+00
         0.00000E+00
         0.00000E+00
         0.00000E+00
         0.00000E+00
         0.00000E+00
         0.00000E+00
         0.00000E+00
         0.00000E+00
         0.00000E+00
         0.00000E+00
         0.00000E+00
         0.00000E+00
         0.00000E+00
         0.00000E+00
         0.00000E+00
         0.00000E+00
         0.00000E+00
         0.00000E+00
         0.00000E+00
         0.00000E+00
         0.00000E+00
         0.00000E+00
         0.00000E+00
         0.00000E+00
         0.00000E+00
         0.00000E+00
         0.00000E+00
         0.00000E+00
         0.00000E+00
         0.00000E+00
         0.00000E+00
         0.00000E+00
         0.00000E+00
         0.00000E+00
         0.00000E+00
         0.00000E+00
         0.00000E+00
         0.00000E+00
         0.00000E+00
         0.00000E+00
         0.00000E+00
         0.00000E+00
         0.00000E+00
         0.00000E+00
         0.00000E+00
         0.00000E+00
         0.00000E+00
         0.00000E+00
         0.00000E+00
         0.00000E+00
         0.00000E+00
         0.00000E+00
         0.00000E+00
         0.00000E+00
         0.00000E+00
         0.00000E+00
         0.00000E+00
         0.00000E+00
         0.00000E+00
         0.00000E+00
         0.00000E+00
         0.00000E+00
         0.00000E+00
         0.00000E+00
         0.00000E+00
         0.00000E+00
         0.00000E+00
         0.00000E+00
         0.00000E+00
         0.00000E+00
         0.00000E+00
         0.00000E+00
         0.00000E+00
         0.00000E+00
         0.00000E+00
         0.00000E+00
         0.00000E+00
         0.00000E+00
         0.00000E+00
         0.00000E+00
         0.00000E+00
         0.00000E+00
         0.00000E+00
         0.00000E+00
         0.00000E+00
         0.00000E+00
         0.00000E+00
         0.00000E+00
         0.00000E+00
         0.00000E+00
         0.00000E+00
         0.00000E+00
         0.00000E+00
         0.00000E+00
         0.00000E+00
         0.00000E+00
         0.00000E+00
         0.00000E+00
         0.00000E+00
         0.00000E+00
         0.00000E+00
         0.00000E+00
         0.00000E+00
         0.00000E+00
         0.00000E+00
         0.00000E+00
         0.00000E+00
         0.00000E+00
         0.00000E+00
         0.00000E+00
         0.00000E+00
         0.00000E+00
         0.00000E+00
         0.00000E+00
         0.00000E+00
         0.00000E+00
         0.00000E+00
         0.00000E+00
         0.00000E+00
         0.00000E+00
         0.00000E+00
         0.00000E+00
         0.00000E+00
         0.00000E+00
         0.00000E+00
         0.00000E+00
         0.00000E+00
         0.00000E+00
         0.00000E+00
         0.00000E+00
         0.00000E+00
         0.00000E+00
         0.00000E+00
         0.00000E+00
         0.00000E+00
         0.00000E+00
         0.00000E+00
         0.00000E+00
         0.00000E+00
         0.00000E+00
         0.00000E+00
         0.00000E+00
         0.00000E+00
         0.00000E+00
         0.00000E+00
         0.00000E+00
         0.00000E+00
         0.00000E+00
         0.00000E+00
         0.00000E+00
         0.00000E+00
         0.00000E+00
         0.00000E+00
         0.00000E+00
         0.00000E+00
         0.00000E+00
         0.00000E+00
         0.00000E+00
         0.00000E+00
         0.00000E+00
         0.00000E+00
         0.00000E+00
         0.00000E+00
         0.00000E+00
         0.00000E+00
         0.00000E+00
         0.00000E+00
         0.00000E+00
         0.00000E+00
         0.00000E+00
         0.00000E+00
         0.00000E+00
         0.00000E+00
         0.00000E+00
         0.00000E+00
         0.00000E+00
         0.00000E+00
         0.00000E+00
         0.00000E+00
         0.00000E+00
         0.00000E+00
         0.00000E+00
         0.00000E+00
         0.00000E+00
         0.00000E+00
         0.00000E+00
         0.00000E+00
         0.00000E+00
         0.00000E+00
         0.00000E+00
         0.00000E+00
         0.00000E+00
         0.00000E+00
         0.00000E+00
         0.00000E+00
         0.00000E+00
         0.00000E+00
         0.00000E+00
         0.00000E+00
         0.00000E+00
         0.00000E+00
         0.00000E+00
         0.00000E+00
         0.00000E+00
         0.00000E+00
         0.00000E+00
         0.00000E+00
         0.00000E+00
         0.00000E+00
         0.00000E+00
         0.00000E+00
         0.00000E+00
         0.00000E+00
         0.00000E+00
         0.00000E+00
         0.00000E+00
         0.00000E+00
         0.00000E+00
         0.00000E+00
         0.00000E+00
         0.00000E+00
         0.00000E+00
         0.00000E+00
         0.00000E+00
         0.00000E+00
         0.00000E+00
         0.00000E+00
         0.00000E+00
         0.00000E+00
         0.00000E+00
         0.00000E+00
         0.00000E+00
         0.00000E+00
         0.00000E+00
         0.00000E+00
         0.00000E+00
         0.00000E+00
         0.00000E+00
         0.00000E+00
         0.00000E+00
         0.00000E+00
         0.00000E+00
         0.00000E+00
         0.00000E+00
         0.00000E+00
         0.00000E+00
         0.00000E+00
         0.00000E+00
         0.00000E+00
         0.00000E+00
         0.00000E+00
         0.00000E+00
         0.00000E+00
         0.00000E+00
         0.00000E+00
         0.00000E+00
         0.00000E+00
         0.00000E+00
         0.00000E+00
         0.00000E+00
         0.00000E+00
         0.00000E+00
         0.00000E+00
         0.00000E+00
         0.00000E+00
         0.00000E+00
         0.00000E+00
         0.00000E+00
         0.00000E+00
         0.00000E+00
         0.00000E+00
         0.00000E+00
         0.00000E+00
         0.00000E+00
         0.00000E+00
         0.00000E+00
         0.00000E+00
         0.00000E+00
         0.00000E+00
         0.00000E+00
         0.00000E+00
         0.00000E+00
         0.00000E+00
         0.00000E+00
         0.00000E+00
         0.00000E+00
         0.00000E+00
         0.00000E+00
         0.00000E+00
         0.00000E+00
         0.00000E+00
         0.00000E+00
         0.00000E+00
         0.00000E+00
         0.00000E+00
         0.00000E+00
         0.00000E+00
         0.00000E+00
         0.00000E+00
         0.00000E+00
         0.00000E+00
         0.00000E+00
         0.00000E+00
         0.00000E+00
         0.00000E+00
         0.00000E+00
         0.00000E+00
         0.00000E+00
         0.00000E+00
         0.00000E+00
         0.00000E+00
         0.00000E+00
         0.00000E+00
         0.00000E+00
         0.00000E+00
         0.00000E+00
         0.00000E+00
         0.00000E+00
         0.00000E+00
         0.00000E+00
         0.00000E+00
         0.00000E+00
         0.00000E+00
         0.00000E+00
         0.00000E+00
         0.00000E+00
         0.00000E+00
         0.00000E+00
         0.00000E+00
         0.00000E+00
         0.00000E+00
         0.00000E+00
         0.00000E+00
         0.00000E+00
         0.00000E+00
         0.00000E+00
         0.00000E+00
         0.00000E+00
         0.00000E+00
         0.00000E+00
         0.00000E+00
         0.00000E+00
         0.00000E+00
         0.00000E+00
         0.00000E+00
         0.00000E+00
         0.00000E+00
         0.00000E+00
         0.00000E+00
         0.00000E+00
         0.00000E+00
         0.00000E+00
         0.00000E+00
         0.00000E+00
         0.00000E+00
         0.00000E+00
         0.00000E+00
         0.00000E+00
         0.00000E+00
         0.00000E+00
         0.00000E+00
         0.00000E+00
         0.00000E+00
         0.00000E+00
         0.00000E+00
         0.00000E+00
         0.00000E+00
         0.00000E+00
         0.00000E+00
         0.00000E+00
         0.00000E+00
         0.00000E+00
         0.00000E+00
         0.00000E+00
         0.00000E+00
         0.00000E+00
         0.00000E+00
         0.00000E+00
         0.00000E+00
         0.00000E+00
         0.00000E+00
         0.00000E+00
         0.00000E+00
         0.00000E+00
         0.00000E+00
         0.00000E+00
         0.00000E+00
         0.00000E+00
         0.00000E+00
         0.00000E+00
         0.00000E+00
         0.00000E+00
         0.00000E+00
         0.00000E+00
         0.00000E+00
         0.00000E+00
         0.00000E+00
         0.00000E+00
         0.00000E+00
         0.00000E+00
         0.00000E+00
         0.00000E+00
         0.00000E+00
         0.00000E+00
         0.00000E+00
         0.00000E+00
         0.00000E+00
         0.00000E+00
         0.00000E+00
         0.00000E+00
         0.00000E+00
         0.00000E+00
         0.00000E+00
         0.00000E+00
         0.00000E+00
         0.00000E+00
         0.00000E+00
         0.00000E+00
         0.00000E+00
         0.00000E+00
         0.00000E+00
         0.00000E+00
         0.00000E+00
         0.00000E+00
         0.00000E+00
         0.00000E+00
         0.00000E+00
         0.00000E+00
         0.00000E+00
         0.00000E+00
         0.00000E+00
         0.00000E+00
         0.00000E+00
         0.00000E+00
         0.00000E+00
         0.00000E+00
         0.00000E+00
         0.00000E+00
         0.00000E+00
         0.00000E+00
         0.00000E+00
         0.00000E+00
         0.00000E+00
         0.00000E+00
         0.00000E+00
         0.00000E+00
         0.00000E+00
         0.00000E+00
         0.00000E+00
         0.00000E+00
         0.00000E+00
         0.00000E+00
         0.00000E+00
         0.00000E+00
         0.00000E+00
         0.00000E+00
         0.00000E+00
         0.00000E+00
         0.00000E+00
         0.00000E+00
         0.00000E+00
         0.00000E+00
         0.00000E+00
         0.00000E+00
         0.00000E+00
         0.00000E+00
         0.00000E+00
         0.00000E+00
         0.00000E+00
         0.00000E+00
         0.00000E+00
         0.00000E+00
         0.00000E+00
         0.00000E+00
         0.00000E+00
         0.00000E+00
         0.00000E+00
         0.00000E+00
         0.00000E+00
         0.00000E+00
         0.00000E+00
         0.00000E+00
         0.00000E+00
         0.00000E+00
         0.00000E+00
         0.00000E+00
         0.00000E+00
         0.00000E+00
         0.00000E+00
         0.00000E+00
         0.00000E+00
         0.00000E+00
         0.00000E+00
         0.00000E+00
         0.00000E+00
         0.00000E+00
         0.00000E+00
         0.00000E+00
         0.00000E+00
         0.00000E+00
         0.00000E+00
         0.00000E+00
         0.00000E+00
         0.00000E+00
         0.00000E+00
         0.00000E+00
         0.00000E+00
         0.00000E+00
         0.00000E+00
         0.00000E+00
         0.00000E+00
         0.00000E+00
         0.00000E+00
         0.00000E+00
         0.00000E+00
         0.00000E+00
         0.00000E+00
         0.00000E+00
         0.00000E+00
         0.00000E+00
         0.00000E+00
         0.00000E+00
         0.00000E+00
         0.00000E+00
         0.00000E+00
         0.00000E+00
         0.00000E+00
         0.00000E+00
         0.00000E+00
         0.00000E+00
         0.00000E+00
         0.00000E+00
         0.00000E+00
         0.00000E+00
         0.00000E+00
         0.00000E+00
         0.00000E+00
         0.00000E+00
         0.00000E+00
         0.00000E+00
         0.00000E+00
         0.00000E+00
         0.00000E+00
         0.00000E+00
         0.00000E+00
         0.00000E+00
         0.00000E+00
         0.00000E+00
         0.00000E+00
         0.00000E+00
         0.00000E+00
         0.00000E+00
         0.00000E+00
         0.00000E+00
         0.00000E+00
         0.00000E+00
         0.00000E+00
         0.00000E+00
         0.00000E+00
         0.00000E+00
         0.00000E+00
         0.00000E+00
         0.00000E+00
         0.00000E+00
         0.00000E+00
         0.00000E+00
         0.00000E+00
         0.00000E+00
         0.00000E+00
         0.00000E+00
         0.00000E+00
         0.00000E+00
         0.00000E+00
         0.00000E+00
         0.00000E+00
         0.00000E+00
         0.00000E+00
         0.00000E+00
         0.00000E+00
         0.00000E+00
         0.00000E+00
         0.00000E+00
         0.00000E+00
         0.00000E+00
         0.00000E+00
         0.00000E+00
         0.00000E+00
         0.00000E+00
         0.00000E+00
         0.00000E+00
         0.00000E+00
         0.00000E+00
         0.00000E+00
         0.00000E+00
         0.00000E+00
         0.00000E+00
         0.00000E+00
         0.00000E+00
         0.00000E+00
         0.00000E+00
         0.00000E+00
         0.00000E+00
         0.00000E+00
         0.00000E+00
         0.00000E+00
         0.00000E+00
         0.00000E+00
         0.00000E+00
         0.00000E+00
         0.00000E+00
         0.00000E+00
         0.00000E+00
         0.00000E+00
         0.00000E+00
         0.00000E+00
         0.00000E+00
         0.00000E+00
         0.00000E+00
         0.00000E+00
         0.00000E+00
         0.00000E+00
         0.00000E+00
         0.00000E+00
         0.00000E+00
         0.00000E+00
         0.00000E+00
         0.00000E+00
         0.00000E+00
         0.00000E+00
         0.00000E+00
         0.00000E+00
         0.00000E+00
         0.00000E+00
         0.00000E+00
         0.00000E+00
         0.00000E+00
         0.00000E+00
         0.00000E+00
         0.00000E+00
         0.00000E+00
         0.00000E+00
         0.00000E+00
         0.00000E+00
         0.00000E+00
         0.00000E+00
         0.00000E+00
         0.00000E+00
         0.00000E+00
         0.00000E+00
         0.00000E+00
         0.00000E+00
         0.00000E+00
         0.00000E+00
         0.00000E+00
         0.00000E+00
         0.00000E+00
         0.00000E+00
         0.00000E+00
         0.00000E+00
         0.00000E+00
         0.00000E+00
         0.00000E+00
         0.00000E+00
         0.00000E+00
         0.00000E+00
         0.00000E+00
         0.00000E+00
         0.00000E+00
         0.00000E+00
         0.00000E+00
         0.00000E+00
         0.00000E+00
         0.00000E+00
         0.00000E+00
         0.00000E+00
         0.00000E+00
         0.00000E+00
         0.00000E+00
         0.00000E+00
         0.00000E+00
         0.00000E+00
         0.00000E+00
         0.00000E+00
         0.00000E+00
         0.00000E+00
         0.00000E+00
         0.00000E+00
         0.00000E+00
         0.00000E+00
         0.00000E+00
         0.00000E+00
         0.00000E+00
         0.00000E+00
         0.00000E+00
         0.00000E+00
         0.00000E+00
         0.00000E+00
         0.00000E+00
         0.00000E+00
         0.00000E+00
         0.00000E+00
         0.00000E+00
         0.00000E+00
         0.00000E+00
         0.00000E+00
         0.00000E+00
         0.00000E+00
         0.00000E+00
         0.00000E+00
         0.00000E+00
         0.00000E+00
         0.00000E+00
         0.00000E+00
         0.00000E+00
         0.00000E+00
         0.00000E+00
         0.00000E+00
         0.00000E+00
         0.00000E+00
         0.00000E+00
         0.00000E+00
         0.00000E+00
         0.00000E+00
         0.00000E+00
         0.00000E+00
         0.00000E+00
         0.00000E+00
         0.00000E+00
         0.00000E+00
         0.00000E+00
         0.00000E+00
         0.00000E+00
         0.00000E+00
         0.00000E+00
         0.00000E+00
         0.00000E+00
         0.00000E+00
         0.00000E+00
         0.00000E+00
         0.00000E+00
         0.00000E+00
         0.00000E+00
         0.00000E+00
         0.00000E+00
         0.00000E+00
         0.00000E+00
         0.00000E+00
         0.00000E+00
         0.00000E+00
         0.00000E+00
         0.00000E+00
         0.00000E+00
         0.00000E+00
         0.00000E+00
         0.00000E+00
         0.00000E+00
         0.00000E+00
         0.00000E+00
         0.00000E+00
         0.00000E+00
         0.00000E+00
         0.00000E+00
         0.00000E+00
         0.00000E+00
         0.00000E+00
         0.00000E+00
         0.00000E+00
         0.00000E+00
         0.00000E+00
         0.00000E+00
         0.00000E+00
         0.00000E+00
         0.00000E+00
         0.00000E+00
         0.00000E+00
         0.00000E+00
         0.00000E+00
         0.00000E+00
         0.00000E+00
         0.00000E+00
         0.00000E+00
         0.00000E+00
         0.00000E+00
         0.00000E+00
         0.00000E+00
         0.00000E+00
         0.00000E+00
         0.00000E+00
         0.00000E+00
         0.00000E+00
         0.00000E+00
         0.00000E+00
         0.00000E+00
         0.00000E+00
         0.00000E+00
         0.00000E+00
         0.00000E+00
         0.00000E+00
         0.00000E+00
         0.00000E+00
         0.00000E+00
         0.00000E+00
         0.00000E+00
         0.00000E+00
         0.00000E+00
         0.00000E+00
         0.00000E+00
         0.00000E+00
         0.00000E+00
         0.00000E+00
         0.00000E+00
         0.00000E+00
         0.00000E+00
         0.00000E+00
         0.00000E+00
         0.00000E+00
         0.00000E+00
         0.00000E+00
         0.00000E+00
         0.00000E+00
         0.00000E+00
         0.00000E+00
         0.00000E+00
         0.00000E+00
         0.00000E+00
         0.00000E+00
         0.00000E+00
         0.00000E+00
         0.00000E+00
         0.00000E+00
         0.00000E+00
         0.00000E+00
         0.00000E+00
         0.00000E+00
         0.00000E+00
         0.00000E+00
         0.00000E+00
         0.00000E+00
         0.00000E+00
         0.00000E+00
         0.00000E+00
         0.00000E+00
         0.00000E+00
         0.00000E+00
         0.00000E+00
         0.00000E+00
         0.00000E+00
         0.00000E+00
         0.00000E+00
         0.00000E+00
         0.00000E+00
         0.00000E+00
         0.00000E+00
         0.00000E+00
         0.00000E+00
         0.00000E+00
         0.00000E+00
         0.00000E+00
         0.00000E+00
         0.00000E+00
         0.00000E+00
         0.00000E+00
         0.00000E+00
         0.00000E+00
         0.00000E+00
         0.00000E+00
         0.00000E+00
         0.00000E+00
         0.00000E+00
         0.00000E+00
         0.00000E+00
         0.00000E+00
         0.00000E+00
         0.00000E+00
         0.00000E+00
         0.00000E+00
         0.00000E+00
         0.00000E+00
         0.00000E+00
         0.00000E+00
         0.00000E+00
         0.00000E+00
         0.00000E+00
         0.00000E+00
         0.00000E+00
         0.00000E+00
         0.00000E+00
         0.00000E+00
         0.00000E+00
         0.00000E+00
         0.00000E+00
         0.00000E+00
         0.00000E+00
         0.00000E+00
         0.00000E+00
         0.00000E+00
         0.00000E+00
         0.00000E+00
         0.00000E+00
         0.00000E+00
         0.00000E+00
         0.00000E+00
         0.00000E+00
         0.00000E+00
         0.00000E+00
         0.00000E+00
         0.00000E+00
         0.00000E+00
         0.00000E+00
         0.00000E+00
         0.00000E+00
         0.00000E+00
         0.00000E+00
         0.00000E+00
         0.00000E+00
         0.00000E+00
         0.00000E+00
         0.00000E+00
         0.00000E+00
         0.00000E+00
         0.00000E+00
         0.00000E+00
         0.00000E+00
         0.00000E+00
         0.00000E+00
         0.00000E+00
         0.00000E+00
         0.00000E+00
         0.00000E+00
         0.00000E+00
         0.00000E+00
         0.00000E+00
         0.00000E+00
         0.00000E+00
         0.00000E+00
         0.00000E+00
         0.00000E+00
         0.00000E+00
         0.00000E+00
         0.00000E+00
         0.00000E+00
         0.00000E+00
         0.00000E+00
         0.00000E+00
         0.00000E+00
         0.00000E+00
         0.00000E+00
         0.00000E+00
         0.00000E+00
         0.00000E+00
         0.00000E+00
         0.00000E+00
         0.00000E+00
         0.00000E+00
         0.00000E+00
         0.00000E+00
         0.00000E+00
         0.00000E+00
         0.00000E+00
         0.00000E+00
         0.00000E+00
         0.00000E+00
         0.00000E+00
         0.00000E+00
         0.00000E+00
         0.00000E+00
         0.00000E+00
         0.00000E+00
         0.00000E+00
         0.00000E+00
         0.00000E+00
         0.00000E+00
         0.00000E+00
         0.00000E+00
         0.00000E+00
         0.00000E+00
         0.00000E+00
         0.00000E+00
         0.00000E+00
         0.00000E+00
         0.00000E+00
         0.00000E+00
         0.00000E+00
         0.00000E+00
         0.00000E+00
         0.00000E+00
         0.00000E+00
         0.00000E+00
         0.00000E+00
         0.00000E+00
         0.00000E+00
         0.00000E+00
         0.00000E+00
         0.00000E+00
         0.00000E+00
         0.00000E+00
         0.00000E+00
         0.00000E+00
         0.00000E+00
         0.00000E+00
         0.00000E+00
         0.00000E+00
         0.00000E+00
         0.00000E+00
         0.00000E+00
         0.00000E+00
         0.00000E+00
         0.00000E+00
         0.00000E+00
         0.00000E+00
         0.00000E+00
         0.00000E+00
         0.00000E+00
         0.00000E+00
         0.00000E+00
         0.00000E+00
         0.00000E+00
         0.00000E+00
         0.00000E+00
         0.00000E+00
         0.00000E+00
         0.00000E+00
         0.00000E+00
         0.00000E+00
         0.00000E+00
         0.00000E+00
         0.00000E+00
         0.00000E+00
         0.00000E+00
         0.00000E+00
         0.00000E+00
         0.00000E+00
         0.00000E+00
         0.00000E+00
         0.00000E+00
         0.00000E+00
         0.00000E+00
         0.00000E+00
         0.00000E+00
         0.00000E+00
         0.00000E+00
         0.00000E+00
         0.00000E+00
         0.00000E+00
         0.00000E+00
         0.00000E+00
         0.00000E+00
         0.00000E+00
         0.00000E+00
         0.00000E+00
         0.00000E+00
         0.00000E+00
         0.00000E+00
         0.00000E+00
         0.00000E+00
         0.00000E+00
         0.00000E+00
         0.00000E+00
         0.00000E+00
         0.00000E+00
         0.00000E+00
         0.00000E+00
         0.00000E+00
         0.00000E+00
         0.00000E+00
         0.00000E+00
         0.00000E+00
         0.00000E+00
         0.00000E+00
         0.00000E+00
         0.00000E+00
         0.00000E+00
         0.00000E+00
         0.00000E+00
         0.00000E+00
         0.00000E+00
         0.00000E+00
         0.00000E+00
         0.00000E+00
         0.00000E+00
         0.00000E+00
         0.00000E+00
         0.00000E+00
         0.00000E+00
         0.00000E+00
         0.00000E+00
         0.00000E+00
         0.00000E+00
         0.00000E+00
         0.00000E+00
         0.00000E+00
         0.00000E+00
         0.00000E+00
         0.00000E+00
         0.00000E+00
         0.00000E+00
         0.00000E+00
         0.00000E+00
         0.00000E+00
         0.00000E+00
         0.00000E+00
         0.00000E+00
         0.00000E+00
         0.00000E+00
         0.00000E+00
         0.00000E+00
         0.00000E+00
         0.00000E+00
         0.00000E+00
         0.00000E+00
         0.00000E+00
         0.00000E+00
         0.00000E+00
         0.00000E+00
         0.00000E+00
         0.00000E+00
         0.00000E+00
         0.00000E+00
         0.00000E+00
         0.00000E+00
         0.00000E+00
         0.00000E+00
         0.00000E+00
         0.00000E+00
         0.00000E+00
         0.00000E+00
         0.00000E+00
         0.00000E+00
         0.00000E+00
         0.00000E+00
         0.00000E+00
         0.00000E+00
         0.00000E+00
         0.00000E+00
         0.00000E+00
         0.00000E+00
         0.00000E+00
         0.00000E+00
         0.00000E+00
         0.00000E+00
         0.00000E+00
         0.00000E+00
         0.00000E+00
         0.00000E+00
         0.00000E+00
         0.00000E+00
         0.00000E+00
         0.00000E+00
         0.00000E+00
         0.00000E+00
         0.00000E+00
         0.00000E+00
         0.00000E+00
         0.00000E+00
         0.00000E+00
         0.00000E+00
         0.00000E+00
         0.00000E+00
         0.00000E+00
         0.00000E+00
         0.00000E+00
         0.00000E+00
         0.00000E+00
         0.00000E+00
         0.00000E+00
         0.00000E+00
         0.00000E+00
         0.00000E+00
         0.00000E+00
         0.00000E+00
         0.00000E+00
         0.00000E+00
         0.00000E+00
         0.00000E+00
         0.00000E+00
         0.00000E+00
         0.00000E+00
         0.00000E+00
         0.00000E+00
         0.00000E+00
         0.00000E+00
         0.00000E+00
         0.00000E+00
         0.00000E+00
         0.00000E+00
         0.00000E+00
         0.00000E+00
         0.00000E+00
         0.00000E+00
         0.00000E+00
         0.00000E+00
         0.00000E+00
         0.00000E+00
         0.00000E+00
         0.00000E+00
         0.00000E+00
         0.00000E+00
         0.00000E+00
         0.00000E+00
         0.00000E+00
         0.00000E+00
         0.00000E+00
         0.00000E+00
         0.00000E+00
         0.00000E+00
         0.00000E+00
         0.00000E+00
         0.00000E+00
         0.00000E+00
         0.00000E+00
         0.00000E+00
         0.00000E+00
         0.00000E+00
         0.00000E+00
         0.00000E+00
         0.00000E+00
         0.00000E+00
         0.00000E+00
         0.00000E+00
         0.00000E+00
         0.00000E+00
         0.00000E+00
         0.00000E+00
         0.00000E+00
         0.00000E+00
         0.00000E+00
         0.00000E+00
         0.00000E+00
         0.00000E+00
         0.00000E+00
         0.00000E+00
         0.00000E+00
         0.00000E+00
         0.00000E+00
         0.00000E+00
         0.00000E+00
         0.00000E+00
         0.00000E+00
         0.00000E+00
         0.00000E+00
         0.00000E+00
         0.00000E+00
         0.00000E+00
         0.00000E+00
         0.00000E+00
         0.00000E+00
         0.00000E+00
         0.00000E+00
         0.00000E+00
         0.00000E+00
         0.00000E+00
         0.00000E+00
         0.00000E+00
         0.00000E+00
         0.00000E+00
         0.00000E+00
         0.00000E+00
         0.00000E+00
         0.00000E+00
         0.00000E+00
         0.00000E+00
         0.00000E+00
         0.00000E+00
         0.00000E+00
         0.00000E+00
         0.00000E+00
         0.00000E+00
         0.00000E+00
         0.00000E+00
         0.00000E+00
         0.00000E+00
         0.00000E+00
         0.00000E+00
         0.00000E+00
         0.00000E+00
         0.00000E+00
         0.00000E+00
         0.00000E+00
         0.00000E+00
         0.00000E+00
         0.00000E+00
         0.00000E+00
         0.00000E+00
         0.00000E+00
         0.00000E+00
         0.00000E+00
         0.00000E+00
         0.00000E+00
         0.00000E+00
         0.00000E+00
         0.00000E+00
         0.00000E+00
         0.00000E+00
         0.00000E+00
         0.00000E+00
         0.00000E+00
         0.00000E+00
         0.00000E+00
         0.00000E+00
         0.00000E+00
         0.00000E+00
         0.00000E+00
         0.00000E+00
         0.00000E+00
         0.00000E+00
         0.00000E+00
         0.00000E+00
         0.00000E+00
         0.00000E+00
         0.00000E+00
         0.00000E+00
         0.00000E+00
         0.00000E+00
         0.00000E+00
         0.00000E+00
         0.00000E+00
         0.00000E+00
         0.00000E+00
         0.00000E+00
         0.00000E+00
         0.00000E+00
         0.00000E+00
         0.00000E+00
         0.00000E+00
         0.00000E+00
         0.00000E+00
         0.00000E+00
         0.00000E+00
         0.00000E+00
         0.00000E+00
         0.00000E+00
         0.00000E+00
         0.00000E+00
         0.00000E+00
         0.00000E+00
         0.00000E+00
         0.00000E+00
         0.00000E+00
         0.00000E+00
         0.00000E+00
         0.00000E+00
         0.00000E+00
         0.00000E+00
         0.00000E+00
         0.00000E+00
         0.00000E+00
         0.00000E+00
         0.00000E+00
         0.00000E+00
         0.00000E+00
         0.00000E+00
         0.00000E+00
         0.00000E+00
         0.00000E+00
         0.00000E+00
         0.00000E+00
         0.00000E+00
         0.00000E+00
         0.00000E+00
         0.00000E+00
         0.00000E+00
         0.00000E+00
         0.00000E+00
         0.00000E+00
         0.00000E+00
         0.00000E+00
         0.00000E+00
         0.00000E+00
         0.00000E+00
         0.00000E+00
         0.00000E+00
         0.00000E+00
         0.00000E+00
         0.00000E+00
         0.00000E+00
         0.00000E+00
         0.00000E+00
         0.00000E+00
         0.00000E+00
         0.00000E+00
         0.00000E+00
         0.00000E+00
         0.00000E+00
         0.00000E+00
         0.00000E+00
         0.00000E+00
         0.00000E+00
         0.00000E+00
         0.00000E+00
         0.00000E+00
         0.00000E+00
         0.00000E+00
         0.00000E+00
         0.00000E+00
         0.00000E+00
         0.00000E+00
         0.00000E+00
         0.00000E+00
         0.00000E+00
         0.00000E+00
         0.00000E+00
         0.00000E+00
         0.00000E+00
         0.00000E+00
         0.00000E+00
         0.00000E+00
         0.00000E+00
         0.00000E+00
         0.00000E+00
         0.00000E+00
         0.00000E+00
         0.00000E+00
         0.00000E+00
         0.00000E+00
         0.00000E+00
         0.00000E+00
         0.00000E+00
         0.00000E+00
         0.00000E+00
         0.00000E+00
  
SCALARS                      stress_xx  double 1
LOOKUP_TABLE default
         0.28170E+13
         0.27827E+13
         0.28045E+13
         0.28435E+13
        -0.26271E+03
        -0.29459E+03
        -0.28208E+03
        -0.25626E+03
         0.27815E+13
         0.27931E+13
        -0.26491E+03
        -0.25637E+03
         0.27330E+13
         0.27311E+13
        -0.31477E+03
        -0.29596E+03
         0.28378E+13
         0.27338E+13
        -0.23258E+03
        -0.25797E+03
         0.26955E+13
         0.26658E+13
         0.27131E+13
        -0.31197E+03
        -0.27245E+03
        -0.28134E+03
         0.26670E+13
         0.26235E+13
        -0.29930E+03
        -0.25240E+03
         0.28359E+13
         0.27907E+13
         0.28797E+13
        -0.25541E+03
        -0.23744E+03
        -0.23085E+03
         0.28098E+13
         0.27521E+13
        -0.27021E+03
        -0.24657E+03
         0.27870E+13
         0.27425E+13
        -0.23354E+03
        -0.20675E+03
         0.28246E+13
         0.28413E+13
        -0.25592E+03
        -0.28596E+03
         0.27067E+13
        -0.25002E+03
         0.28380E+13
        -0.29378E+03
         0.26544E+13
        -0.26402E+03
         0.26408E+13
        -0.25325E+03
         0.26410E+13
         0.26895E+13
        -0.25804E+03
        -0.25130E+03
         0.28350E+13
         0.28176E+13
        -0.25874E+03
        -0.29251E+03
         0.28458E+13
        -0.24967E+03
         0.28252E+13
        -0.27248E+03
         0.27708E+13
         0.27654E+13
        -0.26229E+03
        -0.27484E+03
         0.27531E+13
        -0.27714E+03
         0.26080E+13
        -0.21896E+03
         0.26004E+13
        -0.21254E+03
         0.26042E+13
        -0.22410E+03
         0.26252E+13
         0.26471E+13
        -0.21351E+03
        -0.22260E+03
         0.26911E+13
        -0.20732E+03
         0.28237E+13
        -0.27188E+03
         0.28030E+13
        -0.27826E+03
         0.27861E+13
         0.27768E+13
        -0.26722E+03
        -0.27034E+03
         0.27882E+13
        -0.24555E+03
         0.27964E+13
        -0.24204E+03
         0.27890E+13
        -0.25911E+03
         0.27864E+13
         0.27939E+13
        -0.25409E+03
        -0.26155E+03
         0.27455E+13
         0.27651E+13
        -0.19728E+03
        -0.18555E+03
         0.27417E+13
        -0.18838E+03
         0.27644E+13
        -0.18062E+03
         0.27420E+13
        -0.17810E+03
         0.26925E+13
        -0.16831E+03
         0.26443E+13
        -0.14953E+03
         0.26155E+13
        -0.13464E+03
         0.26125E+13
        -0.13370E+03
         0.26134E+13
        -0.14499E+03
         0.26447E+13
        -0.15239E+03
         0.27031E+13
        -0.13914E+03
         0.27672E+13
        -0.12542E+03
         0.28047E+13
        -0.12528E+03
         0.28416E+13
        -0.14003E+03
         0.28661E+13
        -0.15967E+03
         0.28652E+13
        -0.17153E+03
         0.28058E+13
        -0.18526E+03
         0.27644E+13
        -0.19847E+03
         0.27502E+13
        -0.18182E+03
         0.27724E+13
        -0.15950E+03
         0.27840E+13
        -0.15901E+03
         0.27646E+13
        -0.17397E+03
         0.27649E+13
        -0.18547E+03
         0.27795E+13
        -0.17601E+03
         0.27986E+13
        -0.17016E+03
        -0.54513E+10
        -0.31537E+10
        -0.34681E+10
        -0.64149E+10
        -0.86787E+09
        -0.37319E+10
        -0.16633E+09
        -0.20486E+10
        -0.59585E+10
        -0.35494E+10
         0.18969E+10
         0.25341E+10
         0.84142E+09
         0.72639E+09
         0.18154E+10
        -0.62780E+10
        -0.57375E+10
        -0.72410E+10
        -0.29004E+10
        -0.37121E+10
        -0.25501E+10
        -0.33205E+10
        -0.18908E+10
        -0.22639E+10
        -0.36444E+10
        -0.35466E+10
        -0.11718E+10
        -0.13905E+10
         0.41235E+09
        -0.22981E+10
        -0.60115E+10
        -0.31205E+10
        -0.59912E+10
        -0.41080E+10
         0.29794E+10
         0.64337E+09
        -0.44597E+09
         0.83599E+09
         0.10042E+10
         0.31469E+10
         0.47351E+10
         0.90872E+09
        -0.25982E+10
        -0.21308E+10
        -0.34009E+09
         0.28920E+10
         0.12744E+09
        -0.27449E+10
        -0.25479E+10
        -0.32941E+09
         0.19968E+10
        -0.11263E+10
         0.86892E+10
         0.57031E+10
         0.61924E+10
         0.55027E+10
         0.56784E+10
         0.72780E+10
         0.89459E+10
         0.94935E+10
         0.92576E+10
         0.94262E+10
         0.10145E+11
         0.58309E+10
         0.42566E+10
         0.36560E+10
         0.26412E+10
         0.18774E+10
         0.19125E+10
         0.32158E+10
         0.76830E+10
         0.66011E+10
         0.50589E+10
         0.50751E+10
         0.53419E+10
         0.68231E+10
         0.46463E+10
         0.38518E+10
         0.21030E+07
         0.94462E+06
         0.12138E+07
         0.14775E+07
         0.10123E+07
         0.17864E+07
        -0.78873E+06
        -0.14990E+07
         0.26898E+07
        -0.16662E+07
        -0.21092E+07
        -0.59020E+05
         0.16397E+06
        -0.56504E+07
        -0.17479E+07
        -0.39360E+05
         0.67876E+06
         0.11747E+07
        -0.38064E+04
        -0.29675E+06
        -0.14148E+07
        -0.30292E+06
        -0.22881E+07
        -0.10672E+07
        -0.19829E+07
        -0.37021E+06
        -0.73828E+07
        -0.40068E+07
        -0.27231E+07
        -0.18585E+07
         0.45374E+05
        -0.70850E+06
         0.13633E+07
         0.23438E+07
        -0.10453E+07
        -0.74300E+06
        -0.13036E+06
        -0.21679E+07
        -0.15401E+07
        -0.89497E+06
        -0.77949E+06
        -0.16436E+07
        -0.13225E+07
        -0.19017E+07
        -0.14610E+07
        -0.72576E+06
        -0.17825E+06
        -0.90161E+05
         0.11282E+07
         0.18424E+07
         0.11116E+07
         0.15340E+07
        -0.40323E+07
        -0.13214E+06
        -0.22199E+07
         0.11190E+07
         0.39070E+07
         0.58757E+07
         0.48294E+07
         0.52881E+07
         0.42370E+07
         0.24045E+07
         0.11557E+07
         0.10444E+06
        -0.10967E+07
         0.46837E+06
        -0.22195E+07
        -0.40244E+07
        -0.34075E+07
        -0.30628E+07
        -0.17623E+07
         0.10389E+07
         0.10734E+07
         0.14991E+06
        -0.14044E+07
        -0.20039E+07
        -0.84395E+06
         0.68713E+06
         0.19778E+07
         0.82009E+06
         0.10915E+07
         0.13744E+07
         0.86373E+06
         0.16514E+07
        -0.91453E+06
        -0.16417E+07
         0.25622E+07
        -0.18217E+07
        -0.22555E+07
        -0.25119E+06
        -0.28846E+04
        -0.58031E+07
        -0.19384E+07
        -0.17252E+06
         0.54573E+06
         0.10825E+07
        -0.14587E+06
        -0.42870E+06
        -0.15799E+07
        -0.46401E+06
        -0.24582E+07
        -0.12057E+07
        -0.21490E+07
        -0.48073E+06
        -0.75317E+07
        -0.41209E+07
        -0.28712E+07
        -0.20303E+07
        -0.81773E+05
        -0.83119E+06
         0.12577E+07
         0.22404E+07
        -0.12146E+07
        -0.88697E+06
        -0.27731E+06
        -0.23608E+07
        -0.17199E+07
        -0.10721E+07
        -0.96946E+06
        -0.18294E+07
        -0.14989E+07
        -0.20652E+07
        -0.16154E+07
        -0.89621E+06
        -0.33324E+06
        -0.23583E+06
         0.99733E+06
         0.17094E+07
         0.95564E+06
         0.13929E+07
        -0.43386E+07
        -0.43081E+06
        -0.25138E+07
         0.83737E+06
         0.36093E+07
         0.55442E+07
         0.44983E+07
         0.49529E+07
         0.38983E+07
         0.20584E+07
         0.81113E+06
        -0.21409E+06
        -0.13630E+07
         0.21952E+06
        -0.24802E+07
        -0.43025E+07
        -0.36916E+07
        -0.33595E+07
        -0.20602E+07
         0.72390E+06
         0.77592E+06
        -0.11890E+06
        -0.16734E+07
        -0.22795E+07
        -0.11224E+07
         0.40352E+06
         0.20069E+07
         0.84453E+06
         0.11175E+07
         0.14035E+07
         0.90357E+06
         0.16886E+07
        -0.89180E+06
        -0.16082E+07
         0.25841E+07
        -0.18147E+07
        -0.22246E+07
        -0.21459E+06
         0.28570E+05
        -0.57630E+07
        -0.18913E+07
        -0.19980E+06
         0.53909E+06
         0.11073E+07
        -0.18078E+06
        -0.45346E+06
        -0.16069E+07
        -0.47432E+06
        -0.25698E+07
        -0.13056E+07
        -0.22208E+07
        -0.55842E+06
        -0.75025E+07
        -0.41323E+07
        -0.29353E+07
        -0.21505E+07
        -0.82433E+05
        -0.85917E+06
         0.12892E+07
         0.22753E+07
        -0.11708E+07
        -0.85014E+06
        -0.24449E+06
        -0.23281E+07
        -0.16918E+07
        -0.10630E+07
        -0.97435E+06
        -0.18972E+07
        -0.15939E+07
        -0.21745E+07
        -0.16416E+07
        -0.87263E+06
        -0.30499E+06
        -0.20351E+06
         0.10333E+07
         0.17504E+07
         0.10002E+07
         0.14330E+07
        -0.42472E+07
        -0.34887E+06
        -0.24230E+07
         0.90715E+06
         0.36612E+07
         0.55957E+07
         0.45640E+07
         0.50188E+07
         0.39652E+07
         0.21277E+07
         0.85190E+06
        -0.21559E+06
        -0.13587E+07
         0.26538E+06
        -0.24499E+07
        -0.43589E+07
        -0.37527E+07
        -0.33437E+07
        -0.19783E+07
         0.81866E+06
         0.86079E+06
        -0.33143E+05
        -0.15770E+07
        -0.21985E+07
        -0.10566E+07
         0.46701E+06
         0.19890E+07
         0.83394E+06
         0.11072E+07
         0.13883E+07
         0.89024E+06
         0.16777E+07
        -0.90490E+06
        -0.16259E+07
         0.25476E+07
        -0.18811E+07
        -0.22388E+07
        -0.23458E+06
         0.14974E+05
        -0.57792E+07
        -0.19147E+07
        -0.30594E+06
         0.46076E+06
         0.10908E+07
        -0.30495E+06
        -0.56426E+06
        -0.17321E+07
        -0.58560E+06
        -0.28295E+07
        -0.15291E+07
        -0.24182E+07
        -0.73453E+06
        -0.75431E+07
        -0.42241E+07
        -0.31163E+07
        -0.24386E+07
        -0.14476E+06
        -0.96993E+06
         0.12751E+07
         0.22592E+07
        -0.11929E+07
        -0.86425E+06
        -0.25603E+06
        -0.23641E+07
        -0.17365E+07
        -0.11439E+07
        -0.10820E+07
        -0.21076E+07
        -0.18516E+07
        -0.24326E+07
        -0.17692E+07
        -0.94120E+06
        -0.35475E+06
        -0.23092E+06
         0.10112E+07
         0.17253E+07
         0.97689E+06
         0.14177E+07
        -0.42899E+07
        -0.37822E+06
        -0.24694E+07
         0.86652E+06
         0.36339E+07
         0.55643E+07
         0.45112E+07
         0.49615E+07
         0.39100E+07
         0.20608E+07
         0.74577E+06
        -0.38693E+06
        -0.15200E+07
         0.18881E+06
        -0.25360E+07
        -0.45954E+07
        -0.40032E+07
        -0.34609E+07
        -0.20340E+07
         0.76556E+06
         0.82038E+06
        -0.80962E+05
        -0.16268E+07
        -0.22323E+07
        -0.10823E+07
         0.44137E+06
         0.19565E+07
         0.81249E+06
         0.10894E+07
         0.13724E+07
         0.87474E+06
         0.16623E+07
        -0.92399E+06
        -0.16560E+07
         0.25038E+07
        -0.19502E+07
        -0.22540E+07
        -0.24708E+06
        -0.17221E+03
        -0.57973E+07
        -0.19258E+07
        -0.37802E+06
         0.39873E+06
         0.10754E+07
        -0.38665E+06
        -0.64386E+06
        -0.18126E+07
        -0.66552E+06
        -0.29890E+07
        -0.16677E+07
        -0.25608E+07
        -0.84767E+06
        -0.75784E+07
        -0.42893E+07
        -0.32437E+07
        -0.26300E+07
        -0.20989E+06
        -0.10506E+07
         0.12450E+07
         0.22363E+07
        -0.12158E+07
        -0.88241E+06
        -0.27348E+06
        -0.23911E+07
        -0.17737E+07
        -0.12054E+07
        -0.11579E+07
        -0.22493E+07
        -0.20208E+07
        -0.25963E+07
        -0.18531E+07
        -0.98637E+06
        -0.39888E+06
        -0.27462E+06
         0.97259E+06
         0.16882E+07
         0.94037E+06
         0.13928E+07
        -0.43283E+07
        -0.40382E+06
        -0.25088E+07
         0.83492E+06
         0.36212E+07
         0.55550E+07
         0.44887E+07
         0.49236E+07
         0.38631E+07
         0.20193E+07
         0.68116E+06
        -0.50548E+06
        -0.16301E+07
         0.12963E+06
        -0.25968E+07
        -0.47487E+07
        -0.41790E+07
        -0.35447E+07
        -0.20592E+07
         0.71732E+06
         0.76680E+06
        -0.13583E+06
        -0.16909E+07
        -0.22873E+07
        -0.11164E+07
         0.41579E+06
         0.18779E+07
         0.77137E+06
         0.10718E+07
         0.13882E+07
         0.89569E+06
         0.16885E+07
        -0.93808E+06
        -0.17094E+07
         0.24422E+07
        -0.20438E+07
        -0.22405E+07
        -0.20429E+06
         0.16196E+05
        -0.57888E+07
        -0.18718E+07
        -0.36583E+06
         0.38444E+06
         0.11008E+07
        -0.36981E+06
        -0.63178E+06
        -0.17888E+07
        -0.63733E+06
        -0.29855E+07
        -0.16706E+07
        -0.26223E+07
        -0.86434E+06
        -0.75866E+07
        -0.42933E+07
        -0.32444E+07
        -0.26370E+07
        -0.28755E+06
        -0.10933E+07
         0.11931E+07
         0.22313E+07
        -0.11967E+07
        -0.88003E+06
        -0.27651E+06
        -0.23579E+07
        -0.17451E+07
        -0.11734E+07
        -0.11209E+07
        -0.22275E+07
        -0.20028E+07
        -0.26064E+07
        -0.18634E+07
        -0.99378E+06
        -0.43703E+06
        -0.36217E+06
         0.87771E+06
         0.16377E+07
         0.92852E+06
         0.14048E+07
        -0.42532E+07
        -0.32622E+06
        -0.24456E+07
         0.87720E+06
         0.36657E+07
         0.56154E+07
         0.45570E+07
         0.49892E+07
         0.39385E+07
         0.21190E+07
         0.76821E+06
        -0.45294E+06
        -0.15720E+07
         0.19021E+06
        -0.25384E+07
        -0.47021E+07
        -0.41451E+07
        -0.35111E+07
        -0.20187E+07
         0.74526E+06
         0.76076E+06
        -0.17400E+06
        -0.17159E+07
        -0.22744E+07
        -0.10787E+07
         0.46976E+06
         0.17584E+07
         0.69865E+06
         0.10297E+07
         0.13791E+07
         0.88037E+06
         0.16878E+07
        -0.99074E+06
        -0.18146E+07
         0.23378E+07
        -0.21822E+07
        -0.22750E+07
        -0.22084E+06
        -0.11004E+05
        -0.58361E+07
        -0.18832E+07
        -0.38800E+06
         0.33353E+06
         0.10961E+07
        -0.38406E+06
        -0.64989E+06
        -0.17999E+07
        -0.64512E+06
        -0.29981E+07
        -0.16875E+07
        -0.27089E+07
        -0.89345E+06
        -0.76468E+07
        -0.43247E+07
        -0.32649E+07
        -0.26601E+07
        -0.39571E+06
        -0.11630E+07
         0.11126E+07
         0.22005E+07
        -0.12234E+07
        -0.90980E+06
        -0.31096E+06
        -0.23862E+07
        -0.17722E+07
        -0.11885E+07
        -0.11275E+07
        -0.22311E+07
        -0.20045E+07
        -0.26311E+07
        -0.19096E+07
        -0.10578E+07
        -0.52508E+06
        -0.49350E+06
         0.74233E+06
         0.15493E+07
         0.87962E+06
         0.13879E+07
        -0.42845E+07
        -0.35053E+06
        -0.24642E+07
         0.85587E+06
         0.36349E+07
         0.55784E+07
         0.45264E+07
         0.49629E+07
         0.39122E+07
         0.20993E+07
         0.75250E+06
        -0.47204E+06
        -0.15753E+07
         0.18547E+06
        -0.25513E+07
        -0.47095E+07
        -0.41600E+07
        -0.35642E+07
        -0.20976E+07
         0.65829E+06
         0.66299E+06
        -0.29483E+06
        -0.18218E+07
        -0.23305E+07
        -0.11089E+07
         0.44600E+06
         0.17235E+07
         0.67160E+06
         0.10123E+07
         0.13664E+07
         0.86382E+06
         0.16728E+07
        -0.10189E+07
        -0.18502E+07
         0.23075E+07
        -0.22235E+07
        -0.22994E+07
        -0.24406E+06
        -0.37791E+05
        -0.58610E+07
        -0.19026E+07
        -0.40802E+06
         0.31309E+06
         0.10842E+07
        -0.39713E+06
        -0.66399E+06
        -0.18173E+07
        -0.66350E+06
        -0.30147E+07
        -0.17005E+07
        -0.27404E+07
        -0.91026E+06
        -0.76725E+07
        -0.43397E+07
        -0.32948E+07
        -0.26821E+07
        -0.43171E+06
        -0.11907E+07
         0.10886E+07
         0.21836E+07
        -0.12460E+07
        -0.92574E+06
        -0.33189E+06
        -0.24217E+07
        -0.18035E+07
        -0.12197E+07
        -0.11594E+07
        -0.22568E+07
        -0.20207E+07
        -0.26531E+07
        -0.19370E+07
        -0.10877E+07
        -0.55403E+06
        -0.52630E+06
         0.70895E+06
         0.15187E+07
         0.84945E+06
         0.13668E+07
        -0.43275E+07
        -0.39274E+06
        -0.24928E+07
         0.82639E+06
         0.35992E+07
         0.55471E+07
         0.44942E+07
         0.49182E+07
         0.38534E+07
         0.20375E+07
         0.69649E+06
        -0.49739E+06
        -0.15955E+07
         0.14242E+06
        -0.25966E+07
        -0.47526E+07
        -0.42158E+07
        -0.36177E+07
        -0.21424E+07
         0.62192E+06
         0.63325E+06
        -0.33511E+06
        -0.18750E+07
        -0.23800E+07
        -0.11506E+07
         0.40459E+06
         0.17454E+07
         0.68972E+06
         0.10256E+07
         0.13723E+07
         0.88322E+06
         0.16784E+07
        -0.10046E+07
        -0.18222E+07
         0.23280E+07
        -0.21968E+07
        -0.22809E+07
        -0.22092E+06
        -0.20986E+05
        -0.58306E+07
        -0.18656E+07
        -0.38377E+06
         0.33308E+06
         0.10958E+07
        -0.37242E+06
        -0.64465E+06
        -0.17931E+07
        -0.64090E+06
        -0.29904E+07
        -0.16779E+07
        -0.27196E+07
        -0.89320E+06
        -0.76357E+07
        -0.43138E+07
        -0.32844E+07
        -0.26615E+07
        -0.41233E+06
        -0.11752E+07
         0.11048E+07
         0.21906E+07
        -0.12211E+07
        -0.90657E+06
        -0.31528E+06
        -0.23971E+07
        -0.17842E+07
        -0.12026E+07
        -0.11377E+07
        -0.22335E+07
        -0.19966E+07
        -0.26310E+07
        -0.19185E+07
        -0.10685E+07
        -0.53482E+06
        -0.50393E+06
         0.73132E+06
         0.15360E+07
         0.86253E+06
         0.13721E+07
        -0.42633E+07
        -0.32965E+06
        -0.24551E+07
         0.84183E+06
         0.36307E+07
         0.55960E+07
         0.45486E+07
         0.49570E+07
         0.38685E+07
         0.20605E+07
         0.73784E+06
        -0.43869E+06
        -0.15441E+07
         0.17574E+06
        -0.25653E+07
        -0.47164E+07
        -0.41789E+07
        -0.35723E+07
        -0.20992E+07
         0.67257E+06
         0.68559E+06
        -0.28841E+06
        -0.18358E+07
        -0.23452E+07
        -0.11159E+07
         0.44217E+06
         0.17395E+07
         0.68804E+06
         0.10221E+07
         0.13643E+07
         0.88035E+06
         0.16707E+07
        -0.10107E+07
        -0.18309E+07
         0.23132E+07
        -0.22126E+07
        -0.22909E+07
        -0.23504E+06
        -0.25295E+05
        -0.58420E+07
        -0.18861E+07
        -0.39643E+06
         0.31995E+06
         0.10830E+07
        -0.38320E+06
        -0.65553E+06
        -0.18020E+07
        -0.65259E+06
        -0.29990E+07
        -0.16865E+07
        -0.27296E+07
        -0.90055E+06
        -0.76439E+07
        -0.43122E+07
        -0.32980E+07
        -0.26719E+07
        -0.42425E+06
        -0.11838E+07
         0.10930E+07
         0.21785E+07
        -0.12296E+07
        -0.91353E+06
        -0.31999E+06
        -0.24279E+07
        -0.18021E+07
        -0.12188E+07
        -0.11532E+07
        -0.22437E+07
        -0.20105E+07
        -0.26370E+07
        -0.19245E+07
        -0.10780E+07
        -0.54816E+06
        -0.51905E+06
         0.71831E+06
         0.15241E+07
         0.85079E+06
         0.13600E+07
        -0.42818E+07
        -0.34425E+06
        -0.24850E+07
         0.81628E+06
         0.36272E+07
         0.55780E+07
         0.45068E+07
         0.49102E+07
         0.38412E+07
         0.20194E+07
         0.69293E+06
        -0.46107E+06
        -0.15706E+07
         0.16121E+06
        -0.25790E+07
        -0.47293E+07
        -0.41809E+07
        -0.35813E+07
        -0.21120E+07
         0.63829E+06
         0.64319E+06
        -0.32113E+06
        -0.18523E+07
        -0.23532E+07
        -0.11346E+07
         0.41569E+06
         0.17234E+07
         0.67418E+06
         0.10122E+07
         0.13604E+07
         0.86893E+06
         0.16661E+07
        -0.10239E+07
        -0.18443E+07
         0.22999E+07
        -0.22283E+07
        -0.23023E+07
        -0.25375E+06
        -0.37611E+05
        -0.58502E+07
        -0.19071E+07
        -0.41378E+06
         0.30962E+06
         0.10757E+07
        -0.39646E+06
        -0.66359E+06
        -0.18135E+07
        -0.66448E+06
        -0.30120E+07
        -0.16998E+07
        -0.27395E+07
        -0.91383E+06
        -0.76498E+07
        -0.43133E+07
        -0.33123E+07
        -0.26796E+07
        -0.44096E+06
        -0.11979E+07
         0.10876E+07
         0.21771E+07
        -0.12495E+07
        -0.92595E+06
        -0.33115E+06
        -0.24577E+07
        -0.18219E+07
        -0.12330E+07
        -0.11622E+07
        -0.22525E+07
        -0.20231E+07
        -0.26487E+07
        -0.19357E+07
        -0.10908E+07
        -0.56061E+06
        -0.53217E+06
         0.70590E+06
         0.15136E+07
         0.83966E+06
         0.13547E+07
        -0.43189E+07
        -0.37511E+06
        -0.25078E+07
         0.80852E+06
         0.36172E+07
         0.55416E+07
         0.44542E+07
         0.48679E+07
         0.38129E+07
         0.19898E+07
         0.67457E+06
        -0.48316E+06
        -0.16024E+07
         0.13957E+06
        -0.26019E+07
        -0.47557E+07
        -0.41984E+07
        -0.36020E+07
        -0.21373E+07
         0.61004E+06
         0.61101E+06
        -0.35460E+06
        -0.18762E+07
        -0.23759E+07
        -0.11631E+07
         0.38555E+06
         0.17337E+07
         0.67978E+06
         0.10171E+07
         0.13699E+07
         0.88228E+06
         0.16786E+07
        -0.10157E+07
        -0.18245E+07
         0.23096E+07
        -0.22169E+07
        -0.22849E+07
        -0.23795E+06
        -0.32662E+05
        -0.58221E+07
        -0.18728E+07
        -0.40052E+06
         0.31776E+06
         0.10872E+07
        -0.38156E+06
        -0.64806E+06
        -0.17941E+07
        -0.64427E+06
        -0.29956E+07
        -0.16859E+07
        -0.27303E+07
        -0.90330E+06
        -0.76262E+07
        -0.42956E+07
        -0.32994E+07
        -0.26571E+07
        -0.42586E+06
        -0.11874E+07
         0.11065E+07
         0.21929E+07
        -0.12343E+07
        -0.91352E+06
        -0.32408E+06
        -0.24381E+07
        -0.18028E+07
        -0.12075E+07
        -0.11379E+07
        -0.22349E+07
        -0.20037E+07
        -0.26350E+07
        -0.19242E+07
        -0.10800E+07
        -0.54884E+06
        -0.51870E+06
         0.72072E+06
         0.15284E+07
         0.85337E+06
         0.13693E+07
        -0.42720E+07
        -0.32426E+06
        -0.24599E+07
         0.83192E+06
         0.36096E+07
         0.55441E+07
         0.44919E+07
         0.49096E+07
         0.38412E+07
         0.20326E+07
         0.71520E+06
        -0.46387E+06
        -0.15680E+07
         0.17448E+06
        -0.25702E+07
        -0.47314E+07
        -0.41819E+07
        -0.35812E+07
        -0.21176E+07
         0.64052E+06
         0.64712E+06
        -0.31990E+06
        -0.18459E+07
        -0.23502E+07
        -0.11254E+07
         0.42964E+06
         0.17261E+07
         0.66865E+06
         0.10074E+07
         0.13607E+07
         0.87063E+06
         0.16674E+07
        -0.10317E+07
        -0.18365E+07
         0.22990E+07
        -0.22363E+07
        -0.23016E+07
        -0.26119E+06
        -0.57303E+05
        -0.58373E+07
        -0.18876E+07
        -0.41467E+06
         0.30437E+06
         0.10736E+07
        -0.39783E+06
        -0.66089E+06
        -0.18153E+07
        -0.66580E+06
        -0.30180E+07
        -0.17013E+07
        -0.27493E+07
        -0.91503E+06
        -0.76482E+07
        -0.43101E+07
        -0.33237E+07
        -0.26706E+07
        -0.44150E+06
        -0.12006E+07
         0.10917E+07
         0.21820E+07
        -0.12534E+07
        -0.92811E+06
        -0.34261E+06
        -0.24705E+07
        -0.18342E+07
        -0.12346E+07
        -0.11678E+07
        -0.22630E+07
        -0.20253E+07
        -0.26592E+07
        -0.19451E+07
        -0.10987E+07
        -0.56668E+06
        -0.53916E+06
         0.70463E+06
         0.15166E+07
         0.83846E+06
         0.13555E+07
        -0.43086E+07
        -0.35588E+06
        -0.24960E+07
         0.79019E+06
         0.35611E+07
         0.54976E+07
         0.44634E+07
         0.48729E+07
         0.37933E+07
         0.19851E+07
         0.65725E+06
        -0.52110E+06
        -0.16061E+07
         0.13504E+06
        -0.26042E+07
        -0.47703E+07
        -0.42418E+07
        -0.36350E+07
        -0.21445E+07
         0.60319E+06
         0.60874E+06
        -0.33962E+06
        -0.18592E+07
        -0.23783E+07
        -0.11639E+07
         0.39125E+06
         0.17247E+07
         0.66491E+06
         0.10045E+07
         0.13589E+07
         0.86988E+06
         0.16647E+07
        -0.10369E+07
        -0.18363E+07
         0.23003E+07
        -0.22365E+07
        -0.23036E+07
        -0.26446E+06
        -0.61467E+05
        -0.58332E+07
        -0.18862E+07
        -0.41798E+06
         0.30523E+06
         0.10708E+07
        -0.39934E+06
        -0.66155E+06
        -0.18195E+07
        -0.66905E+06
        -0.30229E+07
        -0.17043E+07
        -0.27521E+07
        -0.91890E+06
        -0.76434E+07
        -0.43091E+07
        -0.33356E+07
        -0.26737E+07
        -0.45027E+06
        -0.12060E+07
         0.10875E+07
         0.21806E+07
        -0.12581E+07
        -0.93245E+06
        -0.34802E+06
        -0.24863E+07
        -0.18525E+07
        -0.12459E+07
        -0.11711E+07
        -0.22659E+07
        -0.20283E+07
        -0.26629E+07
        -0.19485E+07
        -0.11031E+07
        -0.57229E+06
        -0.54731E+06
         0.69849E+06
         0.15142E+07
         0.83582E+06
         0.13523E+07
        -0.43095E+07
        -0.35512E+06
        -0.25057E+07
         0.77410E+06
         0.35602E+07
         0.54968E+07
         0.44519E+07
         0.48423E+07
         0.37587E+07
         0.19660E+07
         0.65537E+06
        -0.52673E+06
        -0.16156E+07
         0.11971E+06
        -0.26220E+07
        -0.47829E+07
        -0.42500E+07
        -0.36421E+07
        -0.21520E+07
         0.58972E+06
         0.59184E+06
        -0.35046E+06
        -0.18602E+07
        -0.23818E+07
        -0.11810E+07
         0.37566E+06
         0.17575E+07
         0.69950E+06
         0.10334E+07
         0.13814E+07
         0.90765E+06
         0.16927E+07
        -0.10027E+07
        -0.17959E+07
         0.23248E+07
        -0.22059E+07
        -0.22630E+07
        -0.21427E+06
        -0.17940E+05
        -0.57870E+07
        -0.18352E+07
        -0.38843E+06
         0.33257E+06
         0.10921E+07
        -0.36678E+06
        -0.63005E+06
        -0.17768E+07
        -0.62913E+06
        -0.29827E+07
        -0.16741E+07
        -0.27171E+07
        -0.89463E+06
        -0.75969E+07
        -0.42682E+07
        -0.33028E+07
        -0.26318E+07
        -0.41880E+06
        -0.11761E+07
         0.11152E+07
         0.22014E+07
        -0.12167E+07
        -0.89721E+06
        -0.31173E+06
        -0.24550E+07
        -0.18138E+07
        -0.12041E+07
        -0.11305E+07
        -0.22254E+07
        -0.19921E+07
        -0.26213E+07
        -0.19068E+07
        -0.10608E+07
        -0.53507E+06
        -0.51278E+06
         0.72817E+06
         0.15407E+07
         0.86420E+06
         0.13775E+07
        -0.42242E+07
        -0.27019E+06
        -0.24341E+07
         0.82584E+06
         0.36233E+07
         0.55768E+07
         0.45189E+07
         0.48931E+07
         0.38160E+07
         0.20287E+07
         0.71186E+06
        -0.46053E+06
        -0.15631E+07
         0.17813E+06
        -0.25556E+07
        -0.47138E+07
        -0.41719E+07
        -0.35581E+07
        -0.20798E+07
         0.66507E+06
         0.65618E+06
        -0.30260E+06
        -0.18072E+07
        -0.23188E+07
        -0.11129E+07
         0.44449E+06
         0.17436E+07
         0.68947E+06
         0.10245E+07
         0.13697E+07
         0.89284E+06
         0.16811E+07
        -0.10173E+07
        -0.18119E+07
         0.23093E+07
        -0.22302E+07
        -0.22794E+07
        -0.23214E+06
        -0.28977E+05
        -0.58033E+07
        -0.18567E+07
        -0.40643E+06
         0.31564E+06
         0.10811E+07
        -0.38830E+06
        -0.64590E+06
        -0.17909E+07
        -0.64876E+06
        -0.29964E+07
        -0.16927E+07
        -0.27394E+07
        -0.91092E+06
        -0.76165E+07
        -0.42772E+07
        -0.33137E+07
        -0.26414E+07
        -0.43048E+06
        -0.11911E+07
         0.11060E+07
         0.21879E+07
        -0.12412E+07
        -0.91037E+06
        -0.32062E+06
        -0.24916E+07
        -0.18396E+07
        -0.12163E+07
        -0.11493E+07
        -0.22473E+07
        -0.20169E+07
        -0.26392E+07
        -0.19249E+07
        -0.10784E+07
        -0.54987E+06
        -0.52434E+06
         0.71472E+06
         0.15230E+07
         0.84631E+06
         0.13633E+07
        -0.42783E+07
        -0.31583E+06
        -0.24759E+07
         0.80379E+06
         0.36159E+07
         0.55561E+07
         0.44732E+07
         0.48380E+07
         0.37629E+07
         0.19814E+07
         0.65601E+06
        -0.52447E+06
        -0.16084E+07
         0.15561E+06
        -0.25663E+07
        -0.47206E+07
        -0.41937E+07
        -0.35961E+07
        -0.21079E+07
         0.63150E+06
         0.62544E+06
        -0.33724E+06
        -0.18442E+07
        -0.23421E+07
        -0.11347E+07
         0.40817E+06
         0.17205E+07
         0.66403E+06
         0.99994E+06
         0.13536E+07
         0.86869E+06
         0.16585E+07
        -0.10396E+07
        -0.18311E+07
         0.22869E+07
        -0.22735E+07
        -0.22996E+07
        -0.26103E+06
        -0.53068E+05
        -0.58201E+07
        -0.18839E+07
        -0.42835E+06
         0.28968E+06
         0.10683E+07
        -0.40593E+06
        -0.65320E+06
        -0.18083E+07
        -0.67174E+06
        -0.30130E+07
        -0.17086E+07
        -0.27783E+07
        -0.92698E+06
        -0.76620E+07
        -0.42940E+07
        -0.32736E+07
        -0.26117E+07
        -0.45079E+06
        -0.12121E+07
         0.10968E+07
         0.21789E+07
        -0.12687E+07
        -0.93242E+06
        -0.34239E+06
        -0.25455E+07
        -0.18650E+07
        -0.11777E+07
        -0.11510E+07
        -0.22710E+07
        -0.20500E+07
        -0.26587E+07
        -0.19480E+07
        -0.11066E+07
        -0.57585E+06
        -0.54482E+06
         0.69913E+06
         0.15088E+07
         0.83049E+06
         0.13459E+07
        -0.43144E+07
        -0.34901E+06
        -0.25042E+07
         0.77898E+06
         0.35813E+07
         0.54998E+07
         0.44089E+07
         0.47765E+07
         0.37094E+07
         0.19690E+07
         0.55853E+06
        -0.67775E+06
        -0.16720E+07
         0.12026E+06
        -0.25979E+07
        -0.47490E+07
        -0.42286E+07
        -0.36359E+07
        -0.21542E+07
         0.57901E+06
         0.59016E+06
        -0.37033E+06
        -0.18818E+07
        -0.23700E+07
        -0.11778E+07
         0.35981E+06
         0.17517E+07
         0.69582E+06
         0.10313E+07
         0.13806E+07
         0.90877E+06
         0.16886E+07
        -0.10099E+07
        -0.17913E+07
         0.23040E+07
        -0.22804E+07
        -0.22631E+07
        -0.22355E+06
        -0.20876E+05
        -0.57763E+07
        -0.18383E+07
        -0.39847E+06
         0.30857E+06
         0.10883E+07
        -0.36836E+06
        -0.60187E+06
        -0.17727E+07
        -0.63686E+06
        -0.29807E+07
        -0.16760E+07
        -0.27703E+07
        -0.90060E+06
        -0.76693E+07
        -0.42673E+07
        -0.31334E+07
        -0.24822E+07
        -0.42408E+06
        -0.11817E+07
         0.11240E+07
         0.22062E+07
        -0.12242E+07
        -0.89319E+06
        -0.30811E+06
        -0.25431E+07
        -0.18205E+07
        -0.10306E+07
        -0.10729E+07
        -0.22300E+07
        -0.20289E+07
        -0.26229E+07
        -0.19073E+07
        -0.10596E+07
        -0.53705E+06
        -0.51324E+06
         0.73166E+06
         0.15448E+07
         0.86822E+06
         0.13758E+07
        -0.42267E+07
        -0.26275E+06
        -0.24160E+07
         0.84060E+06
         0.36208E+07
         0.55452E+07
         0.44717E+07
         0.48401E+07
         0.37795E+07
         0.21054E+07
         0.52693E+06
        -0.80109E+06
        -0.16674E+07
         0.16869E+06
        -0.25575E+07
        -0.47151E+07
        -0.41863E+07
        -0.35656E+07
        -0.20679E+07
         0.65963E+06
         0.65995E+06
        -0.29843E+06
        -0.18006E+07
        -0.22948E+07
        -0.11170E+07
         0.42356E+06
         0.16347E+07
         0.57859E+06
         0.91823E+06
         0.12790E+07
         0.76947E+06
         0.15602E+07
        -0.11304E+07
        -0.19269E+07
         0.21805E+07
        -0.24495E+07
        -0.24019E+07
        -0.40219E+06
        -0.18744E+06
        -0.59261E+07
        -0.20198E+07
        -0.51446E+06
         0.18472E+06
         0.99783E+06
        -0.49426E+06
        -0.70591E+06
        -0.19278E+07
        -0.78922E+06
        -0.31312E+07
        -0.17918E+07
        -0.29271E+07
        -0.99221E+06
        -0.78497E+07
        -0.43780E+07
        -0.31988E+07
        -0.25703E+07
        -0.53827E+06
        -0.12934E+07
         0.10186E+07
         0.20950E+07
        -0.13891E+07
        -0.10351E+07
        -0.45859E+06
        -0.27529E+07
        -0.19856E+07
        -0.11278E+07
        -0.12260E+07
        -0.23955E+07
        -0.21947E+07
        -0.27687E+07
        -0.20592E+07
        -0.12354E+07
        -0.68693E+06
        -0.64820E+06
         0.60187E+06
         0.14024E+07
         0.70044E+06
         0.12311E+07
        -0.45323E+07
        -0.55923E+06
        -0.27243E+07
         0.52661E+06
         0.33080E+07
         0.52439E+07
         0.41652E+07
         0.45110E+07
         0.34708E+07
         0.18244E+07
         0.13538E+06
        -0.12272E+07
        -0.19695E+07
        -0.82058E+05
        -0.28202E+07
        -0.49881E+07
        -0.44682E+07
        -0.38807E+07
        -0.23917E+07
         0.34919E+06
         0.37193E+06
        -0.57432E+06
        -0.20828E+07
        -0.25849E+07
        -0.13956E+07
         0.14679E+06
         0.17014E+07
         0.58660E+06
         0.93934E+06
         0.13196E+07
         0.81711E+06
         0.16030E+07
        -0.11164E+07
        -0.18425E+07
         0.22619E+07
        -0.23272E+07
        -0.23633E+07
        -0.39891E+06
        -0.23015E+06
        -0.58255E+07
        -0.19374E+07
        -0.42545E+06
         0.26584E+06
         0.10468E+07
        -0.42620E+06
        -0.64335E+06
        -0.18571E+07
        -0.73680E+06
        -0.30231E+07
        -0.17053E+07
        -0.27918E+07
        -0.92617E+06
        -0.76954E+07
        -0.42439E+07
        -0.30824E+07
        -0.24395E+07
        -0.46950E+06
        -0.12445E+07
         0.10520E+07
         0.20797E+07
        -0.13645E+07
        -0.10455E+07
        -0.50111E+06
        -0.26566E+07
        -0.18691E+07
        -0.10260E+07
        -0.11569E+07
        -0.23021E+07
        -0.20956E+07
        -0.26689E+07
        -0.20034E+07
        -0.12084E+07
        -0.66414E+06
        -0.59086E+06
         0.64568E+06
         0.14050E+07
         0.71142E+06
         0.12340E+07
        -0.44146E+07
        -0.40629E+06
        -0.26855E+07
         0.45885E+06
         0.31675E+07
         0.51583E+07
         0.43054E+07
         0.46551E+07
         0.35857E+07
         0.18925E+07
         0.15443E+06
        -0.11688E+07
        -0.18553E+07
        -0.25503E+05
        -0.27011E+07
        -0.48178E+07
        -0.43229E+07
        -0.37696E+07
        -0.23435E+07
         0.34359E+06
         0.43602E+06
        -0.48269E+06
        -0.19373E+07
        -0.24081E+07
        -0.12565E+07
         0.29077E+06
         0.46027E+09
         0.46316E+09
         0.45821E+09
         0.40526E+09
         0.55116E+09
         0.50384E+09
         0.47936E+09
         0.52254E+09
         0.43961E+09
         0.52292E+09
         0.54728E+09
         0.68538E+09
         0.60904E+09
         0.57888E+09
         0.70521E+09
         0.43162E+09
         0.44331E+09
         0.36664E+09
         0.47087E+09
         0.47058E+09
         0.55879E+09
         0.56294E+09
         0.53304E+09
         0.43738E+09
         0.51087E+09
         0.39785E+09
         0.57091E+09
         0.50633E+09
         0.52585E+09
         0.53053E+09
         0.43126E+09
         0.42987E+09
         0.40665E+09
         0.42315E+09
         0.61903E+09
         0.54001E+09
         0.54917E+09
         0.66447E+09
         0.63437E+09
         0.62292E+09
         0.64964E+09
         0.61046E+09
         0.57858E+09
         0.51416E+09
         0.53434E+09
         0.62481E+09
         0.55472E+09
         0.51140E+09
         0.49311E+09
         0.51905E+09
         0.59042E+09
         0.52696E+09
         0.11206E+10
         0.10976E+10
         0.11176E+10
         0.10823E+10
         0.11168E+10
         0.11718E+10
         0.11770E+10
         0.11647E+10
         0.11739E+10
         0.12059E+10
         0.11687E+10
         0.11010E+10
         0.97701E+09
         0.92241E+09
         0.93541E+09
         0.95687E+09
         0.96945E+09
         0.10565E+10
         0.11327E+10
         0.11379E+10
         0.10438E+10
         0.10068E+10
         0.10423E+10
         0.10310E+10
         0.10235E+10
         0.10257E+10
         0.52621E+10
         0.55177E+10
         0.54379E+10
         0.49613E+10
         0.61099E+10
         0.57384E+10
         0.59737E+10
         0.60162E+10
         0.51489E+10
         0.60132E+10
         0.65643E+10
         0.73533E+10
         0.66614E+10
         0.67554E+10
         0.76128E+10
         0.50439E+10
         0.54257E+10
         0.47337E+10
         0.56039E+10
         0.58990E+10
         0.60941E+10
         0.62297E+10
         0.58488E+10
         0.53892E+10
         0.60867E+10
         0.52002E+10
         0.67306E+10
         0.66181E+10
         0.66479E+10
         0.63036E+10
         0.50994E+10
         0.53658E+10
         0.50009E+10
         0.52310E+10
         0.66927E+10
         0.61401E+10
         0.61585E+10
         0.73713E+10
         0.71834E+10
         0.70972E+10
         0.72193E+10
         0.68523E+10
         0.64757E+10
         0.57108E+10
         0.59502E+10
         0.66892E+10
         0.61852E+10
         0.58142E+10
         0.56994E+10
         0.59099E+10
         0.64164E+10
         0.59267E+10
         0.10666E+11
         0.10384E+11
         0.10605E+11
         0.10263E+11
         0.10575E+11
         0.11131E+11
         0.11318E+11
         0.11298E+11
         0.11382E+11
         0.11647E+11
         0.11300E+11
         0.10604E+11
         0.94851E+10
         0.89537E+10
         0.89750E+10
         0.90901E+10
         0.91791E+10
         0.99724E+10
         0.10710E+11
         0.10754E+11
         0.99348E+10
         0.96214E+10
         0.99457E+10
         0.98737E+10
         0.97571E+10
         0.97295E+10
  
SCALARS                      stress_yy  double 1
LOOKUP_TABLE default
         0.28170E+13
         0.27827E+13
         0.28045E+13
         0.28435E+13
        -0.26271E+03
        -0.29459E+03
        -0.28208E+03
        -0.25626E+03
         0.27815E+13
         0.27931E+13
        -0.26491E+03
        -0.25637E+03
         0.27330E+13
         0.27311E+13
        -0.31477E+03
        -0.29596E+03
         0.28378E+13
         0.27338E+13
        -0.23258E+03
        -0.25797E+03
         0.26955E+13
         0.26658E+13
         0.27131E+13
        -0.31197E+03
        -0.27245E+03
        -0.28134E+03
         0.26670E+13
         0.26235E+13
        -0.29930E+03
        -0.25240E+03
         0.28359E+13
         0.27907E+13
         0.28797E+13
        -0.25541E+03
        -0.23744E+03
        -0.23085E+03
         0.28098E+13
         0.27521E+13
        -0.27021E+03
        -0.24657E+03
         0.27870E+13
         0.27425E+13
        -0.23354E+03
        -0.20675E+03
         0.28246E+13
         0.28413E+13
        -0.25592E+03
        -0.28596E+03
         0.27067E+13
        -0.25002E+03
         0.28380E+13
        -0.29378E+03
         0.26544E+13
        -0.26402E+03
         0.26408E+13
        -0.25325E+03
         0.26410E+13
         0.26895E+13
        -0.25804E+03
        -0.25130E+03
         0.28350E+13
         0.28176E+13
        -0.25874E+03
        -0.29251E+03
         0.28458E+13
        -0.24967E+03
         0.28252E+13
        -0.27248E+03
         0.27708E+13
         0.27654E+13
        -0.26229E+03
        -0.27484E+03
         0.27531E+13
        -0.27714E+03
         0.26080E+13
        -0.21896E+03
         0.26004E+13
        -0.21254E+03
         0.26042E+13
        -0.22410E+03
         0.26252E+13
         0.26471E+13
        -0.21351E+03
        -0.22260E+03
         0.26911E+13
        -0.20732E+03
         0.28237E+13
        -0.27188E+03
         0.28030E+13
        -0.27826E+03
         0.27861E+13
         0.27768E+13
        -0.26722E+03
        -0.27034E+03
         0.27882E+13
        -0.24555E+03
         0.27964E+13
        -0.24204E+03
         0.27890E+13
        -0.25911E+03
         0.27864E+13
         0.27939E+13
        -0.25409E+03
        -0.26155E+03
         0.27455E+13
         0.27651E+13
        -0.19728E+03
        -0.18555E+03
         0.27417E+13
        -0.18838E+03
         0.27644E+13
        -0.18062E+03
         0.27420E+13
        -0.17810E+03
         0.26925E+13
        -0.16831E+03
         0.26443E+13
        -0.14953E+03
         0.26155E+13
        -0.13464E+03
         0.26125E+13
        -0.13370E+03
         0.26134E+13
        -0.14499E+03
         0.26447E+13
        -0.15239E+03
         0.27031E+13
        -0.13914E+03
         0.27672E+13
        -0.12542E+03
         0.28047E+13
        -0.12528E+03
         0.28416E+13
        -0.14003E+03
         0.28661E+13
        -0.15967E+03
         0.28652E+13
        -0.17153E+03
         0.28058E+13
        -0.18526E+03
         0.27644E+13
        -0.19847E+03
         0.27502E+13
        -0.18182E+03
         0.27724E+13
        -0.15950E+03
         0.27840E+13
        -0.15901E+03
         0.27646E+13
        -0.17397E+03
         0.27649E+13
        -0.18547E+03
         0.27795E+13
        -0.17601E+03
         0.27986E+13
        -0.17016E+03
        -0.54513E+10
        -0.31537E+10
        -0.34681E+10
        -0.64149E+10
        -0.86787E+09
        -0.37319E+10
        -0.16633E+09
        -0.20486E+10
        -0.59585E+10
        -0.35494E+10
         0.18969E+10
         0.25341E+10
         0.84142E+09
         0.72639E+09
         0.18154E+10
        -0.62780E+10
        -0.57375E+10
        -0.72410E+10
        -0.29004E+10
        -0.37121E+10
        -0.25501E+10
        -0.33205E+10
        -0.18908E+10
        -0.22639E+10
        -0.36444E+10
        -0.35466E+10
        -0.11718E+10
        -0.13905E+10
         0.41235E+09
        -0.22981E+10
        -0.60115E+10
        -0.31205E+10
        -0.59912E+10
        -0.41080E+10
         0.29794E+10
         0.64337E+09
        -0.44597E+09
         0.83599E+09
         0.10042E+10
         0.31469E+10
         0.47351E+10
         0.90872E+09
        -0.25982E+10
        -0.21308E+10
        -0.34009E+09
         0.28920E+10
         0.12744E+09
        -0.27449E+10
        -0.25479E+10
        -0.32942E+09
         0.19968E+10
        -0.11263E+10
         0.86892E+10
         0.57031E+10
         0.61924E+10
         0.55027E+10
         0.56784E+10
         0.72780E+10
         0.89459E+10
         0.94935E+10
         0.92576E+10
         0.94262E+10
         0.10145E+11
         0.58309E+10
         0.42566E+10
         0.36561E+10
         0.26412E+10
         0.18774E+10
         0.19125E+10
         0.32158E+10
         0.76830E+10
         0.66011E+10
         0.50589E+10
         0.50750E+10
         0.53419E+10
         0.68231E+10
         0.46463E+10
         0.38519E+10
         0.12254E+07
        -0.26007E+04
         0.35572E+06
         0.21020E+07
         0.10620E+07
         0.23961E+07
        -0.10075E+07
        -0.22223E+07
         0.18924E+07
        -0.23736E+07
        -0.29268E+07
        -0.12606E+07
        -0.64046E+05
        -0.47202E+07
        -0.26746E+07
         0.48586E+06
         0.13266E+07
         0.15240E+07
        -0.75284E+06
         0.18798E+06
        -0.38069E+06
         0.78946E+06
        -0.11405E+07
        -0.51848E+06
        -0.27548E+07
        -0.41119E+06
        -0.63725E+07
        -0.39504E+07
        -0.23136E+07
        -0.23749E+07
         0.26368E+06
        -0.11249E+06
         0.15491E+07
         0.25111E+07
         0.11268E+06
        -0.14945E+05
         0.23549E+06
        -0.27824E+07
        -0.26741E+07
        -0.17793E+07
        -0.13616E+06
        -0.48468E+06
        -0.29710E+06
        -0.11956E+07
        -0.12349E+07
        -0.16544E+07
        -0.61941E+06
         0.70190E+05
         0.15370E+06
         0.82485E+06
         0.13551E+07
         0.26025E+07
        -0.25892E+07
         0.12236E+07
        -0.16214E+07
         0.10484E+07
         0.30665E+07
         0.44120E+07
         0.32499E+07
         0.38544E+07
         0.29083E+07
         0.14813E+07
         0.16972E+07
         0.15461E+07
         0.37620E+06
         0.19316E+07
        -0.71225E+06
        -0.27278E+07
        -0.27466E+07
        -0.29502E+07
        -0.28514E+07
        -0.49650E+06
        -0.28224E+06
        -0.11676E+07
        -0.23767E+07
        -0.17694E+07
         0.36321E+06
         0.19215E+07
         0.11006E+07
        -0.12703E+06
         0.23348E+06
         0.19972E+07
         0.91215E+06
         0.22598E+07
        -0.11304E+07
        -0.23677E+07
         0.17642E+07
        -0.25324E+07
        -0.30752E+07
        -0.14525E+07
        -0.23051E+06
        -0.48740E+07
        -0.28664E+07
         0.35355E+06
         0.11928E+07
         0.14306E+07
        -0.89541E+06
         0.56215E+05
        -0.54658E+06
         0.62817E+06
        -0.13106E+07
        -0.65677E+06
        -0.29227E+07
        -0.52007E+06
        -0.65215E+07
        -0.40693E+07
        -0.24555E+07
        -0.25481E+07
         0.13779E+06
        -0.23477E+06
         0.14384E+07
         0.24069E+07
        -0.56260E+05
        -0.15957E+06
         0.88246E+05
        -0.29754E+07
        -0.28540E+07
        -0.19557E+07
        -0.32617E+06
        -0.67010E+06
        -0.47381E+06
        -0.13595E+07
        -0.13898E+07
        -0.18251E+07
        -0.77468E+06
        -0.74516E+05
         0.22927E+05
         0.69207E+06
         0.11989E+07
         0.24614E+07
        -0.28955E+07
         0.92477E+06
        -0.19157E+07
         0.76683E+06
         0.27686E+07
         0.40806E+07
         0.29190E+07
         0.35195E+07
         0.25694E+07
         0.11351E+07
         0.13527E+07
         0.12275E+07
         0.10988E+06
         0.16826E+07
        -0.97278E+06
        -0.30061E+07
        -0.30310E+07
        -0.32470E+07
        -0.31495E+07
        -0.81150E+06
        -0.57989E+06
        -0.14365E+07
        -0.26461E+07
        -0.20448E+07
         0.84932E+05
         0.16383E+07
         0.11301E+07
        -0.10251E+06
         0.25952E+06
         0.20246E+07
         0.95077E+06
         0.22958E+07
        -0.11047E+07
        -0.23370E+07
         0.17853E+07
        -0.25286E+07
        -0.30463E+07
        -0.14156E+07
        -0.19867E+06
        -0.48350E+07
        -0.28205E+07
         0.32714E+06
         0.11855E+07
         0.14542E+07
        -0.93082E+06
         0.31683E+05
        -0.57436E+06
         0.61765E+06
        -0.14222E+07
        -0.75650E+06
        -0.29964E+07
        -0.59593E+06
        -0.64923E+07
        -0.40855E+07
        -0.25133E+07
        -0.26695E+07
         0.13844E+06
        -0.26222E+06
         0.14647E+07
         0.24411E+07
        -0.12139E+05
        -0.12341E+06
         0.12079E+06
        -0.29428E+07
        -0.28260E+07
        -0.19459E+07
        -0.33113E+06
        -0.73745E+06
        -0.56905E+06
        -0.14694E+07
        -0.14165E+07
        -0.18018E+07
        -0.74669E+06
        -0.41215E+05
         0.58957E+05
         0.73331E+06
         0.12432E+07
         0.25014E+07
        -0.28042E+07
         0.10065E+07
        -0.18252E+07
         0.83660E+06
         0.28203E+07
         0.41322E+07
         0.29848E+07
         0.35857E+07
         0.26361E+07
         0.12043E+07
         0.13935E+07
         0.12259E+07
         0.11420E+06
         0.17284E+07
        -0.94240E+06
        -0.30625E+07
        -0.30924E+07
        -0.32313E+07
        -0.30678E+07
        -0.71669E+06
        -0.49521E+06
        -0.13509E+07
        -0.25501E+07
        -0.19637E+07
         0.15099E+06
         0.17021E+07
         0.11126E+07
        -0.11300E+06
         0.24933E+06
         0.20075E+07
         0.93619E+06
         0.22837E+07
        -0.11150E+07
        -0.23575E+07
         0.17481E+07
        -0.25983E+07
        -0.30625E+07
        -0.14353E+07
        -0.21189E+06
        -0.48522E+07
        -0.28452E+07
         0.22193E+06
         0.11064E+07
         0.14364E+07
        -0.10555E+07
        -0.78863E+05
        -0.70035E+06
         0.50620E+06
        -0.16819E+07
        -0.97960E+06
        -0.31953E+07
        -0.76971E+06
        -0.65329E+07
        -0.41821E+07
        -0.26876E+07
        -0.29588E+07
         0.77622E+05
        -0.37214E+06
         0.14453E+07
         0.24242E+07
        -0.33879E+05
        -0.13817E+06
         0.10897E+06
        -0.29790E+07
        -0.28708E+07
        -0.20262E+07
        -0.43892E+06
        -0.94740E+06
        -0.82701E+06
        -0.17282E+07
        -0.15448E+07
        -0.18706E+07
        -0.79674E+06
        -0.67657E+05
         0.36887E+05
         0.70845E+06
         0.12196E+07
         0.24859E+07
        -0.28469E+07
         0.97701E+06
        -0.18719E+07
         0.79598E+06
         0.27928E+07
         0.41009E+07
         0.29322E+07
         0.35286E+07
         0.25807E+07
         0.11373E+07
         0.12874E+07
         0.10545E+07
        -0.47217E+05
         0.16517E+07
        -0.10284E+07
        -0.32991E+07
        -0.33433E+07
        -0.33486E+07
        -0.31237E+07
        -0.76975E+06
        -0.53581E+06
        -0.13988E+07
        -0.26002E+07
        -0.19975E+07
         0.12550E+06
         0.16768E+07
         0.10804E+07
        -0.13436E+06
         0.23158E+06
         0.19900E+07
         0.91949E+06
         0.22670E+07
        -0.11312E+07
        -0.23903E+07
         0.17036E+07
        -0.26708E+07
        -0.30798E+07
        -0.14475E+07
        -0.22664E+06
        -0.48714E+07
        -0.28575E+07
         0.15086E+06
         0.10437E+07
         0.14199E+07
        -0.11378E+07
        -0.15815E+06
        -0.78163E+06
         0.42612E+06
        -0.18415E+07
        -0.11176E+07
        -0.33391E+07
        -0.88002E+06
        -0.65684E+07
        -0.42520E+07
        -0.28078E+07
        -0.31512E+07
         0.14151E+05
        -0.45165E+06
         0.14101E+07
         0.24005E+07
        -0.56340E+05
        -0.15699E+06
         0.91242E+05
        -0.30062E+07
        -0.29081E+07
        -0.20870E+07
        -0.51507E+06
        -0.10885E+07
        -0.99623E+06
        -0.18929E+07
        -0.16296E+07
        -0.19161E+07
        -0.84118E+06
        -0.11041E+06
        -0.16756E+04
         0.67152E+06
         0.11828E+07
         0.24609E+07
        -0.28853E+07
         0.95122E+06
        -0.19117E+07
         0.76437E+06
         0.27799E+07
         0.40918E+07
         0.29098E+07
         0.34910E+07
         0.25337E+07
         0.10958E+07
         0.12228E+07
         0.93579E+06
        -0.15727E+06
         0.15924E+07
        -0.10891E+07
        -0.34525E+07
        -0.35195E+07
        -0.34326E+07
        -0.31491E+07
        -0.81793E+06
        -0.58958E+06
        -0.14538E+07
        -0.26647E+07
        -0.20524E+07
         0.91682E+05
         0.16516E+07
         0.10023E+07
        -0.17533E+06
         0.21401E+06
         0.20039E+07
         0.93922E+06
         0.22920E+07
        -0.11423E+07
        -0.24465E+07
         0.16412E+07
        -0.27677E+07
        -0.30682E+07
        -0.14045E+07
        -0.20991E+06
        -0.48640E+07
        -0.28047E+07
         0.16405E+06
         0.10287E+07
         0.14440E+07
        -0.11215E+07
        -0.14569E+06
        -0.75867E+06
         0.45418E+06
        -0.18381E+07
        -0.11199E+07
        -0.34019E+07
        -0.89372E+06
        -0.65767E+07
        -0.42608E+07
        -0.28012E+07
        -0.31590E+07
        -0.61800E+05
        -0.49311E+06
         0.13528E+07
         0.23946E+07
        -0.36890E+05
        -0.15528E+06
         0.87910E+05
        -0.29731E+07
        -0.28796E+07
        -0.20545E+07
        -0.47841E+06
        -0.10661E+07
        -0.97829E+06
        -0.19040E+07
        -0.16410E+07
        -0.19238E+07
        -0.87972E+06
        -0.19713E+06
        -0.96544E+05
         0.62121E+06
         0.11707E+07
         0.24728E+07
        -0.28101E+07
         0.10286E+07
        -0.18489E+07
         0.80664E+06
         0.28242E+07
         0.41522E+07
         0.29783E+07
         0.35569E+07
         0.26089E+07
         0.11954E+07
         0.13098E+07
         0.98819E+06
        -0.99160E+05
         0.16529E+07
        -0.10306E+07
        -0.34060E+07
        -0.34862E+07
        -0.33992E+07
        -0.31088E+07
        -0.78995E+06
        -0.59583E+06
        -0.14921E+07
        -0.26901E+07
        -0.20393E+07
         0.12957E+06
         0.17059E+07
         0.88308E+06
        -0.24784E+06
         0.17185E+06
         0.19930E+07
         0.92269E+06
         0.22900E+07
        -0.11917E+07
        -0.25543E+07
         0.15360E+07
        -0.29092E+07
        -0.31047E+07
        -0.14208E+07
        -0.23679E+06
        -0.49125E+07
        -0.28173E+07
         0.14284E+06
         0.97688E+06
         0.14380E+07
        -0.11363E+07
        -0.16339E+06
        -0.77048E+06
         0.44625E+06
        -0.18508E+07
        -0.11363E+07
        -0.34898E+07
        -0.91999E+06
        -0.66370E+07
        -0.42972E+07
        -0.28144E+07
        -0.31829E+07
        -0.16832E+06
        -0.56157E+06
         0.12668E+07
         0.23628E+07
        -0.63212E+05
        -0.18571E+06
         0.53151E+05
        -0.30016E+07
        -0.29068E+07
        -0.20690E+07
        -0.48527E+06
        -0.10691E+07
        -0.98007E+06
        -0.19297E+07
        -0.16883E+07
        -0.19882E+07
        -0.96837E+06
        -0.32794E+06
        -0.23202E+06
         0.53312E+06
         0.11217E+07
         0.24558E+07
        -0.28414E+07
         0.10042E+07
        -0.18679E+07
         0.78531E+06
         0.27932E+07
         0.41154E+07
         0.29478E+07
         0.35309E+07
         0.25824E+07
         0.11756E+07
         0.12941E+07
         0.96896E+06
        -0.10254E+06
         0.16481E+07
        -0.10434E+07
        -0.34134E+07
        -0.35015E+07
        -0.34524E+07
        -0.31879E+07
        -0.87688E+06
        -0.69381E+06
        -0.16131E+07
        -0.27964E+07
        -0.20952E+07
         0.99609E+05
         0.16825E+07
         0.84844E+06
        -0.27464E+06
         0.15449E+06
         0.19783E+07
         0.90496E+06
         0.22738E+07
        -0.12164E+07
        -0.25925E+07
         0.15049E+07
        -0.29535E+07
        -0.31311E+07
        -0.14437E+07
        -0.26325E+06
        -0.49387E+07
        -0.28381E+07
         0.12376E+06
         0.95551E+06
         0.14249E+07
        -0.11499E+07
        -0.17704E+06
        -0.78876E+06
         0.42773E+06
        -0.18674E+07
        -0.11487E+07
        -0.35226E+07
        -0.93403E+06
        -0.66629E+07
        -0.43171E+07
        -0.28370E+07
        -0.32056E+07
        -0.20270E+06
        -0.58809E+06
         0.12373E+07
         0.23449E+07
        -0.85447E+05
        -0.20232E+06
         0.31897E+05
        -0.30373E+07
        -0.29382E+07
        -0.20997E+07
        -0.51748E+06
        -0.10942E+07
        -0.99634E+06
        -0.19528E+07
        -0.17168E+07
        -0.20184E+07
        -0.99801E+06
        -0.36033E+06
        -0.26553E+06
         0.50279E+06
         0.10914E+07
         0.24346E+07
        -0.28844E+07
         0.96178E+06
        -0.18968E+07
         0.75582E+06
         0.27574E+07
         0.40842E+07
         0.29158E+07
         0.34865E+07
         0.25234E+07
         0.11138E+07
         0.12381E+07
         0.94347E+06
        -0.12270E+06
         0.16050E+07
        -0.10886E+07
        -0.34565E+07
        -0.35578E+07
        -0.35061E+07
        -0.32329E+07
        -0.91320E+06
        -0.72377E+06
        -0.16535E+07
        -0.28499E+07
        -0.21446E+07
         0.58080E+05
         0.16414E+07
         0.87070E+06
        -0.25626E+06
         0.16771E+06
         0.19823E+07
         0.92317E+06
         0.22781E+07
        -0.11987E+07
        -0.25671E+07
         0.15247E+07
        -0.29297E+07
        -0.31145E+07
        -0.14203E+07
        -0.24613E+06
        -0.49096E+07
        -0.28023E+07
         0.14894E+06
         0.97454E+06
         0.14352E+07
        -0.11258E+07
        -0.15727E+06
        -0.76530E+06
         0.45019E+06
        -0.18432E+07
        -0.11255E+07
        -0.35032E+07
        -0.91422E+06
        -0.66262E+07
        -0.42961E+07
        -0.28194E+07
        -0.31857E+07
        -0.18170E+06
        -0.57138E+06
         0.12479E+07
         0.23509E+07
        -0.60181E+05
        -0.18380E+06
         0.48204E+05
        -0.30130E+07
        -0.29190E+07
        -0.20819E+07
        -0.49603E+06
        -0.10704E+07
        -0.97221E+06
        -0.19316E+07
        -0.16992E+07
        -0.19995E+07
        -0.97945E+06
        -0.33757E+06
        -0.24329E+06
         0.52034E+06
         0.11043E+07
         0.24399E+07
        -0.28202E+07
         0.10247E+07
        -0.18595E+07
         0.77125E+06
         0.27886E+07
         0.41331E+07
         0.29704E+07
         0.35256E+07
         0.25382E+07
         0.11367E+07
         0.12794E+07
         0.10020E+07
        -0.71343E+05
         0.16382E+07
        -0.10572E+07
        -0.34204E+07
        -0.35214E+07
        -0.34609E+07
        -0.31899E+07
        -0.86251E+06
        -0.67165E+06
        -0.16069E+07
        -0.28111E+07
        -0.21097E+07
         0.93061E+05
         0.16793E+07
         0.86518E+06
        -0.25768E+06
         0.16419E+06
         0.19724E+07
         0.91911E+06
         0.22692E+07
        -0.12013E+07
        -0.25783E+07
         0.15091E+07
        -0.29485E+07
        -0.31265E+07
        -0.14342E+07
        -0.25013E+06
        -0.49222E+07
        -0.28240E+07
         0.13721E+06
         0.96044E+06
         0.14212E+07
        -0.11371E+07
        -0.16769E+06
        -0.77499E+06
         0.43835E+06
        -0.18519E+07
        -0.11335E+07
        -0.35145E+07
        -0.91883E+06
        -0.66345E+07
        -0.42993E+07
        -0.28258E+07
        -0.31969E+07
        -0.19202E+06
        -0.57884E+06
         0.12306E+07
         0.23376E+07
        -0.68306E+05
        -0.19142E+06
         0.43170E+05
        -0.30440E+07
        -0.29370E+07
        -0.20975E+07
        -0.51187E+06
        -0.10800E+07
        -0.98612E+06
        -0.19387E+07
        -0.17063E+07
        -0.20093E+07
        -0.99349E+06
        -0.35231E+06
        -0.25641E+06
         0.50868E+06
         0.10924E+07
         0.24276E+07
        -0.28387E+07
         0.10099E+07
        -0.18898E+07
         0.74570E+06
         0.27850E+07
         0.41152E+07
         0.29287E+07
         0.34790E+07
         0.25108E+07
         0.10955E+07
         0.12345E+07
         0.97953E+06
        -0.97851E+05
         0.16236E+07
        -0.10708E+07
        -0.34334E+07
        -0.35239E+07
        -0.34701E+07
        -0.32029E+07
        -0.89675E+06
        -0.71427E+06
        -0.16397E+07
        -0.28279E+07
        -0.21175E+07
         0.74564E+05
         0.16532E+07
         0.84937E+06
        -0.27128E+06
         0.15421E+06
         0.19665E+07
         0.90652E+06
         0.22634E+07
        -0.12112E+07
        -0.25942E+07
         0.14949E+07
        -0.29671E+07
        -0.31397E+07
        -0.14526E+07
        -0.26212E+06
        -0.49317E+07
        -0.28462E+07
         0.12078E+06
         0.94912E+06
         0.14127E+07
        -0.11509E+07
        -0.17533E+06
        -0.78734E+06
         0.42633E+06
        -0.18650E+07
        -0.11462E+07
        -0.35257E+07
        -0.92936E+06
        -0.66405E+07
        -0.43050E+07
        -0.28331E+07
        -0.32053E+07
        -0.20713E+06
        -0.59169E+06
         0.12196E+07
         0.23352E+07
        -0.87917E+05
        -0.20451E+06
         0.31685E+05
        -0.30740E+07
        -0.29569E+07
        -0.21111E+07
        -0.52108E+06
        -0.10882E+07
        -0.99883E+06
        -0.19514E+07
        -0.17185E+07
        -0.20224E+07
        -0.10066E+07
        -0.36503E+06
        -0.26895E+06
         0.49849E+06
         0.10811E+07
         0.24222E+07
        -0.28758E+07
         0.97889E+06
        -0.19129E+07
         0.73792E+06
         0.27748E+07
         0.40789E+07
         0.28763E+07
         0.34370E+07
         0.24823E+07
         0.10659E+07
         0.12161E+07
         0.95731E+06
        -0.12969E+06
         0.16018E+07
        -0.10936E+07
        -0.34599E+07
        -0.35418E+07
        -0.34909E+07
        -0.32284E+07
        -0.92496E+06
        -0.74668E+06
        -0.16733E+07
        -0.28521E+07
        -0.21401E+07
         0.46252E+05
         0.16234E+07
         0.86000E+06
        -0.26542E+06
         0.15904E+06
         0.19740E+07
         0.91867E+06
         0.22746E+07
        -0.11995E+07
        -0.25770E+07
         0.15039E+07
        -0.29586E+07
        -0.31241E+07
        -0.14365E+07
        -0.25685E+06
        -0.49049E+07
        -0.28132E+07
         0.13497E+06
         0.95626E+06
         0.14229E+07
        -0.11365E+07
        -0.15936E+06
        -0.76870E+06
         0.44640E+06
        -0.18486E+07
        -0.11318E+07
        -0.35178E+07
        -0.91608E+06
        -0.66171E+07
        -0.42920E+07
        -0.28133E+07
        -0.31834E+07
        -0.19041E+06
        -0.58002E+06
         0.12329E+07
         0.23500E+07
        -0.72316E+05
        -0.19274E+06
         0.38449E+05
        -0.30546E+07
        -0.29379E+07
        -0.20851E+07
        -0.49712E+06
        -0.10700E+07
        -0.97944E+06
        -0.19387E+07
        -0.17081E+07
        -0.20120E+07
        -0.99551E+06
        -0.35120E+06
        -0.25425E+06
         0.51350E+06
         0.10947E+07
         0.24367E+07
        -0.28288E+07
         0.10296E+07
        -0.18654E+07
         0.76131E+06
         0.27670E+07
         0.40816E+07
         0.29141E+07
         0.34790E+07
         0.25104E+07
         0.11087E+07
         0.12567E+07
         0.97646E+06
        -0.95346E+05
         0.16367E+07
        -0.10618E+07
        -0.34356E+07
        -0.35257E+07
        -0.34704E+07
        -0.32089E+07
        -0.89444E+06
        -0.71079E+06
        -0.16388E+07
        -0.28222E+07
        -0.21143E+07
         0.84198E+05
         0.16678E+07
         0.85276E+06
        -0.27629E+06
         0.14936E+06
         0.19629E+07
         0.90584E+06
         0.22622E+07
        -0.12121E+07
        -0.25915E+07
         0.14925E+07
        -0.29808E+07
        -0.31426E+07
        -0.14595E+07
        -0.28119E+06
        -0.49214E+07
        -0.28292E+07
         0.12174E+06
         0.94185E+06
         0.14081E+07
        -0.11534E+07
        -0.17178E+06
        -0.79065E+06
         0.42474E+06
        -0.18710E+07
        -0.11466E+07
        -0.35381E+07
        -0.92506E+06
        -0.66392E+07
        -0.43110E+07
        -0.28308E+07
        -0.31976E+07
        -0.20445E+06
        -0.59210E+06
         0.12125E+07
         0.23380E+07
        -0.91045E+05
        -0.20799E+06
         0.19609E+05
        -0.30872E+07
        -0.29694E+07
        -0.21116E+07
        -0.52722E+06
        -0.10975E+07
        -0.10010E+07
        -0.19639E+07
        -0.17300E+07
        -0.20309E+07
        -0.10141E+07
        -0.37126E+06
        -0.27047E+06
         0.50198E+06
         0.10796E+07
         0.24228E+07
        -0.28654E+07
         0.99778E+06
        -0.19018E+07
         0.71957E+06
         0.27183E+07
         0.40352E+07
         0.28858E+07
         0.34426E+07
         0.24623E+07
         0.10611E+07
         0.11988E+07
         0.91909E+06
        -0.13340E+06
         0.15971E+07
        -0.10957E+07
        -0.34746E+07
        -0.35862E+07
        -0.35244E+07
        -0.32360E+07
        -0.93173E+06
        -0.74939E+06
        -0.16586E+07
        -0.28359E+07
        -0.21422E+07
         0.45910E+05
         0.16298E+07
         0.85165E+06
        -0.27978E+06
         0.14639E+06
         0.19591E+07
         0.90391E+06
         0.22583E+07
        -0.12140E+07
        -0.25938E+07
         0.14930E+07
        -0.29840E+07
        -0.31465E+07
        -0.14625E+07
        -0.28503E+06
        -0.49185E+07
        -0.28291E+07
         0.11935E+06
         0.94168E+06
         0.14040E+07
        -0.11554E+07
        -0.17201E+06
        -0.79569E+06
         0.42135E+06
        -0.18760E+07
        -0.11490E+07
        -0.35422E+07
        -0.92618E+06
        -0.66346E+07
        -0.43144E+07
        -0.28360E+07
        -0.32014E+07
        -0.21162E+06
        -0.59630E+06
         0.12026E+07
         0.23354E+07
        -0.95440E+05
        -0.21299E+06
         0.13899E+05
        -0.31033E+07
        -0.29878E+07
        -0.21223E+07
        -0.53086E+06
        -0.10999E+07
        -0.10041E+07
        -0.19687E+07
        -0.17345E+07
        -0.20356E+07
        -0.10204E+07
        -0.37902E+06
        -0.27671E+06
         0.49988E+06
         0.10768E+07
         0.24194E+07
        -0.28663E+07
         0.99837E+06
        -0.19118E+07
         0.70347E+06
         0.27172E+07
         0.40345E+07
         0.28745E+07
         0.34123E+07
         0.24275E+07
         0.10420E+07
         0.11969E+07
         0.91334E+06
        -0.14296E+06
         0.15817E+07
        -0.11134E+07
        -0.34873E+07
        -0.35948E+07
        -0.35317E+07
        -0.32437E+07
        -0.94516E+06
        -0.76652E+06
        -0.16696E+07
        -0.28372E+07
        -0.21456E+07
         0.28984E+05
         0.16146E+07
         0.88477E+06
        -0.24493E+06
         0.17524E+06
         0.19795E+07
         0.94050E+06
         0.22849E+07
        -0.11764E+07
        -0.25560E+07
         0.15167E+07
        -0.29561E+07
        -0.31075E+07
        -0.14120E+07
        -0.24119E+06
        -0.48736E+07
        -0.27793E+07
         0.14981E+06
         0.96797E+06
         0.14241E+07
        -0.11234E+07
        -0.14011E+06
        -0.75382E+06
         0.46113E+06
        -0.18359E+07
        -0.11182E+07
        -0.35085E+07
        -0.89917E+06
        -0.65882E+07
        -0.42779E+07
        -0.27965E+07
        -0.31603E+07
        -0.17855E+06
        -0.56523E+06
         0.12247E+07
         0.23552E+07
        -0.53638E+05
        -0.17841E+06
         0.49880E+05
        -0.30723E+07
        -0.29492E+07
        -0.20798E+07
        -0.49057E+06
        -0.10589E+07
        -0.96787E+06
        -0.19280E+07
        -0.16939E+07
        -0.19937E+07
        -0.98381E+06
        -0.34413E+06
        -0.24715E+06
         0.52665E+06
         0.11050E+07
         0.24445E+07
        -0.27810E+07
         0.10831E+07
        -0.18406E+07
         0.75520E+06
         0.27802E+07
         0.41146E+07
         0.29416E+07
         0.34634E+07
         0.24847E+07
         0.11046E+07
         0.12533E+07
         0.97941E+06
        -0.90491E+05
         0.16400E+07
        -0.10469E+07
        -0.34182E+07
        -0.35172E+07
        -0.34479E+07
        -0.31717E+07
        -0.86977E+06
        -0.70239E+06
        -0.16218E+07
        -0.27846E+07
        -0.20824E+07
         0.97367E+05
         0.16837E+07
         0.87123E+06
        -0.25468E+06
         0.16626E+06
         0.19658E+07
         0.92449E+06
         0.22721E+07
        -0.11876E+07
        -0.25745E+07
         0.15005E+07
        -0.29832E+07
        -0.31257E+07
        -0.14296E+07
        -0.25192E+06
        -0.48912E+07
        -0.28020E+07
         0.13273E+06
         0.94996E+06
         0.14118E+07
        -0.11454E+07
        -0.15553E+06
        -0.76865E+06
         0.44137E+06
        -0.18497E+07
        -0.11362E+07
        -0.35320E+07
        -0.91272E+06
        -0.66080E+07
        -0.42912E+07
        -0.28008E+07
        -0.31706E+07
        -0.18864E+06
        -0.57908E+06
         0.12098E+07
         0.23406E+07
        -0.77754E+05
        -0.19223E+06
         0.40675E+05
        -0.31092E+07
        -0.29751E+07
        -0.20914E+07
        -0.50966E+06
        -0.10802E+07
        -0.99274E+06
        -0.19469E+07
        -0.17131E+07
        -0.20116E+07
        -0.99930E+06
        -0.35530E+06
        -0.26071E+06
         0.50918E+06
         0.10870E+07
         0.24302E+07
        -0.28351E+07
         0.10373E+07
        -0.18827E+07
         0.73314E+06
         0.27726E+07
         0.40940E+07
         0.28961E+07
         0.34086E+07
         0.24314E+07
         0.10572E+07
         0.11975E+07
         0.91533E+06
        -0.13579E+06
         0.16174E+07
        -0.10575E+07
        -0.34251E+07
        -0.35395E+07
        -0.34861E+07
        -0.32000E+07
        -0.90330E+06
        -0.73336E+06
        -0.16566E+07
        -0.28218E+07
        -0.21057E+07
         0.75695E+05
         0.16478E+07
         0.84843E+06
        -0.27985E+06
         0.14167E+06
         0.19477E+07
         0.89917E+06
         0.22483E+07
        -0.12066E+07
        -0.25961E+07
         0.14773E+07
        -0.30294E+07
        -0.31475E+07
        -0.14582E+07
        -0.27569E+06
        -0.49093E+07
        -0.28305E+07
         0.11172E+06
         0.92291E+06
         0.13979E+07
        -0.11636E+07
        -0.16247E+06
        -0.78687E+06
         0.41827E+06
        -0.18664E+07
        -0.11516E+07
        -0.35722E+07
        -0.92602E+06
        -0.66537E+07
        -0.43123E+07
        -0.27543E+07
        -0.31416E+07
        -0.20734E+06
        -0.59893E+06
         0.11950E+07
         0.23305E+07
        -0.10490E+06
        -0.21495E+06
         0.18602E+05
        -0.31633E+07
        -0.30005E+07
        -0.20522E+07
        -0.51163E+06
        -0.11033E+07
        -0.10259E+07
        -0.19674E+07
        -0.17372E+07
        -0.20401E+07
        -0.10260E+07
        -0.37541E+06
        -0.27642E+06
         0.49522E+06
         0.10710E+07
         0.24126E+07
        -0.28712E+07
         0.10040E+07
        -0.19114E+07
         0.70831E+06
         0.27378E+07
         0.40378E+07
         0.28319E+07
         0.33474E+07
         0.23776E+07
         0.10448E+07
         0.11000E+07
         0.76192E+06
        -0.19947E+06
         0.15820E+07
        -0.10890E+07
        -0.34535E+07
        -0.35748E+07
        -0.35261E+07
        -0.32465E+07
        -0.95575E+06
        -0.76886E+06
        -0.16898E+07
        -0.28598E+07
        -0.21334E+07
         0.32819E+05
         0.15998E+07
         0.87998E+06
        -0.24780E+06
         0.17300E+06
         0.19727E+07
         0.93807E+06
         0.22771E+07
        -0.11736E+07
        -0.25588E+07
         0.14935E+07
        -0.30392E+07
        -0.31125E+07
        -0.14205E+07
        -0.24318E+06
        -0.48667E+07
        -0.27861E+07
         0.14252E+06
         0.94065E+06
         0.14166E+07
        -0.11265E+07
        -0.11079E+06
        -0.75211E+06
         0.45303E+06
        -0.18341E+07
        -0.11184E+07
        -0.35656E+07
        -0.89688E+06
        -0.66612E+07
        -0.42898E+07
        -0.26078E+07
        -0.30127E+07
        -0.17903E+06
        -0.56737E+06
         0.12165E+07
         0.23568E+07
        -0.60106E+05
        -0.17638E+06
         0.52579E+05
        -0.31614E+07
        -0.29561E+07
        -0.19044E+07
        -0.43387E+06
        -0.10618E+07
        -0.10049E+07
        -0.19326E+07
        -0.16975E+07
        -0.19934E+07
        -0.98782E+06
        -0.34344E+06
        -0.24399E+06
         0.53151E+06
         0.11086E+07
         0.24423E+07
        -0.27834E+07
         0.10901E+07
        -0.18235E+07
         0.76992E+06
         0.27771E+07
         0.40833E+07
         0.28949E+07
         0.34113E+07
         0.24476E+07
         0.11812E+07
         0.10683E+07
         0.63846E+06
        -0.19485E+06
         0.16303E+07
        -0.10485E+07
        -0.34197E+07
        -0.35330E+07
        -0.34560E+07
        -0.31604E+07
        -0.87508E+06
        -0.69929E+06
        -0.16180E+07
        -0.27790E+07
        -0.20580E+07
         0.93871E+05
         0.16639E+07
         0.76332E+06
        -0.36476E+06
         0.59867E+05
         0.18690E+07
         0.79758E+06
         0.21474E+07
        -0.12907E+07
        -0.26969E+07
         0.13692E+07
        -0.32112E+07
        -0.32529E+07
        -0.15989E+07
        -0.40944E+06
        -0.50179E+07
        -0.29689E+07
         0.27429E+05
         0.81560E+06
         0.13249E+07
        -0.12529E+07
        -0.21457E+06
        -0.90802E+06
         0.30053E+06
        -0.19847E+07
        -0.12336E+07
        -0.37238E+07
        -0.98576E+06
        -0.68418E+07
        -0.44048E+07
        -0.26669E+07
        -0.31013E+07
        -0.29161E+06
        -0.67795E+06
         0.11054E+07
         0.22445E+07
        -0.22466E+06
        -0.31897E+06
        -0.98197E+05
        -0.33715E+07
        -0.31212E+07
        -0.20009E+07
        -0.58733E+06
        -0.12267E+07
        -0.11708E+07
        -0.20794E+07
        -0.18506E+07
        -0.21695E+07
        -0.11384E+07
        -0.47801E+06
        -0.37388E+06
         0.38939E+06
         0.94068E+06
         0.22975E+07
        -0.30890E+07
         0.79342E+06
        -0.21322E+07
         0.45593E+06
         0.24641E+07
         0.37822E+07
         0.25886E+07
         0.30824E+07
         0.21387E+07
         0.90015E+06
         0.67668E+06
         0.21229E+06
        -0.49695E+06
         0.13795E+07
        -0.13111E+07
        -0.36928E+07
        -0.38153E+07
        -0.37713E+07
        -0.34843E+07
        -0.11855E+07
        -0.98753E+06
        -0.18940E+07
        -0.30615E+07
        -0.23480E+07
        -0.18456E+06
         0.13874E+07
         0.83044E+06
        -0.35649E+06
         0.80916E+05
         0.19076E+07
         0.84402E+06
         0.21890E+07
        -0.12734E+07
        -0.26149E+07
         0.14497E+07
        -0.30918E+07
        -0.32158E+07
        -0.15953E+07
        -0.45184E+06
        -0.49186E+07
        -0.28877E+07
         0.11734E+06
         0.89550E+06
         0.13726E+07
        -0.11854E+07
        -0.15175E+06
        -0.83812E+06
         0.35282E+06
        -0.18767E+07
        -0.11466E+07
        -0.35899E+07
        -0.91706E+06
        -0.66877E+07
        -0.42749E+07
        -0.25444E+07
        -0.29710E+07
        -0.22127E+06
        -0.62793E+06
         0.11332E+07
         0.22280E+07
        -0.19969E+06
        -0.32999E+06
        -0.14100E+06
        -0.32756E+07
        -0.30047E+07
        -0.18985E+07
        -0.51862E+06
        -0.11329E+07
        -0.10718E+07
        -0.19806E+07
        -0.17957E+07
        -0.21428E+07
        -0.11163E+07
        -0.42026E+06
        -0.33017E+06
         0.39222E+06
         0.95150E+06
         0.23003E+07
        -0.29714E+07
         0.94618E+06
        -0.20938E+07
         0.38816E+06
         0.23234E+07
         0.36966E+07
         0.27289E+07
         0.32268E+07
         0.22534E+07
         0.96826E+06
         0.69564E+06
         0.27053E+06
        -0.38271E+06
         0.14360E+07
        -0.11919E+07
        -0.35225E+07
        -0.36706E+07
        -0.36604E+07
        -0.34364E+07
        -0.11910E+07
        -0.92366E+06
        -0.18025E+07
        -0.29163E+07
        -0.21711E+07
        -0.45251E+05
         0.15318E+07
         0.45945E+09
         0.46238E+09
         0.45751E+09
         0.40570E+09
         0.55119E+09
         0.50433E+09
         0.47927E+09
         0.52183E+09
         0.43892E+09
         0.52223E+09
         0.54671E+09
         0.68424E+09
         0.60883E+09
         0.57961E+09
         0.70430E+09
         0.43211E+09
         0.44375E+09
         0.36682E+09
         0.47029E+09
         0.47083E+09
         0.55976E+09
         0.56397E+09
         0.53413E+09
         0.43776E+09
         0.51022E+09
         0.39785E+09
         0.57173E+09
         0.50631E+09
         0.52612E+09
         0.53010E+09
         0.43148E+09
         0.43027E+09
         0.40671E+09
         0.42325E+09
         0.62012E+09
         0.54063E+09
         0.54949E+09
         0.66388E+09
         0.63331E+09
         0.62212E+09
         0.65025E+09
         0.61157E+09
         0.57956E+09
         0.51481E+09
         0.53453E+09
         0.62393E+09
         0.55431E+09
         0.51155E+09
         0.49229E+09
         0.51818E+09
         0.59064E+09
         0.52790E+09
         0.11220E+10
         0.10990E+10
         0.11182E+10
         0.10822E+10
         0.11160E+10
         0.11704E+10
         0.11755E+10
         0.11633E+10
         0.11726E+10
         0.12050E+10
         0.11692E+10
         0.11024E+10
         0.97846E+09
         0.92385E+09
         0.93691E+09
         0.95816E+09
         0.97010E+09
         0.10566E+10
         0.11316E+10
         0.11364E+10
         0.10425E+10
         0.10055E+10
         0.10414E+10
         0.10312E+10
         0.10247E+10
         0.10269E+10
         0.52619E+10
         0.55176E+10
         0.54378E+10
         0.49613E+10
         0.61099E+10
         0.57385E+10
         0.59737E+10
         0.60160E+10
         0.51488E+10
         0.60131E+10
         0.65642E+10
         0.73529E+10
         0.66613E+10
         0.67555E+10
         0.76124E+10
         0.50440E+10
         0.54257E+10
         0.47337E+10
         0.56038E+10
         0.58990E+10
         0.60944E+10
         0.62300E+10
         0.58491E+10
         0.53892E+10
         0.60866E+10
         0.52002E+10
         0.67307E+10
         0.66181E+10
         0.66479E+10
         0.63035E+10
         0.50994E+10
         0.53659E+10
         0.50009E+10
         0.52310E+10
         0.66929E+10
         0.61402E+10
         0.61586E+10
         0.73711E+10
         0.71831E+10
         0.70971E+10
         0.72195E+10
         0.68527E+10
         0.64760E+10
         0.57110E+10
         0.59502E+10
         0.66889E+10
         0.61851E+10
         0.58142E+10
         0.56993E+10
         0.59098E+10
         0.64164E+10
         0.59268E+10
         0.10667E+11
         0.10384E+11
         0.10605E+11
         0.10263E+11
         0.10574E+11
         0.11130E+11
         0.11317E+11
         0.11297E+11
         0.11381E+11
         0.11647E+11
         0.11301E+11
         0.10605E+11
         0.94861E+10
         0.89546E+10
         0.89760E+10
         0.90910E+10
         0.91796E+10
         0.99725E+10
         0.10710E+11
         0.10753E+11
         0.99339E+10
         0.96205E+10
         0.99450E+10
         0.98739E+10
         0.97579E+10
         0.97303E+10
  
SCALARS                      stress_zz  double 1
LOOKUP_TABLE default
         0.28177E+13
         0.27834E+13
         0.28052E+13
         0.28442E+13
        -0.61300E+03
        -0.68738E+03
        -0.65819E+03
        -0.59794E+03
         0.27822E+13
         0.27938E+13
        -0.61813E+03
        -0.59819E+03
         0.27336E+13
         0.27318E+13
        -0.73447E+03
        -0.69058E+03
         0.28385E+13
         0.27345E+13
        -0.54269E+03
        -0.60193E+03
         0.26962E+13
         0.26665E+13
         0.27138E+13
        -0.72794E+03
        -0.63572E+03
        -0.65646E+03
         0.26676E+13
         0.26241E+13
        -0.69836E+03
        -0.58894E+03
         0.28366E+13
         0.27914E+13
         0.28804E+13
        -0.59595E+03
        -0.55402E+03
        -0.53865E+03
         0.28104E+13
         0.27528E+13
        -0.63049E+03
        -0.57532E+03
         0.27876E+13
         0.27431E+13
        -0.54492E+03
        -0.48241E+03
         0.28252E+13
         0.28419E+13
        -0.59716E+03
        -0.66724E+03
         0.27074E+13
        -0.58337E+03
         0.28387E+13
        -0.68549E+03
         0.26551E+13
        -0.61606E+03
         0.26414E+13
        -0.59093E+03
         0.26416E+13
         0.26902E+13
        -0.60208E+03
        -0.58636E+03
         0.28357E+13
         0.28183E+13
        -0.60374E+03
        -0.68252E+03
         0.28465E+13
        -0.58256E+03
         0.28259E+13
        -0.63580E+03
         0.27715E+13
         0.27660E+13
        -0.61202E+03
        -0.64128E+03
         0.27537E+13
        -0.64666E+03
         0.26087E+13
        -0.51091E+03
         0.26011E+13
        -0.49592E+03
         0.26049E+13
        -0.52290E+03
         0.26259E+13
         0.26478E+13
        -0.49820E+03
        -0.51940E+03
         0.26917E+13
        -0.48375E+03
         0.28244E+13
        -0.63438E+03
         0.28037E+13
        -0.64927E+03
         0.27867E+13
         0.27774E+13
        -0.62351E+03
        -0.63079E+03
         0.27889E+13
        -0.57294E+03
         0.27971E+13
        -0.56476E+03
         0.27897E+13
        -0.60459E+03
         0.27871E+13
         0.27945E+13
        -0.59289E+03
        -0.61028E+03
         0.27461E+13
         0.27658E+13
        -0.46032E+03
        -0.43296E+03
         0.27424E+13
        -0.43954E+03
         0.27651E+13
        -0.42145E+03
         0.27427E+13
        -0.41558E+03
         0.26931E+13
        -0.39273E+03
         0.26450E+13
        -0.34889E+03
         0.26161E+13
        -0.31416E+03
         0.26132E+13
        -0.31198E+03
         0.26141E+13
        -0.33832E+03
         0.26454E+13
        -0.35557E+03
         0.27038E+13
        -0.32467E+03
         0.27678E+13
        -0.29266E+03
         0.28053E+13
        -0.29232E+03
         0.28423E+13
        -0.32674E+03
         0.28667E+13
        -0.37256E+03
         0.28658E+13
        -0.40025E+03
         0.28065E+13
        -0.43226E+03
         0.27651E+13
        -0.46310E+03
         0.27508E+13
        -0.42424E+03
         0.27730E+13
        -0.37217E+03
         0.27846E+13
        -0.37102E+03
         0.27652E+13
        -0.40594E+03
         0.27655E+13
        -0.43276E+03
         0.27802E+13
        -0.41069E+03
         0.27992E+13
        -0.39704E+03
        -0.50045E+10
        -0.27052E+10
        -0.30197E+10
        -0.59688E+10
        -0.41773E+09
        -0.32838E+10
         0.28436E+09
        -0.15993E+10
        -0.55120E+10
        -0.31012E+10
         0.23490E+10
         0.29865E+10
         0.12927E+10
         0.11777E+10
         0.22674E+10
        -0.58318E+10
        -0.52909E+10
        -0.67955E+10
        -0.24517E+10
        -0.32640E+10
        -0.21012E+10
        -0.28722E+10
        -0.14414E+10
        -0.18147E+10
        -0.31962E+10
        -0.30983E+10
        -0.72181E+09
        -0.94065E+09
         0.86344E+09
        -0.18489E+10
        -0.55651E+10
        -0.26719E+10
        -0.55447E+10
        -0.36601E+10
         0.34321E+10
         0.10946E+10
         0.44678E+07
         0.12873E+10
         0.14557E+10
         0.35997E+10
         0.51889E+10
         0.13600E+10
        -0.21494E+10
        -0.16816E+10
         0.11041E+09
         0.33447E+10
         0.57829E+09
        -0.22961E+10
        -0.20989E+10
         0.12112E+09
         0.24488E+10
        -0.67634E+09
         0.91445E+10
         0.61565E+10
         0.66460E+10
         0.59557E+10
         0.61314E+10
         0.77318E+10
         0.94009E+10
         0.99491E+10
         0.97130E+10
         0.98817E+10
         0.10601E+11
         0.62842E+10
         0.47091E+10
         0.41083E+10
         0.30926E+10
         0.23282E+10
         0.23632E+10
         0.36673E+10
         0.81376E+10
         0.70549E+10
         0.55118E+10
         0.55281E+10
         0.57951E+10
         0.72774E+10
         0.50990E+10
         0.43039E+10
         0.37775E+07
         0.22543E+07
         0.26709E+07
         0.42012E+07
         0.30240E+07
         0.43683E+07
        -0.19344E+06
        -0.47929E+06
         0.46861E+07
        -0.71256E+06
        -0.21775E+07
         0.12203E+07
         0.19303E+07
        -0.49297E+07
        -0.47416E+06
         0.19708E+07
         0.29904E+07
         0.38339E+07
         0.10024E+07
         0.11181E+07
         0.86352E+06
         0.21440E+07
        -0.10872E+06
         0.14069E+06
        -0.15631E+07
         0.11211E+06
        -0.72240E+07
        -0.89171E+07
        -0.35692E+07
        -0.11374E+07
         0.18392E+07
         0.66635E+06
         0.36730E+07
         0.53058E+07
         0.13100E+07
         0.12387E+07
         0.18456E+07
        -0.87925E+06
        -0.61078E+06
         0.24928E+06
         0.13961E+07
         0.67506E+06
         0.96633E+06
         0.29473E+04
         0.18235E+06
         0.51111E+06
         0.12772E+07
         0.17052E+07
         0.24964E+07
         0.33879E+07
         0.32681E+07
         0.42857E+07
        -0.11000E+07
         0.29199E+07
         0.37961E+06
         0.34935E+07
         0.60078E+07
         0.77441E+07
         0.65898E+07
         0.71059E+07
         0.60610E+07
         0.43919E+07
         0.38484E+07
         0.32190E+07
         0.19049E+07
         0.35179E+07
         0.76951E+06
        -0.11862E+07
        -0.85484E+06
        -0.73384E+06
        -0.28659E+05
         0.26586E+07
         0.27437E+07
         0.17794E+07
         0.37057E+06
         0.36337E+06
         0.20899E+07
         0.36932E+07
         0.36268E+07
         0.20873E+07
         0.25042E+07
         0.40396E+07
         0.28454E+07
         0.41942E+07
        -0.39932E+06
        -0.65270E+06
         0.45148E+07
        -0.90221E+06
        -0.23933E+07
         0.10076E+07
         0.17404E+07
        -0.51296E+07
        -0.68444E+06
         0.18009E+07
         0.27794E+07
         0.36516E+07
         0.79995E+06
         0.87183E+06
         0.67565E+06
         0.19596E+07
        -0.30399E+06
        -0.79104E+05
        -0.17822E+07
        -0.14185E+06
        -0.74159E+07
        -0.91966E+07
        -0.38268E+07
        -0.13626E+07
         0.16712E+07
         0.46303E+06
         0.35084E+07
         0.51367E+07
         0.11150E+07
         0.10576E+07
         0.16695E+07
        -0.10954E+07
        -0.81826E+06
         0.42656E+05
         0.11829E+07
         0.46457E+06
         0.76609E+06
        -0.18892E+06
        -0.20415E+04
         0.31633E+06
         0.10889E+07
         0.15235E+07
         0.23254E+07
         0.32207E+07
         0.30871E+07
         0.41124E+07
        -0.14186E+07
         0.26094E+07
         0.74503E+05
         0.32013E+07
         0.56994E+07
         0.74016E+07
         0.62472E+07
         0.67579E+07
         0.57087E+07
         0.40328E+07
         0.34909E+07
         0.28883E+07
         0.16264E+07
         0.32572E+07
         0.49760E+06
        -0.14757E+07
        -0.11502E+07
        -0.10413E+07
        -0.33803E+06
         0.23319E+07
         0.24339E+07
         0.14990E+07
         0.90371E+05
         0.76210E+05
         0.18001E+07
         0.33981E+07
         0.36621E+07
         0.21202E+07
         0.25397E+07
         0.40826E+07
         0.28923E+07
         0.42414E+07
        -0.35438E+06
        -0.61325E+06
         0.45428E+07
        -0.89352E+06
        -0.23495E+07
         0.10482E+07
         0.17766E+07
        -0.50832E+07
        -0.63264E+06
         0.17668E+07
         0.27683E+07
         0.37024E+07
         0.75026E+06
         0.82429E+06
         0.64459E+06
         0.19476E+07
        -0.43207E+06
        -0.23772E+06
        -0.18744E+07
        -0.31990E+06
        -0.73773E+07
        -0.92362E+07
        -0.39249E+07
        -0.15196E+07
         0.16715E+07
         0.41678E+06
         0.35531E+07
         0.51917E+07
         0.11658E+07
         0.11033E+07
         0.17085E+07
        -0.10578E+07
        -0.78429E+06
         0.54430E+05
         0.11776E+07
         0.38812E+06
         0.65826E+06
        -0.31737E+06
        -0.33651E+05
         0.34311E+06
         0.11231E+07
         0.15645E+07
         0.23722E+07
         0.32726E+07
         0.31386E+07
         0.41619E+07
        -0.13239E+07
         0.26943E+07
         0.16851E+06
         0.32737E+07
         0.57529E+07
         0.74548E+07
         0.63151E+07
         0.68264E+07
         0.57781E+07
         0.41045E+07
         0.35331E+07
         0.28867E+07
         0.16309E+07
         0.33051E+07
         0.52931E+06
        -0.15343E+07
        -0.12137E+07
        -0.10249E+07
        -0.25312E+06
         0.24302E+07
         0.25221E+07
         0.15883E+07
         0.19023E+06
         0.16027E+06
         0.18684E+07
         0.34642E+07
         0.36407E+07
         0.21061E+07
         0.25258E+07
         0.40569E+07
         0.28756E+07
         0.42268E+07
        -0.36992E+06
        -0.63571E+06
         0.44931E+07
        -0.97434E+06
        -0.23717E+07
         0.10262E+07
         0.17615E+07
        -0.51089E+07
        -0.65862E+06
         0.16317E+07
         0.26442E+07
         0.36707E+07
         0.57348E+06
         0.61645E+06
         0.50206E+06
         0.18202E+07
        -0.73012E+06
        -0.59245E+06
        -0.21345E+07
        -0.72544E+06
        -0.74292E+07
        -0.94625E+07
        -0.42429E+07
        -0.18974E+07
         0.15899E+07
         0.23358E+06
         0.35280E+07
         0.51639E+07
         0.11407E+07
         0.10850E+07
         0.16945E+07
        -0.10975E+07
        -0.83483E+06
        -0.39203E+05
         0.10569E+07
         0.14979E+06
         0.36583E+06
        -0.62015E+06
        -0.18626E+06
         0.26466E+06
         0.10625E+07
         0.15308E+07
         0.23431E+07
         0.32412E+07
         0.31114E+07
         0.41433E+07
        -0.13685E+07
         0.26636E+07
         0.12023E+06
         0.32315E+07
         0.57245E+07
         0.74223E+07
         0.62605E+07
         0.67669E+07
         0.57205E+07
         0.40349E+07
         0.34229E+07
         0.27088E+07
         0.14621E+07
         0.32249E+07
         0.43959E+06
        -0.17804E+07
        -0.14742E+07
        -0.11464E+07
        -0.31106E+06
         0.23751E+07
         0.24799E+07
         0.15384E+07
         0.13811E+06
         0.12476E+06
         0.18415E+07
         0.34375E+07
         0.36018E+07
         0.20774E+07
         0.25017E+07
         0.40304E+07
         0.28562E+07
         0.42063E+07
        -0.39542E+06
        -0.67307E+06
         0.44336E+07
        -0.10585E+07
        -0.23954E+07
         0.10125E+07
         0.17445E+07
        -0.51369E+07
        -0.67096E+06
         0.15403E+07
         0.25461E+07
         0.36414E+07
         0.45724E+06
         0.46621E+06
         0.41028E+06
         0.17287E+07
        -0.91324E+06
        -0.81226E+06
        -0.23207E+07
        -0.98545E+06
        -0.74744E+07
        -0.96257E+07
        -0.44594E+07
        -0.21480E+07
         0.15048E+07
         0.10054E+06
         0.34786E+07
         0.51253E+07
         0.11148E+07
         0.10617E+07
         0.16734E+07
        -0.11270E+07
        -0.87661E+06
        -0.11009E+06
         0.97186E+06
        -0.10416E+05
         0.17403E+06
        -0.81252E+06
        -0.28685E+06
         0.21291E+06
         0.10088E+07
         0.14767E+07
         0.22924E+07
         0.31946E+07
         0.30688E+07
         0.41128E+07
        -0.14086E+07
         0.26368E+07
         0.79121E+05
         0.31987E+07
         0.57112E+07
         0.74126E+07
         0.62371E+07
         0.67277E+07
         0.56717E+07
         0.39918E+07
         0.33558E+07
         0.25857E+07
         0.13470E+07
         0.31628E+07
         0.37625E+06
        -0.19399E+07
        -0.16570E+07
        -0.12332E+07
        -0.33742E+06
         0.23251E+07
         0.24240E+07
         0.14811E+07
         0.71036E+05
         0.67173E+05
         0.18060E+07
         0.34108E+07
         0.35074E+07
         0.20224E+07
         0.24778E+07
         0.40525E+07
         0.28806E+07
         0.42393E+07
        -0.41251E+06
        -0.73859E+06
         0.43505E+07
        -0.11725E+07
        -0.23769E+07
         0.10601E+07
         0.17635E+07
        -0.51310E+07
        -0.61156E+06
         0.15569E+07
         0.25233E+07
         0.36936E+07
         0.48131E+06
         0.48677E+06
         0.43687E+06
         0.17609E+07
        -0.90917E+06
        -0.81665E+06
        -0.23984E+07
        -0.10223E+07
        -0.74845E+07
        -0.96456E+07
        -0.44383E+07
        -0.21560E+07
         0.14031E+07
         0.30414E+05
         0.33954E+07
         0.51155E+07
         0.11371E+07
         0.10642E+07
         0.16695E+07
        -0.10888E+07
        -0.84203E+06
        -0.71525E+05
         0.10135E+07
         0.14936E+05
         0.19452E+06
        -0.82474E+06
        -0.29975E+06
         0.20431E+06
         0.96231E+06
         0.13677E+07
         0.21681E+07
         0.31311E+07
         0.30549E+07
         0.41278E+07
        -0.13307E+07
         0.27173E+07
         0.14456E+06
         0.32426E+07
         0.57571E+07
         0.74749E+07
         0.63077E+07
         0.67958E+07
         0.57498E+07
         0.40950E+07
         0.34461E+07
         0.26402E+07
         0.14078E+07
         0.32262E+07
         0.43730E+06
        -0.18912E+07
        -0.16219E+07
        -0.11983E+07
        -0.29550E+06
         0.23541E+07
         0.24176E+07
         0.14412E+07
         0.44632E+05
         0.80360E+05
         0.18450E+07
         0.34670E+07
         0.33637E+07
         0.19249E+07
         0.24204E+07
         0.40364E+07
         0.28615E+07
         0.42377E+07
        -0.49410E+06
        -0.86661E+06
         0.42105E+07
        -0.13408E+07
        -0.24284E+07
         0.10419E+07
         0.17328E+07
        -0.51966E+07
        -0.62421E+06
         0.15295E+07
         0.24429E+07
         0.36856E+07
         0.46115E+06
         0.45102E+06
         0.42399E+06
         0.17519E+07
        -0.92361E+06
        -0.84328E+06
        -0.25096E+07
        -0.10885E+07
        -0.75618E+07
        -0.97297E+07
        -0.44539E+07
        -0.21851E+07
         0.12609E+07
        -0.84730E+05
         0.32684E+07
         0.50640E+07
         0.11067E+07
         0.10264E+07
         0.16280E+07
        -0.11198E+07
        -0.87210E+06
        -0.87950E+05
         0.10062E+07
         0.11506E+05
         0.19265E+06
        -0.85412E+06
        -0.35543E+06
         0.13110E+06
         0.85518E+06
         0.12038E+07
         0.19907E+07
         0.30199E+07
         0.29981E+07
         0.41073E+07
        -0.13634E+07
         0.26918E+07
         0.12503E+06
         0.32205E+07
         0.57251E+07
         0.74367E+07
         0.62760E+07
         0.67686E+07
         0.57224E+07
         0.40744E+07
         0.34297E+07
         0.26203E+07
         0.14042E+07
         0.32212E+07
         0.42393E+06
        -0.18987E+07
        -0.16373E+07
        -0.12533E+07
        -0.37746E+06
         0.22639E+07
         0.23157E+07
         0.13151E+07
        -0.65912E+05
         0.21739E+05
         0.18135E+07
         0.34422E+07
         0.33218E+07
         0.18888E+07
         0.23969E+07
         0.40146E+07
         0.28409E+07
         0.42179E+07
        -0.53455E+06
        -0.91065E+06
         0.41691E+07
        -0.13909E+07
        -0.24649E+07
         0.10163E+07
         0.17026E+07
        -0.52337E+07
        -0.64581E+06
         0.15048E+07
         0.24104E+07
         0.36630E+07
         0.44267E+06
         0.42282E+06
         0.40376E+06
         0.17308E+07
        -0.94262E+06
        -0.86366E+06
        -0.25472E+07
        -0.11264E+07
        -0.75945E+07
        -0.97750E+07
        -0.44866E+07
        -0.22128E+07
         0.12145E+07
        -0.13046E+06
         0.32277E+07
         0.50350E+07
         0.10811E+07
         0.10059E+07
         0.16028E+07
        -0.11589E+07
        -0.90692E+06
        -0.12340E+06
         0.97054E+06
        -0.17027E+05
         0.17433E+06
        -0.88040E+06
        -0.38872E+06
         0.96844E+05
         0.81973E+06
         0.11630E+07
         0.19467E+07
         0.29815E+07
         0.29630E+07
         0.40814E+07
        -0.14083E+07
         0.26478E+07
         0.95158E+05
         0.31899E+07
         0.56880E+07
         0.74043E+07
         0.62426E+07
         0.67223E+07
         0.56610E+07
         0.40102E+07
         0.33715E+07
         0.25939E+07
         0.13832E+07
         0.31760E+07
         0.37681E+06
        -0.19434E+07
        -0.16954E+07
        -0.13087E+07
        -0.42417E+06
         0.22262E+07
         0.22846E+07
         0.12730E+07
        -0.12157E+06
        -0.30102E+05
         0.17699E+07
         0.33991E+07
         0.33484E+07
         0.19133E+07
         0.24150E+07
         0.40214E+07
         0.28634E+07
         0.42244E+07
        -0.50385E+06
        -0.87796E+06
         0.41954E+07
        -0.13582E+07
        -0.24387E+07
         0.10421E+07
         0.17221E+07
        -0.51999E+07
        -0.60516E+06
         0.15367E+07
         0.24413E+07
         0.36878E+07
         0.47794E+06
         0.45710E+06
         0.43092E+06
         0.17566E+07
        -0.91472E+06
        -0.82733E+06
        -0.25151E+07
        -0.10858E+07
        -0.75462E+07
        -0.97249E+07
        -0.44445E+07
        -0.21846E+07
         0.12417E+07
        -0.10445E+06
         0.32485E+07
         0.50446E+07
         0.11102E+07
         0.10294E+07
         0.16224E+07
        -0.11304E+07
        -0.88321E+06
        -0.10217E+06
         0.99507E+06
         0.99796E+04
         0.20184E+06
        -0.85480E+06
        -0.36714E+06
         0.11871E+06
         0.84275E+06
         0.11913E+07
         0.19756E+07
         0.30034E+07
         0.29780E+07
         0.40882E+07
        -0.13418E+07
         0.27131E+07
         0.13405E+06
         0.32059E+07
         0.57204E+07
         0.74548E+07
         0.62989E+07
         0.67627E+07
         0.56765E+07
         0.40339E+07
         0.34143E+07
         0.26548E+07
         0.14368E+07
         0.32109E+07
         0.40960E+06
        -0.19056E+07
        -0.16572E+07
        -0.12616E+07
        -0.37944E+06
         0.22787E+07
         0.23389E+07
         0.13216E+07
        -0.81187E+05
         0.58392E+04
         0.18060E+07
         0.34382E+07
         0.33416E+07
         0.19112E+07
         0.24103E+07
         0.40070E+07
         0.28592E+07
         0.42139E+07
        -0.50721E+06
        -0.88947E+06
         0.41747E+07
        -0.13771E+07
        -0.24540E+07
         0.10266E+07
         0.17175E+07
        -0.52195E+07
        -0.62787E+06
         0.15215E+07
         0.24203E+07
         0.36636E+07
         0.46271E+06
         0.43487E+06
         0.42044E+06
         0.17431E+07
        -0.92454E+06
        -0.84067E+06
        -0.25241E+07
        -0.11018E+07
        -0.75562E+07
        -0.97310E+07
        -0.44468E+07
        -0.21970E+07
         0.12274E+07
        -0.11855E+06
         0.32265E+07
         0.50232E+07
         0.11007E+07
         0.10202E+07
         0.16166E+07
        -0.11642E+07
        -0.90247E+06
        -0.11989E+06
         0.97776E+06
        -0.97090E+03
         0.18620E+06
        -0.86227E+06
        -0.37493E+06
         0.10778E+06
         0.82623E+06
         0.11727E+07
         0.19583E+07
         0.29885E+07
         0.29642E+07
         0.40735E+07
        -0.13612E+07
         0.26978E+07
         0.10282E+06
         0.31794E+07
         0.57166E+07
         0.74361E+07
         0.62555E+07
         0.67141E+07
         0.56479E+07
         0.39911E+07
         0.33677E+07
         0.26316E+07
         0.14091E+07
         0.31956E+07
         0.39539E+06
        -0.19188E+07
        -0.16593E+07
        -0.12709E+07
        -0.39286E+06
         0.22431E+07
         0.22946E+07
         0.12874E+07
        -0.98653E+05
        -0.27021E+04
         0.17864E+07
         0.34106E+07
         0.33223E+07
         0.18928E+07
         0.23968E+07
         0.39987E+07
         0.28448E+07
         0.42073E+07
        -0.52265E+06
        -0.90671E+06
         0.41558E+07
        -0.13960E+07
        -0.24713E+07
         0.10060E+07
         0.17038E+07
        -0.52352E+07
        -0.65111E+06
         0.15002E+07
         0.24038E+07
         0.36502E+07
         0.44398E+06
         0.41776E+06
         0.40694E+06
         0.17294E+07
        -0.93950E+06
        -0.86153E+06
        -0.25329E+07
        -0.11317E+07
        -0.75632E+07
        -0.97433E+07
        -0.44507E+07
        -0.22059E+07
         0.12067E+07
        -0.14159E+06
         0.32142E+07
         0.50192E+07
         0.10781E+07
         0.10042E+07
         0.16030E+07
        -0.11968E+07
        -0.92407E+06
        -0.13533E+06
         0.96788E+06
        -0.10281E+05
         0.17193E+06
        -0.87638E+06
        -0.38878E+06
         0.93063E+05
         0.81082E+06
         0.11566E+07
         0.19417E+07
         0.29755E+07
         0.29512E+07
         0.40671E+07
        -0.14000E+07
         0.26655E+07
         0.79032E+05
         0.31713E+07
         0.57061E+07
         0.73984E+07
         0.62010E+07
         0.66702E+07
         0.56184E+07
         0.39603E+07
         0.33485E+07
         0.26086E+07
         0.13758E+07
         0.31729E+07
         0.37170E+06
        -0.19462E+07
        -0.16775E+07
        -0.12923E+07
        -0.41925E+06
         0.22138E+07
         0.22609E+07
         0.12524E+07
        -0.12385E+06
        -0.26570E+05
         0.17565E+07
         0.33792E+07
         0.33349E+07
         0.19005E+07
         0.24035E+07
         0.40111E+07
         0.28600E+07
         0.42227E+07
        -0.50227E+06
        -0.88387E+06
         0.41678E+07
        -0.13818E+07
        -0.24465E+07
         0.10237E+07
         0.17097E+07
        -0.52043E+07
        -0.61342E+06
         0.15181E+07
         0.24160E+07
         0.36750E+07
         0.46529E+06
         0.44505E+06
         0.42863E+06
         0.17525E+07
        -0.92062E+06
        -0.83915E+06
        -0.25164E+07
        -0.11060E+07
        -0.75321E+07
        -0.97114E+07
        -0.44046E+07
        -0.21751E+07
         0.12282E+07
        -0.12391E+06
         0.32394E+07
         0.50430E+07
         0.10961E+07
         0.10193E+07
         0.16112E+07
        -0.11739E+07
        -0.90050E+06
        -0.10440E+06
         0.99523E+06
         0.10286E+05
         0.19406E+06
        -0.86073E+06
        -0.37572E+06
         0.10522E+06
         0.82480E+06
         0.11738E+07
         0.19607E+07
         0.29942E+07
         0.29669E+07
         0.40853E+07
        -0.13514E+07
         0.27182E+07
         0.12850E+06
         0.31956E+07
         0.56981E+07
         0.74010E+07
         0.62400E+07
         0.67136E+07
         0.56476E+07
         0.40045E+07
         0.33906E+07
         0.26286E+07
         0.14117E+07
         0.32094E+07
         0.40485E+06
        -0.19207E+07
        -0.16604E+07
        -0.12708E+07
        -0.39900E+06
         0.22454E+07
         0.22984E+07
         0.12885E+07
        -0.92757E+05
        -0.14430E+03
         0.17956E+07
         0.34251E+07
         0.33260E+07
         0.18857E+07
         0.23904E+07
         0.39948E+07
         0.28453E+07
         0.42076E+07
        -0.52226E+06
        -0.89943E+06
         0.41526E+07
        -0.14051E+07
        -0.24715E+07
         0.99810E+06
         0.16819E+07
        -0.52290E+07
        -0.62989E+06
         0.15009E+07
         0.23947E+07
         0.36490E+07
         0.44228E+06
         0.41897E+06
         0.40425E+06
         0.17278E+07
        -0.94622E+06
        -0.86327E+06
        -0.25375E+07
        -0.11322E+07
        -0.75599E+07
        -0.97543E+07
        -0.44269E+07
        -0.21916E+07
         0.12089E+07
        -0.14571E+06
         0.32127E+07
         0.50236E+07
         0.10744E+07
         0.10005E+07
         0.15888E+07
        -0.12095E+07
        -0.93550E+06
        -0.13492E+06
         0.96191E+06
        -0.20943E+05
         0.16972E+06
        -0.88950E+06
        -0.40109E+06
         0.83787E+05
         0.80283E+06
         0.11485E+07
         0.19393E+07
         0.29795E+07
         0.29495E+07
         0.40684E+07
        -0.13897E+07
         0.26851E+07
         0.90863E+05
         0.31523E+07
         0.56477E+07
         0.73529E+07
         0.62105E+07
         0.66756E+07
         0.55976E+07
         0.39551E+07
         0.33304E+07
         0.25691E+07
         0.13719E+07
         0.31680E+07
         0.36947E+06
        -0.19611E+07
        -0.17228E+07
        -0.13265E+07
        -0.42698E+06
         0.22067E+07
         0.22583E+07
         0.12679E+07
        -0.10695E+06
        -0.29636E+05
         0.17555E+07
         0.33851E+07
         0.33245E+07
         0.18809E+07
         0.23865E+07
         0.39898E+07
         0.28437E+07
         0.42036E+07
        -0.52417E+06
        -0.90022E+06
         0.41533E+07
        -0.14052E+07
        -0.24750E+07
         0.99464E+06
         0.16775E+07
        -0.52289E+07
        -0.62849E+06
         0.14976E+07
         0.23956E+07
         0.36446E+07
         0.44028E+06
         0.41581E+06
         0.39905E+06
         0.17240E+07
        -0.95186E+06
        -0.86771E+06
        -0.25370E+07
        -0.11402E+07
        -0.75532E+07
        -0.97608E+07
        -0.44264E+07
        -0.21945E+07
         0.11988E+07
        -0.15439E+06
         0.32021E+07
         0.50195E+07
         0.10693E+07
         0.99456E+06
         0.15821E+07
        -0.12265E+07
        -0.95523E+06
        -0.14697E+06
         0.95829E+06
        -0.23607E+05
         0.16639E+06
        -0.89433E+06
        -0.40577E+06
         0.78702E+05
         0.79572E+06
         0.11386E+07
         0.19309E+07
         0.29767E+07
         0.29463E+07
         0.40647E+07
        -0.13908E+07
         0.26857E+07
         0.80640E+05
         0.31356E+07
         0.56466E+07
         0.73520E+07
         0.61985E+07
         0.66438E+07
         0.55615E+07
         0.39352E+07
         0.33284E+07
         0.25632E+07
         0.13619E+07
         0.31519E+07
         0.35102E+06
        -0.19740E+07
        -0.17313E+07
        -0.13338E+07
        -0.43495E+06
         0.21927E+07
         0.22405E+07
         0.12565E+07
        -0.10831E+06
        -0.33503E+05
         0.17375E+07
         0.33688E+07
         0.33641E+07
         0.19274E+07
         0.24259E+07
         0.40219E+07
         0.28882E+07
         0.42389E+07
        -0.46086E+06
        -0.85259E+06
         0.41847E+07
        -0.13678E+07
        -0.24160E+07
         0.10504E+07
         0.17274E+07
        -0.51747E+07
        -0.57243E+06
         0.15363E+07
         0.24377E+07
         0.36897E+07
         0.48666E+06
         0.47326E+06
         0.44711E+06
         0.17695E+07
        -0.90568E+06
        -0.81936E+06
        -0.24864E+07
        -0.10825E+07
        -0.74925E+07
        -0.96741E+07
        -0.43442E+07
        -0.21385E+07
         0.12420E+07
        -0.10444E+06
         0.32408E+07
         0.50513E+07
         0.11175E+07
         0.10383E+07
         0.16253E+07
        -0.11905E+07
        -0.90912E+06
        -0.96845E+05
         0.10040E+07
         0.22840E+05
         0.20758E+06
        -0.84593E+06
        -0.35668E+06
         0.12682E+06
         0.84056E+06
         0.11821E+07
         0.19694E+07
         0.30103E+07
         0.29791E+07
         0.40960E+07
        -0.13023E+07
         0.27738E+07
         0.15467E+06
         0.31893E+07
         0.57119E+07
         0.74346E+07
         0.62677E+07
         0.66967E+07
         0.56209E+07
         0.40000E+07
         0.33869E+07
         0.26319E+07
         0.14168E+07
         0.32131E+07
         0.42045E+06
        -0.19019E+07
        -0.16501E+07
        -0.12467E+07
        -0.36010E+06
         0.22709E+07
         0.23073E+07
         0.13063E+07
        -0.53577E+05
         0.31836E+05
         0.18083E+07
         0.34404E+07
         0.33476E+07
         0.19142E+07
         0.24137E+07
         0.40018E+07
         0.28697E+07
         0.42233E+07
        -0.47848E+06
        -0.87286E+06
         0.41632E+07
        -0.13970E+07
        -0.24405E+07
         0.10307E+07
         0.17151E+07
        -0.52009E+07
        -0.59619E+06
         0.15142E+07
         0.24109E+07
         0.36688E+07
         0.45621E+06
         0.44144E+06
         0.43081E+06
         0.17470E+07
        -0.92144E+06
        -0.84847E+06
        -0.25118E+07
        -0.11193E+07
        -0.75172E+07
        -0.97035E+07
        -0.43420E+07
        -0.21499E+07
         0.12279E+07
        -0.12915E+06
         0.32225E+07
         0.50278E+07
         0.10897E+07
         0.10213E+07
         0.16145E+07
        -0.12308E+07
        -0.93752E+06
        -0.11004E+06
         0.98300E+06
        -0.13450E+04
         0.17953E+06
        -0.86736E+06
        -0.37878E+06
         0.10666E+06
         0.82230E+06
         0.11679E+07
         0.19515E+07
         0.29880E+07
         0.29582E+07
         0.40787E+07
        -0.13588E+07
         0.27262E+07
         0.11121E+06
         0.31664E+07
         0.57040E+07
         0.74132E+07
         0.62204E+07
         0.66395E+07
         0.55655E+07
         0.39508E+07
         0.33289E+07
         0.25655E+07
         0.13694E+07
         0.31894E+07
         0.40949E+06
        -0.19089E+07
        -0.16729E+07
        -0.12861E+07
        -0.38944E+06
         0.22360E+07
         0.22752E+07
         0.12701E+07
        -0.92358E+05
         0.72487E+04
         0.17854E+07
         0.34026E+07
         0.33200E+07
         0.18802E+07
         0.23804E+07
         0.39749E+07
         0.28400E+07
         0.41935E+07
        -0.50891E+06
        -0.89703E+06
         0.41325E+07
        -0.14493E+07
        -0.24703E+07
         0.99890E+06
         0.16880E+07
        -0.52277E+07
        -0.62638E+06
         0.14871E+07
         0.23701E+07
         0.36442E+07
         0.43130E+06
         0.42562E+06
         0.41066E+06
         0.17206E+07
        -0.94048E+06
        -0.87342E+06
        -0.25592E+07
        -0.11554E+07
        -0.75755E+07
        -0.97510E+07
        -0.42474E+07
        -0.21099E+07
         0.12025E+07
        -0.16385E+06
         0.32044E+07
         0.50115E+07
         0.10584E+07
         0.99315E+06
         0.15882E+07
        -0.12904E+07
        -0.96545E+06
        -0.63761E+05
         0.98125E+06
        -0.27560E+05
         0.14201E+06
        -0.89056E+06
        -0.40691E+06
         0.74396E+05
         0.79047E+06
         0.11426E+07
         0.19307E+07
         0.29702E+07
         0.29397E+07
         0.40573E+07
        -0.13965E+07
         0.26915E+07
         0.81632E+05
         0.31407E+07
         0.56681E+07
         0.73549E+07
         0.61538E+07
         0.65758E+07
         0.55097E+07
         0.39378E+07
         0.32277E+07
         0.24063E+07
         0.13028E+07
         0.31523E+07
         0.37655E+06
        -0.19382E+07
        -0.17092E+07
        -0.13274E+07
        -0.43763E+06
         0.21816E+07
         0.22383E+07
         0.12355E+07
        -0.13189E+06
        -0.22010E+05
         0.17404E+07
         0.33523E+07
         0.33577E+07
         0.19230E+07
         0.24231E+07
         0.40140E+07
         0.28873E+07
         0.42316E+07
        -0.45330E+06
        -0.85013E+06
         0.41540E+07
        -0.14574E+07
        -0.24172E+07
         0.10406E+07
         0.17250E+07
        -0.51766E+07
        -0.57625E+06
         0.15262E+07
         0.23989E+07
         0.36868E+07
         0.48481E+06
         0.52095E+06
         0.45065E+06
         0.17605E+07
        -0.90333E+06
        -0.82127E+06
        -0.25447E+07
        -0.10923E+07
        -0.75846E+07
        -0.96970E+07
        -0.39713E+07
        -0.19393E+07
         0.12394E+07
        -0.11305E+06
         0.32422E+07
         0.50537E+07
         0.11100E+07
         0.10419E+07
         0.16290E+07
        -0.12870E+07
        -0.91269E+06
         0.10931E+06
         0.10689E+07
         0.19467E+05
         0.16603E+06
        -0.84902E+06
        -0.35889E+06
         0.12788E+06
         0.83724E+06
         0.11824E+07
         0.19730E+07
         0.30159E+07
         0.29834E+07
         0.40943E+07
        -0.13054E+07
         0.27810E+07
         0.17296E+06
         0.32046E+07
         0.57088E+07
         0.74018E+07
         0.62187E+07
         0.66419E+07
         0.55824E+07
         0.40791E+07
         0.31948E+07
         0.22783E+07
         0.13077E+07
         0.32030E+07
         0.41892E+06
        -0.19028E+07
        -0.16653E+07
        -0.12544E+07
        -0.34818E+06
         0.22652E+07
         0.23108E+07
         0.13104E+07
        -0.47767E+05
         0.56047E+05
         0.18036E+07
         0.34186E+07
         0.32173E+07
         0.17659E+07
         0.22694E+07
         0.38561E+07
         0.27196E+07
         0.40656E+07
        -0.64567E+06
        -0.10145E+07
         0.39896E+07
        -0.16620E+07
        -0.26203E+07
         0.84284E+06
         0.15356E+07
        -0.53750E+07
        -0.77628E+06
         0.13790E+07
         0.22067E+07
         0.35025E+07
         0.30620E+06
         0.32167E+06
         0.27421E+06
         0.15861E+07
        -0.10760E+07
        -0.10049E+07
        -0.27479E+07
        -0.13047E+07
        -0.78176E+07
        -0.99635E+07
        -0.40690E+07
        -0.20535E+07
         0.10895E+07
        -0.29875E+06
         0.30754E+07
         0.48731E+07
         0.92032E+06
         0.86328E+06
         0.14486E+07
        -0.15216E+07
        -0.11019E+07
        -0.31605E+04
         0.89728E+06
        -0.16764E+06
        -0.21925E+05
        -0.10202E+07
        -0.54059E+06
        -0.72826E+05
         0.65511E+06
         0.10139E+07
         0.18024E+07
         0.28360E+07
         0.27885E+07
         0.39157E+07
        -0.16235E+07
         0.24727E+07
        -0.14709E+06
         0.28788E+07
         0.53847E+07
         0.70904E+07
         0.59015E+07
         0.63001E+07
         0.52614E+07
         0.37875E+07
         0.27883E+07
         0.18359E+07
         0.99180E+06
         0.29403E+07
         0.14483E+06
        -0.21868E+07
        -0.19583E+07
        -0.15810E+07
        -0.68441E+06
         0.19432E+07
         0.20109E+07
         0.10226E+07
        -0.34172E+06
        -0.24637E+06
         0.15135E+07
         0.31305E+07
         0.32978E+07
         0.17768E+07
         0.22981E+07
         0.39161E+07
         0.27759E+07
         0.41201E+07
        -0.61588E+06
        -0.91380E+06
         0.40962E+07
        -0.15137E+07
        -0.25640E+07
         0.84662E+06
         0.14873E+07
        -0.52507E+07
        -0.68566E+06
         0.14936E+07
         0.23317E+07
         0.36047E+07
         0.40296E+06
         0.43839E+06
         0.35409E+06
         0.16460E+07
        -0.95196E+06
        -0.86713E+06
        -0.25652E+07
        -0.11492E+07
        -0.76181E+07
        -0.96588E+07
        -0.38380E+07
        -0.18814E+07
         0.11821E+07
        -0.21715E+06
         0.31229E+07
         0.48466E+07
         0.94908E+06
         0.84979E+06
         0.13975E+07
        -0.14128E+07
        -0.96597E+06
         0.11684E+06
         0.97480E+06
        -0.61293E+05
         0.90486E+05
        -0.90378E+06
        -0.47455E+06
        -0.42067E+05
         0.68247E+06
         0.10860E+07
         0.18595E+07
         0.28393E+07
         0.28011E+07
         0.39195E+07
        -0.15014E+07
         0.26314E+07
        -0.10705E+06
         0.28085E+07
         0.52390E+07
         0.70018E+07
         0.60465E+07
         0.64498E+07
         0.53806E+07
         0.38581E+07
         0.28080E+07
         0.18965E+07
         0.11112E+07
         0.29995E+07
         0.26930E+06
        -0.20094E+07
        -0.18074E+07
        -0.14658E+07
        -0.63454E+06
         0.19374E+07
         0.20774E+07
         0.11181E+07
        -0.19065E+06
        -0.62561E+05
         0.16581E+07
         0.32803E+07
         0.55030E+09
         0.60392E+09
         0.60330E+09
         0.57902E+09
         0.65601E+09
         0.63652E+09
         0.69208E+09
         0.62482E+09
         0.56839E+09
         0.62738E+09
         0.74007E+09
         0.75837E+09
         0.69220E+09
         0.72779E+09
         0.77602E+09
         0.54418E+09
         0.63030E+09
         0.59494E+09
         0.63591E+09
         0.70945E+09
         0.63431E+09
         0.64360E+09
         0.61147E+09
         0.63114E+09
         0.65500E+09
         0.64768E+09
         0.71900E+09
         0.79527E+09
         0.76625E+09
         0.67528E+09
         0.55950E+09
         0.63389E+09
         0.58399E+09
         0.61608E+09
         0.71149E+09
         0.66754E+09
         0.65327E+09
         0.74398E+09
         0.72859E+09
         0.72305E+09
         0.72816E+09
         0.69175E+09
         0.65592E+09
         0.60079E+09
         0.63332E+09
         0.71102E+09
         0.66632E+09
         0.63114E+09
         0.63127E+09
         0.64528E+09
         0.68283E+09
         0.64459E+09
         0.11679E+10
         0.11430E+10
         0.11615E+10
         0.11248E+10
         0.11580E+10
         0.12122E+10
         0.12190E+10
         0.12106E+10
         0.12213E+10
         0.12520E+10
         0.12148E+10
         0.11455E+10
         0.10239E+10
         0.96876E+09
         0.97872E+09
         0.99841E+09
         0.10099E+10
         0.10969E+10
         0.11769E+10
         0.11811E+10
         0.10874E+10
         0.10509E+10
         0.10858E+10
         0.10757E+10
         0.10673E+10
         0.10699E+10
         0.55842E+10
         0.58618E+10
         0.57825E+10
         0.53073E+10
         0.64446E+10
         0.60816E+10
         0.63289E+10
         0.63496E+10
         0.54880E+10
         0.63477E+10
         0.69210E+10
         0.76662E+10
         0.69831E+10
         0.71073E+10
         0.79234E+10
         0.53770E+10
         0.57758E+10
         0.50824E+10
         0.59526E+10
         0.62550E+10
         0.64053E+10
         0.65471E+10
         0.61625E+10
         0.57397E+10
         0.64345E+10
         0.55527E+10
         0.70823E+10
         0.69796E+10
         0.70079E+10
         0.66526E+10
         0.54382E+10
         0.57170E+10
         0.53476E+10
         0.55804E+10
         0.70219E+10
         0.64840E+10
         0.64932E+10
         0.76921E+10
         0.75165E+10
         0.74338E+10
         0.75379E+10
         0.71727E+10
         0.67906E+10
         0.60320E+10
         0.62812E+10
         0.70140E+10
         0.65236E+10
         0.61540E+10
         0.60439E+10
         0.62523E+10
         0.67447E+10
         0.62661E+10
         0.10925E+11
         0.10635E+11
         0.10852E+11
         0.10507E+11
         0.10814E+11
         0.11369E+11
         0.11562E+11
         0.11557E+11
         0.11645E+11
         0.11906E+11
         0.11557E+11
         0.10853E+11
         0.97415E+10
         0.92076E+10
         0.92182E+10
         0.93270E+10
         0.94126E+10
         0.10207E+11
         0.10962E+11
         0.11002E+11
         0.10184E+11
         0.98719E+10
         0.10194E+11
         0.10125E+11
         0.10003E+11
         0.99765E+10
  
SCALARS                      stress_yz  double 1
LOOKUP_TABLE default
         0.41358E+06
        -0.13758E+06
        -0.35744E+06
        -0.18382E+06
        -0.13548E+02
        -0.37342E+01
        -0.16791E+02
        -0.12807E+02
        -0.13398E+07
         0.88118E+06
        -0.24988E+02
        -0.21999E+02
        -0.11754E+07
        -0.59768E+05
         0.17883E+02
        -0.11465E+01
         0.40404E+06
         0.15062E+07
         0.26310E+00
         0.26920E+01
        -0.78163E+06
        -0.29423E+07
        -0.30585E+07
         0.40993E+02
         0.70794E+02
         0.59175E+02
        -0.29001E+06
        -0.29832E+07
         0.29487E+02
         0.57205E+02
         0.46175E+06
         0.40253E+06
        -0.34184E+06
         0.15287E+02
         0.15605E+02
        -0.32398E+00
         0.13723E+07
         0.13226E+07
         0.28130E+02
         0.21886E+02
         0.13491E+07
         0.85882E+06
         0.21259E+02
         0.19428E+02
         0.12234E+07
         0.42178E+06
        -0.70522E+00
         0.10908E+02
         0.11362E+07
         0.51358E+01
         0.11195E+06
        -0.41597E+00
         0.66946E+05
         0.19866E+02
        -0.44369E+06
         0.11557E+02
        -0.14470E+07
         0.25693E+06
         0.31352E+00
        -0.63633E+00
         0.55997E+06
         0.20432E+07
        -0.42716E+01
        -0.15978E+02
         0.33813E+06
        -0.86224E+01
         0.14517E+07
        -0.10504E+02
        -0.11791E+07
        -0.62458E+06
        -0.12981E+01
         0.17140E+02
        -0.21838E+07
         0.37636E+02
        -0.37869E+07
         0.36441E+02
        -0.38217E+07
         0.27663E+02
        -0.31481E+07
         0.23186E+02
        -0.46170E+07
        -0.35434E+07
         0.14874E+02
        -0.32978E+01
        -0.49553E+06
        -0.36900E+00
         0.19119E+07
        -0.23116E+02
         0.45190E+07
        -0.40467E+02
         0.63150E+07
         0.39145E+07
        -0.60020E+02
        -0.48581E+02
         0.27531E+07
        -0.37711E+02
         0.24702E+07
        -0.38581E+02
         0.24038E+07
        -0.41483E+02
         0.40001E+07
         0.33242E+07
        -0.38577E+02
        -0.18484E+02
        -0.26836E+07
         0.10158E+07
         0.13564E+02
        -0.16856E+02
        -0.65974E+07
         0.45125E+02
        -0.94442E+07
         0.66007E+02
        -0.11563E+08
         0.81520E+02
        -0.13563E+08
         0.80861E+02
        -0.15968E+08
         0.63991E+02
        -0.16323E+08
         0.49521E+02
        -0.15370E+08
         0.46059E+02
        -0.13677E+08
         0.43822E+02
        -0.99738E+07
         0.28005E+02
        -0.67351E+07
         0.92462E+01
        -0.33785E+07
         0.59746E+01
         0.24301E+06
         0.89802E+01
         0.32232E+07
         0.46382E+01
         0.57821E+07
        -0.14027E+02
         0.89483E+07
        -0.39592E+02
         0.10070E+08
        -0.61824E+02
         0.11015E+08
        -0.81051E+02
         0.14073E+08
        -0.80980E+02
         0.14576E+08
        -0.70693E+02
         0.13469E+08
        -0.68897E+02
         0.10955E+08
        -0.69326E+02
         0.74481E+07
        -0.54821E+02
         0.52753E+07
        -0.32418E+02
         0.37935E+07
        -0.25066E+02
         0.30126E+07
         0.15624E+07
         0.13634E+07
         0.42197E+06
         0.14005E+07
         0.14850E+07
         0.15711E+06
         0.24104E+07
         0.20599E+07
         0.30296E+07
        -0.15904E+07
        -0.67882E+07
        -0.46311E+07
        -0.53709E+06
        -0.68533E+07
        -0.79727E+06
         0.70677E+06
        -0.45431E+06
        -0.59570E+06
         0.44993E+06
        -0.41359E+06
        -0.34078E+06
         0.11466E+07
        -0.96607E+05
         0.20683E+07
        -0.30580E+06
        -0.15869E+05
        -0.27741E+06
        -0.33716E+06
         0.16234E+07
        -0.77844E+06
         0.84686E+06
        -0.56612E+06
         0.13814E+06
        -0.22942E+06
        -0.12413E+07
        -0.27811E+07
        -0.60179E+07
        -0.54995E+07
        -0.46547E+07
        -0.43880E+07
        -0.10868E+07
         0.88667E+06
         0.24330E+07
         0.40257E+07
         0.65911E+07
         0.43163E+07
         0.30885E+07
         0.32958E+07
         0.35073E+07
         0.41210E+07
         0.18790E+07
        -0.35638E+07
         0.42747E+07
        -0.11581E+08
        -0.15992E+08
        -0.20387E+08
        -0.24236E+08
        -0.24398E+08
        -0.22098E+08
        -0.21024E+08
        -0.19872E+08
        -0.12845E+08
        -0.56219E+07
        -0.24710E+07
        -0.10889E+07
         0.16663E+07
         0.65831E+07
         0.12099E+08
         0.15804E+08
         0.19193E+08
         0.21989E+08
         0.20690E+08
         0.19560E+08
         0.18201E+08
         0.12673E+08
         0.73899E+07
         0.64844E+07
        -0.17505E+09
        -0.17704E+09
        -0.17301E+09
        -0.58465E+08
        -0.12816E+09
        -0.81083E+08
        -0.13846E+09
        -0.16800E+09
        -0.16996E+09
        -0.16692E+09
         0.17224E+09
         0.19330E+09
         0.14728E+09
         0.40072E+08
         0.18258E+09
         0.89200E+08
        -0.51087E+08
         0.74751E+08
         0.16821E+09
         0.58075E+08
         0.50456E+08
         0.37979E+08
        -0.22559E+08
         0.66522E+08
        -0.16876E+09
         0.12349E+09
         0.90751E+07
         0.58254E+08
        -0.69348E+08
        -0.15607E+09
         0.11130E+09
         0.53043E+08
         0.10805E+09
         0.10757E+09
        -0.14604E+08
         0.71449E+08
         0.10749E+09
         0.16715E+09
         0.18744E+09
         0.17644E+09
         0.93986E+08
        -0.25405E+08
        -0.52012E+08
        -0.82157E+08
        -0.11739E+09
        -0.17985E+09
        -0.15428E+09
        -0.11852E+09
        -0.17814E+09
        -0.18023E+09
        -0.11869E+09
        -0.12590E+08
         0.38528E+08
        -0.53946E+08
         0.12061E+09
         0.15690E+09
         0.19114E+09
         0.21509E+09
         0.21869E+09
         0.21236E+09
         0.20832E+09
         0.19385E+09
         0.12396E+09
         0.41367E+08
         0.19580E+08
         0.17564E+08
        -0.74714E+07
        -0.59561E+08
        -0.11539E+09
        -0.14831E+09
        -0.19991E+09
        -0.21639E+09
        -0.20891E+09
        -0.20699E+09
        -0.19471E+09
        -0.13993E+09
        -0.70834E+08
        -0.67586E+08
        -0.17504E+09
        -0.17703E+09
        -0.17300E+09
        -0.58814E+08
        -0.12823E+09
        -0.81190E+08
        -0.13824E+09
        -0.16814E+09
        -0.16999E+09
        -0.16709E+09
         0.17235E+09
         0.19329E+09
         0.14726E+09
         0.40161E+08
         0.18264E+09
         0.89140E+08
        -0.51415E+08
         0.74819E+08
         0.16823E+09
         0.57873E+08
         0.50577E+08
         0.38018E+08
        -0.22566E+08
         0.66492E+08
        -0.16884E+09
         0.12329E+09
         0.91792E+07
         0.58580E+08
        -0.68578E+08
        -0.15614E+09
         0.11122E+09
         0.52944E+08
         0.10847E+09
         0.10766E+09
        -0.14461E+08
         0.71515E+08
         0.10750E+09
         0.16717E+09
         0.18746E+09
         0.17642E+09
         0.94002E+08
        -0.25324E+08
        -0.52059E+08
        -0.82201E+08
        -0.11742E+09
        -0.17986E+09
        -0.15429E+09
        -0.11845E+09
        -0.17814E+09
        -0.18021E+09
        -0.11870E+09
        -0.12417E+08
         0.38505E+08
        -0.53961E+08
         0.12063E+09
         0.15690E+09
         0.19114E+09
         0.21509E+09
         0.21868E+09
         0.21235E+09
         0.20832E+09
         0.19384E+09
         0.12396E+09
         0.41385E+08
         0.19580E+08
         0.17601E+08
        -0.74097E+07
        -0.59580E+08
        -0.11542E+09
        -0.14831E+09
        -0.19992E+09
        -0.21639E+09
        -0.20892E+09
        -0.20699E+09
        -0.19472E+09
        -0.13992E+09
        -0.70792E+08
        -0.67529E+08
        -0.17503E+09
        -0.17703E+09
        -0.17300E+09
        -0.59167E+08
        -0.12829E+09
        -0.81298E+08
        -0.13802E+09
        -0.16827E+09
        -0.17002E+09
        -0.16726E+09
         0.17245E+09
         0.19328E+09
         0.14724E+09
         0.40244E+08
         0.18270E+09
         0.89078E+08
        -0.51745E+08
         0.74888E+08
         0.16826E+09
         0.57662E+08
         0.50698E+08
         0.38055E+08
        -0.22576E+08
         0.66454E+08
        -0.16893E+09
         0.12307E+09
         0.92907E+07
         0.58926E+08
        -0.67777E+08
        -0.15621E+09
         0.11113E+09
         0.52820E+08
         0.10888E+09
         0.10774E+09
        -0.14317E+08
         0.71581E+08
         0.10752E+09
         0.16719E+09
         0.18748E+09
         0.17640E+09
         0.94020E+08
        -0.25237E+08
        -0.52103E+08
        -0.82252E+08
        -0.11745E+09
        -0.17987E+09
        -0.15431E+09
        -0.11839E+09
        -0.17814E+09
        -0.18020E+09
        -0.11871E+09
        -0.12244E+08
         0.38481E+08
        -0.53976E+08
         0.12066E+09
         0.15690E+09
         0.19115E+09
         0.21508E+09
         0.21867E+09
         0.21233E+09
         0.20833E+09
         0.19384E+09
         0.12395E+09
         0.41404E+08
         0.19580E+08
         0.17638E+08
        -0.73477E+07
        -0.59599E+08
        -0.11544E+09
        -0.14832E+09
        -0.19993E+09
        -0.21638E+09
        -0.20893E+09
        -0.20700E+09
        -0.19473E+09
        -0.13990E+09
        -0.70751E+08
        -0.67473E+08
        -0.17501E+09
        -0.17702E+09
        -0.17299E+09
        -0.59520E+08
        -0.12836E+09
        -0.81407E+08
        -0.13780E+09
        -0.16840E+09
        -0.17006E+09
        -0.16743E+09
         0.17255E+09
         0.19327E+09
         0.14723E+09
         0.40333E+08
         0.18277E+09
         0.89011E+08
        -0.52076E+08
         0.74956E+08
         0.16828E+09
         0.57436E+08
         0.50821E+08
         0.38089E+08
        -0.22595E+08
         0.66395E+08
        -0.16900E+09
         0.12279E+09
         0.94063E+07
         0.59384E+08
        -0.66882E+08
        -0.15627E+09
         0.11104E+09
         0.52642E+08
         0.10930E+09
         0.10782E+09
        -0.14175E+08
         0.71646E+08
         0.10754E+09
         0.16721E+09
         0.18750E+09
         0.17639E+09
         0.94045E+08
        -0.25128E+08
        -0.52135E+08
        -0.82324E+08
        -0.11750E+09
        -0.17988E+09
        -0.15432E+09
        -0.11832E+09
        -0.17814E+09
        -0.18019E+09
        -0.11872E+09
        -0.12072E+08
         0.38458E+08
        -0.53991E+08
         0.12068E+09
         0.15690E+09
         0.19115E+09
         0.21507E+09
         0.21866E+09
         0.21232E+09
         0.20833E+09
         0.19384E+09
         0.12395E+09
         0.41426E+08
         0.19582E+08
         0.17674E+08
        -0.72852E+07
        -0.59619E+08
        -0.11547E+09
        -0.14833E+09
        -0.19993E+09
        -0.21638E+09
        -0.20893E+09
        -0.20700E+09
        -0.19474E+09
        -0.13988E+09
        -0.70709E+08
        -0.67416E+08
        -0.17500E+09
        -0.17702E+09
        -0.17299E+09
        -0.59871E+08
        -0.12843E+09
        -0.81515E+08
        -0.13758E+09
        -0.16854E+09
        -0.17009E+09
        -0.16760E+09
         0.17265E+09
         0.19326E+09
         0.14721E+09
         0.40424E+08
         0.18283E+09
         0.88940E+08
        -0.52406E+08
         0.75024E+08
         0.16831E+09
         0.57192E+08
         0.50945E+08
         0.38118E+08
        -0.22623E+08
         0.66312E+08
        -0.16906E+09
         0.12244E+09
         0.95354E+07
         0.59945E+08
        -0.65889E+08
        -0.15633E+09
         0.11093E+09
         0.52405E+08
         0.10971E+09
         0.10790E+09
        -0.14031E+08
         0.71711E+08
         0.10755E+09
         0.16724E+09
         0.18752E+09
         0.17637E+09
         0.94079E+08
        -0.24997E+08
        -0.52156E+08
        -0.82418E+08
        -0.11756E+09
        -0.17990E+09
        -0.15434E+09
        -0.11826E+09
        -0.17813E+09
        -0.18018E+09
        -0.11873E+09
        -0.11897E+08
         0.38434E+08
        -0.54005E+08
         0.12070E+09
         0.15690E+09
         0.19116E+09
         0.21506E+09
         0.21865E+09
         0.21231E+09
         0.20834E+09
         0.19384E+09
         0.12394E+09
         0.41453E+08
         0.19585E+08
         0.17709E+08
        -0.72224E+07
        -0.59639E+08
        -0.11551E+09
        -0.14834E+09
        -0.19994E+09
        -0.21638E+09
        -0.20894E+09
        -0.20701E+09
        -0.19475E+09
        -0.13987E+09
        -0.70667E+08
        -0.67360E+08
        -0.17499E+09
        -0.17701E+09
        -0.17298E+09
        -0.60225E+08
        -0.12850E+09
        -0.81623E+08
        -0.13735E+09
        -0.16867E+09
        -0.17013E+09
        -0.16777E+09
         0.17275E+09
         0.19325E+09
         0.14720E+09
         0.40519E+08
         0.18289E+09
         0.88870E+08
        -0.52745E+08
         0.75095E+08
         0.16833E+09
         0.56937E+08
         0.51067E+08
         0.38146E+08
        -0.22655E+08
         0.66219E+08
        -0.16912E+09
         0.12208E+09
         0.96745E+07
         0.60566E+08
        -0.64854E+08
        -0.15638E+09
         0.11082E+09
         0.52142E+08
         0.11013E+09
         0.10799E+09
        -0.13886E+08
         0.71778E+08
         0.10757E+09
         0.16726E+09
         0.18754E+09
         0.17636E+09
         0.94115E+08
        -0.24859E+08
        -0.52171E+08
        -0.82519E+08
        -0.11763E+09
        -0.17991E+09
        -0.15436E+09
        -0.11821E+09
        -0.17813E+09
        -0.18017E+09
        -0.11874E+09
        -0.11722E+08
         0.38411E+08
        -0.54020E+08
         0.12073E+09
         0.15690E+09
         0.19116E+09
         0.21506E+09
         0.21864E+09
         0.21229E+09
         0.20834E+09
         0.19384E+09
         0.12394E+09
         0.41481E+08
         0.19588E+08
         0.17744E+08
        -0.71598E+07
        -0.59660E+08
        -0.11555E+09
        -0.14836E+09
        -0.19995E+09
        -0.21638E+09
        -0.20894E+09
        -0.20701E+09
        -0.19476E+09
        -0.13985E+09
        -0.70626E+08
        -0.67303E+08
        -0.17498E+09
        -0.17700E+09
        -0.17298E+09
        -0.60589E+08
        -0.12857E+09
        -0.81732E+08
        -0.13710E+09
        -0.16879E+09
        -0.17017E+09
        -0.16792E+09
         0.17285E+09
         0.19324E+09
         0.14719E+09
         0.40639E+08
         0.18295E+09
         0.88803E+08
        -0.53096E+08
         0.75167E+08
         0.16835E+09
         0.56678E+08
         0.51191E+08
         0.38174E+08
        -0.22688E+08
         0.66127E+08
        -0.16918E+09
         0.12173E+09
         0.98385E+07
         0.61226E+08
        -0.63810E+08
        -0.15642E+09
         0.11071E+09
         0.51870E+08
         0.11057E+09
         0.10810E+09
        -0.13741E+08
         0.71846E+08
         0.10759E+09
         0.16728E+09
         0.18756E+09
         0.17634E+09
         0.94153E+08
        -0.24719E+08
        -0.52185E+08
        -0.82619E+08
        -0.11770E+09
        -0.17993E+09
        -0.15439E+09
        -0.11817E+09
        -0.17814E+09
        -0.18015E+09
        -0.11874E+09
        -0.11544E+08
         0.38387E+08
        -0.54034E+08
         0.12075E+09
         0.15690E+09
         0.19117E+09
         0.21505E+09
         0.21863E+09
         0.21228E+09
         0.20834E+09
         0.19384E+09
         0.12394E+09
         0.41509E+08
         0.19591E+08
         0.17779E+08
        -0.70970E+07
        -0.59681E+08
        -0.11559E+09
        -0.14837E+09
        -0.19995E+09
        -0.21637E+09
        -0.20895E+09
        -0.20701E+09
        -0.19477E+09
        -0.13983E+09
        -0.70584E+08
        -0.67246E+08
        -0.17497E+09
        -0.17699E+09
        -0.17298E+09
        -0.60959E+08
        -0.12863E+09
        -0.81841E+08
        -0.13684E+09
        -0.16891E+09
        -0.17020E+09
        -0.16808E+09
         0.17295E+09
         0.19323E+09
         0.14717E+09
         0.40764E+08
         0.18301E+09
         0.88738E+08
        -0.53452E+08
         0.75238E+08
         0.16838E+09
         0.56414E+08
         0.51314E+08
         0.38202E+08
        -0.22719E+08
         0.66038E+08
        -0.16924E+09
         0.12139E+09
         0.10009E+08
         0.61902E+08
        -0.62764E+08
        -0.15646E+09
         0.11060E+09
         0.51591E+08
         0.11101E+09
         0.10821E+09
        -0.13594E+08
         0.71915E+08
         0.10761E+09
         0.16731E+09
         0.18758E+09
         0.17633E+09
         0.94190E+08
        -0.24578E+08
        -0.52198E+08
        -0.82719E+08
        -0.11777E+09
        -0.17994E+09
        -0.15443E+09
        -0.11815E+09
        -0.17814E+09
        -0.18014E+09
        -0.11874E+09
        -0.11365E+08
         0.38364E+08
        -0.54049E+08
         0.12077E+09
         0.15690E+09
         0.19117E+09
         0.21504E+09
         0.21862E+09
         0.21227E+09
         0.20835E+09
         0.19384E+09
         0.12394E+09
         0.41537E+08
         0.19595E+08
         0.17815E+08
        -0.70342E+07
        -0.59702E+08
        -0.11562E+09
        -0.14838E+09
        -0.19996E+09
        -0.21637E+09
        -0.20896E+09
        -0.20702E+09
        -0.19478E+09
        -0.13981E+09
        -0.70542E+08
        -0.67190E+08
        -0.17496E+09
        -0.17698E+09
        -0.17298E+09
        -0.61327E+08
        -0.12870E+09
        -0.81950E+08
        -0.13658E+09
        -0.16904E+09
        -0.17024E+09
        -0.16823E+09
         0.17305E+09
         0.19322E+09
         0.14716E+09
         0.40894E+08
         0.18307E+09
         0.88673E+08
        -0.53809E+08
         0.75308E+08
         0.16841E+09
         0.56148E+08
         0.51437E+08
         0.38231E+08
        -0.22751E+08
         0.65948E+08
        -0.16930E+09
         0.12105E+09
         0.10183E+08
         0.62572E+08
        -0.61726E+08
        -0.15650E+09
         0.11049E+09
         0.51313E+08
         0.11145E+09
         0.10831E+09
        -0.13447E+08
         0.71982E+08
         0.10763E+09
         0.16733E+09
         0.18760E+09
         0.17631E+09
         0.94228E+08
        -0.24438E+08
        -0.52210E+08
        -0.82818E+08
        -0.11784E+09
        -0.17995E+09
        -0.15446E+09
        -0.11812E+09
        -0.17815E+09
        -0.18012E+09
        -0.11875E+09
        -0.11185E+08
         0.38340E+08
        -0.54063E+08
         0.12079E+09
         0.15690E+09
         0.19118E+09
         0.21504E+09
         0.21861E+09
         0.21226E+09
         0.20835E+09
         0.19384E+09
         0.12394E+09
         0.41565E+08
         0.19599E+08
         0.17852E+08
        -0.69715E+07
        -0.59723E+08
        -0.11566E+09
        -0.14840E+09
        -0.19997E+09
        -0.21637E+09
        -0.20896E+09
        -0.20702E+09
        -0.19479E+09
        -0.13979E+09
        -0.70500E+08
        -0.67133E+08
        -0.17494E+09
        -0.17697E+09
        -0.17298E+09
        -0.61690E+08
        -0.12877E+09
        -0.82058E+08
        -0.13632E+09
        -0.16916E+09
        -0.17028E+09
        -0.16838E+09
         0.17314E+09
         0.19321E+09
         0.14715E+09
         0.41018E+08
         0.18313E+09
         0.88609E+08
        -0.54166E+08
         0.75377E+08
         0.16843E+09
         0.55876E+08
         0.51560E+08
         0.38259E+08
        -0.22781E+08
         0.65857E+08
        -0.16936E+09
         0.12071E+09
         0.10353E+08
         0.63234E+08
        -0.60696E+08
        -0.15654E+09
         0.11039E+09
         0.51035E+08
         0.11188E+09
         0.10842E+09
        -0.13300E+08
         0.72051E+08
         0.10765E+09
         0.16736E+09
         0.18762E+09
         0.17630E+09
         0.94265E+08
        -0.24298E+08
        -0.52224E+08
        -0.82916E+08
        -0.11791E+09
        -0.17997E+09
        -0.15450E+09
        -0.11810E+09
        -0.17816E+09
        -0.18011E+09
        -0.11875E+09
        -0.11005E+08
         0.38316E+08
        -0.54077E+08
         0.12082E+09
         0.15690E+09
         0.19119E+09
         0.21503E+09
         0.21860E+09
         0.21224E+09
         0.20836E+09
         0.19384E+09
         0.12393E+09
         0.41592E+08
         0.19602E+08
         0.17888E+08
        -0.69090E+07
        -0.59744E+08
        -0.11570E+09
        -0.14841E+09
        -0.19997E+09
        -0.21637E+09
        -0.20897E+09
        -0.20703E+09
        -0.19480E+09
        -0.13978E+09
        -0.70459E+08
        -0.67075E+08
        -0.17493E+09
        -0.17696E+09
        -0.17298E+09
        -0.62054E+08
        -0.12883E+09
        -0.82165E+08
        -0.13606E+09
        -0.16928E+09
        -0.17031E+09
        -0.16852E+09
         0.17323E+09
         0.19320E+09
         0.14714E+09
         0.41147E+08
         0.18319E+09
         0.88545E+08
        -0.54522E+08
         0.75446E+08
         0.16845E+09
         0.55605E+08
         0.51683E+08
         0.38286E+08
        -0.22813E+08
         0.65768E+08
        -0.16942E+09
         0.12036E+09
         0.10525E+08
         0.63887E+08
        -0.59675E+08
        -0.15658E+09
         0.11028E+09
         0.50757E+08
         0.11232E+09
         0.10853E+09
        -0.13153E+08
         0.72119E+08
         0.10768E+09
         0.16738E+09
         0.18764E+09
         0.17628E+09
         0.94302E+08
        -0.24159E+08
        -0.52237E+08
        -0.83014E+08
        -0.11798E+09
        -0.17998E+09
        -0.15453E+09
        -0.11808E+09
        -0.17816E+09
        -0.18009E+09
        -0.11875E+09
        -0.10824E+08
         0.38292E+08
        -0.54092E+08
         0.12084E+09
         0.15690E+09
         0.19119E+09
         0.21502E+09
         0.21859E+09
         0.21223E+09
         0.20836E+09
         0.19383E+09
         0.12393E+09
         0.41620E+08
         0.19606E+08
         0.17924E+08
        -0.68463E+07
        -0.59765E+08
        -0.11574E+09
        -0.14842E+09
        -0.19998E+09
        -0.21637E+09
        -0.20898E+09
        -0.20703E+09
        -0.19481E+09
        -0.13976E+09
        -0.70418E+08
        -0.67018E+08
        -0.17492E+09
        -0.17694E+09
        -0.17298E+09
        -0.62419E+08
        -0.12890E+09
        -0.82274E+08
        -0.13581E+09
        -0.16940E+09
        -0.17035E+09
        -0.16867E+09
         0.17332E+09
         0.19318E+09
         0.14713E+09
         0.41276E+08
         0.18325E+09
         0.88482E+08
        -0.54876E+08
         0.75516E+08
         0.16848E+09
         0.55332E+08
         0.51806E+08
         0.38313E+08
        -0.22844E+08
         0.65679E+08
        -0.16949E+09
         0.12002E+09
         0.10694E+08
         0.64536E+08
        -0.58661E+08
        -0.15662E+09
         0.11018E+09
         0.50478E+08
         0.11276E+09
         0.10864E+09
        -0.13005E+08
         0.72187E+08
         0.10770E+09
         0.16741E+09
         0.18766E+09
         0.17627E+09
         0.94339E+08
        -0.24021E+08
        -0.52250E+08
        -0.83112E+08
        -0.11805E+09
        -0.18000E+09
        -0.15457E+09
        -0.11805E+09
        -0.17817E+09
        -0.18008E+09
        -0.11876E+09
        -0.10643E+08
         0.38268E+08
        -0.54106E+08
         0.12086E+09
         0.15690E+09
         0.19120E+09
         0.21501E+09
         0.21858E+09
         0.21222E+09
         0.20837E+09
         0.19383E+09
         0.12393E+09
         0.41648E+08
         0.19610E+08
         0.17959E+08
        -0.67834E+07
        -0.59786E+08
        -0.11577E+09
        -0.14844E+09
        -0.19999E+09
        -0.21636E+09
        -0.20899E+09
        -0.20703E+09
        -0.19482E+09
        -0.13974E+09
        -0.70377E+08
        -0.66961E+08
        -0.17491E+09
        -0.17693E+09
        -0.17299E+09
        -0.62785E+08
        -0.12897E+09
        -0.82383E+08
        -0.13555E+09
        -0.16952E+09
        -0.17039E+09
        -0.16882E+09
         0.17341E+09
         0.19317E+09
         0.14711E+09
         0.41400E+08
         0.18331E+09
         0.88418E+08
        -0.55229E+08
         0.75584E+08
         0.16850E+09
         0.55061E+08
         0.51929E+08
         0.38340E+08
        -0.22875E+08
         0.65590E+08
        -0.16955E+09
         0.11967E+09
         0.10867E+08
         0.65178E+08
        -0.57654E+08
        -0.15666E+09
         0.11007E+09
         0.50197E+08
         0.11320E+09
         0.10875E+09
        -0.12857E+08
         0.72256E+08
         0.10772E+09
         0.16743E+09
         0.18768E+09
         0.17625E+09
         0.94375E+08
        -0.23882E+08
        -0.52262E+08
        -0.83211E+08
        -0.11812E+09
        -0.18001E+09
        -0.15461E+09
        -0.11803E+09
        -0.17818E+09
        -0.18007E+09
        -0.11876E+09
        -0.10462E+08
         0.38245E+08
        -0.54120E+08
         0.12088E+09
         0.15690E+09
         0.19120E+09
         0.21501E+09
         0.21857E+09
         0.21220E+09
         0.20837E+09
         0.19383E+09
         0.12393E+09
         0.41675E+08
         0.19614E+08
         0.17995E+08
        -0.67206E+07
        -0.59806E+08
        -0.11581E+09
        -0.14845E+09
        -0.19999E+09
        -0.21636E+09
        -0.20899E+09
        -0.20704E+09
        -0.19483E+09
        -0.13972E+09
        -0.70336E+08
        -0.66904E+08
        -0.17490E+09
        -0.17692E+09
        -0.17299E+09
        -0.63149E+08
        -0.12903E+09
        -0.82492E+08
        -0.13530E+09
        -0.16964E+09
        -0.17042E+09
        -0.16896E+09
         0.17350E+09
         0.19316E+09
         0.14710E+09
         0.41530E+08
         0.18337E+09
         0.88354E+08
        -0.55581E+08
         0.75654E+08
         0.16853E+09
         0.54787E+08
         0.52052E+08
         0.38367E+08
        -0.22907E+08
         0.65502E+08
        -0.16961E+09
         0.11932E+09
         0.11036E+08
         0.65813E+08
        -0.56655E+08
        -0.15670E+09
         0.10996E+09
         0.49917E+08
         0.11364E+09
         0.10885E+09
        -0.12709E+08
         0.72324E+08
         0.10774E+09
         0.16746E+09
         0.18770E+09
         0.17624E+09
         0.94413E+08
        -0.23743E+08
        -0.52275E+08
        -0.83309E+08
        -0.11819E+09
        -0.18003E+09
        -0.15464E+09
        -0.11801E+09
        -0.17818E+09
        -0.18005E+09
        -0.11876E+09
        -0.10282E+08
         0.38221E+08
        -0.54134E+08
         0.12090E+09
         0.15690E+09
         0.19121E+09
         0.21500E+09
         0.21856E+09
         0.21219E+09
         0.20837E+09
         0.19383E+09
         0.12393E+09
         0.41703E+08
         0.19617E+08
         0.18031E+08
        -0.66582E+07
        -0.59827E+08
        -0.11585E+09
        -0.14846E+09
        -0.20000E+09
        -0.21636E+09
        -0.20900E+09
        -0.20704E+09
        -0.19484E+09
        -0.13971E+09
        -0.70295E+08
        -0.66847E+08
        -0.17489E+09
        -0.17691E+09
        -0.17299E+09
        -0.63510E+08
        -0.12910E+09
        -0.82600E+08
        -0.13505E+09
        -0.16975E+09
        -0.17046E+09
        -0.16911E+09
         0.17358E+09
         0.19315E+09
         0.14709E+09
         0.41655E+08
         0.18344E+09
         0.88291E+08
        -0.55933E+08
         0.75724E+08
         0.16855E+09
         0.54511E+08
         0.52174E+08
         0.38394E+08
        -0.22937E+08
         0.65416E+08
        -0.16967E+09
         0.11897E+09
         0.11207E+08
         0.66435E+08
        -0.55666E+08
        -0.15674E+09
         0.10986E+09
         0.49635E+08
         0.11408E+09
         0.10896E+09
        -0.12561E+08
         0.72392E+08
         0.10776E+09
         0.16748E+09
         0.18772E+09
         0.17622E+09
         0.94450E+08
        -0.23605E+08
        -0.52289E+08
        -0.83406E+08
        -0.11826E+09
        -0.18004E+09
        -0.15468E+09
        -0.11798E+09
        -0.17819E+09
        -0.18004E+09
        -0.11877E+09
        -0.10100E+08
         0.38196E+08
        -0.54147E+08
         0.12092E+09
         0.15691E+09
         0.19121E+09
         0.21499E+09
         0.21855E+09
         0.21218E+09
         0.20838E+09
         0.19383E+09
         0.12392E+09
         0.41731E+08
         0.19621E+08
         0.18067E+08
        -0.65956E+07
        -0.59847E+08
        -0.11589E+09
        -0.14848E+09
        -0.20001E+09
        -0.21636E+09
        -0.20901E+09
        -0.20705E+09
        -0.19484E+09
        -0.13969E+09
        -0.70254E+08
        -0.66789E+08
        -0.17488E+09
        -0.17689E+09
        -0.17299E+09
        -0.63870E+08
        -0.12917E+09
        -0.82707E+08
        -0.13480E+09
        -0.16987E+09
        -0.17050E+09
        -0.16925E+09
         0.17366E+09
         0.19314E+09
         0.14708E+09
         0.41784E+08
         0.18350E+09
         0.88227E+08
        -0.56286E+08
         0.75792E+08
         0.16857E+09
         0.54233E+08
         0.52298E+08
         0.38420E+08
        -0.22968E+08
         0.65330E+08
        -0.16973E+09
         0.11862E+09
         0.11374E+08
         0.67050E+08
        -0.54685E+08
        -0.15678E+09
         0.10975E+09
         0.49355E+08
         0.11452E+09
         0.10907E+09
        -0.12411E+08
         0.72459E+08
         0.10778E+09
         0.16751E+09
         0.18774E+09
         0.17620E+09
         0.94487E+08
        -0.23467E+08
        -0.52302E+08
        -0.83503E+08
        -0.11833E+09
        -0.18005E+09
        -0.15471E+09
        -0.11796E+09
        -0.17819E+09
        -0.18002E+09
        -0.11877E+09
        -0.99168E+07
         0.38172E+08
        -0.54161E+08
         0.12095E+09
         0.15691E+09
         0.19122E+09
         0.21498E+09
         0.21854E+09
         0.21217E+09
         0.20838E+09
         0.19383E+09
         0.12392E+09
         0.41758E+08
         0.19624E+08
         0.18103E+08
        -0.65329E+07
        -0.59868E+08
        -0.11592E+09
        -0.14849E+09
        -0.20001E+09
        -0.21636E+09
        -0.20901E+09
        -0.20705E+09
        -0.19485E+09
        -0.13967E+09
        -0.70214E+08
        -0.66732E+08
        -0.17487E+09
        -0.17688E+09
        -0.17299E+09
        -0.64230E+08
        -0.12923E+09
        -0.82816E+08
        -0.13455E+09
        -0.16999E+09
        -0.17054E+09
        -0.16939E+09
         0.17374E+09
         0.19313E+09
         0.14707E+09
         0.41909E+08
         0.18356E+09
         0.88164E+08
        -0.56639E+08
         0.75859E+08
         0.16860E+09
         0.53960E+08
         0.52420E+08
         0.38445E+08
        -0.22999E+08
         0.65242E+08
        -0.16979E+09
         0.11816E+09
         0.11546E+08
         0.67659E+08
        -0.53713E+08
        -0.15682E+09
         0.10964E+09
         0.49072E+08
         0.11495E+09
         0.10918E+09
        -0.12262E+08
         0.72528E+08
         0.10780E+09
         0.16754E+09
         0.18776E+09
         0.17619E+09
         0.94525E+08
        -0.23331E+08
        -0.52316E+08
        -0.83601E+08
        -0.11840E+09
        -0.18007E+09
        -0.15475E+09
        -0.11794E+09
        -0.17820E+09
        -0.18001E+09
        -0.11878E+09
        -0.97350E+07
         0.38148E+08
        -0.54175E+08
         0.12097E+09
         0.15691E+09
         0.19122E+09
         0.21498E+09
         0.21853E+09
         0.21215E+09
         0.20839E+09
         0.19382E+09
         0.12392E+09
         0.41786E+08
         0.19627E+08
         0.18138E+08
        -0.64706E+07
        -0.59888E+08
        -0.11596E+09
        -0.14850E+09
        -0.20002E+09
        -0.21635E+09
        -0.20902E+09
        -0.20705E+09
        -0.19486E+09
        -0.13965E+09
        -0.70174E+08
        -0.66675E+08
        -0.17485E+09
        -0.17687E+09
        -0.17299E+09
        -0.64591E+08
        -0.12930E+09
        -0.82924E+08
        -0.13430E+09
        -0.17010E+09
        -0.17057E+09
        -0.16954E+09
         0.17381E+09
         0.19312E+09
         0.14706E+09
         0.42039E+08
         0.18362E+09
         0.88101E+08
        -0.56995E+08
         0.75927E+08
         0.16862E+09
         0.53698E+08
         0.52542E+08
         0.38469E+08
        -0.23030E+08
         0.65156E+08
        -0.16986E+09
         0.11771E+09
         0.11716E+08
         0.68263E+08
        -0.52747E+08
        -0.15686E+09
         0.10954E+09
         0.48786E+08
         0.11539E+09
         0.10929E+09
        -0.12113E+08
         0.72596E+08
         0.10782E+09
         0.16757E+09
         0.18777E+09
         0.17617E+09
         0.94565E+08
        -0.23194E+08
        -0.52333E+08
        -0.83698E+08
        -0.11847E+09
        -0.18008E+09
        -0.15478E+09
        -0.11791E+09
        -0.17820E+09
        -0.17999E+09
        -0.11878E+09
        -0.95526E+07
         0.38124E+08
        -0.54188E+08
         0.12099E+09
         0.15691E+09
         0.19123E+09
         0.21497E+09
         0.21852E+09
         0.21214E+09
         0.20839E+09
         0.19382E+09
         0.12392E+09
         0.41813E+08
         0.19628E+08
         0.18174E+08
        -0.64084E+07
        -0.59908E+08
        -0.11600E+09
        -0.14852E+09
        -0.20003E+09
        -0.21635E+09
        -0.20903E+09
        -0.20706E+09
        -0.19487E+09
        -0.13963E+09
        -0.70134E+08
        -0.66617E+08
        -0.17484E+09
        -0.17686E+09
        -0.17299E+09
        -0.64950E+08
        -0.12936E+09
        -0.83032E+08
        -0.13405E+09
        -0.17022E+09
        -0.17061E+09
        -0.16969E+09
         0.17389E+09
         0.19311E+09
         0.14704E+09
         0.42170E+08
         0.18368E+09
         0.88038E+08
        -0.57358E+08
         0.75994E+08
         0.16864E+09
         0.53452E+08
         0.52664E+08
         0.38494E+08
        -0.23061E+08
         0.65070E+08
        -0.16993E+09
         0.11725E+09
         0.11895E+08
         0.68860E+08
        -0.51790E+08
        -0.15689E+09
         0.10943E+09
         0.48503E+08
         0.11583E+09
         0.10939E+09
        -0.11963E+08
         0.72664E+08
         0.10784E+09
         0.16760E+09
         0.18779E+09
         0.17615E+09
         0.94606E+08
        -0.23059E+08
        -0.52351E+08
        -0.83795E+08
        -0.11854E+09
        -0.18010E+09
        -0.15482E+09
        -0.11789E+09
        -0.17821E+09
        -0.17998E+09
        -0.11878E+09
        -0.93684E+07
         0.38099E+08
        -0.54202E+08
         0.12101E+09
         0.15691E+09
         0.19123E+09
         0.21496E+09
         0.21851E+09
         0.21213E+09
         0.20839E+09
         0.19382E+09
         0.12392E+09
         0.41839E+08
         0.19627E+08
         0.18209E+08
        -0.63458E+07
        -0.59928E+08
        -0.11603E+09
        -0.14853E+09
        -0.20003E+09
        -0.21635E+09
        -0.20904E+09
        -0.20706E+09
        -0.19488E+09
        -0.13962E+09
        -0.70094E+08
        -0.66560E+08
        -0.17483E+09
        -0.17685E+09
        -0.17299E+09
        -0.65306E+08
        -0.12943E+09
        -0.83139E+08
        -0.13380E+09
        -0.17033E+09
        -0.17066E+09
        -0.16983E+09
         0.17396E+09
         0.19310E+09
         0.14703E+09
         0.42296E+08
         0.18374E+09
         0.87976E+08
        -0.57721E+08
         0.76061E+08
         0.16867E+09
         0.53211E+08
         0.52788E+08
         0.38518E+08
        -0.23090E+08
         0.64990E+08
        -0.16999E+09
         0.11681E+09
         0.12070E+08
         0.69433E+08
        -0.50850E+08
        -0.15692E+09
         0.10933E+09
         0.48225E+08
         0.11627E+09
         0.10950E+09
        -0.11814E+08
         0.72729E+08
         0.10785E+09
         0.16763E+09
         0.18781E+09
         0.17613E+09
         0.94648E+08
        -0.22927E+08
        -0.52372E+08
        -0.83890E+08
        -0.11861E+09
        -0.18011E+09
        -0.15486E+09
        -0.11786E+09
        -0.17821E+09
        -0.17997E+09
        -0.11879E+09
        -0.91847E+07
         0.38075E+08
        -0.54216E+08
         0.12103E+09
         0.15691E+09
         0.19124E+09
         0.21495E+09
         0.21850E+09
         0.21211E+09
         0.20840E+09
         0.19382E+09
         0.12393E+09
         0.41864E+08
         0.19625E+08
         0.18244E+08
        -0.62833E+07
        -0.59948E+08
        -0.11607E+09
        -0.14854E+09
        -0.20004E+09
        -0.21635E+09
        -0.20904E+09
        -0.20707E+09
        -0.19489E+09
        -0.13960E+09
        -0.70055E+08
        -0.66502E+08
        -0.16839E+09
        -0.15890E+09
        -0.15415E+09
        -0.54595E+08
        -0.12307E+09
        -0.76066E+08
        -0.97232E+08
        -0.16228E+09
        -0.15646E+09
        -0.16143E+09
         0.13781E+09
         0.18901E+09
         0.14279E+09
         0.37756E+08
         0.18021E+09
         0.82580E+08
        -0.46539E+08
         0.50100E+08
         0.14398E+09
         0.33225E+08
         0.51683E+08
         0.37508E+08
        -0.22515E+08
         0.50843E+08
        -0.15216E+09
         0.65679E+08
         0.10900E+08
         0.36406E+08
        -0.31383E+08
        -0.14041E+09
         0.10027E+09
         0.36124E+08
         0.95995E+08
         0.85889E+08
        -0.11261E+08
         0.67120E+08
         0.10260E+09
         0.16336E+09
         0.18062E+09
         0.16835E+09
         0.92352E+08
        -0.22212E+08
        -0.51136E+08
        -0.81239E+08
        -0.11347E+09
        -0.17447E+09
        -0.14597E+09
        -0.10978E+09
        -0.16108E+09
        -0.16601E+09
        -0.11444E+09
        -0.84215E+07
         0.37810E+08
        -0.53935E+08
         0.12042E+09
         0.15614E+09
         0.19037E+09
         0.21402E+09
         0.21744E+09
         0.21082E+09
         0.20704E+09
         0.19266E+09
         0.12321E+09
         0.41661E+08
         0.19495E+08
         0.18162E+08
        -0.61918E+07
        -0.59683E+08
        -0.11559E+09
        -0.14791E+09
        -0.19895E+09
        -0.21521E+09
        -0.20789E+09
        -0.20588E+09
        -0.19384E+09
        -0.13879E+09
        -0.69652E+08
        -0.66094E+08
        -0.84716E+08
        -0.54161E+08
        -0.51099E+08
        -0.15305E+08
        -0.55298E+08
        -0.27691E+08
        -0.22539E+08
        -0.73890E+08
        -0.57806E+08
        -0.72223E+08
         0.35331E+08
         0.11382E+09
         0.77862E+08
         0.12412E+08
         0.11126E+09
         0.34366E+08
        -0.12249E+08
         0.10654E+08
         0.42336E+08
         0.68574E+07
         0.30320E+08
         0.20978E+08
        -0.12766E+08
         0.12793E+08
        -0.51077E+08
         0.12840E+08
         0.36268E+07
         0.62802E+07
        -0.64707E+07
        -0.47112E+08
         0.37093E+08
         0.86310E+07
         0.26256E+08
         0.21777E+08
        -0.56032E+07
         0.25369E+08
         0.46354E+08
         0.92599E+08
         0.89275E+08
         0.79159E+08
         0.53167E+08
        -0.12402E+08
        -0.29591E+08
        -0.42492E+08
        -0.53259E+08
        -0.92087E+08
        -0.61913E+08
        -0.43620E+08
        -0.55972E+08
        -0.62877E+08
        -0.57393E+08
        -0.33753E+07
         0.30295E+08
        -0.44050E+08
         0.99347E+08
         0.12999E+09
         0.16015E+09
         0.18139E+09
         0.18172E+09
         0.16999E+09
         0.16477E+09
         0.15554E+09
         0.99919E+08
         0.34361E+08
         0.15638E+08
         0.14632E+08
        -0.50920E+07
        -0.50151E+08
        -0.97884E+08
        -0.12532E+09
        -0.16244E+09
        -0.17723E+09
        -0.17006E+09
        -0.16748E+09
        -0.15898E+09
        -0.11310E+09
        -0.57502E+08
        -0.54369E+08
  
SCALARS                      stress_xz  double 1
LOOKUP_TABLE default
         0.68248E+05
        -0.48134E+06
        -0.15890E+07
         0.10915E+06
        -0.14023E+02
         0.49722E+01
         0.16626E+02
         0.33205E+01
        -0.44711E+07
        -0.29872E+07
         0.49730E+02
         0.44794E+02
         0.19065E+06
        -0.77795E+06
        -0.61334E+01
        -0.28732E+02
        -0.15959E+06
        -0.74657E+06
        -0.20754E+02
        -0.30910E+02
        -0.10942E+07
        -0.18437E+07
        -0.17459E+07
        -0.20640E+02
        -0.95177E+01
         0.16628E+02
        -0.19475E+07
        -0.15815E+07
        -0.38636E+02
        -0.30648E+02
         0.37341E+06
        -0.82954E+06
         0.79377E+05
         0.39336E+01
        -0.15201E+02
        -0.93650E+01
         0.11079E+07
         0.53406E+06
        -0.22569E+02
        -0.24030E+02
         0.22084E+07
         0.31293E+07
        -0.50908E+02
        -0.37543E+02
         0.23626E+07
         0.12582E+07
        -0.55906E+02
        -0.26909E+02
        -0.67831E+06
        -0.16891E+02
         0.16151E+07
        -0.47018E+01
        -0.70762E+06
        -0.33005E+02
         0.52862E+06
        -0.87306E+01
         0.23128E+07
         0.63444E+06
        -0.74791E+01
        -0.18078E+02
        -0.39872E+05
         0.11000E+07
         0.14959E+02
         0.10258E+02
        -0.28567E+06
        -0.15047E+01
        -0.95631E+06
         0.98969E+01
        -0.62922E+07
        -0.43118E+07
         0.61859E+02
         0.44864E+02
        -0.27732E+07
         0.32667E+02
         0.65375E+06
        -0.22598E+02
         0.20458E+07
        -0.44351E+01
         0.43370E+07
        -0.68808E+01
         0.57383E+07
         0.40747E+07
        -0.25217E+02
        -0.28839E+02
         0.35989E+07
        -0.31015E+02
         0.28651E+07
        -0.44655E+02
         0.17843E+07
        -0.28482E+02
         0.28089E+07
         0.20659E+07
        -0.12156E+02
         0.16670E+02
        -0.47225E+06
         0.19553E+02
        -0.12963E+07
         0.82101E+01
        -0.31125E+07
         0.20274E+02
        -0.46011E+07
        -0.31577E+07
         0.46748E+02
         0.48781E+02
        -0.11269E+08
        -0.12478E+08
         0.86379E+02
         0.85124E+02
        -0.11162E+08
         0.73793E+02
        -0.10172E+08
         0.55146E+02
        -0.72981E+07
         0.30305E+02
        -0.53031E+07
         0.32407E+01
        -0.19678E+07
        -0.11542E+02
         0.25354E+07
        -0.92345E+01
         0.60505E+07
        -0.90764E+01
         0.89901E+07
        -0.20468E+02
         0.12092E+08
        -0.38940E+02
         0.14693E+08
        -0.46469E+02
         0.15618E+08
        -0.43844E+02
         0.14875E+08
        -0.47677E+02
         0.13631E+08
        -0.61878E+02
         0.12259E+08
        -0.72967E+02
         0.10812E+08
        -0.67830E+02
         0.85989E+07
        -0.55126E+02
         0.50457E+07
        -0.26024E+02
         0.43256E+06
         0.49693E+01
        -0.28217E+07
         0.12065E+02
        -0.44162E+07
         0.19729E+02
        -0.66422E+07
         0.38610E+02
        -0.87575E+07
         0.63356E+02
        -0.11510E+08
         0.76119E+02
        -0.13223E+08
         0.77856E+02
         0.93293E+06
        -0.48703E+06
        -0.57116E+06
         0.11461E+07
        -0.44652E+07
        -0.34428E+07
        -0.52189E+06
         0.76503E+06
         0.39289E+06
         0.70107E+06
        -0.38712E+06
        -0.16773E+07
        -0.34972E+07
         0.11186E+07
         0.13472E+07
        -0.15255E+07
        -0.12809E+07
         0.59289E+06
         0.92709E+06
         0.99636E+06
         0.54538E+07
         0.58017E+07
         0.52485E+07
         0.16305E+07
        -0.65271E+06
         0.48645E+06
         0.15669E+07
         0.17566E+06
         0.18009E+07
         0.12346E+07
        -0.13624E+07
        -0.26827E+06
         0.64200E+06
         0.20805E+06
        -0.66311E+07
        -0.42146E+07
        -0.38097E+07
         0.26704E+07
         0.15214E+07
         0.32619E+07
         0.67227E+07
         0.62413E+07
         0.61389E+07
         0.45150E+07
         0.32451E+07
         0.25474E+07
        -0.47704E+06
        -0.19863E+07
        -0.57452E+06
        -0.18257E+07
        -0.48889E+07
        -0.41043E+07
        -0.19470E+08
        -0.20382E+08
        -0.18226E+08
        -0.15495E+08
        -0.11539E+08
        -0.58863E+07
         0.34979E+06
         0.42018E+07
         0.64009E+07
         0.10991E+08
         0.17927E+08
         0.21728E+08
         0.19876E+08
         0.19051E+08
         0.20104E+08
         0.20083E+08
         0.18244E+08
         0.15996E+08
         0.81381E+07
        -0.12851E+07
        -0.49321E+07
        -0.54983E+07
        -0.93129E+07
        -0.14893E+08
        -0.19280E+08
        -0.20248E+08
        -0.59440E+08
         0.19566E+08
        -0.39336E+08
        -0.16318E+09
         0.13400E+09
         0.16108E+09
         0.10107E+09
        -0.76574E+08
        -0.54278E+08
        -0.76903E+08
        -0.30321E+08
         0.28688E+08
         0.12137E+09
        -0.17622E+09
        -0.71868E+08
         0.15691E+09
         0.16508E+09
        -0.15154E+09
        -0.50916E+08
        -0.15968E+09
        -0.18464E+09
        -0.18655E+09
        -0.18861E+09
        -0.15938E+09
         0.56814E+08
         0.11318E+09
        -0.17974E+09
         0.82410E+08
        -0.15480E+09
        -0.87776E+08
         0.13957E+09
         0.16340E+09
        -0.13597E+09
        -0.13455E+09
         0.18874E+09
         0.16719E+09
         0.15111E+09
        -0.96005E+08
        -0.20440E+08
        -0.63298E+08
        -0.16861E+09
        -0.18973E+09
        -0.18434E+09
        -0.16855E+09
        -0.14403E+09
        -0.63204E+08
         0.10070E+09
         0.13810E+09
        -0.21832E+08
         0.22528E+08
         0.14676E+09
         0.18277E+09
         0.21231E+09
         0.20943E+09
         0.18062E+09
         0.14996E+09
         0.10561E+09
         0.45616E+08
        -0.11756E+08
        -0.42354E+08
        -0.57113E+08
        -0.98463E+08
        -0.17810E+09
        -0.21273E+09
        -0.21190E+09
        -0.21105E+09
        -0.21355E+09
        -0.20668E+09
        -0.18243E+09
        -0.15936E+09
        -0.84094E+08
         0.21336E+08
         0.51881E+08
         0.55084E+08
         0.92399E+08
         0.16330E+09
         0.20367E+09
         0.20459E+09
        -0.59511E+08
         0.19634E+08
        -0.39389E+08
        -0.16307E+09
         0.13392E+09
         0.16102E+09
         0.10142E+09
        -0.76312E+08
        -0.54250E+08
        -0.76634E+08
        -0.29708E+08
         0.28758E+08
         0.12140E+09
        -0.17617E+09
        -0.71762E+08
         0.15696E+09
         0.16501E+09
        -0.15149E+09
        -0.50863E+08
        -0.15973E+09
        -0.18461E+09
        -0.18654E+09
        -0.18861E+09
        -0.15939E+09
         0.56715E+08
         0.11339E+09
        -0.17974E+09
         0.80861E+08
        -0.15518E+09
        -0.87688E+08
         0.13965E+09
         0.16343E+09
        -0.13562E+09
        -0.13449E+09
         0.18876E+09
         0.16716E+09
         0.15109E+09
        -0.96022E+08
        -0.20593E+08
        -0.63417E+08
        -0.16862E+09
        -0.18975E+09
        -0.18433E+09
        -0.16853E+09
        -0.14401E+09
        -0.63174E+08
         0.10068E+09
         0.13816E+09
        -0.21702E+08
         0.22479E+08
         0.14674E+09
         0.18276E+09
         0.21230E+09
         0.20942E+09
         0.18060E+09
         0.14996E+09
         0.10560E+09
         0.45616E+08
        -0.11773E+08
        -0.42391E+08
        -0.57078E+08
        -0.98450E+08
        -0.17810E+09
        -0.21273E+09
        -0.21190E+09
        -0.21105E+09
        -0.21356E+09
        -0.20668E+09
        -0.18242E+09
        -0.15936E+09
        -0.84075E+08
         0.21347E+08
         0.51848E+08
         0.55066E+08
         0.92360E+08
         0.16329E+09
         0.20368E+09
         0.20460E+09
        -0.59582E+08
         0.19701E+08
        -0.39442E+08
        -0.16296E+09
         0.13385E+09
         0.16096E+09
         0.10177E+09
        -0.76051E+08
        -0.54219E+08
        -0.76364E+08
        -0.29096E+08
         0.28829E+08
         0.12143E+09
        -0.17612E+09
        -0.71656E+08
         0.15700E+09
         0.16494E+09
        -0.15143E+09
        -0.50810E+08
        -0.15979E+09
        -0.18457E+09
        -0.18654E+09
        -0.18861E+09
        -0.15941E+09
         0.56627E+08
         0.11363E+09
        -0.17974E+09
         0.79331E+08
        -0.15558E+09
        -0.87605E+08
         0.13973E+09
         0.16347E+09
        -0.13526E+09
        -0.13444E+09
         0.18878E+09
         0.16713E+09
         0.15107E+09
        -0.96039E+08
        -0.20746E+08
        -0.63537E+08
        -0.16862E+09
        -0.18977E+09
        -0.18432E+09
        -0.16850E+09
        -0.14398E+09
        -0.63145E+08
         0.10066E+09
         0.13821E+09
        -0.21567E+08
         0.22429E+08
         0.14672E+09
         0.18275E+09
         0.21230E+09
         0.20941E+09
         0.18059E+09
         0.14996E+09
         0.10558E+09
         0.45616E+08
        -0.11791E+08
        -0.42427E+08
        -0.57043E+08
        -0.98438E+08
        -0.17811E+09
        -0.21272E+09
        -0.21190E+09
        -0.21104E+09
        -0.21356E+09
        -0.20668E+09
        -0.18241E+09
        -0.15936E+09
        -0.84056E+08
         0.21357E+08
         0.51815E+08
         0.55047E+08
         0.92321E+08
         0.16329E+09
         0.20368E+09
         0.20461E+09
        -0.59653E+08
         0.19771E+08
        -0.39493E+08
        -0.16284E+09
         0.13377E+09
         0.16089E+09
         0.10211E+09
        -0.75790E+08
        -0.54181E+08
        -0.76089E+08
        -0.28485E+08
         0.28900E+08
         0.12146E+09
        -0.17607E+09
        -0.71550E+08
         0.15706E+09
         0.16486E+09
        -0.15138E+09
        -0.50758E+08
        -0.15985E+09
        -0.18454E+09
        -0.18653E+09
        -0.18861E+09
        -0.15943E+09
         0.56570E+08
         0.11393E+09
        -0.17974E+09
         0.77848E+08
        -0.15600E+09
        -0.87531E+08
         0.13982E+09
         0.16352E+09
        -0.13491E+09
        -0.13439E+09
         0.18880E+09
         0.16709E+09
         0.15106E+09
        -0.96055E+08
        -0.20897E+08
        -0.63650E+08
        -0.16862E+09
        -0.18980E+09
        -0.18431E+09
        -0.16847E+09
        -0.14394E+09
        -0.63112E+08
         0.10064E+09
         0.13827E+09
        -0.21431E+08
         0.22378E+08
         0.14670E+09
         0.18274E+09
         0.21230E+09
         0.20940E+09
         0.18057E+09
         0.14996E+09
         0.10556E+09
         0.45616E+08
        -0.11809E+08
        -0.42463E+08
        -0.57008E+08
        -0.98426E+08
        -0.17810E+09
        -0.21272E+09
        -0.21190E+09
        -0.21104E+09
        -0.21357E+09
        -0.20668E+09
        -0.18239E+09
        -0.15935E+09
        -0.84036E+08
         0.21368E+08
         0.51782E+08
         0.55029E+08
         0.92281E+08
         0.16329E+09
         0.20368E+09
         0.20461E+09
        -0.59723E+08
         0.19841E+08
        -0.39546E+08
        -0.16273E+09
         0.13370E+09
         0.16083E+09
         0.10246E+09
        -0.75528E+08
        -0.54137E+08
        -0.75808E+08
        -0.27872E+08
         0.28971E+08
         0.12149E+09
        -0.17602E+09
        -0.71445E+08
         0.15711E+09
         0.16479E+09
        -0.15132E+09
        -0.50699E+08
        -0.15992E+09
        -0.18451E+09
        -0.18652E+09
        -0.18861E+09
        -0.15946E+09
         0.56543E+08
         0.11429E+09
        -0.17973E+09
         0.76413E+08
        -0.15646E+09
        -0.87466E+08
         0.13992E+09
         0.16360E+09
        -0.13455E+09
        -0.13433E+09
         0.18881E+09
         0.16706E+09
         0.15104E+09
        -0.96070E+08
        -0.21045E+08
        -0.63762E+08
        -0.16862E+09
        -0.18982E+09
        -0.18431E+09
        -0.16843E+09
        -0.14388E+09
        -0.63073E+08
         0.10062E+09
         0.13832E+09
        -0.21295E+08
         0.22328E+08
         0.14669E+09
         0.18273E+09
         0.21229E+09
         0.20939E+09
         0.18056E+09
         0.14996E+09
         0.10555E+09
         0.45617E+08
        -0.11827E+08
        -0.42500E+08
        -0.56972E+08
        -0.98413E+08
        -0.17810E+09
        -0.21272E+09
        -0.21189E+09
        -0.21104E+09
        -0.21357E+09
        -0.20668E+09
        -0.18238E+09
        -0.15935E+09
        -0.84017E+08
         0.21379E+08
         0.51749E+08
         0.55010E+08
         0.92242E+08
         0.16328E+09
         0.20368E+09
         0.20462E+09
        -0.59791E+08
         0.19918E+08
        -0.39590E+08
        -0.16261E+09
         0.13362E+09
         0.16077E+09
         0.10281E+09
        -0.75269E+08
        -0.54090E+08
        -0.75532E+08
        -0.27257E+08
         0.29042E+08
         0.12152E+09
        -0.17597E+09
        -0.71339E+08
         0.15716E+09
         0.16471E+09
        -0.15126E+09
        -0.50639E+08
        -0.15999E+09
        -0.18448E+09
        -0.18652E+09
        -0.18860E+09
        -0.15950E+09
         0.56521E+08
         0.11467E+09
        -0.17973E+09
         0.74986E+08
        -0.15693E+09
        -0.87414E+08
         0.14003E+09
         0.16368E+09
        -0.13418E+09
        -0.13427E+09
         0.18883E+09
         0.16703E+09
         0.15103E+09
        -0.96084E+08
        -0.21192E+08
        -0.63870E+08
        -0.16861E+09
        -0.18985E+09
        -0.18431E+09
        -0.16838E+09
        -0.14383E+09
        -0.63036E+08
         0.10059E+09
         0.13837E+09
        -0.21153E+08
         0.22283E+08
         0.14667E+09
         0.18272E+09
         0.21229E+09
         0.20938E+09
         0.18054E+09
         0.14996E+09
         0.10553E+09
         0.45617E+08
        -0.11845E+08
        -0.42536E+08
        -0.56937E+08
        -0.98401E+08
        -0.17810E+09
        -0.21271E+09
        -0.21189E+09
        -0.21103E+09
        -0.21358E+09
        -0.20668E+09
        -0.18236E+09
        -0.15934E+09
        -0.83997E+08
         0.21389E+08
         0.51716E+08
         0.54992E+08
         0.92203E+08
         0.16328E+09
         0.20369E+09
         0.20463E+09
        -0.59853E+08
         0.20013E+08
        -0.39621E+08
        -0.16249E+09
         0.13355E+09
         0.16070E+09
         0.10318E+09
        -0.75013E+08
        -0.54045E+08
        -0.75270E+08
        -0.26635E+08
         0.29112E+08
         0.12154E+09
        -0.17591E+09
        -0.71232E+08
         0.15722E+09
         0.16463E+09
        -0.15121E+09
        -0.50584E+08
        -0.16006E+09
        -0.18445E+09
        -0.18651E+09
        -0.18860E+09
        -0.15954E+09
         0.56484E+08
         0.11503E+09
        -0.17972E+09
         0.73526E+08
        -0.15739E+09
        -0.87371E+08
         0.14013E+09
         0.16376E+09
        -0.13380E+09
        -0.13420E+09
         0.18885E+09
         0.16700E+09
         0.15101E+09
        -0.96095E+08
        -0.21340E+08
        -0.63982E+08
        -0.16861E+09
        -0.18988E+09
        -0.18431E+09
        -0.16834E+09
        -0.14377E+09
        -0.63000E+08
         0.10055E+09
         0.13840E+09
        -0.20993E+08
         0.22254E+08
         0.14666E+09
         0.18271E+09
         0.21229E+09
         0.20938E+09
         0.18053E+09
         0.14996E+09
         0.10551E+09
         0.45617E+08
        -0.11862E+08
        -0.42573E+08
        -0.56902E+08
        -0.98389E+08
        -0.17810E+09
        -0.21271E+09
        -0.21189E+09
        -0.21103E+09
        -0.21358E+09
        -0.20668E+09
        -0.18235E+09
        -0.15934E+09
        -0.83978E+08
         0.21397E+08
         0.51680E+08
         0.54973E+08
         0.92166E+08
         0.16328E+09
         0.20369E+09
         0.20463E+09
        -0.59913E+08
         0.20114E+08
        -0.39645E+08
        -0.16237E+09
         0.13348E+09
         0.16064E+09
         0.10357E+09
        -0.74761E+08
        -0.54001E+08
        -0.75015E+08
        -0.26009E+08
         0.29182E+08
         0.12157E+09
        -0.17585E+09
        -0.71125E+08
         0.15727E+09
         0.16454E+09
        -0.15115E+09
        -0.50526E+08
        -0.16014E+09
        -0.18442E+09
        -0.18650E+09
        -0.18860E+09
        -0.15957E+09
         0.56440E+08
         0.11538E+09
        -0.17972E+09
         0.72058E+08
        -0.15784E+09
        -0.87333E+08
         0.14023E+09
         0.16384E+09
        -0.13341E+09
        -0.13412E+09
         0.18887E+09
         0.16697E+09
         0.15099E+09
        -0.96106E+08
        -0.21488E+08
        -0.64092E+08
        -0.16860E+09
        -0.18991E+09
        -0.18431E+09
        -0.16829E+09
        -0.14372E+09
        -0.62967E+08
         0.10050E+09
         0.13842E+09
        -0.20825E+08
         0.22231E+08
         0.14664E+09
         0.18270E+09
         0.21228E+09
         0.20937E+09
         0.18051E+09
         0.14996E+09
         0.10549E+09
         0.45617E+08
        -0.11880E+08
        -0.42609E+08
        -0.56867E+08
        -0.98378E+08
        -0.17809E+09
        -0.21270E+09
        -0.21189E+09
        -0.21103E+09
        -0.21359E+09
        -0.20669E+09
        -0.18233E+09
        -0.15933E+09
        -0.83959E+08
         0.21405E+08
         0.51644E+08
         0.54954E+08
         0.92129E+08
         0.16327E+09
         0.20369E+09
         0.20464E+09
        -0.59972E+08
         0.20217E+08
        -0.39668E+08
        -0.16225E+09
         0.13340E+09
         0.16058E+09
         0.10395E+09
        -0.74510E+08
        -0.53957E+08
        -0.74764E+08
        -0.25387E+08
         0.29252E+08
         0.12159E+09
        -0.17579E+09
        -0.71017E+08
         0.15732E+09
         0.16446E+09
        -0.15109E+09
        -0.50467E+08
        -0.16021E+09
        -0.18439E+09
        -0.18650E+09
        -0.18860E+09
        -0.15961E+09
         0.56396E+08
         0.11573E+09
        -0.17971E+09
         0.70592E+08
        -0.15829E+09
        -0.87294E+08
         0.14033E+09
         0.16392E+09
        -0.13302E+09
        -0.13404E+09
         0.18889E+09
         0.16693E+09
         0.15097E+09
        -0.96116E+08
        -0.21635E+08
        -0.64202E+08
        -0.16859E+09
        -0.18994E+09
        -0.18431E+09
        -0.16825E+09
        -0.14366E+09
        -0.62934E+08
         0.10045E+09
         0.13845E+09
        -0.20656E+08
         0.22211E+08
         0.14663E+09
         0.18269E+09
         0.21228E+09
         0.20936E+09
         0.18050E+09
         0.14996E+09
         0.10548E+09
         0.45617E+08
        -0.11898E+08
        -0.42645E+08
        -0.56832E+08
        -0.98366E+08
        -0.17809E+09
        -0.21270E+09
        -0.21189E+09
        -0.21102E+09
        -0.21359E+09
        -0.20669E+09
        -0.18232E+09
        -0.15933E+09
        -0.83939E+08
         0.21414E+08
         0.51607E+08
         0.54935E+08
         0.92092E+08
         0.16327E+09
         0.20369E+09
         0.20465E+09
        -0.60032E+08
         0.20320E+08
        -0.39692E+08
        -0.16212E+09
         0.13333E+09
         0.16051E+09
         0.10433E+09
        -0.74258E+08
        -0.53913E+08
        -0.74514E+08
        -0.24764E+08
         0.29322E+08
         0.12162E+09
        -0.17573E+09
        -0.70910E+08
         0.15737E+09
         0.16437E+09
        -0.15104E+09
        -0.50409E+08
        -0.16029E+09
        -0.18435E+09
        -0.18649E+09
        -0.18860E+09
        -0.15965E+09
         0.56353E+08
         0.11608E+09
        -0.17971E+09
         0.69134E+08
        -0.15872E+09
        -0.87255E+08
         0.14042E+09
         0.16400E+09
        -0.13263E+09
        -0.13397E+09
         0.18890E+09
         0.16690E+09
         0.15096E+09
        -0.96125E+08
        -0.21781E+08
        -0.64314E+08
        -0.16859E+09
        -0.18996E+09
        -0.18431E+09
        -0.16820E+09
        -0.14361E+09
        -0.62900E+08
         0.10040E+09
         0.13847E+09
        -0.20488E+08
         0.22187E+08
         0.14662E+09
         0.18268E+09
         0.21228E+09
         0.20935E+09
         0.18048E+09
         0.14996E+09
         0.10546E+09
         0.45617E+08
        -0.11915E+08
        -0.42681E+08
        -0.56797E+08
        -0.98355E+08
        -0.17809E+09
        -0.21269E+09
        -0.21189E+09
        -0.21102E+09
        -0.21360E+09
        -0.20669E+09
        -0.18230E+09
        -0.15932E+09
        -0.83920E+08
         0.21421E+08
         0.51571E+08
         0.54916E+08
         0.92055E+08
         0.16327E+09
         0.20369E+09
         0.20466E+09
        -0.60091E+08
         0.20423E+08
        -0.39717E+08
        -0.16200E+09
         0.13326E+09
         0.16045E+09
         0.10470E+09
        -0.74007E+08
        -0.53869E+08
        -0.74265E+08
        -0.24140E+08
         0.29393E+08
         0.12164E+09
        -0.17566E+09
        -0.70802E+08
         0.15742E+09
         0.16428E+09
        -0.15098E+09
        -0.50356E+08
        -0.16037E+09
        -0.18432E+09
        -0.18649E+09
        -0.18859E+09
        -0.15968E+09
         0.56309E+08
         0.11643E+09
        -0.17970E+09
         0.67675E+08
        -0.15915E+09
        -0.87216E+08
         0.14052E+09
         0.16408E+09
        -0.13224E+09
        -0.13389E+09
         0.18892E+09
         0.16687E+09
         0.15094E+09
        -0.96135E+08
        -0.21928E+08
        -0.64424E+08
        -0.16858E+09
        -0.18999E+09
        -0.18431E+09
        -0.16816E+09
        -0.14355E+09
        -0.62867E+08
         0.10035E+09
         0.13849E+09
        -0.20319E+08
         0.22164E+08
         0.14661E+09
         0.18267E+09
         0.21227E+09
         0.20934E+09
         0.18047E+09
         0.14995E+09
         0.10544E+09
         0.45617E+08
        -0.11932E+08
        -0.42717E+08
        -0.56762E+08
        -0.98343E+08
        -0.17808E+09
        -0.21269E+09
        -0.21189E+09
        -0.21102E+09
        -0.21360E+09
        -0.20669E+09
        -0.18229E+09
        -0.15931E+09
        -0.83900E+08
         0.21429E+08
         0.51534E+08
         0.54897E+08
         0.92018E+08
         0.16327E+09
         0.20370E+09
         0.20466E+09
        -0.60150E+08
         0.20525E+08
        -0.39739E+08
        -0.16188E+09
         0.13318E+09
         0.16039E+09
         0.10508E+09
        -0.73757E+08
        -0.53824E+08
        -0.74018E+08
        -0.23518E+08
         0.29464E+08
         0.12167E+09
        -0.17560E+09
        -0.70696E+08
         0.15747E+09
         0.16420E+09
        -0.15092E+09
        -0.50299E+08
        -0.16044E+09
        -0.18429E+09
        -0.18648E+09
        -0.18859E+09
        -0.15972E+09
         0.56265E+08
         0.11678E+09
        -0.17969E+09
         0.66223E+08
        -0.15956E+09
        -0.87180E+08
         0.14062E+09
         0.16416E+09
        -0.13184E+09
        -0.13381E+09
         0.18894E+09
         0.16684E+09
         0.15092E+09
        -0.96144E+08
        -0.22074E+08
        -0.64536E+08
        -0.16858E+09
        -0.19002E+09
        -0.18431E+09
        -0.16812E+09
        -0.14350E+09
        -0.62835E+08
         0.10030E+09
         0.13852E+09
        -0.20148E+08
         0.22143E+08
         0.14659E+09
         0.18266E+09
         0.21227E+09
         0.20933E+09
         0.18045E+09
         0.14995E+09
         0.10543E+09
         0.45618E+08
        -0.11950E+08
        -0.42754E+08
        -0.56727E+08
        -0.98332E+08
        -0.17808E+09
        -0.21269E+09
        -0.21189E+09
        -0.21101E+09
        -0.21361E+09
        -0.20669E+09
        -0.18227E+09
        -0.15931E+09
        -0.83881E+08
         0.21437E+08
         0.51498E+08
         0.54878E+08
         0.91982E+08
         0.16327E+09
         0.20370E+09
         0.20467E+09
        -0.60210E+08
         0.20629E+08
        -0.39761E+08
        -0.16175E+09
         0.13311E+09
         0.16032E+09
         0.10545E+09
        -0.73506E+08
        -0.53778E+08
        -0.73771E+08
        -0.22898E+08
         0.29534E+08
         0.12169E+09
        -0.17554E+09
        -0.70588E+08
         0.15752E+09
         0.16411E+09
        -0.15087E+09
        -0.50243E+08
        -0.16052E+09
        -0.18426E+09
        -0.18648E+09
        -0.18859E+09
        -0.15975E+09
         0.56220E+08
         0.11712E+09
        -0.17969E+09
         0.64768E+08
        -0.15996E+09
        -0.87141E+08
         0.14072E+09
         0.16425E+09
        -0.13145E+09
        -0.13373E+09
         0.18896E+09
         0.16681E+09
         0.15090E+09
        -0.96152E+08
        -0.22220E+08
        -0.64645E+08
        -0.16857E+09
        -0.19005E+09
        -0.18431E+09
        -0.16807E+09
        -0.14344E+09
        -0.62800E+08
         0.10025E+09
         0.13854E+09
        -0.19976E+08
         0.22119E+08
         0.14658E+09
         0.18265E+09
         0.21227E+09
         0.20932E+09
         0.18044E+09
         0.14995E+09
         0.10541E+09
         0.45617E+08
        -0.11967E+08
        -0.42789E+08
        -0.56691E+08
        -0.98320E+08
        -0.17808E+09
        -0.21268E+09
        -0.21189E+09
        -0.21101E+09
        -0.21361E+09
        -0.20669E+09
        -0.18226E+09
        -0.15930E+09
        -0.83862E+08
         0.21444E+08
         0.51461E+08
         0.54859E+08
         0.91945E+08
         0.16326E+09
         0.20370E+09
         0.20468E+09
        -0.60270E+08
         0.20730E+08
        -0.39783E+08
        -0.16162E+09
         0.13304E+09
         0.16026E+09
         0.10580E+09
        -0.73256E+08
        -0.53734E+08
        -0.73524E+08
        -0.22279E+08
         0.29604E+08
         0.12172E+09
        -0.17548E+09
        -0.70481E+08
         0.15757E+09
         0.16402E+09
        -0.15081E+09
        -0.50192E+08
        -0.16059E+09
        -0.18423E+09
        -0.18647E+09
        -0.18859E+09
        -0.15979E+09
         0.56175E+08
         0.11747E+09
        -0.17968E+09
         0.63322E+08
        -0.16036E+09
        -0.87102E+08
         0.14081E+09
         0.16433E+09
        -0.13104E+09
        -0.13366E+09
         0.18898E+09
         0.16678E+09
         0.15089E+09
        -0.96159E+08
        -0.22365E+08
        -0.64758E+08
        -0.16857E+09
        -0.19007E+09
        -0.18431E+09
        -0.16803E+09
        -0.14338E+09
        -0.62768E+08
         0.10020E+09
         0.13856E+09
        -0.19805E+08
         0.22096E+08
         0.14657E+09
         0.18264E+09
         0.21226E+09
         0.20931E+09
         0.18042E+09
         0.14995E+09
         0.10539E+09
         0.45617E+08
        -0.11985E+08
        -0.42825E+08
        -0.56656E+08
        -0.98309E+08
        -0.17808E+09
        -0.21268E+09
        -0.21189E+09
        -0.21101E+09
        -0.21362E+09
        -0.20669E+09
        -0.18224E+09
        -0.15930E+09
        -0.83842E+08
         0.21452E+08
         0.51425E+08
         0.54841E+08
         0.91908E+08
         0.16326E+09
         0.20370E+09
         0.20468E+09
        -0.60330E+08
         0.20831E+08
        -0.39806E+08
        -0.16150E+09
         0.13296E+09
         0.16019E+09
         0.10617E+09
        -0.73006E+08
        -0.53689E+08
        -0.73281E+08
        -0.21660E+08
         0.29675E+08
         0.12175E+09
        -0.17542E+09
        -0.70373E+08
         0.15762E+09
         0.16393E+09
        -0.15075E+09
        -0.50136E+08
        -0.16067E+09
        -0.18420E+09
        -0.18646E+09
        -0.18858E+09
        -0.15982E+09
         0.56130E+08
         0.11782E+09
        -0.17967E+09
         0.61876E+08
        -0.16074E+09
        -0.87063E+08
         0.14091E+09
         0.16440E+09
        -0.13064E+09
        -0.13358E+09
         0.18899E+09
         0.16674E+09
         0.15087E+09
        -0.96165E+08
        -0.22510E+08
        -0.64868E+08
        -0.16856E+09
        -0.19010E+09
        -0.18431E+09
        -0.16799E+09
        -0.14333E+09
        -0.62735E+08
         0.10016E+09
         0.13858E+09
        -0.19630E+08
         0.22074E+08
         0.14656E+09
         0.18263E+09
         0.21226E+09
         0.20931E+09
         0.18041E+09
         0.14995E+09
         0.10538E+09
         0.45617E+08
        -0.12002E+08
        -0.42860E+08
        -0.56621E+08
        -0.98298E+08
        -0.17807E+09
        -0.21267E+09
        -0.21188E+09
        -0.21100E+09
        -0.21362E+09
        -0.20669E+09
        -0.18223E+09
        -0.15929E+09
        -0.83823E+08
         0.21459E+08
         0.51388E+08
         0.54822E+08
         0.91871E+08
         0.16326E+09
         0.20370E+09
         0.20469E+09
        -0.60391E+08
         0.20936E+08
        -0.39829E+08
        -0.16137E+09
         0.13289E+09
         0.16013E+09
         0.10653E+09
        -0.72757E+08
        -0.53643E+08
        -0.73037E+08
        -0.21041E+08
         0.29745E+08
         0.12177E+09
        -0.17536E+09
        -0.70266E+08
         0.15767E+09
         0.16384E+09
        -0.15070E+09
        -0.50080E+08
        -0.16074E+09
        -0.18416E+09
        -0.18646E+09
        -0.18858E+09
        -0.15986E+09
         0.56083E+08
         0.11816E+09
        -0.17967E+09
         0.60431E+08
        -0.16112E+09
        -0.87023E+08
         0.14101E+09
         0.16448E+09
        -0.13023E+09
        -0.13350E+09
         0.18901E+09
         0.16671E+09
         0.15085E+09
        -0.96171E+08
        -0.22655E+08
        -0.64979E+08
        -0.16855E+09
        -0.19013E+09
        -0.18431E+09
        -0.16794E+09
        -0.14327E+09
        -0.62701E+08
         0.10011E+09
         0.13861E+09
        -0.19457E+08
         0.22051E+08
         0.14654E+09
         0.18262E+09
         0.21226E+09
         0.20930E+09
         0.18039E+09
         0.14995E+09
         0.10536E+09
         0.45617E+08
        -0.12019E+08
        -0.42895E+08
        -0.56585E+08
        -0.98287E+08
        -0.17807E+09
        -0.21267E+09
        -0.21188E+09
        -0.21100E+09
        -0.21363E+09
        -0.20669E+09
        -0.18221E+09
        -0.15929E+09
        -0.83803E+08
         0.21467E+08
         0.51352E+08
         0.54804E+08
         0.91835E+08
         0.16325E+09
         0.20371E+09
         0.20470E+09
        -0.60451E+08
         0.21038E+08
        -0.39851E+08
        -0.16124E+09
         0.13282E+09
         0.16007E+09
         0.10688E+09
        -0.72508E+08
        -0.53596E+08
        -0.72793E+08
        -0.20423E+08
         0.29816E+08
         0.12180E+09
        -0.17530E+09
        -0.70158E+08
         0.15772E+09
         0.16375E+09
        -0.15064E+09
        -0.50026E+08
        -0.16082E+09
        -0.18413E+09
        -0.18645E+09
        -0.18858E+09
        -0.15989E+09
         0.56034E+08
         0.11841E+09
        -0.17966E+09
         0.58973E+08
        -0.16148E+09
        -0.86986E+08
         0.14110E+09
         0.16456E+09
        -0.12982E+09
        -0.13342E+09
         0.18903E+09
         0.16668E+09
         0.15084E+09
        -0.96175E+08
        -0.22802E+08
        -0.65092E+08
        -0.16855E+09
        -0.19015E+09
        -0.18431E+09
        -0.16790E+09
        -0.14322E+09
        -0.62668E+08
         0.10006E+09
         0.13863E+09
        -0.19284E+08
         0.22027E+08
         0.14653E+09
         0.18261E+09
         0.21225E+09
         0.20929E+09
         0.18038E+09
         0.14995E+09
         0.10534E+09
         0.45618E+08
        -0.12036E+08
        -0.42931E+08
        -0.56550E+08
        -0.98276E+08
        -0.17807E+09
        -0.21267E+09
        -0.21188E+09
        -0.21100E+09
        -0.21363E+09
        -0.20670E+09
        -0.18219E+09
        -0.15928E+09
        -0.83783E+08
         0.21474E+08
         0.51315E+08
         0.54785E+08
         0.91798E+08
         0.16325E+09
         0.20371E+09
         0.20471E+09
        -0.60511E+08
         0.21139E+08
        -0.39872E+08
        -0.16112E+09
         0.13275E+09
         0.16000E+09
         0.10724E+09
        -0.72260E+08
        -0.53545E+08
        -0.72541E+08
        -0.19807E+08
         0.29887E+08
         0.12182E+09
        -0.17524E+09
        -0.70050E+08
         0.15777E+09
         0.16365E+09
        -0.15059E+09
        -0.49978E+08
        -0.16089E+09
        -0.18410E+09
        -0.18645E+09
        -0.18858E+09
        -0.15993E+09
         0.55977E+08
         0.11866E+09
        -0.17965E+09
         0.57479E+08
        -0.16184E+09
        -0.86958E+08
         0.14120E+09
         0.16464E+09
        -0.12941E+09
        -0.13334E+09
         0.18905E+09
         0.16665E+09
         0.15082E+09
        -0.96176E+08
        -0.22953E+08
        -0.65204E+08
        -0.16854E+09
        -0.19018E+09
        -0.18431E+09
        -0.16786E+09
        -0.14316E+09
        -0.62634E+08
         0.10001E+09
         0.13865E+09
        -0.19112E+08
         0.22004E+08
         0.14652E+09
         0.18260E+09
         0.21225E+09
         0.20928E+09
         0.18036E+09
         0.14995E+09
         0.10533E+09
         0.45618E+08
        -0.12053E+08
        -0.42966E+08
        -0.56516E+08
        -0.98266E+08
        -0.17806E+09
        -0.21266E+09
        -0.21188E+09
        -0.21099E+09
        -0.21364E+09
        -0.20670E+09
        -0.18218E+09
        -0.15927E+09
        -0.83764E+08
         0.21482E+08
         0.51279E+08
         0.54766E+08
         0.91762E+08
         0.16325E+09
         0.20371E+09
         0.20471E+09
        -0.60571E+08
         0.21241E+08
        -0.39894E+08
        -0.16099E+09
         0.13267E+09
         0.15994E+09
         0.10759E+09
        -0.72011E+08
        -0.53490E+08
        -0.72284E+08
        -0.19192E+08
         0.29957E+08
         0.12185E+09
        -0.17517E+09
        -0.69940E+08
         0.15782E+09
         0.16356E+09
        -0.15053E+09
        -0.49924E+08
        -0.16095E+09
        -0.18407E+09
        -0.18644E+09
        -0.18858E+09
        -0.15996E+09
         0.55912E+08
         0.11890E+09
        -0.17964E+09
         0.55939E+08
        -0.16218E+09
        -0.86932E+08
         0.14130E+09
         0.16472E+09
        -0.12899E+09
        -0.13327E+09
         0.18906E+09
         0.16662E+09
         0.15080E+09
        -0.96173E+08
        -0.23109E+08
        -0.65319E+08
        -0.16853E+09
        -0.19020E+09
        -0.18431E+09
        -0.16781E+09
        -0.14310E+09
        -0.62601E+08
         0.99959E+08
         0.13868E+09
        -0.18936E+08
         0.21981E+08
         0.14651E+09
         0.18259E+09
         0.21225E+09
         0.20927E+09
         0.18035E+09
         0.14995E+09
         0.10531E+09
         0.45618E+08
        -0.12070E+08
        -0.43001E+08
        -0.56482E+08
        -0.98255E+08
        -0.17806E+09
        -0.21266E+09
        -0.21188E+09
        -0.21099E+09
        -0.21364E+09
        -0.20670E+09
        -0.18216E+09
        -0.15927E+09
        -0.83744E+08
         0.21489E+08
         0.51243E+08
         0.54747E+08
         0.91725E+08
         0.16325E+09
         0.20371E+09
         0.20472E+09
        -0.60630E+08
         0.21343E+08
        -0.39915E+08
        -0.16086E+09
         0.13260E+09
         0.15987E+09
         0.10793E+09
        -0.71765E+08
        -0.53433E+08
        -0.72026E+08
        -0.18582E+08
         0.30026E+08
         0.12187E+09
        -0.17511E+09
        -0.69831E+08
         0.15787E+09
         0.16346E+09
        -0.15048E+09
        -0.49869E+08
        -0.16101E+09
        -0.18404E+09
        -0.18644E+09
        -0.18858E+09
        -0.15999E+09
         0.55844E+08
         0.11914E+09
        -0.17963E+09
         0.54394E+08
        -0.16252E+09
        -0.86907E+08
         0.14139E+09
         0.16480E+09
        -0.12858E+09
        -0.13319E+09
         0.18908E+09
         0.16659E+09
         0.15079E+09
        -0.96169E+08
        -0.23267E+08
        -0.65432E+08
        -0.16852E+09
        -0.19023E+09
        -0.18431E+09
        -0.16777E+09
        -0.14305E+09
        -0.62568E+08
         0.99911E+08
         0.13870E+09
        -0.18763E+08
         0.21956E+08
         0.14649E+09
         0.18258E+09
         0.21224E+09
         0.20926E+09
         0.18033E+09
         0.14995E+09
         0.10529E+09
         0.45618E+08
        -0.12087E+08
        -0.43035E+08
        -0.56449E+08
        -0.98244E+08
        -0.17805E+09
        -0.21266E+09
        -0.21188E+09
        -0.21099E+09
        -0.21365E+09
        -0.20670E+09
        -0.18215E+09
        -0.15926E+09
        -0.83724E+08
         0.21497E+08
         0.51207E+08
         0.54728E+08
         0.91689E+08
         0.16325E+09
         0.20371E+09
         0.20473E+09
        -0.58453E+08
         0.19247E+08
        -0.35583E+08
        -0.13366E+09
         0.12593E+09
         0.14602E+09
         0.78751E+08
        -0.68121E+08
        -0.48924E+08
        -0.68196E+08
        -0.14294E+08
         0.29444E+08
         0.11838E+09
        -0.15583E+09
        -0.68374E+08
         0.14830E+09
         0.13095E+09
        -0.99004E+08
        -0.42506E+08
        -0.10093E+09
        -0.17975E+09
        -0.18143E+09
        -0.18377E+09
        -0.12525E+09
         0.49903E+08
         0.67273E+08
        -0.16012E+09
         0.27590E+08
        -0.10205E+09
        -0.77714E+08
         0.12984E+09
         0.12396E+09
        -0.10546E+09
        -0.10431E+09
         0.18229E+09
         0.15363E+09
         0.14342E+09
        -0.93706E+08
        -0.22512E+08
        -0.62641E+08
        -0.16436E+09
        -0.18514E+09
        -0.17983E+09
        -0.16230E+09
        -0.13674E+09
        -0.60573E+08
         0.94141E+08
         0.12929E+09
        -0.16822E+08
         0.20231E+08
         0.14111E+09
         0.17077E+09
         0.21094E+09
         0.20809E+09
         0.17939E+09
         0.14921E+09
         0.10479E+09
         0.45414E+08
        -0.12048E+08
        -0.42800E+08
        -0.56047E+08
        -0.97645E+08
        -0.17701E+09
        -0.21154E+09
        -0.21055E+09
        -0.20967E+09
        -0.21254E+09
        -0.20574E+09
        -0.18134E+09
        -0.15857E+09
        -0.83245E+08
         0.21397E+08
         0.50898E+08
         0.54397E+08
         0.91162E+08
         0.16232E+09
         0.20265E+09
         0.20364E+09
        -0.29422E+08
         0.65810E+07
        -0.11796E+08
        -0.37282E+08
         0.56516E+08
         0.53072E+08
         0.18297E+08
        -0.30961E+08
        -0.18055E+08
        -0.30461E+08
        -0.36112E+07
         0.17736E+08
         0.64550E+08
        -0.51135E+08
        -0.42178E+08
         0.61731E+08
         0.34275E+08
        -0.21049E+08
        -0.12492E+08
        -0.20874E+08
        -0.10526E+09
        -0.10142E+09
        -0.10424E+09
        -0.31517E+08
         0.16726E+08
         0.13164E+08
        -0.52775E+08
         0.46661E+07
        -0.21230E+08
        -0.26051E+08
         0.48066E+08
         0.29647E+08
        -0.28707E+08
        -0.26422E+08
         0.91906E+08
         0.58042E+08
         0.64798E+08
        -0.53141E+08
        -0.11166E+08
        -0.29480E+08
        -0.94608E+08
        -0.10356E+09
        -0.10397E+09
        -0.84865E+08
        -0.64172E+08
        -0.31966E+08
         0.39921E+08
         0.51434E+08
        -0.58122E+07
         0.76586E+07
         0.70750E+08
         0.69452E+08
         0.16915E+09
         0.16987E+09
         0.14798E+09
         0.12423E+09
         0.88149E+08
         0.38478E+08
        -0.10084E+08
        -0.34521E+08
        -0.44583E+08
        -0.78819E+08
        -0.14355E+09
        -0.17446E+09
        -0.16898E+09
        -0.16872E+09
        -0.17592E+09
        -0.17287E+09
        -0.15354E+09
        -0.13435E+09
        -0.67954E+08
         0.17633E+08
         0.41630E+08
         0.44243E+08
         0.74756E+08
         0.13229E+09
         0.16736E+09
         0.16760E+09
  
SCALARS                      stress_xy  double 1
LOOKUP_TABLE default
        -0.87968E+00
        -0.20657E+01
        -0.17706E+02
         0.62489E+00
        -0.31539E-08
         0.30822E-09
         0.46341E-08
         0.70592E-09
        -0.18684E+03
         0.82081E+02
         0.20628E-07
         0.16358E-07
         0.69994E+01
        -0.14524E+01
         0.18207E-08
        -0.54684E-09
         0.20085E+01
         0.35121E+02
         0.90642E-10
         0.13813E-08
        -0.26739E+02
        -0.16973E+03
        -0.16686E+03
         0.14045E-07
         0.11185E-07
        -0.16334E-07
        -0.17672E+02
        -0.14777E+03
         0.18912E-07
         0.29103E-07
        -0.53710E+01
         0.10414E+02
         0.84426E+00
        -0.99818E-09
         0.39377E-08
        -0.50365E-10
        -0.47393E+02
        -0.22051E+02
         0.10539E-07
         0.87303E-08
        -0.92920E+02
        -0.83914E+02
         0.17966E-07
         0.12108E-07
        -0.90061E+02
        -0.16529E+02
        -0.65447E-09
         0.48725E-08
         0.24089E+02
         0.14400E-08
        -0.56320E+01
        -0.32466E-10
         0.14827E+01
         0.10884E-07
         0.73435E+01
         0.16749E-08
         0.10478E+03
        -0.50972E+01
         0.38924E-10
        -0.19096E-09
         0.69551E+00
        -0.70043E+02
         0.10607E-08
         0.27207E-08
         0.30082E+01
        -0.21536E-09
         0.43256E+02
         0.17257E-08
        -0.23144E+03
        -0.84033E+02
         0.13330E-08
        -0.12765E-07
        -0.18905E+03
        -0.20409E-07
         0.77573E+02
         0.13670E-07
         0.24503E+03
         0.20366E-08
         0.42783E+03
         0.26483E-08
         0.82957E+03
         0.45191E+03
         0.62262E-08
        -0.15788E-08
         0.55760E+02
        -0.18998E-09
        -0.17068E+03
        -0.17135E-07
        -0.25135E+03
        -0.19133E-07
        -0.55307E+03
        -0.25226E+03
        -0.12111E-07
         0.13443E-07
         0.40547E+02
         0.12240E-07
         0.99844E+02
         0.52581E-08
         0.23333E+03
         0.13961E-07
         0.57390E+03
         0.32729E+03
         0.29936E-07
         0.14968E-07
        -0.94338E+03
         0.39509E+03
        -0.19450E-07
         0.23819E-07
        -0.22967E+04
        -0.55277E-07
        -0.29938E+04
        -0.60425E-07
        -0.26316E+04
        -0.41010E-07
        -0.22456E+04
        -0.43499E-08
        -0.98206E+03
         0.12261E-07
         0.12944E+04
         0.75912E-08
         0.29089E+04
         0.69396E-08
         0.38461E+04
         0.14889E-07
         0.37698E+04
         0.18103E-07
         0.30877E+04
         0.71323E-08
         0.16434E+04
         0.43483E-08
        -0.11249E+03
         0.71073E-08
        -0.13662E+04
         0.47642E-08
        -0.22027E+04
        -0.16990E-07
        -0.30063E+04
        -0.44579E-07
        -0.26956E+04
        -0.56574E-07
        -0.17326E+04
        -0.35014E-07
        -0.18977E+03
         0.66801E-08
         0.12811E+04
         0.14158E-07
         0.18525E+04
         0.22563E-07
         0.22681E+04
         0.44432E-07
         0.20336E+04
         0.57655E-07
         0.18919E+04
         0.40962E-07
         0.15618E+04
         0.32395E-07
        -0.93920E+02
         0.25428E+02
         0.26023E+02
        -0.16162E+02
         0.20896E+03
         0.17084E+03
         0.27398E+01
        -0.61619E+02
        -0.27045E+02
        -0.70977E+02
        -0.20572E+02
        -0.38044E+03
        -0.54119E+03
         0.20075E+02
         0.30851E+03
        -0.40644E+02
         0.30254E+02
         0.90014E+01
         0.18455E+02
        -0.14981E+02
         0.75375E+02
         0.66067E+02
        -0.20109E+03
         0.52636E+01
         0.45112E+02
         0.49710E+01
         0.83093E+00
         0.16284E+01
         0.20289E+02
        -0.66976E+02
        -0.35440E+02
         0.75918E+01
         0.12146E+02
        -0.96043E+00
        -0.50833E+02
        -0.17481E+03
        -0.35404E+03
         0.53699E+03
         0.27959E+03
         0.50733E+03
         0.98565E+03
         0.22666E+03
        -0.18189E+03
        -0.36707E+03
        -0.43653E+03
        -0.56102E+03
         0.68803E+02
         0.20500E+03
         0.63273E+02
         0.21397E+03
         0.67320E+03
         0.25770E+03
        -0.23182E+04
         0.29110E+04
        -0.70522E+04
        -0.82793E+04
        -0.78603E+04
        -0.47664E+04
         0.28513E+03
         0.31022E+04
         0.44961E+04
         0.72970E+04
         0.76934E+04
         0.40814E+04
         0.16410E+04
         0.69316E+03
        -0.11193E+04
        -0.44176E+04
        -0.73756E+04
        -0.84469E+04
        -0.52187E+04
         0.94414E+03
         0.34095E+04
         0.35933E+04
         0.56634E+04
         0.63060E+04
         0.47604E+04
         0.43869E+04
        -0.33683E+06
         0.10598E+06
        -0.20574E+06
        -0.25670E+06
         0.55692E+06
         0.41103E+06
         0.34173E+06
        -0.41607E+06
        -0.28357E+06
        -0.41372E+06
         0.14854E+06
        -0.18234E+06
        -0.58562E+06
         0.22304E+06
         0.43166E+06
        -0.44113E+06
         0.22171E+06
         0.22772E+06
         0.24959E+06
         0.20318E+06
         0.30539E+06
         0.23201E+06
        -0.13926E+06
         0.27733E+06
         0.29307E+06
        -0.23459E+06
         0.51137E+05
        -0.79687E+05
        -0.22949E+06
        -0.42482E+06
        -0.47812E+06
        -0.21627E+06
         0.40074E+06
         0.37065E+06
         0.90138E+05
        -0.38066E+06
        -0.52677E+06
         0.52669E+06
         0.12515E+06
         0.36409E+06
         0.52024E+06
        -0.15801E+06
        -0.31434E+06
        -0.45146E+06
        -0.54901E+06
        -0.37233E+06
         0.50169E+06
         0.52220E+06
        -0.12125E+06
         0.12920E+06
         0.56916E+06
         0.73954E+05
        -0.27079E+06
         0.37405E+06
        -0.72135E+06
        -0.77906E+06
        -0.66856E+06
        -0.32504E+06
         0.85153E+05
         0.29779E+06
         0.39388E+06
         0.63203E+06
         0.73106E+06
         0.29136E+06
         0.13727E+06
         0.12262E+06
        -0.52798E+05
        -0.40747E+06
        -0.69687E+06
        -0.78264E+06
        -0.55664E+06
         0.15288E+06
         0.35877E+06
         0.37734E+06
         0.59554E+06
         0.75635E+06
         0.47759E+06
         0.45773E+06
        -0.33722E+06
         0.10635E+06
        -0.20604E+06
        -0.25821E+06
         0.55690E+06
         0.41139E+06
         0.34292E+06
        -0.41500E+06
        -0.28356E+06
        -0.41277E+06
         0.14562E+06
        -0.18278E+06
        -0.58570E+06
         0.22340E+06
         0.43117E+06
        -0.44101E+06
         0.22331E+06
         0.22741E+06
         0.24941E+06
         0.20224E+06
         0.30607E+06
         0.23223E+06
        -0.13930E+06
         0.27722E+06
         0.29295E+06
        -0.23461E+06
         0.51726E+05
        -0.78626E+05
        -0.22826E+06
        -0.42472E+06
        -0.47813E+06
        -0.21587E+06
         0.40097E+06
         0.37095E+06
         0.89265E+05
        -0.38092E+06
        -0.52679E+06
         0.52686E+06
         0.12611E+06
         0.36475E+06
         0.52034E+06
        -0.15753E+06
        -0.31461E+06
        -0.45164E+06
        -0.54903E+06
        -0.37218E+06
         0.50163E+06
         0.52212E+06
        -0.12049E+06
         0.12890E+06
         0.56912E+06
         0.72926E+05
        -0.27062E+06
         0.37413E+06
        -0.72143E+06
        -0.77906E+06
        -0.66848E+06
        -0.32503E+06
         0.85277E+05
         0.29803E+06
         0.39365E+06
         0.63195E+06
         0.73102E+06
         0.29149E+06
         0.13727E+06
         0.12287E+06
        -0.52364E+05
        -0.40760E+06
        -0.69698E+06
        -0.78267E+06
        -0.55653E+06
         0.15296E+06
         0.35856E+06
         0.37722E+06
         0.59532E+06
         0.75624E+06
         0.47731E+06
         0.45736E+06
        -0.33761E+06
         0.10672E+06
        -0.20634E+06
        -0.25973E+06
         0.55687E+06
         0.41175E+06
         0.34411E+06
        -0.41393E+06
        -0.28354E+06
        -0.41180E+06
         0.14271E+06
        -0.18321E+06
        -0.58579E+06
         0.22374E+06
         0.43068E+06
        -0.44088E+06
         0.22492E+06
         0.22709E+06
         0.24922E+06
         0.20128E+06
         0.30676E+06
         0.23245E+06
        -0.13936E+06
         0.27709E+06
         0.29288E+06
        -0.23461E+06
         0.52356E+05
        -0.77594E+05
        -0.22690E+06
        -0.42462E+06
        -0.47813E+06
        -0.21537E+06
         0.40118E+06
         0.37124E+06
         0.88387E+05
        -0.38119E+06
        -0.52681E+06
         0.52702E+06
         0.12706E+06
         0.36541E+06
         0.52045E+06
        -0.15700E+06
        -0.31485E+06
        -0.45186E+06
        -0.54906E+06
        -0.37203E+06
         0.50158E+06
         0.52203E+06
        -0.11972E+06
         0.12858E+06
         0.56909E+06
         0.71899E+05
        -0.27045E+06
         0.37422E+06
        -0.72151E+06
        -0.77906E+06
        -0.66839E+06
        -0.32501E+06
         0.85403E+05
         0.29827E+06
         0.39342E+06
         0.63187E+06
         0.73098E+06
         0.29162E+06
         0.13727E+06
         0.12313E+06
        -0.51927E+05
        -0.40773E+06
        -0.69711E+06
        -0.78271E+06
        -0.55643E+06
         0.15303E+06
         0.35834E+06
         0.37710E+06
         0.59510E+06
         0.75613E+06
         0.47704E+06
         0.45699E+06
        -0.33800E+06
         0.10710E+06
        -0.20663E+06
        -0.26126E+06
         0.55685E+06
         0.41210E+06
         0.34528E+06
        -0.41286E+06
        -0.28349E+06
        -0.41081E+06
         0.13980E+06
        -0.18366E+06
        -0.58587E+06
         0.22410E+06
         0.43019E+06
        -0.44074E+06
         0.22655E+06
         0.22676E+06
         0.24905E+06
         0.20026E+06
         0.30745E+06
         0.23265E+06
        -0.13948E+06
         0.27687E+06
         0.29294E+06
        -0.23459E+06
         0.53009E+05
        -0.76736E+05
        -0.22519E+06
        -0.42454E+06
        -0.47812E+06
        -0.21469E+06
         0.40138E+06
         0.37153E+06
         0.87514E+05
        -0.38145E+06
        -0.52683E+06
         0.52719E+06
         0.12800E+06
         0.36604E+06
         0.52060E+06
        -0.15635E+06
        -0.31504E+06
        -0.45217E+06
        -0.54913E+06
        -0.37186E+06
         0.50152E+06
         0.52195E+06
        -0.11894E+06
         0.12826E+06
         0.56905E+06
         0.70873E+05
        -0.27028E+06
         0.37430E+06
        -0.72158E+06
        -0.77906E+06
        -0.66830E+06
        -0.32500E+06
         0.85529E+05
         0.29851E+06
         0.39318E+06
         0.63179E+06
         0.73095E+06
         0.29177E+06
         0.13728E+06
         0.12338E+06
        -0.51486E+05
        -0.40787E+06
        -0.69725E+06
        -0.78275E+06
        -0.55632E+06
         0.15311E+06
         0.35812E+06
         0.37698E+06
         0.59488E+06
         0.75602E+06
         0.47676E+06
         0.45662E+06
        -0.33839E+06
         0.10747E+06
        -0.20692E+06
        -0.26276E+06
         0.55682E+06
         0.41246E+06
         0.34645E+06
        -0.41178E+06
        -0.28340E+06
        -0.40978E+06
         0.13687E+06
        -0.18410E+06
        -0.58595E+06
         0.22447E+06
         0.42970E+06
        -0.44059E+06
         0.22819E+06
         0.22643E+06
         0.24884E+06
         0.19918E+06
         0.30814E+06
         0.23282E+06
        -0.13965E+06
         0.27656E+06
         0.29312E+06
        -0.23453E+06
         0.53737E+05
        -0.76033E+05
        -0.22313E+06
        -0.42447E+06
        -0.47809E+06
        -0.21380E+06
         0.40156E+06
         0.37183E+06
         0.86635E+05
        -0.38172E+06
        -0.52685E+06
         0.52735E+06
         0.12893E+06
         0.36667E+06
         0.52077E+06
        -0.15556E+06
        -0.31516E+06
        -0.45257E+06
        -0.54922E+06
        -0.37166E+06
         0.50147E+06
         0.52187E+06
        -0.11816E+06
         0.12795E+06
         0.56902E+06
         0.69838E+05
        -0.27011E+06
         0.37439E+06
        -0.72165E+06
        -0.77906E+06
        -0.66821E+06
        -0.32499E+06
         0.85654E+05
         0.29875E+06
         0.39295E+06
         0.63170E+06
         0.73092E+06
         0.29195E+06
         0.13730E+06
         0.12362E+06
        -0.51044E+05
        -0.40801E+06
        -0.69741E+06
        -0.78279E+06
        -0.55621E+06
         0.15319E+06
         0.35790E+06
         0.37686E+06
         0.59466E+06
         0.75591E+06
         0.47648E+06
         0.45626E+06
        -0.33876E+06
         0.10789E+06
        -0.20717E+06
        -0.26429E+06
         0.55679E+06
         0.41281E+06
         0.34760E+06
        -0.41070E+06
        -0.28331E+06
        -0.40876E+06
         0.13393E+06
        -0.18454E+06
        -0.58603E+06
         0.22487E+06
         0.42921E+06
        -0.44045E+06
         0.22986E+06
         0.22611E+06
         0.24863E+06
         0.19807E+06
         0.30883E+06
         0.23298E+06
        -0.13985E+06
         0.27622E+06
         0.29332E+06
        -0.23444E+06
         0.54521E+05
        -0.75385E+05
        -0.22089E+06
        -0.42444E+06
        -0.47805E+06
        -0.21280E+06
         0.40173E+06
         0.37213E+06
         0.85749E+05
        -0.38199E+06
        -0.52688E+06
         0.52750E+06
         0.12986E+06
         0.36728E+06
         0.52096E+06
        -0.15472E+06
        -0.31525E+06
        -0.45301E+06
        -0.54933E+06
        -0.37147E+06
         0.50140E+06
         0.52181E+06
        -0.11735E+06
         0.12767E+06
         0.56898E+06
         0.68798E+05
        -0.26994E+06
         0.37447E+06
        -0.72173E+06
        -0.77907E+06
        -0.66812E+06
        -0.32498E+06
         0.85777E+05
         0.29898E+06
         0.39271E+06
         0.63162E+06
         0.73090E+06
         0.29215E+06
         0.13732E+06
         0.12386E+06
        -0.50602E+05
        -0.40816E+06
        -0.69758E+06
        -0.78284E+06
        -0.55610E+06
         0.15325E+06
         0.35768E+06
         0.37674E+06
         0.59444E+06
         0.75581E+06
         0.47621E+06
         0.45589E+06
        -0.33910E+06
         0.10840E+06
        -0.20736E+06
        -0.26584E+06
         0.55677E+06
         0.41317E+06
         0.34875E+06
        -0.40963E+06
        -0.28322E+06
        -0.40779E+06
         0.13096E+06
        -0.18497E+06
        -0.58611E+06
         0.22540E+06
         0.42872E+06
        -0.44032E+06
         0.23158E+06
         0.22578E+06
         0.24845E+06
         0.19696E+06
         0.30953E+06
         0.23314E+06
        -0.14005E+06
         0.27588E+06
         0.29344E+06
        -0.23431E+06
         0.55446E+05
        -0.74723E+05
        -0.21859E+06
        -0.42444E+06
        -0.47801E+06
        -0.21174E+06
         0.40189E+06
         0.37244E+06
         0.84862E+05
        -0.38227E+06
        -0.52691E+06
         0.52765E+06
         0.13079E+06
         0.36791E+06
         0.52116E+06
        -0.15387E+06
        -0.31534E+06
        -0.45344E+06
        -0.54945E+06
        -0.37129E+06
         0.50130E+06
         0.52178E+06
        -0.11644E+06
         0.12747E+06
         0.56894E+06
         0.67742E+05
        -0.26977E+06
         0.37456E+06
        -0.72180E+06
        -0.77907E+06
        -0.66803E+06
        -0.32497E+06
         0.85901E+05
         0.29922E+06
         0.39248E+06
         0.63154E+06
         0.73088E+06
         0.29234E+06
         0.13734E+06
         0.12411E+06
        -0.50160E+05
        -0.40830E+06
        -0.69775E+06
        -0.78288E+06
        -0.55599E+06
         0.15331E+06
         0.35745E+06
         0.37662E+06
         0.59423E+06
         0.75570E+06
         0.47593E+06
         0.45552E+06
        -0.33943E+06
         0.10894E+06
        -0.20751E+06
        -0.26742E+06
         0.55674E+06
         0.41353E+06
         0.34990E+06
        -0.40856E+06
        -0.28314E+06
        -0.40684E+06
         0.12797E+06
        -0.18541E+06
        -0.58619E+06
         0.22595E+06
         0.42822E+06
        -0.44020E+06
         0.23331E+06
         0.22544E+06
         0.24824E+06
         0.19585E+06
         0.31022E+06
         0.23331E+06
        -0.14024E+06
         0.27556E+06
         0.29352E+06
        -0.23415E+06
         0.56406E+05
        -0.74040E+05
        -0.21624E+06
        -0.42445E+06
        -0.47796E+06
        -0.21064E+06
         0.40204E+06
         0.37275E+06
         0.83966E+05
        -0.38256E+06
        -0.52695E+06
         0.52780E+06
         0.13171E+06
         0.36853E+06
         0.52135E+06
        -0.15302E+06
        -0.31542E+06
        -0.45387E+06
        -0.54956E+06
        -0.37113E+06
         0.50118E+06
         0.52177E+06
        -0.11549E+06
         0.12732E+06
         0.56890E+06
         0.66682E+05
        -0.26960E+06
         0.37464E+06
        -0.72188E+06
        -0.77907E+06
        -0.66795E+06
        -0.32496E+06
         0.86025E+05
         0.29946E+06
         0.39224E+06
         0.63146E+06
         0.73086E+06
         0.29253E+06
         0.13737E+06
         0.12436E+06
        -0.49717E+05
        -0.40845E+06
        -0.69792E+06
        -0.78292E+06
        -0.55588E+06
         0.15337E+06
         0.35721E+06
         0.37650E+06
         0.59402E+06
         0.75559E+06
         0.47565E+06
         0.45515E+06
        -0.33975E+06
         0.10949E+06
        -0.20765E+06
        -0.26899E+06
         0.55672E+06
         0.41388E+06
         0.35102E+06
        -0.40750E+06
        -0.28306E+06
        -0.40590E+06
         0.12499E+06
        -0.18584E+06
        -0.58628E+06
         0.22652E+06
         0.42772E+06
        -0.44007E+06
         0.23504E+06
         0.22510E+06
         0.24804E+06
         0.19472E+06
         0.31091E+06
         0.23347E+06
        -0.14043E+06
         0.27523E+06
         0.29359E+06
        -0.23399E+06
         0.57389E+05
        -0.73318E+05
        -0.21387E+06
        -0.42446E+06
        -0.47791E+06
        -0.20955E+06
         0.40218E+06
         0.37306E+06
         0.83065E+05
        -0.38284E+06
        -0.52699E+06
         0.52794E+06
         0.13263E+06
         0.36915E+06
         0.52155E+06
        -0.15217E+06
        -0.31550E+06
        -0.45430E+06
        -0.54968E+06
        -0.37096E+06
         0.50106E+06
         0.52176E+06
        -0.11454E+06
         0.12717E+06
         0.56887E+06
         0.65614E+05
        -0.26943E+06
         0.37473E+06
        -0.72195E+06
        -0.77907E+06
        -0.66786E+06
        -0.32495E+06
         0.86148E+05
         0.29969E+06
         0.39201E+06
         0.63138E+06
         0.73083E+06
         0.29272E+06
         0.13739E+06
         0.12461E+06
        -0.49275E+05
        -0.40859E+06
        -0.69809E+06
        -0.78297E+06
        -0.55577E+06
         0.15343E+06
         0.35697E+06
         0.37637E+06
         0.59381E+06
         0.75548E+06
         0.47537E+06
         0.45478E+06
        -0.34008E+06
         0.11004E+06
        -0.20780E+06
        -0.27054E+06
         0.55669E+06
         0.41423E+06
         0.35214E+06
        -0.40643E+06
        -0.28297E+06
        -0.40496E+06
         0.12201E+06
        -0.18628E+06
        -0.58636E+06
         0.22707E+06
         0.42722E+06
        -0.43995E+06
         0.23678E+06
         0.22476E+06
         0.24783E+06
         0.19358E+06
         0.31160E+06
         0.23364E+06
        -0.14062E+06
         0.27490E+06
         0.29367E+06
        -0.23382E+06
         0.58345E+05
        -0.72565E+05
        -0.21148E+06
        -0.42447E+06
        -0.47786E+06
        -0.20845E+06
         0.40229E+06
         0.37337E+06
         0.82169E+05
        -0.38313E+06
        -0.52703E+06
         0.52808E+06
         0.13355E+06
         0.36978E+06
         0.52174E+06
        -0.15133E+06
        -0.31558E+06
        -0.45473E+06
        -0.54980E+06
        -0.37079E+06
         0.50094E+06
         0.52175E+06
        -0.11360E+06
         0.12701E+06
         0.56883E+06
         0.64549E+05
        -0.26926E+06
         0.37481E+06
        -0.72202E+06
        -0.77907E+06
        -0.66777E+06
        -0.32494E+06
         0.86271E+05
         0.29993E+06
         0.39177E+06
         0.63130E+06
         0.73081E+06
         0.29291E+06
         0.13742E+06
         0.12486E+06
        -0.48835E+05
        -0.40874E+06
        -0.69826E+06
        -0.78301E+06
        -0.55566E+06
         0.15348E+06
         0.35673E+06
         0.37625E+06
         0.59360E+06
         0.75537E+06
         0.47510E+06
         0.45440E+06
        -0.34041E+06
         0.11059E+06
        -0.20795E+06
        -0.27208E+06
         0.55666E+06
         0.41458E+06
         0.35324E+06
        -0.40536E+06
        -0.28289E+06
        -0.40403E+06
         0.11901E+06
        -0.18672E+06
        -0.58644E+06
         0.22764E+06
         0.42672E+06
        -0.43983E+06
         0.23850E+06
         0.22442E+06
         0.24765E+06
         0.19243E+06
         0.31229E+06
         0.23380E+06
        -0.14081E+06
         0.27458E+06
         0.29374E+06
        -0.23364E+06
         0.59316E+05
        -0.71767E+05
        -0.20907E+06
        -0.42448E+06
        -0.47781E+06
        -0.20736E+06
         0.40239E+06
         0.37368E+06
         0.81267E+05
        -0.38341E+06
        -0.52707E+06
         0.52823E+06
         0.13447E+06
         0.37039E+06
         0.52193E+06
        -0.15048E+06
        -0.31566E+06
        -0.45515E+06
        -0.54991E+06
        -0.37063E+06
         0.50082E+06
         0.52174E+06
        -0.11264E+06
         0.12685E+06
         0.56879E+06
         0.63477E+05
        -0.26908E+06
         0.37489E+06
        -0.72209E+06
        -0.77907E+06
        -0.66768E+06
        -0.32493E+06
         0.86392E+05
         0.30016E+06
         0.39154E+06
         0.63122E+06
         0.73079E+06
         0.29310E+06
         0.13745E+06
         0.12511E+06
        -0.48393E+05
        -0.40888E+06
        -0.69842E+06
        -0.78305E+06
        -0.55555E+06
         0.15353E+06
         0.35649E+06
         0.37613E+06
         0.59339E+06
         0.75526E+06
         0.47482E+06
         0.45403E+06
        -0.34073E+06
         0.11114E+06
        -0.20809E+06
        -0.27363E+06
         0.55663E+06
         0.41494E+06
         0.35433E+06
        -0.40428E+06
        -0.28280E+06
        -0.40309E+06
         0.11602E+06
        -0.18716E+06
        -0.58652E+06
         0.22820E+06
         0.42622E+06
        -0.43970E+06
         0.24022E+06
         0.22408E+06
         0.24746E+06
         0.19129E+06
         0.31298E+06
         0.23395E+06
        -0.14101E+06
         0.27426E+06
         0.29381E+06
        -0.23347E+06
         0.60266E+05
        -0.70940E+05
        -0.20663E+06
        -0.42450E+06
        -0.47776E+06
        -0.20626E+06
         0.40248E+06
         0.37400E+06
         0.80360E+05
        -0.38369E+06
        -0.52711E+06
         0.52837E+06
         0.13539E+06
         0.37102E+06
         0.52213E+06
        -0.14965E+06
        -0.31574E+06
        -0.45557E+06
        -0.55003E+06
        -0.37047E+06
         0.50070E+06
         0.52173E+06
        -0.11168E+06
         0.12670E+06
         0.56876E+06
         0.62405E+05
        -0.26891E+06
         0.37497E+06
        -0.72216E+06
        -0.77907E+06
        -0.66759E+06
        -0.32492E+06
         0.86514E+05
         0.30040E+06
         0.39130E+06
         0.63115E+06
         0.73076E+06
         0.29329E+06
         0.13747E+06
         0.12535E+06
        -0.47949E+05
        -0.40903E+06
        -0.69859E+06
        -0.78309E+06
        -0.55544E+06
         0.15359E+06
         0.35625E+06
         0.37601E+06
         0.59318E+06
         0.75515E+06
         0.47455E+06
         0.45366E+06
        -0.34106E+06
         0.11169E+06
        -0.20823E+06
        -0.27518E+06
         0.55660E+06
         0.41529E+06
         0.35541E+06
        -0.40321E+06
        -0.28271E+06
        -0.40215E+06
         0.11303E+06
        -0.18759E+06
        -0.58660E+06
         0.22874E+06
         0.42572E+06
        -0.43958E+06
         0.24194E+06
         0.22372E+06
         0.24726E+06
         0.19015E+06
         0.31367E+06
         0.23411E+06
        -0.14120E+06
         0.27394E+06
         0.29386E+06
        -0.23328E+06
         0.61243E+05
        -0.70072E+05
        -0.20418E+06
        -0.42450E+06
        -0.47770E+06
        -0.20514E+06
         0.40254E+06
         0.37430E+06
         0.79456E+05
        -0.38398E+06
        -0.52714E+06
         0.52850E+06
         0.13631E+06
         0.37164E+06
         0.52232E+06
        -0.14880E+06
        -0.31582E+06
        -0.45600E+06
        -0.55014E+06
        -0.37030E+06
         0.50058E+06
         0.52172E+06
        -0.11071E+06
         0.12654E+06
         0.56872E+06
         0.61333E+05
        -0.26874E+06
         0.37505E+06
        -0.72223E+06
        -0.77907E+06
        -0.66750E+06
        -0.32491E+06
         0.86638E+05
         0.30063E+06
         0.39107E+06
         0.63107E+06
         0.73074E+06
         0.29348E+06
         0.13750E+06
         0.12560E+06
        -0.47507E+05
        -0.40917E+06
        -0.69876E+06
        -0.78314E+06
        -0.55533E+06
         0.15364E+06
         0.35601E+06
         0.37588E+06
         0.59297E+06
         0.75504E+06
         0.47428E+06
         0.45329E+06
        -0.34139E+06
         0.11223E+06
        -0.20837E+06
        -0.27672E+06
         0.55658E+06
         0.41564E+06
         0.35647E+06
        -0.40214E+06
        -0.28262E+06
        -0.40121E+06
         0.11004E+06
        -0.18802E+06
        -0.58668E+06
         0.22931E+06
         0.42522E+06
        -0.43945E+06
         0.24365E+06
         0.22337E+06
         0.24709E+06
         0.18901E+06
         0.31436E+06
         0.23427E+06
        -0.14139E+06
         0.27363E+06
         0.29392E+06
        -0.23308E+06
         0.62194E+05
        -0.69174E+05
        -0.20171E+06
        -0.42451E+06
        -0.47765E+06
        -0.20404E+06
         0.40259E+06
         0.37461E+06
         0.78547E+05
        -0.38426E+06
        -0.52718E+06
         0.52863E+06
         0.13722E+06
         0.37227E+06
         0.52251E+06
        -0.14796E+06
        -0.31590E+06
        -0.45642E+06
        -0.55026E+06
        -0.37013E+06
         0.50046E+06
         0.52171E+06
        -0.10975E+06
         0.12639E+06
         0.56868E+06
         0.60264E+05
        -0.26857E+06
         0.37513E+06
        -0.72230E+06
        -0.77907E+06
        -0.66741E+06
        -0.32489E+06
         0.86761E+05
         0.30086E+06
         0.39083E+06
         0.63099E+06
         0.73071E+06
         0.29367E+06
         0.13752E+06
         0.12585E+06
        -0.47066E+05
        -0.40931E+06
        -0.69893E+06
        -0.78318E+06
        -0.55522E+06
         0.15369E+06
         0.35577E+06
         0.37576E+06
         0.59276E+06
         0.75493E+06
         0.47401E+06
         0.45291E+06
        -0.34172E+06
         0.11277E+06
        -0.20851E+06
        -0.27825E+06
         0.55654E+06
         0.41599E+06
         0.35753E+06
        -0.40106E+06
        -0.28253E+06
        -0.40028E+06
         0.10705E+06
        -0.18847E+06
        -0.58676E+06
         0.22985E+06
         0.42471E+06
        -0.43933E+06
         0.24536E+06
         0.22302E+06
         0.24689E+06
         0.18785E+06
         0.31505E+06
         0.23443E+06
        -0.14158E+06
         0.27331E+06
         0.29397E+06
        -0.23288E+06
         0.63161E+05
        -0.68234E+05
        -0.19923E+06
        -0.42451E+06
        -0.47759E+06
        -0.20292E+06
         0.40262E+06
         0.37492E+06
         0.77641E+05
        -0.38455E+06
        -0.52722E+06
         0.52876E+06
         0.13813E+06
         0.37289E+06
         0.52270E+06
        -0.14712E+06
        -0.31598E+06
        -0.45684E+06
        -0.55037E+06
        -0.36997E+06
         0.50034E+06
         0.52170E+06
        -0.10877E+06
         0.12623E+06
         0.56864E+06
         0.59186E+05
        -0.26839E+06
         0.37521E+06
        -0.72237E+06
        -0.77907E+06
        -0.66732E+06
        -0.32488E+06
         0.86881E+05
         0.30109E+06
         0.39059E+06
         0.63091E+06
         0.73069E+06
         0.29385E+06
         0.13755E+06
         0.12610E+06
        -0.46625E+05
        -0.40946E+06
        -0.69909E+06
        -0.78322E+06
        -0.55510E+06
         0.15374E+06
         0.35552E+06
         0.37565E+06
         0.59255E+06
         0.75482E+06
         0.47373E+06
         0.45254E+06
        -0.34204E+06
         0.11333E+06
        -0.20865E+06
        -0.27977E+06
         0.55651E+06
         0.41633E+06
         0.35857E+06
        -0.39998E+06
        -0.28244E+06
        -0.39935E+06
         0.10406E+06
        -0.18890E+06
        -0.58684E+06
         0.23042E+06
         0.42421E+06
        -0.43921E+06
         0.24708E+06
         0.22267E+06
         0.24670E+06
         0.18669E+06
         0.31574E+06
         0.23458E+06
        -0.14177E+06
         0.27300E+06
         0.29401E+06
        -0.23267E+06
         0.64101E+05
        -0.67258E+05
        -0.19673E+06
        -0.42451E+06
        -0.47753E+06
        -0.20181E+06
         0.40263E+06
         0.37523E+06
         0.76726E+05
        -0.38483E+06
        -0.52725E+06
         0.52889E+06
         0.13904E+06
         0.37350E+06
         0.52290E+06
        -0.14629E+06
        -0.31607E+06
        -0.45726E+06
        -0.55049E+06
        -0.36980E+06
         0.50021E+06
         0.52169E+06
        -0.10779E+06
         0.12607E+06
         0.56861E+06
         0.58105E+05
        -0.26822E+06
         0.37529E+06
        -0.72244E+06
        -0.77907E+06
        -0.66723E+06
        -0.32487E+06
         0.87001E+05
         0.30132E+06
         0.39036E+06
         0.63083E+06
         0.73067E+06
         0.29404E+06
         0.13757E+06
         0.12635E+06
        -0.46183E+05
        -0.40960E+06
        -0.69926E+06
        -0.78326E+06
        -0.55499E+06
         0.15380E+06
         0.35528E+06
         0.37552E+06
         0.59234E+06
         0.75471E+06
         0.47347E+06
         0.45217E+06
        -0.34237E+06
         0.11387E+06
        -0.20880E+06
        -0.28129E+06
         0.55648E+06
         0.41668E+06
         0.35960E+06
        -0.39890E+06
        -0.28234E+06
        -0.39840E+06
         0.10107E+06
        -0.18934E+06
        -0.58693E+06
         0.23095E+06
         0.42370E+06
        -0.43908E+06
         0.24879E+06
         0.22231E+06
         0.24652E+06
         0.18555E+06
         0.31642E+06
         0.23473E+06
        -0.14195E+06
         0.27269E+06
         0.29404E+06
        -0.23225E+06
         0.65068E+05
        -0.66231E+05
        -0.19421E+06
        -0.42452E+06
        -0.47747E+06
        -0.20069E+06
         0.40263E+06
         0.37554E+06
         0.75810E+05
        -0.38511E+06
        -0.52729E+06
         0.52901E+06
         0.13996E+06
         0.37413E+06
         0.52309E+06
        -0.14546E+06
        -0.31616E+06
        -0.45768E+06
        -0.55060E+06
        -0.36964E+06
         0.50009E+06
         0.52169E+06
        -0.10682E+06
         0.12591E+06
         0.56857E+06
         0.57029E+05
        -0.26804E+06
         0.37537E+06
        -0.72251E+06
        -0.77907E+06
        -0.66714E+06
        -0.32486E+06
         0.87119E+05
         0.30155E+06
         0.39013E+06
         0.63076E+06
         0.73065E+06
         0.29423E+06
         0.13759E+06
         0.12659E+06
        -0.45744E+05
        -0.40974E+06
        -0.69943E+06
        -0.78330E+06
        -0.55488E+06
         0.15385E+06
         0.35504E+06
         0.37540E+06
         0.59213E+06
         0.75460E+06
         0.47320E+06
         0.45179E+06
        -0.34270E+06
         0.11442E+06
        -0.20893E+06
        -0.28281E+06
         0.55645E+06
         0.41703E+06
         0.36061E+06
        -0.39782E+06
        -0.28222E+06
        -0.39742E+06
         0.98072E+05
        -0.18978E+06
        -0.58701E+06
         0.23151E+06
         0.42319E+06
        -0.43896E+06
         0.25052E+06
         0.22195E+06
         0.24636E+06
         0.18446E+06
         0.31711E+06
         0.23487E+06
        -0.14215E+06
         0.27238E+06
         0.29403E+06
        -0.23185E+06
         0.66028E+05
        -0.65129E+05
        -0.19168E+06
        -0.42455E+06
        -0.47741E+06
        -0.19955E+06
         0.40260E+06
         0.37585E+06
         0.74896E+05
        -0.38540E+06
        -0.52733E+06
         0.52912E+06
         0.14091E+06
         0.37476E+06
         0.52329E+06
        -0.14463E+06
        -0.31625E+06
        -0.45809E+06
        -0.55072E+06
        -0.36947E+06
         0.49997E+06
         0.52168E+06
        -0.10585E+06
         0.12575E+06
         0.56853E+06
         0.55951E+05
        -0.26787E+06
         0.37545E+06
        -0.72258E+06
        -0.77907E+06
        -0.66706E+06
        -0.32485E+06
         0.87238E+05
         0.30178E+06
         0.38990E+06
         0.63068E+06
         0.73063E+06
         0.29442E+06
         0.13759E+06
         0.12684E+06
        -0.45305E+05
        -0.40988E+06
        -0.69960E+06
        -0.78335E+06
        -0.55477E+06
         0.15390E+06
         0.35480E+06
         0.37528E+06
         0.59193E+06
         0.75449E+06
         0.47293E+06
         0.45142E+06
        -0.34303E+06
         0.11496E+06
        -0.20907E+06
        -0.28432E+06
         0.55642E+06
         0.41737E+06
         0.36162E+06
        -0.39673E+06
        -0.28208E+06
        -0.39640E+06
         0.95084E+05
        -0.19022E+06
        -0.58709E+06
         0.23208E+06
         0.42267E+06
        -0.43883E+06
         0.25227E+06
         0.22158E+06
         0.24617E+06
         0.18341E+06
         0.31779E+06
         0.23501E+06
        -0.14233E+06
         0.27207E+06
         0.29397E+06
        -0.23142E+06
         0.67033E+05
        -0.63939E+05
        -0.18914E+06
        -0.42458E+06
        -0.47734E+06
        -0.19843E+06
         0.40256E+06
         0.37616E+06
         0.73974E+05
        -0.38568E+06
        -0.52736E+06
         0.52922E+06
         0.14189E+06
         0.37539E+06
         0.52349E+06
        -0.14380E+06
        -0.31637E+06
        -0.45851E+06
        -0.55083E+06
        -0.36930E+06
         0.49985E+06
         0.52167E+06
        -0.10487E+06
         0.12559E+06
         0.56849E+06
         0.54862E+05
        -0.26769E+06
         0.37553E+06
        -0.72265E+06
        -0.77907E+06
        -0.66697E+06
        -0.32484E+06
         0.87357E+05
         0.30201E+06
         0.38967E+06
         0.63060E+06
         0.73062E+06
         0.29460E+06
         0.13759E+06
         0.12708E+06
        -0.44864E+05
        -0.41002E+06
        -0.69976E+06
        -0.78339E+06
        -0.55466E+06
         0.15395E+06
         0.35456E+06
         0.37516E+06
         0.59172E+06
         0.75438E+06
         0.47267E+06
         0.45104E+06
        -0.34335E+06
         0.11550E+06
        -0.20920E+06
        -0.28581E+06
         0.55639E+06
         0.41771E+06
         0.36261E+06
        -0.39565E+06
        -0.28193E+06
        -0.39538E+06
         0.92114E+05
        -0.19065E+06
        -0.58717E+06
         0.23262E+06
         0.42216E+06
        -0.43871E+06
         0.25402E+06
         0.22122E+06
         0.24598E+06
         0.18238E+06
         0.31848E+06
         0.23515E+06
        -0.14251E+06
         0.27178E+06
         0.29390E+06
        -0.23102E+06
         0.68013E+05
        -0.62690E+05
        -0.18661E+06
        -0.42462E+06
        -0.47728E+06
        -0.19732E+06
         0.40250E+06
         0.37647E+06
         0.73062E+05
        -0.38595E+06
        -0.52739E+06
         0.52931E+06
         0.14288E+06
         0.37601E+06
         0.52369E+06
        -0.14300E+06
        -0.31649E+06
        -0.45891E+06
        -0.55094E+06
        -0.36914E+06
         0.49973E+06
         0.52166E+06
        -0.10389E+06
         0.12542E+06
         0.56846E+06
         0.53777E+05
        -0.26751E+06
         0.37561E+06
        -0.72271E+06
        -0.77907E+06
        -0.66688E+06
        -0.32483E+06
         0.87474E+05
         0.30223E+06
         0.38944E+06
         0.63052E+06
         0.73061E+06
         0.29477E+06
         0.13757E+06
         0.12732E+06
        -0.44423E+05
        -0.41016E+06
        -0.69993E+06
        -0.78343E+06
        -0.55455E+06
         0.15401E+06
         0.35433E+06
         0.37504E+06
         0.59151E+06
         0.75427E+06
         0.47240E+06
         0.45067E+06
        -0.31999E+06
         0.95728E+05
        -0.17064E+06
        -0.21323E+06
         0.50464E+06
         0.35400E+06
         0.22152E+06
        -0.35944E+06
        -0.24081E+06
        -0.35763E+06
         0.60177E+05
        -0.18326E+06
        -0.55497E+06
         0.18798E+06
         0.40599E+06
        -0.39067E+06
         0.17885E+06
         0.12735E+06
         0.18710E+06
         0.93084E+05
         0.30506E+06
         0.22327E+06
        -0.13569E+06
         0.18440E+06
         0.24005E+06
        -0.11301E+06
         0.55717E+05
        -0.26715E+05
        -0.91896E+05
        -0.34634E+06
        -0.40899E+06
        -0.12706E+06
         0.29435E+06
         0.25721E+06
         0.67305E+05
        -0.33180E+06
        -0.47924E+06
         0.50348E+06
         0.13330E+06
         0.34516E+06
         0.49924E+06
        -0.13509E+06
        -0.30204E+06
        -0.43105E+06
        -0.50572E+06
        -0.34690E+06
         0.44631E+06
         0.45688E+06
        -0.85717E+05
         0.10776E+06
         0.52886E+06
         0.46461E+05
        -0.26423E+06
         0.37185E+06
        -0.71584E+06
        -0.77199E+06
        -0.66118E+06
        -0.32219E+06
         0.86834E+05
         0.29897E+06
         0.38447E+06
         0.62343E+06
         0.72270E+06
         0.29202E+06
         0.13591E+06
         0.12606E+06
        -0.43580E+05
        -0.40673E+06
        -0.69439E+06
        -0.77724E+06
        -0.54877E+06
         0.15260E+06
         0.35051E+06
         0.37090E+06
         0.58536E+06
         0.74621E+06
         0.46758E+06
         0.44585E+06
        -0.82770E+05
         0.11839E+05
        -0.20019E+05
        -0.18939E+05
         0.10387E+06
         0.48825E+05
         0.13704E+05
        -0.76024E+05
        -0.34650E+05
        -0.73110E+05
         0.42420E+04
        -0.67147E+05
        -0.16711E+06
         0.21104E+05
         0.15612E+06
        -0.70426E+05
         0.13944E+05
         0.74407E+04
         0.17568E+05
         0.47562E+04
         0.10606E+06
         0.70715E+05
        -0.44219E+05
         0.13390E+05
         0.28393E+05
        -0.56123E+04
         0.63647E+04
        -0.97435E+03
        -0.45677E+04
        -0.40796E+05
        -0.59190E+05
        -0.84974E+04
         0.25019E+05
         0.19104E+05
         0.17123E+05
        -0.48939E+05
        -0.99830E+05
         0.16369E+06
         0.33156E+05
         0.77617E+05
         0.16731E+06
        -0.42711E+05
        -0.10228E+06
        -0.11980E+06
        -0.11357E+06
        -0.97878E+05
         0.82151E+05
         0.74544E+05
        -0.10808E+05
         0.16001E+05
         0.13499E+06
         0.77896E+04
        -0.17062E+06
         0.24913E+06
        -0.48946E+06
        -0.53755E+06
        -0.46998E+06
        -0.23238E+06
         0.61018E+05
         0.19542E+06
         0.24464E+06
         0.40828E+06
         0.47765E+06
         0.19958E+06
         0.87953E+05
         0.82160E+05
        -0.29811E+05
        -0.28852E+06
        -0.50014E+06
        -0.56042E+06
        -0.36751E+06
         0.10405E+06
         0.23567E+06
         0.24664E+06
         0.39562E+06
         0.49808E+06
         0.32032E+06
         0.30331E+06
  
SCALARS                      strain_xx  double 1
LOOKUP_TABLE default
         0.25342E-03
         0.12155E-01
         0.13530E+00
         0.66651E-03
        -0.10853E-18
        -0.13645E-19
        -0.15257E-18
        -0.60854E-20
         0.10304E+01
         0.46993E+00
        -0.13649E-17
        -0.11074E-17
         0.18058E-02
         0.30024E-01
        -0.20762E-19
        -0.45563E-18
         0.14162E-02
         0.27687E-01
        -0.23773E-18
        -0.52732E-18
         0.57072E-01
         0.15567E+00
         0.14701E+00
        -0.23512E-18
        -0.49996E-19
        -0.15260E-18
         0.17491E+00
         0.10928E+00
        -0.82386E-18
        -0.51842E-18
         0.77371E-02
         0.36392E-01
         0.36593E-03
        -0.85400E-20
        -0.12753E-18
        -0.48405E-19
         0.66124E-01
         0.14460E-01
        -0.28112E-18
        -0.31869E-18
         0.25574E+00
         0.48821E+00
        -0.14304E-17
        -0.77789E-18
         0.30447E+00
         0.88237E-01
        -0.17250E-17
        -0.39964E-18
         0.22206E-01
        -0.15746E-18
         0.14480E+00
        -0.12201E-19
         0.22824E-01
        -0.60121E-18
         0.12543E-01
        -0.42069E-19
         0.23902E+00
         0.19079E-01
        -0.30872E-19
        -0.18037E-18
         0.88133E-04
         0.65606E-01
        -0.12350E-18
        -0.58075E-19
         0.45761E-02
        -0.12495E-20
         0.50074E-01
        -0.54060E-19
         0.19887E+01
         0.94402E+00
        -0.21119E-17
        -0.11109E-17
         0.38729E+00
        -0.58898E-18
         0.18308E-01
        -0.28184E-18
         0.17726E+00
        -0.10856E-19
         0.79482E+00
        -0.26131E-19
         0.14003E+01
         0.73590E+00
        -0.35095E-18
        -0.45903E-18
         0.60945E+00
        -0.53092E-18
         0.44567E+00
        -0.11005E-17
         0.16763E+00
        -0.44771E-18
         0.40063E+00
         0.21924E+00
        -0.81552E-19
        -0.15337E-18
         0.11701E-01
        -0.21102E-18
         0.88931E-01
        -0.37203E-19
         0.50576E+00
        -0.22686E-18
         0.10841E+01
         0.52099E+00
        -0.12061E-17
        -0.13133E-17
         0.57951E+01
         0.71241E+01
        -0.41180E-17
        -0.39992E-17
         0.55221E+01
        -0.30054E-17
         0.46042E+01
        -0.16784E-17
         0.23287E+01
        -0.50689E-18
         0.11494E+01
        -0.57962E-20
         0.14595E+00
        -0.73528E-19
         0.23316E+00
        -0.47065E-19
         0.13240E+01
        -0.45468E-19
         0.29356E+01
        -0.23122E-18
         0.55646E+01
        -0.83690E-18
         0.86042E+01
        -0.11918E-17
         0.10376E+02
        -0.10609E-17
         0.10008E+02
        -0.12546E-17
         0.88752E+01
        -0.21132E-17
         0.74182E+01
        -0.29385E-17
         0.57038E+01
        -0.25393E-17
         0.34705E+01
        -0.16772E-17
         0.11729E+01
        -0.37378E-18
         0.81769E-02
        -0.13629E-19
         0.34956E+00
        -0.80337E-19
         0.87880E+00
        -0.21482E-18
         0.20063E+01
        -0.82276E-18
         0.35740E+01
        -0.22154E-17
         0.61319E+01
        -0.31978E-17
         0.80625E+01
        -0.33455E-17
        -0.46019E-07
        -0.12893E-08
        -0.33787E-08
        -0.10613E-06
         0.31499E-06
        -0.17625E-06
         0.47048E-08
         0.46811E-08
        -0.10338E-07
        -0.57564E-08
         0.12444E-08
         0.44754E-08
         0.18785E-06
         0.19784E-07
         0.16398E-07
        -0.17812E-06
        -0.99535E-07
        -0.38184E-07
        -0.15701E-08
        -0.14412E-07
         0.78646E-07
        -0.26894E-06
         0.25981E-06
         0.15551E-07
        -0.56803E-08
        -0.27597E-08
         0.35425E-07
         0.40641E-09
         0.54327E-07
         0.83660E-08
        -0.12718E-06
        -0.35581E-09
        -0.27995E-07
        -0.94789E-09
        -0.18418E-06
         0.28612E-06
         0.24627E-06
         0.10971E-06
         0.33808E-07
        -0.70128E-07
        -0.16071E-05
         0.58679E-06
         0.77872E-07
         0.14690E-06
         0.18039E-06
        -0.19369E-07
         0.39159E-08
         0.91679E-09
         0.88149E-09
         0.57134E-07
         0.17631E-06
         0.24702E-06
        -0.58876E-04
        -0.24462E-04
        -0.23968E-04
        -0.12918E-04
        -0.77670E-05
        -0.36516E-05
        -0.20283E-07
        -0.33171E-05
        -0.72956E-05
        -0.22358E-04
        -0.69403E-04
        -0.29414E-04
        -0.10184E-04
        -0.53452E-05
         0.11437E-06
         0.34399E-05
         0.27332E-05
        -0.19609E-05
        -0.78621E-05
        -0.13876E-06
        -0.10469E-05
        -0.13117E-05
        -0.43158E-05
        -0.20104E-04
        -0.12566E-04
        -0.74502E-05
        -0.45267E-04
        -0.19075E-05
        -0.69137E-05
        -0.58615E-04
        -0.24662E-03
        -0.18011E-03
        -0.15288E-04
        -0.72854E-04
        -0.15382E-04
        -0.65846E-04
        -0.26873E-05
        -0.35767E-04
        -0.38712E-03
        -0.22766E-03
        -0.24422E-03
        -0.17472E-03
        -0.54151E-04
        -0.19426E-04
        -0.87977E-05
        -0.27133E-04
        -0.95516E-03
        -0.86756E-03
        -0.84479E-03
        -0.49426E-04
        -0.15945E-04
        -0.72290E-05
        -0.21259E-03
        -0.37480E-05
        -0.23812E-04
        -0.44281E-04
        -0.10313E-03
        -0.43183E-04
        -0.43384E-04
        -0.32316E-04
        -0.78434E-03
        -0.23894E-03
        -0.31438E-03
        -0.30036E-03
        -0.84200E-05
        -0.70780E-04
        -0.95526E-03
        -0.10108E-02
        -0.96579E-03
        -0.50493E-03
        -0.29945E-03
        -0.10251E-03
        -0.11974E-03
        -0.16689E-03
        -0.29163E-05
        -0.42277E-05
        -0.44417E-03
        -0.34468E-03
        -0.13686E-01
        -0.13898E-01
        -0.11197E-01
        -0.76178E-02
        -0.42402E-02
        -0.89916E-03
        -0.55439E-04
        -0.58230E-03
        -0.10106E-02
        -0.33949E-02
        -0.10712E-01
        -0.14908E-01
        -0.10489E-01
        -0.94955E-02
        -0.11522E-01
        -0.12218E-01
        -0.10177E-01
        -0.91026E-02
        -0.23634E-02
        -0.15965E-03
        -0.78123E-03
        -0.80200E-03
        -0.25346E-02
        -0.75987E-02
        -0.12448E-01
        -0.12370E-01
        -0.45438E-04
        -0.19217E-05
        -0.69398E-05
        -0.58694E-04
        -0.24614E-03
        -0.17978E-03
        -0.15483E-04
        -0.72485E-04
        -0.15416E-04
        -0.65742E-04
        -0.25796E-05
        -0.35941E-04
        -0.38758E-03
        -0.22654E-03
        -0.24396E-03
        -0.17508E-03
        -0.54389E-04
        -0.19319E-04
        -0.87891E-05
        -0.27038E-04
        -0.95497E-03
        -0.86736E-03
        -0.84468E-03
        -0.49431E-04
        -0.16017E-04
        -0.72531E-05
        -0.21271E-03
        -0.36085E-05
        -0.24148E-04
        -0.44337E-04
        -0.10343E-03
        -0.43172E-04
        -0.43024E-04
        -0.32345E-04
        -0.78513E-03
        -0.23872E-03
        -0.31418E-03
        -0.30133E-03
        -0.85821E-05
        -0.71226E-04
        -0.95646E-03
        -0.10120E-02
        -0.96588E-03
        -0.50479E-03
        -0.29923E-03
        -0.10240E-03
        -0.11970E-03
        -0.16700E-03
        -0.28738E-05
        -0.41989E-05
        -0.44359E-03
        -0.34366E-03
        -0.13677E-01
        -0.13891E-01
        -0.11195E-01
        -0.76179E-02
        -0.42376E-02
        -0.89862E-03
        -0.55564E-04
        -0.58303E-03
        -0.10089E-02
        -0.33922E-02
        -0.10708E-01
        -0.14908E-01
        -0.10487E-01
        -0.94944E-02
        -0.11525E-01
        -0.12223E-01
        -0.10180E-01
        -0.91062E-02
        -0.23621E-02
        -0.15979E-03
        -0.78008E-03
        -0.80136E-03
        -0.25308E-02
        -0.75894E-02
        -0.12436E-01
        -0.12359E-01
        -0.45610E-04
        -0.19357E-05
        -0.69658E-05
        -0.58772E-04
        -0.24566E-03
        -0.17945E-03
        -0.15681E-04
        -0.72117E-04
        -0.15447E-04
        -0.65631E-04
        -0.24744E-05
        -0.36115E-04
        -0.38805E-03
        -0.22543E-03
        -0.24370E-03
        -0.17546E-03
        -0.54632E-04
        -0.19211E-04
        -0.87803E-05
        -0.26946E-04
        -0.95481E-03
        -0.86717E-03
        -0.84457E-03
        -0.49436E-04
        -0.16094E-04
        -0.72793E-05
        -0.21284E-03
        -0.34732E-05
        -0.24488E-04
        -0.44393E-04
        -0.10374E-03
        -0.43165E-04
        -0.42662E-04
        -0.32374E-04
        -0.78593E-03
        -0.23851E-03
        -0.31397E-03
        -0.30229E-03
        -0.87457E-05
        -0.71678E-04
        -0.95768E-03
        -0.10132E-02
        -0.96602E-03
        -0.50466E-03
        -0.29902E-03
        -0.10231E-03
        -0.11965E-03
        -0.16712E-03
        -0.28307E-05
        -0.41692E-05
        -0.44304E-03
        -0.34265E-03
        -0.13668E-01
        -0.13884E-01
        -0.11193E-01
        -0.76180E-02
        -0.42350E-02
        -0.89808E-03
        -0.55692E-04
        -0.58375E-03
        -0.10072E-02
        -0.33895E-02
        -0.10705E-01
        -0.14909E-01
        -0.10486E-01
        -0.94933E-02
        -0.11528E-01
        -0.12229E-01
        -0.10184E-01
        -0.91098E-02
        -0.23608E-02
        -0.15994E-03
        -0.77895E-03
        -0.80073E-03
        -0.25271E-02
        -0.75801E-02
        -0.12424E-01
        -0.12348E-01
        -0.45783E-04
        -0.19503E-05
        -0.69915E-05
        -0.58849E-04
        -0.24517E-03
        -0.17912E-03
        -0.15877E-04
        -0.71749E-04
        -0.15475E-04
        -0.65502E-04
        -0.23716E-05
        -0.36294E-04
        -0.38853E-03
        -0.22431E-03
        -0.24344E-03
        -0.17586E-03
        -0.54886E-04
        -0.19102E-04
        -0.87728E-05
        -0.26850E-04
        -0.95471E-03
        -0.86704E-03
        -0.84457E-03
        -0.49441E-04
        -0.16185E-04
        -0.73115E-05
        -0.21294E-03
        -0.33446E-05
        -0.24830E-04
        -0.44445E-04
        -0.10408E-03
        -0.43174E-04
        -0.42301E-04
        -0.32403E-04
        -0.78669E-03
        -0.23830E-03
        -0.31377E-03
        -0.30325E-03
        -0.89104E-05
        -0.72128E-04
        -0.95893E-03
        -0.10145E-02
        -0.96627E-03
        -0.50457E-03
        -0.29879E-03
        -0.10220E-03
        -0.11962E-03
        -0.16723E-03
        -0.27878E-05
        -0.41397E-05
        -0.44246E-03
        -0.34164E-03
        -0.13658E-01
        -0.13877E-01
        -0.11191E-01
        -0.76181E-02
        -0.42324E-02
        -0.89753E-03
        -0.55820E-04
        -0.58447E-03
        -0.10055E-02
        -0.33868E-02
        -0.10702E-01
        -0.14910E-01
        -0.10484E-01
        -0.94925E-02
        -0.11531E-01
        -0.12235E-01
        -0.10188E-01
        -0.91133E-02
        -0.23595E-02
        -0.16009E-03
        -0.77780E-03
        -0.80011E-03
        -0.25234E-02
        -0.75709E-02
        -0.12411E-01
        -0.12337E-01
        -0.45954E-04
        -0.19649E-05
        -0.70175E-05
        -0.58926E-04
        -0.24470E-03
        -0.17879E-03
        -0.16077E-04
        -0.71378E-04
        -0.15499E-04
        -0.65352E-04
        -0.22707E-05
        -0.36470E-04
        -0.38900E-03
        -0.22320E-03
        -0.24318E-03
        -0.17630E-03
        -0.55152E-04
        -0.18994E-04
        -0.87631E-05
        -0.26753E-04
        -0.95465E-03
        -0.86694E-03
        -0.84465E-03
        -0.49448E-04
        -0.16292E-04
        -0.73485E-05
        -0.21303E-03
        -0.32223E-05
        -0.25172E-04
        -0.44494E-04
        -0.10443E-03
        -0.43195E-04
        -0.41940E-04
        -0.32432E-04
        -0.78749E-03
        -0.23808E-03
        -0.31358E-03
        -0.30421E-03
        -0.90759E-05
        -0.72585E-04
        -0.96022E-03
        -0.10158E-02
        -0.96665E-03
        -0.50450E-03
        -0.29855E-03
        -0.10208E-03
        -0.11959E-03
        -0.16736E-03
        -0.27455E-05
        -0.41106E-05
        -0.44191E-03
        -0.34062E-03
        -0.13649E-01
        -0.13870E-01
        -0.11189E-01
        -0.76182E-02
        -0.42298E-02
        -0.89700E-03
        -0.55946E-04
        -0.58519E-03
        -0.10038E-02
        -0.33841E-02
        -0.10698E-01
        -0.14911E-01
        -0.10483E-01
        -0.94917E-02
        -0.11535E-01
        -0.12242E-01
        -0.10193E-01
        -0.91167E-02
        -0.23582E-02
        -0.16023E-03
        -0.77667E-03
        -0.79947E-03
        -0.25197E-02
        -0.75616E-02
        -0.12399E-01
        -0.12326E-01
        -0.46119E-04
        -0.19808E-05
        -0.70404E-05
        -0.59001E-04
        -0.24422E-03
        -0.17846E-03
        -0.16277E-04
        -0.71003E-04
        -0.15522E-04
        -0.65198E-04
        -0.21720E-05
        -0.36646E-04
        -0.38947E-03
        -0.22209E-03
        -0.24291E-03
        -0.17674E-03
        -0.55418E-04
        -0.18886E-04
        -0.87533E-05
        -0.26661E-04
        -0.95464E-03
        -0.86689E-03
        -0.84478E-03
        -0.49456E-04
        -0.16399E-04
        -0.73868E-05
        -0.21311E-03
        -0.31031E-05
        -0.25520E-04
        -0.44551E-04
        -0.10479E-03
        -0.43214E-04
        -0.41576E-04
        -0.32458E-04
        -0.78831E-03
        -0.23789E-03
        -0.31339E-03
        -0.30517E-03
        -0.92431E-05
        -0.73043E-04
        -0.96153E-03
        -0.10172E-02
        -0.96709E-03
        -0.50446E-03
        -0.29833E-03
        -0.10198E-03
        -0.11956E-03
        -0.16748E-03
        -0.27022E-05
        -0.40840E-05
        -0.44137E-03
        -0.33964E-03
        -0.13639E-01
        -0.13863E-01
        -0.11187E-01
        -0.76182E-02
        -0.42272E-02
        -0.89646E-03
        -0.56070E-04
        -0.58591E-03
        -0.10021E-02
        -0.33814E-02
        -0.10695E-01
        -0.14912E-01
        -0.10482E-01
        -0.94911E-02
        -0.11539E-01
        -0.12249E-01
        -0.10197E-01
        -0.91201E-02
        -0.23568E-02
        -0.16036E-03
        -0.77551E-03
        -0.79884E-03
        -0.25160E-02
        -0.75524E-02
        -0.12387E-01
        -0.12315E-01
        -0.46270E-04
        -0.19999E-05
        -0.70583E-05
        -0.59075E-04
        -0.24375E-03
        -0.17814E-03
        -0.16483E-04
        -0.70620E-04
        -0.15547E-04
        -0.65053E-04
        -0.20750E-05
        -0.36824E-04
        -0.38995E-03
        -0.22098E-03
        -0.24264E-03
        -0.17719E-03
        -0.55675E-04
        -0.18777E-04
        -0.87453E-05
        -0.26571E-04
        -0.95461E-03
        -0.86684E-03
        -0.84494E-03
        -0.49467E-04
        -0.16493E-04
        -0.74206E-05
        -0.21320E-03
        -0.29835E-05
        -0.25873E-04
        -0.44617E-04
        -0.10513E-03
        -0.43217E-04
        -0.41207E-04
        -0.32476E-04
        -0.78913E-03
        -0.23772E-03
        -0.31322E-03
        -0.30613E-03
        -0.94131E-05
        -0.73512E-04
        -0.96286E-03
        -0.10186E-02
        -0.96755E-03
        -0.50443E-03
        -0.29814E-03
        -0.10188E-03
        -0.11950E-03
        -0.16759E-03
        -0.26557E-05
        -0.40635E-05
        -0.44089E-03
        -0.33865E-03
        -0.13630E-01
        -0.13856E-01
        -0.11185E-01
        -0.76183E-02
        -0.42246E-02
        -0.89591E-03
        -0.56194E-04
        -0.58663E-03
        -0.10004E-02
        -0.33788E-02
        -0.10691E-01
        -0.14913E-01
        -0.10482E-01
        -0.94905E-02
        -0.11542E-01
        -0.12257E-01
        -0.10202E-01
        -0.91233E-02
        -0.23555E-02
        -0.16047E-03
        -0.77431E-03
        -0.79823E-03
        -0.25124E-02
        -0.75432E-02
        -0.12374E-01
        -0.12305E-01
        -0.46416E-04
        -0.20202E-05
        -0.70737E-05
        -0.59146E-04
        -0.24331E-03
        -0.17781E-03
        -0.16693E-04
        -0.70234E-04
        -0.15572E-04
        -0.64914E-04
        -0.19800E-05
        -0.37002E-04
        -0.39044E-03
        -0.21987E-03
        -0.24237E-03
        -0.17763E-03
        -0.55928E-04
        -0.18668E-04
        -0.87361E-05
        -0.26487E-04
        -0.95458E-03
        -0.86678E-03
        -0.84508E-03
        -0.49477E-04
        -0.16581E-04
        -0.74524E-05
        -0.21329E-03
        -0.28655E-05
        -0.26233E-04
        -0.44688E-04
        -0.10545E-03
        -0.43212E-04
        -0.40835E-04
        -0.32492E-04
        -0.78999E-03
        -0.23756E-03
        -0.31307E-03
        -0.30709E-03
        -0.95846E-05
        -0.73980E-04
        -0.96419E-03
        -0.10201E-02
        -0.96802E-03
        -0.50443E-03
        -0.29796E-03
        -0.10181E-03
        -0.11944E-03
        -0.16769E-03
        -0.26082E-05
        -0.40457E-05
        -0.44043E-03
        -0.33769E-03
        -0.13621E-01
        -0.13848E-01
        -0.11183E-01
        -0.76183E-02
        -0.42220E-02
        -0.89537E-03
        -0.56318E-04
        -0.58735E-03
        -0.99874E-03
        -0.33761E-02
        -0.10688E-01
        -0.14915E-01
        -0.10481E-01
        -0.94899E-02
        -0.11546E-01
        -0.12264E-01
        -0.10206E-01
        -0.91265E-02
        -0.23541E-02
        -0.16057E-03
        -0.77310E-03
        -0.79762E-03
        -0.25088E-02
        -0.75341E-02
        -0.12362E-01
        -0.12294E-01
        -0.46561E-04
        -0.20408E-05
        -0.70887E-05
        -0.59217E-04
        -0.24285E-03
        -0.17748E-03
        -0.16903E-04
        -0.69850E-04
        -0.15598E-04
        -0.64778E-04
        -0.18875E-05
        -0.37180E-04
        -0.39093E-03
        -0.21877E-03
        -0.24210E-03
        -0.17807E-03
        -0.56180E-04
        -0.18560E-04
        -0.87267E-05
        -0.26399E-04
        -0.95455E-03
        -0.86674E-03
        -0.84524E-03
        -0.49491E-04
        -0.16670E-04
        -0.74840E-05
        -0.21339E-03
        -0.27501E-05
        -0.26595E-04
        -0.44759E-04
        -0.10578E-03
        -0.43207E-04
        -0.40465E-04
        -0.32507E-04
        -0.79086E-03
        -0.23739E-03
        -0.31292E-03
        -0.30804E-03
        -0.97584E-05
        -0.74448E-04
        -0.96552E-03
        -0.10215E-02
        -0.96849E-03
        -0.50443E-03
        -0.29779E-03
        -0.10173E-03
        -0.11938E-03
        -0.16780E-03
        -0.25610E-05
        -0.40288E-05
        -0.43998E-03
        -0.33671E-03
        -0.13611E-01
        -0.13841E-01
        -0.11181E-01
        -0.76184E-02
        -0.42194E-02
        -0.89481E-03
        -0.56442E-04
        -0.58806E-03
        -0.99705E-03
        -0.33734E-02
        -0.10684E-01
        -0.14916E-01
        -0.10480E-01
        -0.94892E-02
        -0.11550E-01
        -0.12272E-01
        -0.10211E-01
        -0.91296E-02
        -0.23527E-02
        -0.16068E-03
        -0.77189E-03
        -0.79700E-03
        -0.25052E-02
        -0.75250E-02
        -0.12350E-01
        -0.12283E-01
        -0.46707E-04
        -0.20617E-05
        -0.71038E-05
        -0.59290E-04
        -0.24239E-03
        -0.17715E-03
        -0.17115E-04
        -0.69467E-04
        -0.15624E-04
        -0.64640E-04
        -0.17973E-05
        -0.37358E-04
        -0.39142E-03
        -0.21768E-03
        -0.24184E-03
        -0.17852E-03
        -0.56434E-04
        -0.18453E-04
        -0.87171E-05
        -0.26314E-04
        -0.95453E-03
        -0.86668E-03
        -0.84536E-03
        -0.49504E-04
        -0.16759E-04
        -0.75155E-05
        -0.21349E-03
        -0.26377E-05
        -0.26959E-04
        -0.44830E-04
        -0.10611E-03
        -0.43200E-04
        -0.40098E-04
        -0.32524E-04
        -0.79170E-03
        -0.23724E-03
        -0.31277E-03
        -0.30900E-03
        -0.99338E-05
        -0.74923E-04
        -0.96686E-03
        -0.10229E-02
        -0.96895E-03
        -0.50443E-03
        -0.29761E-03
        -0.10165E-03
        -0.11932E-03
        -0.16791E-03
        -0.25146E-05
        -0.40105E-05
        -0.43951E-03
        -0.33574E-03
        -0.13602E-01
        -0.13834E-01
        -0.11179E-01
        -0.76184E-02
        -0.42167E-02
        -0.89426E-03
        -0.56565E-04
        -0.58876E-03
        -0.99537E-03
        -0.33708E-02
        -0.10681E-01
        -0.14917E-01
        -0.10479E-01
        -0.94886E-02
        -0.11553E-01
        -0.12279E-01
        -0.10216E-01
        -0.91328E-02
        -0.23513E-02
        -0.16077E-03
        -0.77067E-03
        -0.79638E-03
        -0.25017E-02
        -0.75159E-02
        -0.12338E-01
        -0.12272E-01
        -0.46852E-04
        -0.20826E-05
        -0.71195E-05
        -0.59360E-04
        -0.24194E-03
        -0.17683E-03
        -0.17327E-04
        -0.69085E-04
        -0.15649E-04
        -0.64504E-04
        -0.17091E-05
        -0.37539E-04
        -0.39192E-03
        -0.21659E-03
        -0.24156E-03
        -0.17896E-03
        -0.56687E-04
        -0.18347E-04
        -0.87096E-05
        -0.26226E-04
        -0.95450E-03
        -0.86663E-03
        -0.84552E-03
        -0.49518E-04
        -0.16847E-04
        -0.75469E-05
        -0.21359E-03
        -0.25276E-05
        -0.27325E-04
        -0.44898E-04
        -0.10644E-03
        -0.43194E-04
        -0.39732E-04
        -0.32539E-04
        -0.79257E-03
        -0.23708E-03
        -0.31263E-03
        -0.30996E-03
        -0.10111E-04
        -0.75394E-04
        -0.96819E-03
        -0.10244E-02
        -0.96942E-03
        -0.50442E-03
        -0.29744E-03
        -0.10157E-03
        -0.11926E-03
        -0.16801E-03
        -0.24682E-05
        -0.39928E-05
        -0.43907E-03
        -0.33478E-03
        -0.13593E-01
        -0.13827E-01
        -0.11177E-01
        -0.76183E-02
        -0.42141E-02
        -0.89372E-03
        -0.56685E-04
        -0.58948E-03
        -0.99369E-03
        -0.33681E-02
        -0.10677E-01
        -0.14918E-01
        -0.10478E-01
        -0.94880E-02
        -0.11557E-01
        -0.12287E-01
        -0.10220E-01
        -0.91359E-02
        -0.23500E-02
        -0.16087E-03
        -0.76946E-03
        -0.79576E-03
        -0.24981E-02
        -0.75068E-02
        -0.12326E-01
        -0.12261E-01
        -0.46998E-04
        -0.21035E-05
        -0.71341E-05
        -0.59431E-04
        -0.24149E-03
        -0.17650E-03
        -0.17541E-04
        -0.68704E-04
        -0.15675E-04
        -0.64368E-04
        -0.16233E-05
        -0.37720E-04
        -0.39240E-03
        -0.21551E-03
        -0.24129E-03
        -0.17940E-03
        -0.56941E-04
        -0.18240E-04
        -0.87007E-05
        -0.26142E-04
        -0.95446E-03
        -0.86657E-03
        -0.84568E-03
        -0.49533E-04
        -0.16934E-04
        -0.75793E-05
        -0.21369E-03
        -0.24203E-05
        -0.27689E-04
        -0.44972E-04
        -0.10677E-03
        -0.43188E-04
        -0.39365E-04
        -0.32555E-04
        -0.79345E-03
        -0.23692E-03
        -0.31247E-03
        -0.31092E-03
        -0.10291E-04
        -0.75874E-04
        -0.96953E-03
        -0.10258E-02
        -0.96989E-03
        -0.50442E-03
        -0.29726E-03
        -0.10150E-03
        -0.11919E-03
        -0.16812E-03
        -0.24222E-05
        -0.39760E-05
        -0.43861E-03
        -0.33381E-03
        -0.13583E-01
        -0.13820E-01
        -0.11175E-01
        -0.76184E-02
        -0.42115E-02
        -0.89319E-03
        -0.56807E-04
        -0.59019E-03
        -0.99201E-03
        -0.33654E-02
        -0.10674E-01
        -0.14919E-01
        -0.10477E-01
        -0.94874E-02
        -0.11561E-01
        -0.12294E-01
        -0.10225E-01
        -0.91391E-02
        -0.23486E-02
        -0.16097E-03
        -0.76824E-03
        -0.79514E-03
        -0.24945E-02
        -0.74978E-02
        -0.12314E-01
        -0.12250E-01
        -0.47145E-04
        -0.21247E-05
        -0.71488E-05
        -0.59500E-04
        -0.24103E-03
        -0.17617E-03
        -0.17756E-04
        -0.68323E-04
        -0.15699E-04
        -0.64229E-04
        -0.15400E-05
        -0.37900E-04
        -0.39290E-03
        -0.21442E-03
        -0.24101E-03
        -0.17984E-03
        -0.57194E-04
        -0.18133E-04
        -0.86921E-05
        -0.26055E-04
        -0.95443E-03
        -0.86652E-03
        -0.84581E-03
        -0.49548E-04
        -0.17021E-04
        -0.76109E-05
        -0.21379E-03
        -0.23151E-05
        -0.28059E-04
        -0.45041E-04
        -0.10710E-03
        -0.43181E-04
        -0.39001E-04
        -0.32571E-04
        -0.79430E-03
        -0.23677E-03
        -0.31233E-03
        -0.31187E-03
        -0.10472E-04
        -0.76351E-04
        -0.97089E-03
        -0.10272E-02
        -0.97035E-03
        -0.50442E-03
        -0.29710E-03
        -0.10141E-03
        -0.11913E-03
        -0.16823E-03
        -0.23764E-05
        -0.39582E-05
        -0.43814E-03
        -0.33284E-03
        -0.13574E-01
        -0.13813E-01
        -0.11172E-01
        -0.76184E-02
        -0.42089E-02
        -0.89264E-03
        -0.56931E-04
        -0.59089E-03
        -0.99033E-03
        -0.33627E-02
        -0.10670E-01
        -0.14920E-01
        -0.10477E-01
        -0.94867E-02
        -0.11565E-01
        -0.12302E-01
        -0.10230E-01
        -0.91422E-02
        -0.23472E-02
        -0.16107E-03
        -0.76703E-03
        -0.79453E-03
        -0.24910E-02
        -0.74887E-02
        -0.12302E-01
        -0.12239E-01
        -0.47292E-04
        -0.21457E-05
        -0.71636E-05
        -0.59570E-04
        -0.24059E-03
        -0.17584E-03
        -0.17970E-04
        -0.67944E-04
        -0.15724E-04
        -0.64090E-04
        -0.14590E-05
        -0.38080E-04
        -0.39339E-03
        -0.21334E-03
        -0.24074E-03
        -0.18029E-03
        -0.57449E-04
        -0.18027E-04
        -0.86850E-05
        -0.25971E-04
        -0.95440E-03
        -0.86646E-03
        -0.84597E-03
        -0.49562E-04
        -0.17108E-04
        -0.76425E-05
        -0.21388E-03
        -0.22128E-05
        -0.28431E-04
        -0.45110E-04
        -0.10743E-03
        -0.43175E-04
        -0.38638E-04
        -0.32586E-04
        -0.79518E-03
        -0.23661E-03
        -0.31218E-03
        -0.31282E-03
        -0.10655E-04
        -0.76834E-04
        -0.97222E-03
        -0.10286E-02
        -0.97082E-03
        -0.50442E-03
        -0.29692E-03
        -0.10134E-03
        -0.11907E-03
        -0.16833E-03
        -0.23312E-05
        -0.39406E-05
        -0.43770E-03
        -0.33189E-03
        -0.13564E-01
        -0.13806E-01
        -0.11170E-01
        -0.76184E-02
        -0.42063E-02
        -0.89208E-03
        -0.57054E-04
        -0.59157E-03
        -0.98864E-03
        -0.33600E-02
        -0.10667E-01
        -0.14922E-01
        -0.10476E-01
        -0.94861E-02
        -0.11568E-01
        -0.12309E-01
        -0.10234E-01
        -0.91454E-02
        -0.23459E-02
        -0.16116E-03
        -0.76582E-03
        -0.79393E-03
        -0.24874E-02
        -0.74796E-02
        -0.12289E-01
        -0.12228E-01
        -0.47439E-04
        -0.21666E-05
        -0.71783E-05
        -0.59641E-04
        -0.24014E-03
        -0.17551E-03
        -0.18187E-04
        -0.67566E-04
        -0.15749E-04
        -0.63954E-04
        -0.13803E-05
        -0.38265E-04
        -0.39388E-03
        -0.21227E-03
        -0.24046E-03
        -0.18073E-03
        -0.57703E-04
        -0.17922E-04
        -0.86762E-05
        -0.25884E-04
        -0.95438E-03
        -0.86641E-03
        -0.84610E-03
        -0.49576E-04
        -0.17195E-04
        -0.76742E-05
        -0.21398E-03
        -0.21129E-05
        -0.28805E-04
        -0.45178E-04
        -0.10776E-03
        -0.43167E-04
        -0.38276E-04
        -0.32601E-04
        -0.79603E-03
        -0.23646E-03
        -0.31204E-03
        -0.31376E-03
        -0.10840E-04
        -0.77316E-04
        -0.97356E-03
        -0.10301E-02
        -0.97128E-03
        -0.50442E-03
        -0.29674E-03
        -0.10127E-03
        -0.11900E-03
        -0.16844E-03
        -0.22857E-05
        -0.39235E-05
        -0.43723E-03
        -0.33092E-03
        -0.13555E-01
        -0.13799E-01
        -0.11168E-01
        -0.76184E-02
        -0.42037E-02
        -0.89153E-03
        -0.57173E-04
        -0.59225E-03
        -0.98697E-03
        -0.33573E-02
        -0.10664E-01
        -0.14923E-01
        -0.10475E-01
        -0.94855E-02
        -0.11572E-01
        -0.12317E-01
        -0.10239E-01
        -0.91485E-02
        -0.23445E-02
        -0.16125E-03
        -0.76461E-03
        -0.79333E-03
        -0.24839E-02
        -0.74705E-02
        -0.12277E-01
        -0.12217E-01
        -0.47587E-04
        -0.21882E-05
        -0.71932E-05
        -0.59710E-04
        -0.23968E-03
        -0.17520E-03
        -0.18404E-04
        -0.67188E-04
        -0.15775E-04
        -0.63816E-04
        -0.13037E-05
        -0.38447E-04
        -0.39437E-03
        -0.21120E-03
        -0.24018E-03
        -0.18117E-03
        -0.57959E-04
        -0.17818E-04
        -0.86676E-05
        -0.25799E-04
        -0.95434E-03
        -0.86635E-03
        -0.84626E-03
        -0.49591E-04
        -0.17281E-04
        -0.77061E-05
        -0.21407E-03
        -0.20154E-05
        -0.29181E-04
        -0.45246E-04
        -0.10808E-03
        -0.43161E-04
        -0.37917E-04
        -0.32617E-04
        -0.79691E-03
        -0.23630E-03
        -0.31189E-03
        -0.31471E-03
        -0.11027E-04
        -0.77797E-04
        -0.97488E-03
        -0.10315E-02
        -0.97174E-03
        -0.50440E-03
        -0.29658E-03
        -0.10118E-03
        -0.11894E-03
        -0.16855E-03
        -0.22411E-05
        -0.39058E-05
        -0.43678E-03
        -0.32995E-03
        -0.13546E-01
        -0.13792E-01
        -0.11166E-01
        -0.76184E-02
        -0.42011E-02
        -0.89098E-03
        -0.57291E-04
        -0.59294E-03
        -0.98530E-03
        -0.33547E-02
        -0.10660E-01
        -0.14924E-01
        -0.10474E-01
        -0.94848E-02
        -0.11576E-01
        -0.12325E-01
        -0.10243E-01
        -0.91516E-02
        -0.23431E-02
        -0.16135E-03
        -0.76340E-03
        -0.79272E-03
        -0.24803E-02
        -0.74614E-02
        -0.12265E-01
        -0.12206E-01
        -0.47734E-04
        -0.22096E-05
        -0.72083E-05
        -0.59779E-04
        -0.23925E-03
        -0.17487E-03
        -0.18623E-04
        -0.66811E-04
        -0.15799E-04
        -0.63673E-04
        -0.12293E-05
        -0.38630E-04
        -0.39486E-03
        -0.21013E-03
        -0.23989E-03
        -0.18162E-03
        -0.58215E-04
        -0.17714E-04
        -0.86596E-05
        -0.25713E-04
        -0.95431E-03
        -0.86629E-03
        -0.84640E-03
        -0.49608E-04
        -0.17365E-04
        -0.77377E-05
        -0.21416E-03
        -0.19193E-05
        -0.29556E-04
        -0.45314E-04
        -0.10842E-03
        -0.43156E-04
        -0.37560E-04
        -0.32635E-04
        -0.79780E-03
        -0.23614E-03
        -0.31174E-03
        -0.31564E-03
        -0.11218E-04
        -0.78287E-04
        -0.97618E-03
        -0.10329E-02
        -0.97218E-03
        -0.50441E-03
        -0.29640E-03
        -0.10111E-03
        -0.11888E-03
        -0.16866E-03
        -0.21972E-05
        -0.38882E-05
        -0.43632E-03
        -0.32900E-03
        -0.13536E-01
        -0.13785E-01
        -0.11164E-01
        -0.76184E-02
        -0.41985E-02
        -0.89043E-03
        -0.57407E-04
        -0.59362E-03
        -0.98364E-03
        -0.33519E-02
        -0.10657E-01
        -0.14926E-01
        -0.10473E-01
        -0.94842E-02
        -0.11579E-01
        -0.12332E-01
        -0.10248E-01
        -0.91547E-02
        -0.23417E-02
        -0.16144E-03
        -0.76219E-03
        -0.79211E-03
        -0.24768E-02
        -0.74524E-02
        -0.12253E-01
        -0.12195E-01
        -0.47883E-04
        -0.22310E-05
        -0.72226E-05
        -0.59848E-04
        -0.23880E-03
        -0.17454E-03
        -0.18842E-04
        -0.66436E-04
        -0.15820E-04
        -0.63514E-04
        -0.11572E-05
        -0.38815E-04
        -0.39535E-03
        -0.20905E-03
        -0.23960E-03
        -0.18206E-03
        -0.58469E-04
        -0.17609E-04
        -0.86537E-05
        -0.25630E-04
        -0.95428E-03
        -0.86623E-03
        -0.84656E-03
        -0.49621E-04
        -0.17444E-04
        -0.77708E-05
        -0.21421E-03
        -0.18233E-05
        -0.29936E-04
        -0.45388E-04
        -0.10875E-03
        -0.43148E-04
        -0.37202E-04
        -0.32651E-04
        -0.79865E-03
        -0.23600E-03
        -0.31159E-03
        -0.31657E-03
        -0.11416E-04
        -0.78768E-04
        -0.97739E-03
        -0.10342E-02
        -0.97258E-03
        -0.50441E-03
        -0.29623E-03
        -0.10103E-03
        -0.11882E-03
        -0.16877E-03
        -0.21538E-05
        -0.38707E-05
        -0.43588E-03
        -0.32804E-03
        -0.13527E-01
        -0.13778E-01
        -0.11162E-01
        -0.76184E-02
        -0.41959E-02
        -0.88990E-03
        -0.57525E-04
        -0.59431E-03
        -0.98200E-03
        -0.33492E-02
        -0.10653E-01
        -0.14928E-01
        -0.10473E-01
        -0.94836E-02
        -0.11583E-01
        -0.12339E-01
        -0.10253E-01
        -0.91578E-02
        -0.23404E-02
        -0.16154E-03
        -0.76100E-03
        -0.79149E-03
        -0.24732E-02
        -0.74434E-02
        -0.12241E-01
        -0.12185E-01
        -0.48031E-04
        -0.22524E-05
        -0.72371E-05
        -0.59917E-04
        -0.23834E-03
        -0.17422E-03
        -0.19063E-04
        -0.66061E-04
        -0.15840E-04
        -0.63340E-04
        -0.10875E-05
        -0.38998E-04
        -0.39584E-03
        -0.20797E-03
        -0.23931E-03
        -0.18251E-03
        -0.58721E-04
        -0.17505E-04
        -0.86458E-05
        -0.25545E-04
        -0.95426E-03
        -0.86613E-03
        -0.84672E-03
        -0.49637E-04
        -0.17516E-04
        -0.78023E-05
        -0.21422E-03
        -0.17269E-05
        -0.30318E-04
        -0.45457E-04
        -0.10908E-03
        -0.43141E-04
        -0.36847E-04
        -0.32667E-04
        -0.79954E-03
        -0.23584E-03
        -0.31145E-03
        -0.31747E-03
        -0.11621E-04
        -0.79254E-04
        -0.97850E-03
        -0.10353E-02
        -0.97292E-03
        -0.50440E-03
        -0.29606E-03
        -0.10095E-03
        -0.11876E-03
        -0.16888E-03
        -0.21103E-05
        -0.38535E-05
        -0.43540E-03
        -0.32707E-03
        -0.13517E-01
        -0.13772E-01
        -0.11159E-01
        -0.76184E-02
        -0.41933E-02
        -0.88935E-03
        -0.57641E-04
        -0.59499E-03
        -0.98037E-03
        -0.33463E-02
        -0.10649E-01
        -0.14931E-01
        -0.10473E-01
        -0.94831E-02
        -0.11587E-01
        -0.12347E-01
        -0.10257E-01
        -0.91608E-02
        -0.23390E-02
        -0.16163E-03
        -0.75980E-03
        -0.79088E-03
        -0.24697E-02
        -0.74343E-02
        -0.12229E-01
        -0.12174E-01
        -0.48179E-04
        -0.22740E-05
        -0.72521E-05
        -0.59986E-04
        -0.23791E-03
        -0.17390E-03
        -0.19283E-04
        -0.65689E-04
        -0.15858E-04
        -0.63164E-04
        -0.10204E-05
        -0.39179E-04
        -0.39633E-03
        -0.20690E-03
        -0.23901E-03
        -0.18295E-03
        -0.58975E-04
        -0.17403E-04
        -0.86375E-05
        -0.25463E-04
        -0.95422E-03
        -0.86605E-03
        -0.84685E-03
        -0.49652E-04
        -0.17587E-04
        -0.78340E-05
        -0.21423E-03
        -0.16328E-05
        -0.30699E-04
        -0.45526E-04
        -0.10941E-03
        -0.43134E-04
        -0.36496E-04
        -0.32684E-04
        -0.80043E-03
        -0.23570E-03
        -0.31130E-03
        -0.31836E-03
        -0.11830E-04
        -0.79727E-04
        -0.97955E-03
        -0.10365E-02
        -0.97324E-03
        -0.50441E-03
        -0.29588E-03
        -0.10088E-03
        -0.11870E-03
        -0.16899E-03
        -0.20677E-05
        -0.38356E-05
        -0.43497E-03
        -0.32613E-03
        -0.13508E-01
        -0.13765E-01
        -0.11157E-01
        -0.76184E-02
        -0.41907E-02
        -0.88878E-03
        -0.57756E-04
        -0.59564E-03
        -0.97875E-03
        -0.33434E-02
        -0.10646E-01
        -0.14934E-01
        -0.10473E-01
        -0.94826E-02
        -0.11590E-01
        -0.12354E-01
        -0.10262E-01
        -0.91639E-02
        -0.23376E-02
        -0.16173E-03
        -0.75861E-03
        -0.79027E-03
        -0.24662E-02
        -0.74254E-02
        -0.12217E-01
        -0.12163E-01
        -0.48905E-04
        -0.23193E-05
        -0.73570E-05
        -0.60754E-04
        -0.24044E-03
        -0.17573E-03
        -0.19724E-04
        -0.66190E-04
        -0.16063E-04
        -0.63820E-04
        -0.97648E-06
        -0.39854E-04
        -0.40190E-03
        -0.20868E-03
        -0.24212E-03
        -0.18552E-03
        -0.59933E-04
        -0.17508E-04
        -0.87310E-05
        -0.25687E-04
        -0.96591E-03
        -0.87681E-03
        -0.85717E-03
        -0.50260E-04
        -0.17874E-04
        -0.79556E-05
        -0.21714E-03
        -0.15676E-05
        -0.31457E-04
        -0.46171E-04
        -0.11103E-03
        -0.43639E-04
        -0.36602E-04
        -0.33095E-04
        -0.81174E-03
        -0.23852E-03
        -0.31506E-03
        -0.32363E-03
        -0.12185E-04
        -0.81239E-04
        -0.99388E-03
        -0.10513E-02
        -0.98605E-03
        -0.51041E-03
        -0.29933E-03
        -0.10209E-03
        -0.12015E-03
        -0.17122E-03
        -0.20553E-05
        -0.38652E-05
        -0.44013E-03
        -0.32928E-03
        -0.13731E-01
        -0.13989E-01
        -0.11346E-01
        -0.77457E-02
        -0.42598E-02
        -0.90371E-03
        -0.58940E-04
        -0.60675E-03
        -0.99474E-03
        -0.34017E-02
        -0.10833E-01
        -0.15192E-01
        -0.10638E-01
        -0.96248E-02
        -0.11768E-01
        -0.12548E-01
        -0.10423E-01
        -0.93157E-02
        -0.23766E-02
        -0.16470E-03
        -0.77002E-03
        -0.80220E-03
        -0.25031E-02
        -0.75372E-02
        -0.12401E-01
        -0.12347E-01
        -0.11300E-03
        -0.54413E-05
        -0.16954E-04
        -0.14055E-03
        -0.51719E-03
        -0.38431E-03
        -0.46163E-04
        -0.15169E-03
        -0.36853E-04
        -0.14576E-03
        -0.21421E-05
        -0.83499E-04
        -0.86345E-03
        -0.46650E-03
        -0.51287E-03
        -0.42873E-03
        -0.13815E-03
        -0.40281E-04
        -0.19692E-04
        -0.58312E-04
        -0.20641E-02
        -0.19241E-02
        -0.18390E-02
        -0.11500E-03
        -0.41675E-04
        -0.18509E-04
        -0.49403E-03
        -0.35387E-05
        -0.74499E-04
        -0.10752E-03
        -0.25693E-03
        -0.10054E-03
        -0.84297E-04
        -0.76717E-04
        -0.16897E-02
        -0.52253E-03
        -0.69090E-03
        -0.71720E-03
        -0.27927E-04
        -0.18640E-03
        -0.22150E-02
        -0.23720E-02
        -0.22158E-02
        -0.11099E-02
        -0.64757E-03
        -0.20942E-03
        -0.25858E-03
        -0.37755E-03
        -0.45117E-05
        -0.85085E-05
        -0.92686E-03
        -0.71659E-03
        -0.23006E-01
        -0.23317E-01
        -0.18954E-01
        -0.12988E-01
        -0.71425E-02
        -0.15268E-02
        -0.10230E-03
        -0.10686E-02
        -0.17440E-02
        -0.59053E-02
        -0.18821E-01
        -0.26196E-01
        -0.18630E-01
        -0.16907E-01
        -0.20147E-01
        -0.21010E-01
        -0.17352E-01
        -0.15411E-01
        -0.39423E-02
        -0.27439E-03
        -0.13013E-02
        -0.13653E-02
        -0.42369E-02
        -0.12843E-01
        -0.20985E-01
        -0.20740E-01
  
SCALARS                      strain_yy  double 1
LOOKUP_TABLE default
         0.93063E-02
         0.99294E-03
         0.68466E-02
         0.18904E-02
        -0.10131E-18
        -0.76962E-20
        -0.15560E-18
        -0.90522E-19
         0.92523E-01
         0.40893E-01
        -0.34461E-18
        -0.26710E-18
         0.68635E-01
         0.17721E-03
        -0.17650E-18
        -0.72550E-21
         0.90773E-02
         0.11269E+00
        -0.38204E-22
        -0.39997E-20
         0.29124E-01
         0.39646E+00
         0.45115E+00
        -0.92745E-18
        -0.27661E-17
        -0.19326E-17
         0.38787E-02
         0.38885E+00
        -0.47989E-18
        -0.18061E-17
         0.11831E-01
         0.85688E-02
         0.67867E-02
        -0.12897E-18
        -0.13440E-18
        -0.57930E-22
         0.10145E+00
         0.88683E-01
        -0.43674E-18
        -0.26437E-18
         0.95443E-01
         0.36773E-01
        -0.24944E-18
        -0.20832E-18
         0.81642E-01
         0.99157E-02
        -0.27448E-21
        -0.65671E-19
         0.62308E-01
        -0.14558E-19
         0.69574E-03
        -0.95497E-22
         0.20428E-03
        -0.21782E-18
         0.88362E-02
        -0.73710E-19
         0.93563E-01
         0.31289E-02
        -0.54249E-22
        -0.22348E-21
         0.17383E-01
         0.22636E+00
        -0.10071E-19
        -0.14090E-18
         0.64110E-02
        -0.41033E-19
         0.11539E+00
        -0.60896E-19
         0.69838E-01
         0.19807E-01
        -0.93003E-21
        -0.16213E-18
         0.24017E+00
        -0.78178E-18
         0.61429E+00
        -0.73292E-18
         0.61859E+00
        -0.42234E-18
         0.41878E+00
        -0.29671E-18
         0.90650E+00
         0.55652E+00
        -0.12210E-18
        -0.60023E-20
         0.11554E-01
        -0.75151E-22
         0.19846E+00
        -0.29491E-18
         0.10752E+01
        -0.90381E-18
         0.20249E+01
         0.78716E+00
        -0.19882E-17
        -0.13026E-17
         0.39766E+00
        -0.78491E-18
         0.32293E+00
        -0.82153E-18
         0.30166E+00
        -0.94975E-18
         0.81934E+00
         0.57738E+00
        -0.82135E-18
        -0.18857E-18
         0.32862E+00
         0.47209E-01
        -0.10155E-18
        -0.15682E-18
         0.19294E+01
        -0.11239E-17
         0.39687E+01
        -0.24047E-17
         0.58458E+01
        -0.36677E-17
         0.75176E+01
        -0.36087E-17
         0.96104E+01
        -0.22600E-17
         0.96643E+01
        -0.13535E-17
         0.85437E+01
        -0.11709E-17
         0.67941E+01
        -0.10599E-17
         0.37856E+01
        -0.43287E-18
         0.18079E+01
        -0.47184E-19
         0.48556E+00
        -0.19701E-19
         0.26711E-02
        -0.44509E-19
         0.49623E+00
        -0.11873E-19
         0.16503E+01
        -0.10859E-18
         0.39068E+01
        -0.86514E-18
         0.47591E+01
        -0.21096E-17
         0.55898E+01
        -0.36256E-17
         0.86546E+01
        -0.36194E-17
         0.93274E+01
        -0.27582E-17
         0.81747E+01
        -0.26198E-17
         0.54576E+01
        -0.26525E-17
         0.25852E+01
        -0.16587E-17
         0.12880E+01
        -0.58001E-18
         0.66351E+00
        -0.34676E-18
        -0.47985E-06
        -0.13269E-07
        -0.19253E-07
        -0.14388E-07
         0.30988E-07
        -0.32789E-07
         0.42637E-09
         0.46469E-07
        -0.28416E-06
        -0.10750E-06
         0.21002E-07
         0.73307E-07
         0.32941E-06
         0.45610E-08
         0.42433E-06
        -0.48651E-07
        -0.30302E-07
        -0.22420E-07
        -0.64823E-09
        -0.29389E-08
         0.45230E-09
        -0.92789E-09
         0.12399E-07
         0.54595E-10
        -0.57036E-07
        -0.10906E-08
         0.36335E-11
         0.10135E-08
         0.19041E-08
         0.14465E-07
        -0.41520E-07
        -0.35456E-08
        -0.21768E-07
        -0.41791E-09
        -0.22046E-09
         0.24818E-07
         0.13124E-06
         0.55714E-06
         0.44173E-06
        -0.14281E-06
        -0.68467E-06
         0.17793E-07
         0.16245E-08
         0.42658E-07
         0.27762E-06
        -0.12967E-06
         0.32058E-06
         0.22167E-08
         0.29008E-07
         0.21086E-06
         0.12527E-06
         0.51772E-07
        -0.19725E-05
        -0.10760E-05
        -0.96774E-05
        -0.13760E-04
        -0.24246E-04
        -0.61904E-04
        -0.98676E-04
        -0.91747E-04
        -0.78708E-04
        -0.73095E-04
        -0.35633E-04
        -0.19691E-05
        -0.15741E-06
        -0.17463E-07
         0.78572E-09
         0.36961E-06
         0.12020E-05
        -0.19143E-05
        -0.43732E-04
        -0.40626E-04
        -0.18422E-04
        -0.16600E-04
        -0.16484E-04
        -0.14555E-04
        -0.18462E-05
        -0.76412E-06
        -0.39260E-03
        -0.15618E-03
        -0.13374E-03
        -0.75243E-05
        -0.22560E-03
        -0.45636E-04
        -0.28695E-04
        -0.35069E-03
        -0.15082E-03
        -0.31022E-03
        -0.86715E-04
        -0.16240E-02
        -0.57002E-03
        -0.11772E-04
        -0.15763E-02
        -0.56464E-04
        -0.51857E-05
        -0.47266E-05
        -0.96022E-04
        -0.35892E-05
        -0.71328E-04
        -0.35957E-04
        -0.12085E-04
        -0.86103E-05
        -0.14068E-03
        -0.86068E-05
        -0.54191E-06
        -0.18728E-05
        -0.47786E-05
        -0.13998E-03
        -0.65582E-04
        -0.45506E-05
        -0.27399E-04
        -0.20657E-04
        -0.46959E-05
        -0.43637E-04
        -0.15907E-03
        -0.91053E-03
        -0.70812E-03
        -0.54997E-03
        -0.29680E-03
        -0.18122E-04
        -0.76887E-04
        -0.11997E-03
        -0.19893E-03
        -0.83007E-03
        -0.28107E-03
        -0.12291E-03
        -0.19416E-03
        -0.27059E-03
        -0.29049E-03
        -0.16355E-05
        -0.45072E-03
        -0.92218E-03
        -0.49931E-02
        -0.83394E-02
        -0.13888E-01
        -0.19992E-01
        -0.19185E-01
        -0.14639E-01
        -0.13445E-01
        -0.13158E-01
        -0.51892E-02
        -0.56372E-03
        -0.89557E-04
        -0.65763E-04
        -0.14103E-04
        -0.10147E-02
        -0.40717E-02
        -0.78842E-02
        -0.13356E-01
        -0.16421E-01
        -0.12668E-01
        -0.11325E-01
        -0.11254E-01
        -0.55799E-02
        -0.15057E-02
        -0.13500E-02
        -0.39309E-03
        -0.15623E-03
        -0.13387E-03
        -0.76351E-05
        -0.22565E-03
        -0.45707E-04
        -0.28768E-04
        -0.35187E-03
        -0.15136E-03
        -0.31254E-03
        -0.86818E-04
        -0.16237E-02
        -0.57031E-03
        -0.11772E-04
        -0.15803E-02
        -0.56470E-04
        -0.52804E-05
        -0.47125E-05
        -0.96152E-04
        -0.35493E-05
        -0.71681E-04
        -0.36025E-04
        -0.12091E-04
        -0.86021E-05
        -0.14195E-03
        -0.85755E-05
        -0.55476E-06
        -0.18938E-05
        -0.47157E-05
        -0.14058E-03
        -0.65605E-04
        -0.45308E-05
        -0.27520E-04
        -0.20724E-04
        -0.46081E-05
        -0.43694E-04
        -0.15906E-03
        -0.91333E-03
        -0.71117E-03
        -0.55124E-03
        -0.29726E-03
        -0.18025E-04
        -0.77045E-04
        -0.12009E-03
        -0.19894E-03
        -0.83007E-03
        -0.28113E-03
        -0.12277E-03
        -0.19364E-03
        -0.26986E-03
        -0.29025E-03
        -0.15863E-05
        -0.44988E-03
        -0.92229E-03
        -0.49950E-02
        -0.83396E-02
        -0.13885E-01
        -0.19979E-01
        -0.19169E-01
        -0.14630E-01
        -0.13440E-01
        -0.13151E-01
        -0.51869E-02
        -0.56424E-03
        -0.89542E-04
        -0.66034E-04
        -0.13874E-04
        -0.10157E-02
        -0.40754E-02
        -0.78878E-02
        -0.13356E-01
        -0.16419E-01
        -0.12666E-01
        -0.11324E-01
        -0.11249E-01
        -0.55719E-02
        -0.15023E-02
        -0.13464E-02
        -0.39359E-03
        -0.15630E-03
        -0.13401E-03
        -0.77479E-05
        -0.22570E-03
        -0.45782E-04
        -0.28840E-04
        -0.35306E-03
        -0.15191E-03
        -0.31486E-03
        -0.86922E-04
        -0.16234E-02
        -0.57059E-03
        -0.11770E-04
        -0.15843E-02
        -0.56478E-04
        -0.53771E-05
        -0.46982E-05
        -0.96285E-04
        -0.35089E-05
        -0.72039E-04
        -0.36093E-04
        -0.12100E-04
        -0.85916E-05
        -0.14322E-03
        -0.85399E-05
        -0.56865E-06
        -0.19163E-05
        -0.46476E-05
        -0.14115E-03
        -0.65625E-04
        -0.45068E-05
        -0.27643E-04
        -0.20791E-04
        -0.45206E-05
        -0.43754E-04
        -0.15903E-03
        -0.91616E-03
        -0.71425E-03
        -0.55253E-03
        -0.29774E-03
        -0.17918E-04
        -0.77194E-04
        -0.12025E-03
        -0.19899E-03
        -0.83012E-03
        -0.28118E-03
        -0.12261E-03
        -0.19313E-03
        -0.26914E-03
        -0.29001E-03
        -0.15381E-05
        -0.44904E-03
        -0.92239E-03
        -0.49969E-02
        -0.83397E-02
        -0.13882E-01
        -0.19965E-01
        -0.19153E-01
        -0.14621E-01
        -0.13434E-01
        -0.13144E-01
        -0.51848E-02
        -0.56480E-03
        -0.89532E-04
        -0.66305E-04
        -0.13646E-04
        -0.10168E-02
        -0.40793E-02
        -0.78916E-02
        -0.13355E-01
        -0.16417E-01
        -0.12664E-01
        -0.11323E-01
        -0.11243E-01
        -0.55640E-02
        -0.14991E-02
        -0.13429E-02
        -0.39408E-03
        -0.15635E-03
        -0.13414E-03
        -0.78621E-05
        -0.22575E-03
        -0.45856E-04
        -0.28916E-04
        -0.35424E-03
        -0.15246E-03
        -0.31715E-03
        -0.87025E-04
        -0.16231E-02
        -0.57090E-03
        -0.11771E-04
        -0.15884E-02
        -0.56487E-04
        -0.54763E-05
        -0.46836E-05
        -0.96427E-04
        -0.34664E-05
        -0.72405E-04
        -0.36154E-04
        -0.12121E-04
        -0.85746E-05
        -0.14445E-03
        -0.84932E-05
        -0.58319E-06
        -0.19462E-05
        -0.45638E-05
        -0.14167E-03
        -0.65635E-04
        -0.44744E-05
        -0.27764E-04
        -0.20859E-04
        -0.44344E-05
        -0.43811E-04
        -0.15901E-03
        -0.91900E-03
        -0.71739E-03
        -0.55391E-03
        -0.29829E-03
        -0.17782E-04
        -0.77315E-04
        -0.12048E-03
        -0.19911E-03
        -0.83020E-03
        -0.28127E-03
        -0.12247E-03
        -0.19261E-03
        -0.26841E-03
        -0.28974E-03
        -0.14908E-05
        -0.44820E-03
        -0.92250E-03
        -0.49987E-02
        -0.83398E-02
        -0.13878E-01
        -0.19952E-01
        -0.19137E-01
        -0.14612E-01
        -0.13428E-01
        -0.13136E-01
        -0.51829E-02
        -0.56547E-03
        -0.89535E-04
        -0.66573E-04
        -0.13418E-04
        -0.10180E-02
        -0.40837E-02
        -0.78959E-02
        -0.13355E-01
        -0.16415E-01
        -0.12662E-01
        -0.11322E-01
        -0.11237E-01
        -0.55561E-02
        -0.14958E-02
        -0.13393E-02
        -0.39456E-03
        -0.15641E-03
        -0.13428E-03
        -0.79764E-05
        -0.22581E-03
        -0.45929E-04
        -0.28987E-04
        -0.35541E-03
        -0.15301E-03
        -0.31943E-03
        -0.87131E-04
        -0.16228E-02
        -0.57119E-03
        -0.11772E-04
        -0.15924E-02
        -0.56497E-04
        -0.55780E-05
        -0.46689E-05
        -0.96574E-04
        -0.34217E-05
        -0.72777E-04
        -0.36208E-04
        -0.12153E-04
        -0.85506E-05
        -0.14564E-03
        -0.84346E-05
        -0.59959E-06
        -0.19831E-05
        -0.44642E-05
        -0.14213E-03
        -0.65635E-04
        -0.44323E-05
        -0.27886E-04
        -0.20926E-04
        -0.43484E-05
        -0.43868E-04
        -0.15900E-03
        -0.92185E-03
        -0.72058E-03
        -0.55537E-03
        -0.29892E-03
        -0.17616E-04
        -0.77408E-04
        -0.12081E-03
        -0.19930E-03
        -0.83040E-03
        -0.28140E-03
        -0.12233E-03
        -0.19211E-03
        -0.26768E-03
        -0.28950E-03
        -0.14439E-05
        -0.44736E-03
        -0.92261E-03
        -0.50005E-02
        -0.83400E-02
        -0.13875E-01
        -0.19938E-01
        -0.19121E-01
        -0.14603E-01
        -0.13423E-01
        -0.13129E-01
        -0.51811E-02
        -0.56626E-03
        -0.89552E-04
        -0.66836E-04
        -0.13191E-04
        -0.10193E-02
        -0.40887E-02
        -0.79007E-02
        -0.13355E-01
        -0.16413E-01
        -0.12661E-01
        -0.11321E-01
        -0.11231E-01
        -0.55482E-02
        -0.14925E-02
        -0.13358E-02
        -0.39503E-03
        -0.15645E-03
        -0.13441E-03
        -0.80930E-05
        -0.22586E-03
        -0.46002E-04
        -0.29051E-04
        -0.35653E-03
        -0.15356E-03
        -0.32165E-03
        -0.87249E-04
        -0.16226E-02
        -0.57149E-03
        -0.11776E-04
        -0.15965E-02
        -0.56511E-04
        -0.56828E-05
        -0.46546E-05
        -0.96722E-04
        -0.33765E-05
        -0.73151E-04
        -0.36259E-04
        -0.12189E-04
        -0.85242E-05
        -0.14681E-03
        -0.83725E-05
        -0.61747E-06
        -0.20244E-05
        -0.43588E-05
        -0.14258E-03
        -0.65628E-04
        -0.43856E-05
        -0.28010E-04
        -0.20997E-04
        -0.42627E-05
        -0.43932E-04
        -0.15900E-03
        -0.92474E-03
        -0.72383E-03
        -0.55689E-03
        -0.29958E-03
        -0.17441E-04
        -0.77489E-04
        -0.12116E-03
        -0.19955E-03
        -0.83068E-03
        -0.28154E-03
        -0.12222E-03
        -0.19163E-03
        -0.26697E-03
        -0.28926E-03
        -0.13977E-05
        -0.44652E-03
        -0.92271E-03
        -0.50024E-02
        -0.83401E-02
        -0.13871E-01
        -0.19925E-01
        -0.19105E-01
        -0.14595E-01
        -0.13417E-01
        -0.13122E-01
        -0.51795E-02
        -0.56709E-03
        -0.89577E-04
        -0.67099E-04
        -0.12967E-04
        -0.10207E-02
        -0.40939E-02
        -0.79056E-02
        -0.13354E-01
        -0.16411E-01
        -0.12659E-01
        -0.11320E-01
        -0.11226E-01
        -0.55403E-02
        -0.14892E-02
        -0.13323E-02
        -0.39545E-03
        -0.15644E-03
        -0.13454E-03
        -0.82134E-05
        -0.22592E-03
        -0.46078E-04
        -0.29101E-04
        -0.35756E-03
        -0.15413E-03
        -0.32378E-03
        -0.87392E-04
        -0.16224E-02
        -0.57187E-03
        -0.11794E-04
        -0.16006E-02
        -0.56530E-04
        -0.57912E-05
        -0.46402E-05
        -0.96873E-04
        -0.33316E-05
        -0.73528E-04
        -0.36313E-04
        -0.12227E-04
        -0.84985E-05
        -0.14795E-03
        -0.83101E-05
        -0.63889E-06
        -0.20687E-05
        -0.42528E-05
        -0.14301E-03
        -0.65616E-04
        -0.43360E-05
        -0.28139E-04
        -0.21072E-04
        -0.41776E-05
        -0.43999E-04
        -0.15901E-03
        -0.92768E-03
        -0.72712E-03
        -0.55841E-03
        -0.30025E-03
        -0.17263E-04
        -0.77566E-04
        -0.12151E-03
        -0.19981E-03
        -0.83101E-03
        -0.28177E-03
        -0.12218E-03
        -0.19123E-03
        -0.26629E-03
        -0.28901E-03
        -0.13518E-05
        -0.44568E-03
        -0.92281E-03
        -0.50041E-02
        -0.83402E-02
        -0.13868E-01
        -0.19911E-01
        -0.19088E-01
        -0.14586E-01
        -0.13412E-01
        -0.13114E-01
        -0.51779E-02
        -0.56794E-03
        -0.89602E-04
        -0.67365E-04
        -0.12744E-04
        -0.10220E-02
        -0.40991E-02
        -0.79104E-02
        -0.13354E-01
        -0.16409E-01
        -0.12658E-01
        -0.11319E-01
        -0.11220E-01
        -0.55324E-02
        -0.14860E-02
        -0.13288E-02
        -0.39586E-03
        -0.15642E-03
        -0.13467E-03
        -0.83365E-05
        -0.22598E-03
        -0.46152E-04
        -0.29140E-04
        -0.35853E-03
        -0.15470E-03
        -0.32588E-03
        -0.87548E-04
        -0.16223E-02
        -0.57224E-03
        -0.11815E-04
        -0.16047E-02
        -0.56552E-04
        -0.59019E-05
        -0.46255E-05
        -0.97022E-04
        -0.32870E-05
        -0.73906E-04
        -0.36367E-04
        -0.12263E-04
        -0.84736E-05
        -0.14909E-03
        -0.82483E-05
        -0.66153E-06
        -0.21147E-05
        -0.41477E-05
        -0.14343E-03
        -0.65603E-04
        -0.42844E-05
        -0.28270E-04
        -0.21149E-04
        -0.40926E-05
        -0.44072E-04
        -0.15903E-03
        -0.93065E-03
        -0.73042E-03
        -0.55994E-03
        -0.30093E-03
        -0.17085E-04
        -0.77641E-04
        -0.12186E-03
        -0.20008E-03
        -0.83139E-03
        -0.28203E-03
        -0.12216E-03
        -0.19086E-03
        -0.26562E-03
        -0.28878E-03
        -0.13067E-05
        -0.44484E-03
        -0.92291E-03
        -0.50059E-02
        -0.83403E-02
        -0.13865E-01
        -0.19897E-01
        -0.19072E-01
        -0.14577E-01
        -0.13406E-01
        -0.13107E-01
        -0.51762E-02
        -0.56877E-03
        -0.89628E-04
        -0.67635E-04
        -0.12523E-04
        -0.10233E-02
        -0.41043E-02
        -0.79151E-02
        -0.13353E-01
        -0.16407E-01
        -0.12657E-01
        -0.11319E-01
        -0.11214E-01
        -0.55244E-02
        -0.14827E-02
        -0.13252E-02
        -0.39626E-03
        -0.15640E-03
        -0.13480E-03
        -0.84604E-05
        -0.22604E-03
        -0.46225E-04
        -0.29180E-04
        -0.35950E-03
        -0.15528E-03
        -0.32797E-03
        -0.87698E-04
        -0.16221E-02
        -0.57262E-03
        -0.11840E-04
        -0.16089E-02
        -0.56574E-04
        -0.60144E-05
        -0.46107E-05
        -0.97171E-04
        -0.32423E-05
        -0.74284E-04
        -0.36422E-04
        -0.12300E-04
        -0.84489E-05
        -0.15023E-03
        -0.81871E-05
        -0.68515E-06
        -0.21607E-05
        -0.40442E-05
        -0.14386E-03
        -0.65588E-04
        -0.42338E-05
        -0.28401E-04
        -0.21226E-04
        -0.40081E-05
        -0.44139E-04
        -0.15905E-03
        -0.93363E-03
        -0.73374E-03
        -0.56146E-03
        -0.30160E-03
        -0.16910E-04
        -0.77716E-04
        -0.12222E-03
        -0.20036E-03
        -0.83177E-03
        -0.28228E-03
        -0.12215E-03
        -0.19050E-03
        -0.26496E-03
        -0.28855E-03
        -0.12621E-05
        -0.44400E-03
        -0.92301E-03
        -0.50076E-02
        -0.83405E-02
        -0.13861E-01
        -0.19884E-01
        -0.19056E-01
        -0.14568E-01
        -0.13401E-01
        -0.13099E-01
        -0.51745E-02
        -0.56959E-03
        -0.89657E-04
        -0.67909E-04
        -0.12304E-04
        -0.10246E-02
        -0.41095E-02
        -0.79198E-02
        -0.13352E-01
        -0.16405E-01
        -0.12655E-01
        -0.11318E-01
        -0.11208E-01
        -0.55165E-02
        -0.14795E-02
        -0.13217E-02
        -0.39666E-03
        -0.15637E-03
        -0.13493E-03
        -0.85845E-05
        -0.22609E-03
        -0.46297E-04
        -0.29219E-04
        -0.36047E-03
        -0.15585E-03
        -0.33006E-03
        -0.87856E-04
        -0.16219E-02
        -0.57302E-03
        -0.11860E-04
        -0.16130E-02
        -0.56595E-04
        -0.61283E-05
        -0.45959E-05
        -0.97319E-04
        -0.31977E-05
        -0.74662E-04
        -0.36475E-04
        -0.12335E-04
        -0.84243E-05
        -0.15137E-03
        -0.81262E-05
        -0.70853E-06
        -0.22067E-05
        -0.39423E-05
        -0.14429E-03
        -0.65572E-04
        -0.41832E-05
        -0.28531E-04
        -0.21303E-04
        -0.39246E-05
        -0.44212E-04
        -0.15907E-03
        -0.93662E-03
        -0.73707E-03
        -0.56299E-03
        -0.30228E-03
        -0.16736E-04
        -0.77794E-04
        -0.12258E-03
        -0.20064E-03
        -0.83214E-03
        -0.28254E-03
        -0.12214E-03
        -0.19014E-03
        -0.26429E-03
        -0.28831E-03
        -0.12184E-05
        -0.44316E-03
        -0.92310E-03
        -0.50093E-02
        -0.83406E-02
        -0.13858E-01
        -0.19870E-01
        -0.19039E-01
        -0.14559E-01
        -0.13395E-01
        -0.13092E-01
        -0.51728E-02
        -0.57042E-03
        -0.89686E-04
        -0.68182E-04
        -0.12088E-04
        -0.10260E-02
        -0.41147E-02
        -0.79246E-02
        -0.13352E-01
        -0.16402E-01
        -0.12654E-01
        -0.11318E-01
        -0.11202E-01
        -0.55086E-02
        -0.14762E-02
        -0.13182E-02
        -0.39706E-03
        -0.15635E-03
        -0.13505E-03
        -0.87095E-05
        -0.22615E-03
        -0.46371E-04
        -0.29263E-04
        -0.36143E-03
        -0.15643E-03
        -0.33216E-03
        -0.88012E-04
        -0.16218E-02
        -0.57340E-03
        -0.11883E-04
        -0.16171E-02
        -0.56618E-04
        -0.62436E-05
        -0.45813E-05
        -0.97467E-04
        -0.31531E-05
        -0.75042E-04
        -0.36526E-04
        -0.12372E-04
        -0.84001E-05
        -0.15251E-03
        -0.80655E-05
        -0.73272E-06
        -0.22525E-05
        -0.38418E-05
        -0.14472E-03
        -0.65558E-04
        -0.41332E-05
        -0.28663E-04
        -0.21380E-04
        -0.38416E-05
        -0.44282E-04
        -0.15910E-03
        -0.93962E-03
        -0.74041E-03
        -0.56450E-03
        -0.30295E-03
        -0.16563E-04
        -0.77869E-04
        -0.12293E-03
        -0.20091E-03
        -0.83252E-03
        -0.28281E-03
        -0.12213E-03
        -0.18978E-03
        -0.26363E-03
        -0.28808E-03
        -0.11755E-05
        -0.44231E-03
        -0.92319E-03
        -0.50110E-02
        -0.83407E-02
        -0.13855E-01
        -0.19857E-01
        -0.19023E-01
        -0.14550E-01
        -0.13390E-01
        -0.13084E-01
        -0.51711E-02
        -0.57124E-03
        -0.89714E-04
        -0.68453E-04
        -0.11873E-04
        -0.10273E-02
        -0.41199E-02
        -0.79293E-02
        -0.13351E-01
        -0.16400E-01
        -0.12653E-01
        -0.11317E-01
        -0.11196E-01
        -0.55007E-02
        -0.14730E-02
        -0.13147E-02
        -0.39746E-03
        -0.15632E-03
        -0.13518E-03
        -0.88365E-05
        -0.22621E-03
        -0.46444E-04
        -0.29302E-04
        -0.36240E-03
        -0.15701E-03
        -0.33426E-03
        -0.88170E-04
        -0.16216E-02
        -0.57377E-03
        -0.11906E-04
        -0.16213E-02
        -0.56640E-04
        -0.63601E-05
        -0.45663E-05
        -0.97616E-04
        -0.31091E-05
        -0.75423E-04
        -0.36578E-04
        -0.12408E-04
        -0.83761E-05
        -0.15366E-03
        -0.80056E-05
        -0.75677E-06
        -0.22985E-05
        -0.37425E-05
        -0.14515E-03
        -0.65542E-04
        -0.40833E-05
        -0.28794E-04
        -0.21459E-04
        -0.37590E-05
        -0.44353E-04
        -0.15912E-03
        -0.94263E-03
        -0.74375E-03
        -0.56603E-03
        -0.30363E-03
        -0.16393E-04
        -0.77944E-04
        -0.12328E-03
        -0.20119E-03
        -0.83291E-03
        -0.28305E-03
        -0.12212E-03
        -0.18942E-03
        -0.26297E-03
        -0.28785E-03
        -0.11333E-05
        -0.44147E-03
        -0.92328E-03
        -0.50127E-02
        -0.83409E-02
        -0.13851E-01
        -0.19843E-01
        -0.19007E-01
        -0.14541E-01
        -0.13384E-01
        -0.13077E-01
        -0.51694E-02
        -0.57207E-03
        -0.89742E-04
        -0.68724E-04
        -0.11658E-04
        -0.10286E-02
        -0.41251E-02
        -0.79340E-02
        -0.13350E-01
        -0.16398E-01
        -0.12652E-01
        -0.11317E-01
        -0.11190E-01
        -0.54928E-02
        -0.14698E-02
        -0.13112E-02
        -0.39786E-03
        -0.15630E-03
        -0.13531E-03
        -0.89649E-05
        -0.22626E-03
        -0.46518E-04
        -0.29341E-04
        -0.36337E-03
        -0.15759E-03
        -0.33636E-03
        -0.88327E-04
        -0.16214E-02
        -0.57417E-03
        -0.11926E-04
        -0.16254E-02
        -0.56661E-04
        -0.64777E-05
        -0.45512E-05
        -0.97764E-04
        -0.30658E-05
        -0.75806E-04
        -0.36630E-04
        -0.12444E-04
        -0.83522E-05
        -0.15481E-03
        -0.79453E-05
        -0.78192E-06
        -0.23445E-05
        -0.36449E-05
        -0.14558E-03
        -0.65527E-04
        -0.40332E-05
        -0.28924E-04
        -0.21536E-04
        -0.36774E-05
        -0.44426E-04
        -0.15914E-03
        -0.94563E-03
        -0.74711E-03
        -0.56755E-03
        -0.30431E-03
        -0.16221E-04
        -0.78019E-04
        -0.12364E-03
        -0.20147E-03
        -0.83325E-03
        -0.28332E-03
        -0.12211E-03
        -0.18906E-03
        -0.26231E-03
        -0.28761E-03
        -0.10920E-05
        -0.44063E-03
        -0.92337E-03
        -0.50144E-02
        -0.83410E-02
        -0.13848E-01
        -0.19830E-01
        -0.18990E-01
        -0.14532E-01
        -0.13379E-01
        -0.13069E-01
        -0.51677E-02
        -0.57290E-03
        -0.89769E-04
        -0.68997E-04
        -0.11447E-04
        -0.10300E-02
        -0.41304E-02
        -0.79388E-02
        -0.13349E-01
        -0.16396E-01
        -0.12651E-01
        -0.11316E-01
        -0.11184E-01
        -0.54849E-02
        -0.14666E-02
        -0.13077E-02
        -0.39825E-03
        -0.15628E-03
        -0.13544E-03
        -0.90939E-05
        -0.22632E-03
        -0.46592E-04
        -0.29386E-04
        -0.36433E-03
        -0.15818E-03
        -0.33847E-03
        -0.88485E-04
        -0.16213E-02
        -0.57455E-03
        -0.11949E-04
        -0.16296E-02
        -0.56682E-04
        -0.65969E-05
        -0.45365E-05
        -0.97912E-04
        -0.30226E-05
        -0.76189E-04
        -0.36682E-04
        -0.12481E-04
        -0.83285E-05
        -0.15596E-03
        -0.78851E-05
        -0.80680E-06
        -0.23903E-05
        -0.35489E-05
        -0.14600E-03
        -0.65511E-04
        -0.39840E-05
        -0.29056E-04
        -0.21615E-04
        -0.35962E-05
        -0.44496E-04
        -0.15915E-03
        -0.94868E-03
        -0.75049E-03
        -0.56906E-03
        -0.30499E-03
        -0.16051E-04
        -0.78094E-04
        -0.12399E-03
        -0.20175E-03
        -0.83364E-03
        -0.28359E-03
        -0.12209E-03
        -0.18869E-03
        -0.26165E-03
        -0.28738E-03
        -0.10517E-05
        -0.43978E-03
        -0.92345E-03
        -0.50161E-02
        -0.83411E-02
        -0.13845E-01
        -0.19816E-01
        -0.18974E-01
        -0.14523E-01
        -0.13373E-01
        -0.13061E-01
        -0.51660E-02
        -0.57373E-03
        -0.89796E-04
        -0.69272E-04
        -0.11238E-04
        -0.10313E-02
        -0.41356E-02
        -0.79436E-02
        -0.13349E-01
        -0.16394E-01
        -0.12649E-01
        -0.11316E-01
        -0.11178E-01
        -0.54770E-02
        -0.14635E-02
        -0.13042E-02
        -0.39865E-03
        -0.15626E-03
        -0.13557E-03
        -0.92236E-05
        -0.22638E-03
        -0.46664E-04
        -0.29426E-04
        -0.36529E-03
        -0.15876E-03
        -0.34057E-03
        -0.88643E-04
        -0.16211E-02
        -0.57493E-03
        -0.11969E-04
        -0.16338E-02
        -0.56704E-04
        -0.67178E-05
        -0.45218E-05
        -0.98061E-04
        -0.29795E-05
        -0.76573E-04
        -0.36733E-04
        -0.12517E-04
        -0.83054E-05
        -0.15712E-03
        -0.78254E-05
        -0.83252E-06
        -0.24357E-05
        -0.34546E-05
        -0.14643E-03
        -0.65495E-04
        -0.39346E-05
        -0.29187E-04
        -0.21693E-04
        -0.35161E-05
        -0.44569E-04
        -0.15918E-03
        -0.95173E-03
        -0.75386E-03
        -0.57058E-03
        -0.30567E-03
        -0.15882E-04
        -0.78170E-04
        -0.12435E-03
        -0.20202E-03
        -0.83403E-03
        -0.28384E-03
        -0.12209E-03
        -0.18833E-03
        -0.26099E-03
        -0.28715E-03
        -0.10120E-05
        -0.43894E-03
        -0.92352E-03
        -0.50177E-02
        -0.83412E-02
        -0.13841E-01
        -0.19802E-01
        -0.18957E-01
        -0.14514E-01
        -0.13368E-01
        -0.13054E-01
        -0.51643E-02
        -0.57455E-03
        -0.89823E-04
        -0.69546E-04
        -0.11031E-04
        -0.10326E-02
        -0.41409E-02
        -0.79483E-02
        -0.13348E-01
        -0.16392E-01
        -0.12648E-01
        -0.11315E-01
        -0.11172E-01
        -0.54691E-02
        -0.14603E-02
        -0.13007E-02
        -0.39904E-03
        -0.15622E-03
        -0.13570E-03
        -0.93539E-05
        -0.22643E-03
        -0.46738E-04
        -0.29467E-04
        -0.36626E-03
        -0.15935E-03
        -0.34269E-03
        -0.88802E-04
        -0.16210E-02
        -0.57533E-03
        -0.11991E-04
        -0.16379E-02
        -0.56726E-04
        -0.68404E-05
        -0.45069E-05
        -0.98210E-04
        -0.29368E-05
        -0.76959E-04
        -0.36782E-04
        -0.12553E-04
        -0.82824E-05
        -0.15828E-03
        -0.77657E-05
        -0.85794E-06
        -0.24811E-05
        -0.33618E-05
        -0.14686E-03
        -0.65480E-04
        -0.38860E-05
        -0.29318E-04
        -0.21773E-04
        -0.34362E-05
        -0.44640E-04
        -0.15920E-03
        -0.95479E-03
        -0.75724E-03
        -0.57207E-03
        -0.30635E-03
        -0.15715E-04
        -0.78248E-04
        -0.12470E-03
        -0.20231E-03
        -0.83440E-03
        -0.28410E-03
        -0.12207E-03
        -0.18797E-03
        -0.26033E-03
        -0.28691E-03
        -0.97294E-06
        -0.43809E-03
        -0.92360E-03
        -0.50194E-02
        -0.83414E-02
        -0.13838E-01
        -0.19789E-01
        -0.18940E-01
        -0.14506E-01
        -0.13362E-01
        -0.13046E-01
        -0.51626E-02
        -0.57539E-03
        -0.89847E-04
        -0.69817E-04
        -0.10825E-04
        -0.10339E-02
        -0.41461E-02
        -0.79531E-02
        -0.13347E-01
        -0.16390E-01
        -0.12647E-01
        -0.11315E-01
        -0.11166E-01
        -0.54613E-02
        -0.14572E-02
        -0.12973E-02
        -0.39943E-03
        -0.15620E-03
        -0.13583E-03
        -0.94855E-05
        -0.22649E-03
        -0.46811E-04
        -0.29510E-04
        -0.36722E-03
        -0.15995E-03
        -0.34480E-03
        -0.88961E-04
        -0.16208E-02
        -0.57571E-03
        -0.12010E-04
        -0.16421E-02
        -0.56748E-04
        -0.69648E-05
        -0.44918E-05
        -0.98358E-04
        -0.28949E-05
        -0.77344E-04
        -0.36829E-04
        -0.12589E-04
        -0.82594E-05
        -0.15944E-03
        -0.77059E-05
        -0.88445E-06
        -0.25263E-05
        -0.32702E-05
        -0.14728E-03
        -0.65462E-04
        -0.38374E-05
        -0.29450E-04
        -0.21852E-04
        -0.33570E-05
        -0.44711E-04
        -0.15921E-03
        -0.95787E-03
        -0.76063E-03
        -0.57357E-03
        -0.30703E-03
        -0.15549E-04
        -0.78326E-04
        -0.12506E-03
        -0.20259E-03
        -0.83479E-03
        -0.28437E-03
        -0.12207E-03
        -0.18762E-03
        -0.25967E-03
        -0.28668E-03
        -0.93501E-06
        -0.43725E-03
        -0.92367E-03
        -0.50210E-02
        -0.83415E-02
        -0.13835E-01
        -0.19775E-01
        -0.18924E-01
        -0.14497E-01
        -0.13357E-01
        -0.13038E-01
        -0.51610E-02
        -0.57623E-03
        -0.89867E-04
        -0.70087E-04
        -0.10623E-04
        -0.10353E-02
        -0.41513E-02
        -0.79578E-02
        -0.13347E-01
        -0.16387E-01
        -0.12646E-01
        -0.11314E-01
        -0.11160E-01
        -0.54534E-02
        -0.14540E-02
        -0.12938E-02
        -0.39982E-03
        -0.15618E-03
        -0.13595E-03
        -0.96188E-05
        -0.22655E-03
        -0.46884E-04
        -0.29552E-04
        -0.36817E-03
        -0.16055E-03
        -0.34693E-03
        -0.89119E-04
        -0.16207E-02
        -0.57609E-03
        -0.12031E-04
        -0.16463E-02
        -0.56770E-04
        -0.70916E-05
        -0.44766E-05
        -0.98507E-04
        -0.28552E-05
        -0.77729E-04
        -0.36875E-04
        -0.12626E-04
        -0.82361E-05
        -0.16061E-03
        -0.76471E-05
        -0.91110E-06
        -0.25716E-05
        -0.31801E-05
        -0.14768E-03
        -0.65446E-04
        -0.37884E-05
        -0.29581E-04
        -0.21932E-04
        -0.32788E-05
        -0.44785E-04
        -0.15924E-03
        -0.96099E-03
        -0.76402E-03
        -0.57499E-03
        -0.30770E-03
        -0.15382E-04
        -0.78407E-04
        -0.12541E-03
        -0.20287E-03
        -0.83517E-03
        -0.28462E-03
        -0.12205E-03
        -0.18725E-03
        -0.25902E-03
        -0.28646E-03
        -0.89778E-06
        -0.43640E-03
        -0.92375E-03
        -0.50227E-02
        -0.83416E-02
        -0.13831E-01
        -0.19761E-01
        -0.18907E-01
        -0.14488E-01
        -0.13351E-01
        -0.13030E-01
        -0.51596E-02
        -0.57708E-03
        -0.89875E-04
        -0.70358E-04
        -0.10422E-04
        -0.10366E-02
        -0.41566E-02
        -0.79625E-02
        -0.13346E-01
        -0.16385E-01
        -0.12645E-01
        -0.11314E-01
        -0.11154E-01
        -0.54456E-02
        -0.14509E-02
        -0.12903E-02
        -0.40021E-03
        -0.15615E-03
        -0.13608E-03
        -0.97527E-05
        -0.22661E-03
        -0.46955E-04
        -0.29593E-04
        -0.36912E-03
        -0.16115E-03
        -0.34905E-03
        -0.89276E-04
        -0.16205E-02
        -0.57649E-03
        -0.12053E-04
        -0.16505E-02
        -0.56791E-04
        -0.72217E-05
        -0.44614E-05
        -0.98656E-04
        -0.28175E-05
        -0.78116E-04
        -0.36920E-04
        -0.12662E-04
        -0.82136E-05
        -0.16179E-03
        -0.75878E-05
        -0.93932E-06
        -0.26168E-05
        -0.30916E-05
        -0.14805E-03
        -0.65428E-04
        -0.37404E-05
        -0.29712E-04
        -0.22011E-04
        -0.32009E-05
        -0.44855E-04
        -0.15925E-03
        -0.96415E-03
        -0.76738E-03
        -0.57637E-03
        -0.30835E-03
        -0.15217E-04
        -0.78492E-04
        -0.12577E-03
        -0.20316E-03
        -0.83556E-03
        -0.28489E-03
        -0.12204E-03
        -0.18690E-03
        -0.25835E-03
        -0.28622E-03
        -0.86104E-06
        -0.43556E-03
        -0.92381E-03
        -0.50243E-02
        -0.83417E-02
        -0.13828E-01
        -0.19748E-01
        -0.18891E-01
        -0.14479E-01
        -0.13346E-01
        -0.13021E-01
        -0.51583E-02
        -0.57793E-03
        -0.89868E-04
        -0.70630E-04
        -0.10222E-04
        -0.10379E-02
        -0.41618E-02
        -0.79672E-02
        -0.13345E-01
        -0.16383E-01
        -0.12644E-01
        -0.11313E-01
        -0.11148E-01
        -0.54377E-02
        -0.14478E-02
        -0.12868E-02
        -0.40061E-03
        -0.15613E-03
        -0.13622E-03
        -0.98871E-05
        -0.22667E-03
        -0.47029E-04
        -0.29638E-04
        -0.37007E-03
        -0.16176E-03
        -0.35118E-03
        -0.89436E-04
        -0.16204E-02
        -0.57686E-03
        -0.12071E-04
        -0.16547E-02
        -0.56814E-04
        -0.73536E-05
        -0.44464E-05
        -0.98808E-04
        -0.27810E-05
        -0.78506E-04
        -0.36965E-04
        -0.12696E-04
        -0.81925E-05
        -0.16297E-03
        -0.75309E-05
        -0.96722E-06
        -0.26605E-05
        -0.30053E-05
        -0.14842E-03
        -0.65414E-04
        -0.36937E-05
        -0.29843E-04
        -0.22093E-04
        -0.31247E-05
        -0.44925E-04
        -0.15926E-03
        -0.96732E-03
        -0.77075E-03
        -0.57770E-03
        -0.30900E-03
        -0.15056E-04
        -0.78584E-04
        -0.12612E-03
        -0.20343E-03
        -0.83594E-03
        -0.28515E-03
        -0.12203E-03
        -0.18655E-03
        -0.25770E-03
        -0.28600E-03
        -0.82532E-06
        -0.43470E-03
        -0.92391E-03
        -0.50259E-02
        -0.83418E-02
        -0.13825E-01
        -0.19734E-01
        -0.18874E-01
        -0.14470E-01
        -0.13340E-01
        -0.13012E-01
        -0.51570E-02
        -0.57876E-03
        -0.89850E-04
        -0.70900E-04
        -0.10025E-04
        -0.10392E-02
        -0.41671E-02
        -0.79720E-02
        -0.13345E-01
        -0.16381E-01
        -0.12642E-01
        -0.11313E-01
        -0.11142E-01
        -0.54299E-02
        -0.14448E-02
        -0.12834E-02
        -0.40585E-03
        -0.15808E-03
        -0.13807E-03
        -0.10136E-04
        -0.22967E-03
        -0.47686E-04
        -0.30067E-04
        -0.37563E-03
        -0.16428E-03
        -0.35762E-03
        -0.90760E-04
        -0.16423E-02
        -0.58472E-03
        -0.12250E-04
        -0.16819E-02
        -0.57525E-04
        -0.75702E-05
        -0.44835E-05
        -0.10017E-03
        -0.27834E-05
        -0.79856E-04
        -0.37477E-04
        -0.12866E-04
        -0.82823E-05
        -0.16618E-03
        -0.75832E-05
        -0.10062E-05
        -0.27295E-05
        -0.29750E-05
        -0.15073E-03
        -0.66206E-04
        -0.37057E-05
        -0.30326E-04
        -0.22440E-04
        -0.30975E-05
        -0.45528E-04
        -0.16123E-03
        -0.98356E-03
        -0.78438E-03
        -0.58678E-03
        -0.31377E-03
        -0.15132E-04
        -0.79727E-04
        -0.12788E-03
        -0.20609E-03
        -0.84694E-03
        -0.28887E-03
        -0.12345E-03
        -0.18845E-03
        -0.26027E-03
        -0.28948E-03
        -0.80075E-06
        -0.44119E-03
        -0.93980E-03
        -0.51131E-02
        -0.84810E-02
        -0.14058E-01
        -0.20071E-01
        -0.19197E-01
        -0.14721E-01
        -0.13575E-01
        -0.13243E-01
        -0.52483E-02
        -0.58923E-03
        -0.91199E-04
        -0.72220E-04
        -0.99874E-05
        -0.10560E-02
        -0.42350E-02
        -0.81057E-02
        -0.13574E-01
        -0.16662E-01
        -0.12846E-01
        -0.11491E-01
        -0.11317E-01
        -0.55103E-02
        -0.14650E-02
        -0.13006E-02
        -0.93684E-03
        -0.36854E-03
        -0.31815E-03
        -0.23686E-04
        -0.49513E-03
        -0.10462E-03
        -0.70049E-04
        -0.86398E-03
        -0.37778E-03
        -0.81937E-03
        -0.20504E-03
        -0.34386E-02
        -0.12563E-02
        -0.27484E-04
        -0.35689E-02
        -0.13287E-03
        -0.17645E-04
        -0.10319E-04
        -0.22617E-03
        -0.62933E-05
        -0.17127E-03
        -0.82327E-04
        -0.27581E-04
        -0.18950E-04
        -0.38862E-03
        -0.17609E-04
        -0.23332E-05
        -0.64106E-05
        -0.69209E-05
        -0.35166E-03
        -0.15301E-03
        -0.85213E-05
        -0.70521E-04
        -0.52115E-04
        -0.62806E-05
        -0.99825E-04
        -0.35355E-03
        -0.21777E-02
        -0.17854E-02
        -0.13439E-02
        -0.69951E-03
        -0.34018E-04
        -0.17949E-03
        -0.27826E-03
        -0.44605E-03
        -0.17379E-02
        -0.62196E-03
        -0.27155E-03
        -0.41841E-03
        -0.57350E-03
        -0.60993E-03
        -0.16925E-05
        -0.73803E-03
        -0.15679E-02
        -0.85426E-02
        -0.14220E-01
        -0.23577E-01
        -0.33929E-01
        -0.33219E-01
        -0.25913E-01
        -0.23821E-01
        -0.22997E-01
        -0.91185E-02
        -0.10161E-02
        -0.15955E-03
        -0.12715E-03
        -0.16878E-04
        -0.17682E-02
        -0.70527E-02
        -0.13410E-01
        -0.22526E-01
        -0.27719E-01
        -0.21717E-01
        -0.19564E-01
        -0.19162E-01
        -0.93873E-02
        -0.24774E-02
        -0.21825E-02
  
SCALARS                      strain_zz  double 1
LOOKUP_TABLE default
         0.43222E+02
         0.42692E+02
         0.42897E+02
         0.43635E+02
        -0.58232E-08
        -0.65298E-08
        -0.62525E-08
        -0.56801E-08
         0.41564E+02
         0.42354E+02
        -0.58719E-08
        -0.56825E-08
         0.41871E+02
         0.41883E+02
        -0.69770E-08
        -0.65602E-08
         0.43540E+02
         0.41814E+02
        -0.51553E-08
        -0.57180E-08
         0.41281E+02
         0.40359E+02
         0.41039E+02
        -0.69150E-08
        -0.60390E-08
        -0.62360E-08
         0.40750E+02
         0.39763E+02
        -0.66340E-08
        -0.55946E-08
         0.43502E+02
         0.42783E+02
         0.44186E+02
        -0.56612E-08
        -0.52629E-08
        -0.51169E-08
         0.42952E+02
         0.42132E+02
        -0.59893E-08
        -0.54652E-08
         0.42419E+02
         0.41562E+02
        -0.51764E-08
        -0.45826E-08
         0.42961E+02
         0.43505E+02
        -0.56727E-08
        -0.63384E-08
         0.41454E+02
        -0.55417E-08
         0.43408E+02
        -0.65117E-08
         0.40713E+02
        -0.58522E-08
         0.40505E+02
        -0.56135E-08
         0.40197E+02
         0.41253E+02
        -0.57195E-08
        -0.55701E-08
         0.43490E+02
         0.42949E+02
        -0.57352E-08
        -0.64835E-08
         0.43663E+02
        -0.55340E-08
         0.43191E+02
        -0.60397E-08
         0.40464E+02
         0.41475E+02
        -0.58138E-08
        -0.60918E-08
         0.41623E+02
        -0.61430E-08
         0.39392E+02
        -0.48534E-08
         0.39111E+02
        -0.47109E-08
         0.38752E+02
        -0.49672E-08
         0.37982E+02
         0.39331E+02
        -0.47326E-08
        -0.49341E-08
         0.40678E+02
        -0.45954E-08
         0.42690E+02
        -0.60262E-08
         0.41774E+02
        -0.61677E-08
         0.40331E+02
         0.41607E+02
        -0.59230E-08
        -0.59921E-08
         0.42380E+02
        -0.54426E-08
         0.42503E+02
        -0.53649E-08
         0.41994E+02
        -0.57433E-08
         0.40858E+02
         0.41778E+02
        -0.56321E-08
        -0.57973E-08
         0.36010E+02
         0.35263E+02
        -0.43728E-08
        -0.41128E-08
         0.34625E+02
        -0.41754E-08
         0.33851E+02
        -0.40035E-08
         0.33906E+02
        -0.39478E-08
         0.32653E+02
        -0.37307E-08
         0.30825E+02
        -0.33143E-08
         0.30241E+02
        -0.29843E-08
         0.30226E+02
        -0.29636E-08
         0.30378E+02
        -0.32139E-08
         0.31237E+02
        -0.33777E-08
         0.31072E+02
        -0.30842E-08
         0.31605E+02
        -0.27801E-08
         0.33031E+02
        -0.27769E-08
         0.34238E+02
        -0.31039E-08
         0.34915E+02
        -0.35391E-08
         0.34359E+02
        -0.38021E-08
         0.34830E+02
        -0.41063E-08
         0.35661E+02
        -0.43992E-08
         0.33543E+02
        -0.40300E-08
         0.32869E+02
        -0.35354E-08
         0.33671E+02
        -0.35245E-08
         0.34962E+02
        -0.38562E-08
         0.36272E+02
        -0.41110E-08
         0.35236E+02
        -0.39013E-08
         0.34222E+02
        -0.37716E-08
        -0.81366E-01
        -0.46100E-01
        -0.50925E-01
        -0.96156E-01
        -0.11016E-01
        -0.54974E-01
        -0.24709E-03
        -0.29138E-01
        -0.89150E-01
        -0.52174E-01
         0.31421E-01
         0.41201E-01
         0.15220E-01
         0.13455E-01
         0.30170E-01
        -0.94055E-01
        -0.85759E-01
        -0.10884E+00
        -0.42213E-01
        -0.54671E-01
        -0.36837E-01
        -0.48661E-01
        -0.26717E-01
        -0.32443E-01
        -0.53631E-01
        -0.52130E-01
        -0.15680E-01
        -0.19036E-01
         0.86349E-02
        -0.32967E-01
        -0.89964E-01
        -0.45590E-01
        -0.89653E-01
        -0.60748E-01
         0.48035E-01
         0.12180E-01
        -0.45398E-02
         0.15136E-01
         0.17719E-01
         0.50606E-01
         0.74985E-01
         0.16253E-01
        -0.37574E-01
        -0.30400E-01
        -0.29149E-02
         0.46694E-01
         0.42614E-02
        -0.39826E-01
        -0.36802E-01
        -0.27507E-02
         0.32953E-01
        -0.14982E-01
         0.13573E+00
         0.89860E-01
         0.97378E-01
         0.86784E-01
         0.89485E-01
         0.11407E+00
         0.13970E+00
         0.14811E+00
         0.14448E+00
         0.14707E+00
         0.15812E+00
         0.91827E-01
         0.67644E-01
         0.58422E-01
         0.42839E-01
         0.31111E-01
         0.31650E-01
         0.51660E-01
         0.12027E+00
         0.10366E+00
         0.79966E-01
         0.80213E-01
         0.84312E-01
         0.10706E+00
         0.73629E-01
         0.61428E-01
         0.47422E-03
         0.17444E-03
         0.16234E-03
         0.10594E-03
         0.49829E-03
         0.26948E-03
         0.33807E-04
         0.40205E-03
         0.21361E-03
         0.35176E-03
         0.52505E-04
         0.16592E-02
         0.96752E-03
         0.16117E-03
         0.17955E-02
         0.24355E-03
         0.84890E-04
         0.57567E-04
         0.10608E-03
         0.35885E-04
         0.10217E-02
         0.91697E-03
         0.83879E-03
         0.50645E-04
         0.12439E-03
         0.12412E-04
         0.10582E-03
        -0.80692E-04
        -0.15430E-04
         0.15679E-03
         0.17970E-03
         0.46943E-04
         0.10447E-03
         0.10495E-03
         0.79097E-03
         0.28503E-03
         0.48343E-03
         0.11811E-02
         0.69186E-03
         0.60834E-03
         0.12545E-02
         0.10215E-02
         0.10393E-02
         0.60908E-03
         0.48552E-03
         0.92302E-03
         0.40327E-03
         0.29843E-03
         0.21640E-03
         0.30579E-03
         0.76400E-03
         0.38940E-03
         0.14098E-01
         0.14841E-01
         0.16173E-01
         0.15986E-01
         0.18195E-01
         0.20984E-01
         0.19316E-01
         0.15304E-01
         0.14524E-01
         0.16595E-01
         0.15935E-01
         0.15496E-01
         0.10585E-01
         0.95915E-02
         0.11525E-01
         0.13192E-01
         0.14213E-01
         0.16952E-01
         0.15696E-01
         0.16597E-01
         0.13467E-01
         0.12130E-01
         0.13771E-01
         0.13161E-01
         0.13962E-01
         0.13753E-01
         0.47283E-03
         0.17238E-03
         0.16040E-03
         0.10424E-03
         0.49543E-03
         0.26694E-03
         0.31749E-04
         0.40051E-03
         0.21200E-03
         0.35139E-03
         0.49889E-04
         0.16560E-02
         0.96560E-03
         0.15746E-03
         0.17962E-02
         0.24169E-03
         0.82779E-04
         0.55565E-04
         0.10371E-03
         0.33141E-04
         0.10192E-02
         0.91425E-03
         0.83593E-03
         0.48102E-04
         0.12291E-03
         0.99839E-05
         0.10345E-03
        -0.83432E-04
        -0.17957E-04
         0.15452E-03
         0.17787E-03
         0.44619E-04
         0.10228E-03
         0.10312E-03
         0.78894E-03
         0.28247E-03
         0.48081E-03
         0.11818E-02
         0.69217E-03
         0.60720E-03
         0.12531E-02
         0.10196E-02
         0.10367E-02
         0.60640E-03
         0.48279E-03
         0.92017E-03
         0.40073E-03
         0.29598E-03
         0.21362E-03
         0.30282E-03
         0.76065E-03
         0.38600E-03
         0.14083E-01
         0.14829E-01
         0.16168E-01
         0.15982E-01
         0.18184E-01
         0.20964E-01
         0.19295E-01
         0.15291E-01
         0.14511E-01
         0.16580E-01
         0.15924E-01
         0.15492E-01
         0.10579E-01
         0.95868E-02
         0.11524E-01
         0.13194E-01
         0.14216E-01
         0.16955E-01
         0.15690E-01
         0.16591E-01
         0.13460E-01
         0.12125E-01
         0.13758E-01
         0.13140E-01
         0.13942E-01
         0.13734E-01
         0.47397E-03
         0.17287E-03
         0.16101E-03
         0.10494E-03
         0.49564E-03
         0.26731E-03
         0.32495E-04
         0.40186E-03
         0.21294E-03
         0.35370E-03
         0.50417E-04
         0.16565E-02
         0.96686E-03
         0.15699E-03
         0.18007E-02
         0.24162E-03
         0.82990E-04
         0.55949E-04
         0.10322E-03
         0.32514E-04
         0.10190E-02
         0.91396E-03
         0.83404E-03
         0.46264E-04
         0.12304E-03
         0.82782E-05
         0.10409E-03
        -0.83890E-04
        -0.18810E-04
         0.15311E-03
         0.17820E-03
         0.44068E-04
         0.10257E-03
         0.10385E-03
         0.79036E-03
         0.28293E-03
         0.48112E-03
         0.11861E-02
         0.69587E-03
         0.60909E-03
         0.12548E-02
         0.10196E-02
         0.10355E-02
         0.60465E-03
         0.48220E-03
         0.92050E-03
         0.40120E-03
         0.29648E-03
         0.21368E-03
         0.30275E-03
         0.76058E-03
         0.38561E-03
         0.14074E-01
         0.14824E-01
         0.16169E-01
         0.15983E-01
         0.18179E-01
         0.20951E-01
         0.19280E-01
         0.15284E-01
         0.14505E-01
         0.16571E-01
         0.15919E-01
         0.15494E-01
         0.10577E-01
         0.95867E-02
         0.11527E-01
         0.13200E-01
         0.14222E-01
         0.16962E-01
         0.15689E-01
         0.16590E-01
         0.13458E-01
         0.12124E-01
         0.13750E-01
         0.13124E-01
         0.13928E-01
         0.13720E-01
         0.47435E-03
         0.17276E-03
         0.16099E-03
         0.10483E-03
         0.49497E-03
         0.26686E-03
         0.32568E-04
         0.40236E-03
         0.21289E-03
         0.35476E-03
         0.50148E-04
         0.16561E-02
         0.96743E-03
         0.15557E-03
         0.18041E-02
         0.24026E-03
         0.81904E-04
         0.55489E-04
         0.10117E-03
         0.30180E-04
         0.10172E-02
         0.91210E-03
         0.82988E-03
         0.42153E-04
         0.12101E-03
         0.43997E-05
         0.10352E-03
        -0.86109E-04
        -0.21997E-04
         0.14880E-03
         0.17750E-03
         0.41978E-04
         0.10203E-03
         0.10363E-03
         0.79069E-03
         0.28253E-03
         0.48070E-03
         0.11893E-02
         0.69846E-03
         0.60962E-03
         0.12548E-02
         0.10174E-02
         0.10318E-02
         0.60059E-03
         0.47999E-03
         0.91937E-03
         0.40044E-03
         0.29600E-03
         0.21275E-03
         0.30158E-03
         0.75936E-03
         0.38429E-03
         0.14063E-01
         0.14816E-01
         0.16169E-01
         0.15983E-01
         0.18173E-01
         0.20937E-01
         0.19263E-01
         0.15275E-01
         0.14496E-01
         0.16560E-01
         0.15912E-01
         0.15492E-01
         0.10573E-01
         0.95849E-02
         0.11529E-01
         0.13203E-01
         0.14227E-01
         0.16968E-01
         0.15687E-01
         0.16587E-01
         0.13454E-01
         0.12122E-01
         0.13740E-01
         0.13106E-01
         0.13912E-01
         0.13705E-01
         0.47447E-03
         0.17247E-03
         0.16085E-03
         0.10472E-03
         0.49429E-03
         0.26633E-03
         0.32529E-04
         0.40265E-03
         0.21271E-03
         0.35573E-03
         0.49865E-04
         0.16558E-02
         0.96795E-03
         0.15413E-03
         0.18077E-02
         0.23951E-03
         0.81132E-04
         0.55053E-04
         0.99879E-04
         0.28457E-04
         0.10163E-02
         0.91077E-03
         0.82742E-03
         0.39596E-04
         0.11989E-03
         0.19052E-05
         0.10303E-03
        -0.87721E-04
        -0.24128E-04
         0.14607E-03
         0.17676E-03
         0.40457E-04
         0.10120E-03
         0.10329E-03
         0.79103E-03
         0.28206E-03
         0.48020E-03
         0.11927E-02
         0.70123E-03
         0.61055E-03
         0.12556E-02
         0.10163E-02
         0.10295E-02
         0.59819E-03
         0.47857E-03
         0.91872E-03
         0.39981E-03
         0.29527E-03
         0.21155E-03
         0.30020E-03
         0.75797E-03
         0.38282E-03
         0.14052E-01
         0.14809E-01
         0.16168E-01
         0.15983E-01
         0.18167E-01
         0.20922E-01
         0.19246E-01
         0.15266E-01
         0.14488E-01
         0.16550E-01
         0.15906E-01
         0.15493E-01
         0.10570E-01
         0.95836E-02
         0.11531E-01
         0.13209E-01
         0.14233E-01
         0.16975E-01
         0.15685E-01
         0.16585E-01
         0.13451E-01
         0.12120E-01
         0.13729E-01
         0.13088E-01
         0.13895E-01
         0.13690E-01
         0.47382E-03
         0.17182E-03
         0.16070E-03
         0.10517E-03
         0.49420E-03
         0.26651E-03
         0.32577E-04
         0.40250E-03
         0.21222E-03
         0.35624E-03
         0.50108E-04
         0.16564E-02
         0.96899E-03
         0.15313E-03
         0.18123E-02
         0.24019E-03
         0.81236E-04
         0.55450E-04
         0.10031E-03
         0.28551E-04
         0.10170E-02
         0.91122E-03
         0.82765E-03
         0.39529E-04
         0.12013E-03
         0.15377E-05
         0.10299E-03
        -0.87966E-04
        -0.23748E-04
         0.14645E-03
         0.17581E-03
         0.39640E-04
         0.99977E-04
         0.10328E-03
         0.79208E-03
         0.28197E-03
         0.47996E-03
         0.11971E-02
         0.70512E-03
         0.61306E-03
         0.12581E-02
         0.10179E-02
         0.10303E-02
         0.59833E-03
         0.47842E-03
         0.91877E-03
         0.39929E-03
         0.29384E-03
         0.20942E-03
         0.29863E-03
         0.75699E-03
         0.38198E-03
         0.14043E-01
         0.14803E-01
         0.16169E-01
         0.15984E-01
         0.18161E-01
         0.20909E-01
         0.19231E-01
         0.15259E-01
         0.14482E-01
         0.16541E-01
         0.15903E-01
         0.15495E-01
         0.10571E-01
         0.95841E-02
         0.11536E-01
         0.13219E-01
         0.14244E-01
         0.16984E-01
         0.15684E-01
         0.16583E-01
         0.13448E-01
         0.12118E-01
         0.13719E-01
         0.13071E-01
         0.13881E-01
         0.13677E-01
         0.47244E-03
         0.17059E-03
         0.16012E-03
         0.10518E-03
         0.49353E-03
         0.26624E-03
         0.31894E-04
         0.40140E-03
         0.21103E-03
         0.35594E-03
         0.49528E-04
         0.16562E-02
         0.96942E-03
         0.15121E-03
         0.18160E-02
         0.24029E-03
         0.80665E-04
         0.55232E-04
         0.10020E-03
         0.28050E-04
         0.10172E-02
         0.91110E-03
         0.82764E-03
         0.39208E-04
         0.11990E-03
         0.88723E-06
         0.10209E-03
        -0.88818E-04
        -0.23753E-04
         0.14656E-03
         0.17431E-03
         0.38298E-04
         0.98235E-04
         0.10279E-03
         0.79238E-03
         0.28136E-03
         0.47923E-03
         0.12005E-02
         0.70814E-03
         0.61481E-03
         0.12600E-02
         0.10191E-02
         0.10308E-02
         0.59824E-03
         0.47773E-03
         0.91798E-03
         0.39801E-03
         0.29173E-03
         0.20668E-03
         0.29645E-03
         0.75548E-03
         0.38067E-03
         0.14032E-01
         0.14795E-01
         0.16168E-01
         0.15983E-01
         0.18155E-01
         0.20895E-01
         0.19215E-01
         0.15250E-01
         0.14475E-01
         0.16531E-01
         0.15897E-01
         0.15497E-01
         0.10570E-01
         0.95837E-02
         0.11539E-01
         0.13228E-01
         0.14253E-01
         0.16991E-01
         0.15680E-01
         0.16580E-01
         0.13444E-01
         0.12115E-01
         0.13708E-01
         0.13053E-01
         0.13865E-01
         0.13662E-01
         0.47242E-03
         0.17013E-03
         0.15997E-03
         0.10513E-03
         0.49286E-03
         0.26572E-03
         0.31665E-04
         0.40138E-03
         0.21110E-03
         0.35719E-03
         0.49143E-04
         0.16558E-02
         0.96985E-03
         0.14968E-03
         0.18195E-02
         0.24043E-03
         0.80648E-04
         0.54864E-04
         0.10011E-03
         0.27634E-04
         0.10172E-02
         0.91080E-03
         0.82755E-03
         0.38959E-04
         0.12061E-03
         0.50516E-06
         0.10178E-03
        -0.89300E-04
        -0.23933E-04
         0.14669E-03
         0.17402E-03
         0.37730E-04
         0.97512E-04
         0.10256E-03
         0.79281E-03
         0.28101E-03
         0.47877E-03
         0.12039E-02
         0.71111E-03
         0.61631E-03
         0.12615E-02
         0.10199E-02
         0.10311E-02
         0.59823E-03
         0.47736E-03
         0.91780E-03
         0.39773E-03
         0.29127E-03
         0.20570E-03
         0.29526E-03
         0.75429E-03
         0.37932E-03
         0.14021E-01
         0.14788E-01
         0.16167E-01
         0.15983E-01
         0.18148E-01
         0.20880E-01
         0.19198E-01
         0.15242E-01
         0.14467E-01
         0.16520E-01
         0.15891E-01
         0.15499E-01
         0.10569E-01
         0.95827E-02
         0.11542E-01
         0.13236E-01
         0.14262E-01
         0.16998E-01
         0.15677E-01
         0.16577E-01
         0.13441E-01
         0.12113E-01
         0.13698E-01
         0.13035E-01
         0.13848E-01
         0.13647E-01
         0.47333E-03
         0.17044E-03
         0.16034E-03
         0.10541E-03
         0.49277E-03
         0.26555E-03
         0.32236E-04
         0.40241E-03
         0.21204E-03
         0.35957E-03
         0.49513E-04
         0.16562E-02
         0.97099E-03
         0.14908E-03
         0.18240E-02
         0.24131E-03
         0.81371E-04
         0.54980E-04
         0.10068E-03
         0.27878E-04
         0.10180E-02
         0.91117E-03
         0.82814E-03
         0.39369E-04
         0.12220E-03
         0.87192E-06
         0.10252E-03
        -0.88873E-04
        -0.23316E-04
         0.14754E-03
         0.17468E-03
         0.37972E-04
         0.97517E-04
         0.10277E-03
         0.79400E-03
         0.28122E-03
         0.47890E-03
         0.12082E-02
         0.71493E-03
         0.61858E-03
         0.12639E-02
         0.10216E-02
         0.10321E-02
         0.59895E-03
         0.47777E-03
         0.91842E-03
         0.39823E-03
         0.29174E-03
         0.20567E-03
         0.29487E-03
         0.75383E-03
         0.37839E-03
         0.14012E-01
         0.14782E-01
         0.16167E-01
         0.15983E-01
         0.18143E-01
         0.20867E-01
         0.19183E-01
         0.15234E-01
         0.14460E-01
         0.16510E-01
         0.15887E-01
         0.15502E-01
         0.10569E-01
         0.95829E-02
         0.11546E-01
         0.13245E-01
         0.14273E-01
         0.17007E-01
         0.15676E-01
         0.16576E-01
         0.13439E-01
         0.12113E-01
         0.13689E-01
         0.13019E-01
         0.13834E-01
         0.13633E-01
         0.47378E-03
         0.17041E-03
         0.16043E-03
         0.10544E-03
         0.49231E-03
         0.26515E-03
         0.32426E-04
         0.40283E-03
         0.21238E-03
         0.36126E-03
         0.49390E-04
         0.16560E-02
         0.97182E-03
         0.14778E-03
         0.18275E-02
         0.24157E-03
         0.81491E-04
         0.54598E-04
         0.10063E-03
         0.27525E-04
         0.10182E-02
         0.91097E-03
         0.82816E-03
         0.39204E-04
         0.12328E-03
         0.69940E-06
         0.10251E-03
        -0.88979E-04
        -0.23168E-04
         0.14787E-03
         0.17481E-03
         0.37760E-04
         0.97018E-04
         0.10262E-03
         0.79462E-03
         0.28102E-03
         0.47870E-03
         0.12117E-02
         0.71815E-03
         0.62034E-03
         0.12656E-02
         0.10227E-02
         0.10324E-02
         0.59919E-03
         0.47776E-03
         0.91855E-03
         0.39820E-03
         0.29159E-03
         0.20503E-03
         0.29399E-03
         0.75292E-03
         0.37717E-03
         0.14002E-01
         0.14775E-01
         0.16166E-01
         0.15983E-01
         0.18137E-01
         0.20852E-01
         0.19166E-01
         0.15225E-01
         0.14452E-01
         0.16499E-01
         0.15881E-01
         0.15503E-01
         0.10567E-01
         0.95823E-02
         0.11549E-01
         0.13254E-01
         0.14283E-01
         0.17015E-01
         0.15674E-01
         0.16573E-01
         0.13436E-01
         0.12111E-01
         0.13679E-01
         0.13002E-01
         0.13818E-01
         0.13618E-01
         0.47407E-03
         0.17017E-03
         0.16040E-03
         0.10554E-03
         0.49172E-03
         0.26482E-03
         0.32483E-04
         0.40318E-03
         0.21275E-03
         0.36295E-03
         0.49244E-04
         0.16557E-02
         0.97250E-03
         0.14654E-03
         0.18310E-02
         0.24175E-03
         0.81664E-04
         0.54328E-04
         0.10053E-03
         0.27225E-04
         0.10183E-02
         0.91078E-03
         0.82814E-03
         0.38954E-04
         0.12436E-03
         0.39584E-06
         0.10254E-03
        -0.89141E-04
        -0.23034E-04
         0.14824E-03
         0.17485E-03
         0.37449E-04
         0.96637E-04
         0.10267E-03
         0.79509E-03
         0.28071E-03
         0.47839E-03
         0.12152E-02
         0.72135E-03
         0.62209E-03
         0.12675E-02
         0.10238E-02
         0.10327E-02
         0.59933E-03
         0.47767E-03
         0.91865E-03
         0.39819E-03
         0.29146E-03
         0.20441E-03
         0.29313E-03
         0.75208E-03
         0.37608E-03
         0.13991E-01
         0.14767E-01
         0.16166E-01
         0.15983E-01
         0.18131E-01
         0.20837E-01
         0.19149E-01
         0.15216E-01
         0.14444E-01
         0.16488E-01
         0.15875E-01
         0.15505E-01
         0.10566E-01
         0.95816E-02
         0.11552E-01
         0.13262E-01
         0.14292E-01
         0.17022E-01
         0.15671E-01
         0.16571E-01
         0.13433E-01
         0.12109E-01
         0.13669E-01
         0.12984E-01
         0.13802E-01
         0.13603E-01
         0.47478E-03
         0.17027E-03
         0.16063E-03
         0.10589E-03
         0.49153E-03
         0.26476E-03
         0.32942E-04
         0.40407E-03
         0.21351E-03
         0.36508E-03
         0.49612E-04
         0.16560E-02
         0.97344E-03
         0.14592E-03
         0.18354E-02
         0.24245E-03
         0.82176E-04
         0.54443E-04
         0.10093E-03
         0.27397E-04
         0.10190E-02
         0.91110E-03
         0.82860E-03
         0.39204E-04
         0.12576E-03
         0.62132E-06
         0.10307E-03
        -0.88882E-04
        -0.22366E-04
         0.14912E-03
         0.17544E-03
         0.37597E-04
         0.96695E-04
         0.10305E-03
         0.79613E-03
         0.28082E-03
         0.47837E-03
         0.12194E-02
         0.72519E-03
         0.62453E-03
         0.12699E-02
         0.10253E-02
         0.10336E-02
         0.59990E-03
         0.47795E-03
         0.91914E-03
         0.39857E-03
         0.29180E-03
         0.20425E-03
         0.29271E-03
         0.75160E-03
         0.37531E-03
         0.13981E-01
         0.14761E-01
         0.16166E-01
         0.15984E-01
         0.18125E-01
         0.20823E-01
         0.19133E-01
         0.15209E-01
         0.14438E-01
         0.16479E-01
         0.15871E-01
         0.15507E-01
         0.10566E-01
         0.95818E-02
         0.11556E-01
         0.13271E-01
         0.14302E-01
         0.17031E-01
         0.15669E-01
         0.16569E-01
         0.13431E-01
         0.12109E-01
         0.13660E-01
         0.12968E-01
         0.13787E-01
         0.13589E-01
         0.47521E-03
         0.17008E-03
         0.16061E-03
         0.10590E-03
         0.49094E-03
         0.26431E-03
         0.32948E-04
         0.40444E-03
         0.21393E-03
         0.36671E-03
         0.49378E-04
         0.16556E-02
         0.97394E-03
         0.14457E-03
         0.18391E-02
         0.24268E-03
         0.82296E-04
         0.54043E-04
         0.10078E-03
         0.27004E-04
         0.10190E-02
         0.91076E-03
         0.82841E-03
         0.38917E-04
         0.12669E-03
         0.35247E-06
         0.10282E-03
        -0.89332E-04
        -0.22420E-04
         0.14939E-03
         0.17550E-03
         0.37299E-04
         0.96144E-04
         0.10292E-03
         0.79659E-03
         0.28050E-03
         0.47794E-03
         0.12229E-02
         0.72823E-03
         0.62610E-03
         0.12715E-02
         0.10261E-02
         0.10338E-02
         0.59987E-03
         0.47772E-03
         0.91908E-03
         0.39848E-03
         0.29155E-03
         0.20357E-03
         0.29184E-03
         0.75064E-03
         0.37407E-03
         0.13971E-01
         0.14754E-01
         0.16165E-01
         0.15983E-01
         0.18118E-01
         0.20809E-01
         0.19116E-01
         0.15200E-01
         0.14430E-01
         0.16468E-01
         0.15865E-01
         0.15509E-01
         0.10564E-01
         0.95808E-02
         0.11559E-01
         0.13280E-01
         0.14311E-01
         0.17038E-01
         0.15667E-01
         0.16567E-01
         0.13428E-01
         0.12107E-01
         0.13651E-01
         0.12950E-01
         0.13771E-01
         0.13574E-01
         0.47573E-03
         0.17001E-03
         0.16070E-03
         0.10604E-03
         0.49053E-03
         0.26400E-03
         0.33161E-04
         0.40501E-03
         0.21455E-03
         0.36866E-03
         0.49406E-04
         0.16556E-02
         0.97475E-03
         0.14355E-03
         0.18430E-02
         0.24310E-03
         0.82677E-04
         0.53865E-04
         0.10090E-03
         0.26856E-04
         0.10192E-02
         0.91069E-03
         0.82853E-03
         0.38857E-04
         0.12790E-03
         0.25787E-06
         0.10302E-03
        -0.89434E-04
        -0.22229E-04
         0.14984E-03
         0.17568E-03
         0.37150E-04
         0.95787E-04
         0.10298E-03
         0.79732E-03
         0.28033E-03
         0.47772E-03
         0.12266E-02
         0.73150E-03
         0.62791E-03
         0.12734E-02
         0.10274E-02
         0.10343E-02
         0.60015E-03
         0.47775E-03
         0.91933E-03
         0.39858E-03
         0.29151E-03
         0.20306E-03
         0.29112E-03
         0.74993E-03
         0.37302E-03
         0.13960E-01
         0.14747E-01
         0.16164E-01
         0.15983E-01
         0.18112E-01
         0.20794E-01
         0.19100E-01
         0.15191E-01
         0.14422E-01
         0.16457E-01
         0.15859E-01
         0.15511E-01
         0.10563E-01
         0.95802E-02
         0.11562E-01
         0.13288E-01
         0.14321E-01
         0.17045E-01
         0.15665E-01
         0.16564E-01
         0.13426E-01
         0.12106E-01
         0.13641E-01
         0.12933E-01
         0.13756E-01
         0.13560E-01
         0.47681E-03
         0.17061E-03
         0.16134E-03
         0.10663E-03
         0.49074E-03
         0.26421E-03
         0.34110E-04
         0.40624E-03
         0.21557E-03
         0.37113E-03
         0.50195E-04
         0.16565E-02
         0.97631E-03
         0.14324E-03
         0.18477E-02
         0.24407E-03
         0.83543E-04
         0.54188E-04
         0.10160E-03
         0.27344E-04
         0.10203E-02
         0.91133E-03
         0.82934E-03
         0.39408E-04
         0.12975E-03
         0.78719E-06
         0.10393E-03
        -0.88650E-04
        -0.21160E-04
         0.15105E-03
         0.17655E-03
         0.37661E-04
         0.96009E-04
         0.10344E-03
         0.79876E-03
         0.28084E-03
         0.47819E-03
         0.12311E-02
         0.73569E-03
         0.63060E-03
         0.12761E-02
         0.10293E-02
         0.10354E-02
         0.60117E-03
         0.47852E-03
         0.92032E-03
         0.39937E-03
         0.29219E-03
         0.20315E-03
         0.29088E-03
         0.74969E-03
         0.37243E-03
         0.13951E-01
         0.14741E-01
         0.16165E-01
         0.15984E-01
         0.18107E-01
         0.20781E-01
         0.19084E-01
         0.15184E-01
         0.14416E-01
         0.16448E-01
         0.15855E-01
         0.15514E-01
         0.10563E-01
         0.95808E-02
         0.11567E-01
         0.13298E-01
         0.14332E-01
         0.17055E-01
         0.15664E-01
         0.16564E-01
         0.13424E-01
         0.12106E-01
         0.13632E-01
         0.12917E-01
         0.13742E-01
         0.13546E-01
         0.47712E-03
         0.17043E-03
         0.16133E-03
         0.10660E-03
         0.49009E-03
         0.26376E-03
         0.34146E-04
         0.40654E-03
         0.21591E-03
         0.37269E-03
         0.49974E-04
         0.16562E-02
         0.97704E-03
         0.14188E-03
         0.18512E-02
         0.24425E-03
         0.83604E-04
         0.53842E-04
         0.10137E-03
         0.26895E-04
         0.10204E-02
         0.91101E-03
         0.82931E-03
         0.39064E-04
         0.13063E-03
         0.41818E-06
         0.10372E-03
        -0.88966E-04
        -0.20943E-04
         0.15138E-03
         0.17668E-03
         0.37332E-04
         0.95564E-04
         0.10327E-03
         0.79918E-03
         0.28053E-03
         0.47791E-03
         0.12346E-02
         0.73885E-03
         0.63239E-03
         0.12778E-02
         0.10302E-02
         0.10355E-02
         0.60120E-03
         0.47834E-03
         0.92032E-03
         0.39933E-03
         0.29209E-03
         0.20252E-03
         0.28991E-03
         0.74872E-03
         0.37119E-03
         0.13940E-01
         0.14734E-01
         0.16164E-01
         0.15984E-01
         0.18101E-01
         0.20767E-01
         0.19067E-01
         0.15175E-01
         0.14408E-01
         0.16436E-01
         0.15849E-01
         0.15515E-01
         0.10562E-01
         0.95800E-02
         0.11570E-01
         0.13307E-01
         0.14342E-01
         0.17062E-01
         0.15661E-01
         0.16561E-01
         0.13422E-01
         0.12104E-01
         0.13622E-01
         0.12900E-01
         0.13726E-01
         0.13531E-01
         0.47729E-03
         0.16999E-03
         0.16105E-03
         0.10648E-03
         0.48931E-03
         0.26312E-03
         0.34040E-04
         0.40679E-03
         0.21614E-03
         0.37394E-03
         0.49691E-04
         0.16558E-02
         0.97753E-03
         0.14051E-03
         0.18547E-02
         0.24436E-03
         0.83505E-04
         0.53461E-04
         0.10120E-03
         0.26613E-04
         0.10205E-02
         0.91062E-03
         0.82922E-03
         0.38770E-04
         0.13124E-03
         0.55321E-07
         0.10307E-03
        -0.89454E-04
        -0.19732E-04
         0.15238E-03
         0.17666E-03
         0.36891E-04
         0.95123E-04
         0.10319E-03
         0.79954E-03
         0.28007E-03
         0.47742E-03
         0.12377E-02
         0.74202E-03
         0.63501E-03
         0.12797E-02
         0.10310E-02
         0.10355E-02
         0.60125E-03
         0.47806E-03
         0.92019E-03
         0.39910E-03
         0.29186E-03
         0.20185E-03
         0.28900E-03
         0.74776E-03
         0.36992E-03
         0.13930E-01
         0.14726E-01
         0.16163E-01
         0.15984E-01
         0.18095E-01
         0.20752E-01
         0.19050E-01
         0.15165E-01
         0.14400E-01
         0.16426E-01
         0.15843E-01
         0.15515E-01
         0.10560E-01
         0.95791E-02
         0.11573E-01
         0.13315E-01
         0.14351E-01
         0.17069E-01
         0.15658E-01
         0.16558E-01
         0.13419E-01
         0.12102E-01
         0.13612E-01
         0.12883E-01
         0.13710E-01
         0.13516E-01
         0.47834E-03
         0.17054E-03
         0.16173E-03
         0.10715E-03
         0.48956E-03
         0.26336E-03
         0.34906E-04
         0.40800E-03
         0.21704E-03
         0.37577E-03
         0.50415E-04
         0.16564E-02
         0.97891E-03
         0.14017E-03
         0.18593E-02
         0.24533E-03
         0.84221E-04
         0.53757E-04
         0.10199E-03
         0.27505E-04
         0.10214E-02
         0.91117E-03
         0.82994E-03
         0.39363E-04
         0.13263E-03
         0.63617E-06
         0.10302E-03
        -0.88977E-04
        -0.16564E-04
         0.15504E-03
         0.17745E-03
         0.37411E-04
         0.95339E-04
         0.10377E-03
         0.80104E-03
         0.28064E-03
         0.47786E-03
         0.12418E-02
         0.74633E-03
         0.63930E-03
         0.12828E-02
         0.10328E-02
         0.10363E-02
         0.60218E-03
         0.47882E-03
         0.92124E-03
         0.39992E-03
         0.29249E-03
         0.20200E-03
         0.28893E-03
         0.74771E-03
         0.36941E-03
         0.13921E-01
         0.14721E-01
         0.16164E-01
         0.15985E-01
         0.18089E-01
         0.20738E-01
         0.19034E-01
         0.15158E-01
         0.14394E-01
         0.16417E-01
         0.15837E-01
         0.15516E-01
         0.10560E-01
         0.95796E-02
         0.11577E-01
         0.13325E-01
         0.14361E-01
         0.17078E-01
         0.15658E-01
         0.16557E-01
         0.13417E-01
         0.12102E-01
         0.13604E-01
         0.12867E-01
         0.13696E-01
         0.13503E-01
         0.47697E-03
         0.16853E-03
         0.15993E-03
         0.10550E-03
         0.48688E-03
         0.26093E-03
         0.32969E-04
         0.40634E-03
         0.21555E-03
         0.37494E-03
         0.48036E-04
         0.16536E-02
         0.97713E-03
         0.13655E-03
         0.18603E-02
         0.24386E-03
         0.82347E-04
         0.51763E-04
         0.99931E-04
         0.25300E-04
         0.10193E-02
         0.90866E-03
         0.82771E-03
         0.37235E-04
         0.13123E-03
        -0.14011E-05
         0.10003E-03
        -0.91545E-04
        -0.17407E-04
         0.15399E-03
         0.17584E-03
         0.35269E-04
         0.93153E-04
         0.10180E-03
         0.79919E-03
         0.27819E-03
         0.47527E-03
         0.12425E-02
         0.74724E-03
         0.63961E-03
         0.12822E-02
         0.10312E-02
         0.10341E-02
         0.60016E-03
         0.47645E-03
         0.91873E-03
         0.39766E-03
         0.29034E-03
         0.19940E-03
         0.28588E-03
         0.74428E-03
         0.36601E-03
         0.13906E-01
         0.14709E-01
         0.16158E-01
         0.15980E-01
         0.18078E-01
         0.20719E-01
         0.19013E-01
         0.15145E-01
         0.14382E-01
         0.16401E-01
         0.15826E-01
         0.15513E-01
         0.10555E-01
         0.95754E-02
         0.11577E-01
         0.13329E-01
         0.14367E-01
         0.17081E-01
         0.15651E-01
         0.16550E-01
         0.13411E-01
         0.12097E-01
         0.13590E-01
         0.12846E-01
         0.13676E-01
         0.13484E-01
         0.47861E-03
         0.16867E-03
         0.16045E-03
         0.10641E-03
         0.48728E-03
         0.26140E-03
         0.33547E-04
         0.40828E-03
         0.21756E-03
         0.37888E-03
         0.48803E-04
         0.16537E-02
         0.97731E-03
         0.13716E-03
         0.18655E-02
         0.24583E-03
         0.84196E-04
         0.52663E-04
         0.10126E-03
         0.26419E-04
         0.10207E-02
         0.90947E-03
         0.82961E-03
         0.38822E-04
         0.13479E-03
         0.58617E-07
         0.10266E-03
        -0.88687E-04
        -0.14709E-04
         0.15664E-03
         0.17734E-03
         0.36139E-04
         0.93491E-04
         0.10160E-03
         0.80041E-03
         0.27793E-03
         0.47443E-03
         0.12481E-02
         0.75271E-03
         0.64307E-03
         0.12850E-02
         0.10336E-02
         0.10361E-02
         0.60212E-03
         0.47745E-03
         0.91947E-03
         0.39823E-03
         0.29141E-03
         0.19974E-03
         0.28525E-03
         0.74380E-03
         0.36508E-03
         0.13897E-01
         0.14705E-01
         0.16158E-01
         0.15979E-01
         0.18070E-01
         0.20704E-01
         0.18999E-01
         0.15139E-01
         0.14376E-01
         0.16390E-01
         0.15821E-01
         0.15518E-01
         0.10557E-01
         0.95761E-02
         0.11582E-01
         0.13341E-01
         0.14379E-01
         0.17090E-01
         0.15649E-01
         0.16548E-01
         0.13409E-01
         0.12097E-01
         0.13582E-01
         0.12832E-01
         0.13663E-01
         0.13472E-01
         0.79740E-02
         0.79838E-02
         0.79154E-02
         0.71808E-02
         0.94643E-02
         0.86362E-02
         0.84933E-02
         0.89799E-02
         0.75814E-02
         0.89766E-02
         0.94731E-02
         0.12567E-01
         0.10757E-01
         0.98694E-02
         0.13103E-01
         0.74447E-02
         0.78290E-02
         0.68169E-02
         0.81758E-02
         0.84728E-02
         0.10012E-01
         0.99706E-02
         0.94565E-02
         0.77633E-02
         0.87574E-02
         0.73985E-02
         0.97406E-02
         0.92519E-02
         0.93347E-02
         0.90762E-02
         0.74521E-02
         0.76894E-02
         0.72145E-02
         0.75362E-02
         0.10793E-01
         0.92261E-02
         0.94376E-02
         0.11907E-01
         0.11008E-01
         0.10735E-01
         0.11681E-01
         0.10856E-01
         0.10345E-01
         0.89747E-02
         0.92123E-02
         0.10973E-01
         0.94901E-02
         0.87554E-02
         0.84599E-02
         0.88703E-02
         0.10264E-01
         0.90229E-02
         0.31617E-01
         0.32011E-01
         0.33837E-01
         0.33052E-01
         0.35661E-01
         0.39155E-01
         0.37524E-01
         0.33428E-01
         0.32819E-01
         0.35381E-01
         0.34254E-01
         0.32912E-01
         0.25969E-01
         0.24096E-01
         0.26361E-01
         0.28507E-01
         0.29744E-01
         0.33841E-01
         0.33553E-01
         0.34501E-01
         0.29850E-01
         0.27961E-01
         0.30032E-01
         0.29098E-01
         0.29802E-01
         0.29619E-01
         0.83445E-01
         0.86804E-01
         0.85544E-01
         0.78066E-01
         0.96482E-01
         0.90302E-01
         0.93601E-01
         0.95040E-01
         0.81160E-01
         0.94950E-01
         0.10276E+00
         0.11796E+00
         0.10599E+00
         0.10596E+00
         0.12249E+00
         0.79666E-01
         0.85206E-01
         0.74474E-01
         0.88023E-01
         0.92407E-01
         0.97344E-01
         0.99228E-01
         0.93224E-01
         0.84626E-01
         0.95611E-01
         0.81637E-01
         0.10558E+00
         0.10342E+00
         0.10394E+00
         0.98974E-01
         0.80394E-01
         0.84246E-01
         0.78669E-01
         0.82187E-01
         0.10608E+00
         0.96604E-01
         0.97261E-01
         0.11765E+00
         0.11375E+00
         0.11216E+00
         0.11533E+00
         0.10920E+00
         0.10338E+00
         0.90666E-01
         0.94094E-01
         0.10625E+00
         0.97525E-01
         0.91608E-01
         0.89643E-01
         0.93022E-01
         0.10168E+00
         0.93402E-01
         0.18875E+00
         0.18551E+00
         0.19150E+00
         0.18594E+00
         0.19422E+00
         0.20748E+00
         0.20825E+00
         0.20167E+00
         0.20156E+00
         0.20896E+00
         0.20266E+00
         0.19122E+00
         0.16566E+00
         0.15573E+00
         0.15914E+00
         0.16348E+00
         0.16646E+00
         0.18305E+00
         0.19210E+00
         0.19428E+00
         0.17674E+00
         0.16985E+00
         0.17728E+00
         0.17503E+00
         0.17445E+00
         0.17349E+00
  
SCALARS                      strain_yz  double 1
LOOKUP_TABLE default
        -0.53650E+00
         0.17411E+00
         0.45806E+00
         0.24301E+00
        -0.45046E-09
        -0.12416E-09
        -0.55826E-09
        -0.42580E-09
         0.16479E+01
        -0.11100E+01
        -0.83079E-09
        -0.73141E-09
         0.14326E+01
         0.72819E-01
         0.59457E-09
        -0.38120E-10
        -0.53188E+00
        -0.18337E+01
         0.87475E-11
         0.89504E-10
         0.92622E+00
         0.33688E+01
         0.36245E+01
         0.13629E-08
         0.23538E-08
         0.19674E-08
         0.33557E+00
         0.33113E+01
         0.98039E-09
         0.19019E-08
        -0.60691E+00
        -0.51197E+00
         0.46345E+00
         0.50825E-09
         0.51884E-09
        -0.10772E-10
        -0.17642E+01
        -0.16334E+01
         0.93528E-09
         0.72768E-09
        -0.16984E+01
        -0.10421E+01
         0.70683E-09
         0.64595E-09
        -0.15811E+01
        -0.55543E+00
        -0.23447E-10
         0.36267E-09
        -0.13577E+01
         0.17076E-09
        -0.14692E+00
        -0.13830E-10
        -0.77037E-01
         0.66051E-09
         0.50531E+00
         0.38423E-09
         0.16350E+01
        -0.30358E+00
         0.10424E-10
        -0.21157E-10
        -0.73556E+00
        -0.26335E+01
        -0.14202E-09
        -0.53124E-09
        -0.44765E+00
        -0.28668E-09
        -0.18870E+01
        -0.34924E-09
         0.14044E+01
         0.76225E+00
        -0.43160E-10
         0.56986E-09
         0.26638E+01
         0.12513E-08
         0.41384E+01
         0.12116E-08
         0.41335E+01
         0.91973E-09
         0.33766E+01
         0.77090E-09
         0.48841E+01
         0.39216E+01
         0.49453E-09
        -0.10965E-09
         0.57729E+00
        -0.12269E-10
        -0.24538E+01
        -0.76856E-09
        -0.56291E+01
        -0.13455E-08
        -0.75339E+01
        -0.48122E+01
        -0.19956E-08
        -0.16152E-08
        -0.34642E+01
        -0.12538E-08
        -0.31265E+01
        -0.12827E-08
        -0.29967E+01
        -0.13792E-08
        -0.48396E+01
        -0.41284E+01
        -0.12826E-08
        -0.61457E-09
         0.27877E+01
        -0.10365E+01
         0.45099E-09
        -0.56044E-09
         0.65430E+01
         0.15003E-08
         0.91830E+01
         0.21946E-08
         0.11190E+02
         0.27104E-08
         0.12359E+02
         0.26885E-08
         0.13367E+02
         0.21276E-08
         0.13228E+02
         0.16465E-08
         0.12437E+02
         0.15314E-08
         0.11140E+02
         0.14570E-08
         0.84888E+01
         0.93113E-09
         0.57927E+01
         0.30742E-09
         0.30223E+01
         0.19864E-09
        -0.23208E+00
         0.29858E-09
        -0.32495E+01
         0.15421E-09
        -0.60096E+01
        -0.46636E-09
        -0.91204E+01
        -0.13164E-08
        -0.10254E+02
        -0.20555E-08
        -0.11384E+02
        -0.26948E-08
        -0.13478E+02
        -0.26924E-08
        -0.13710E+02
        -0.23504E-08
        -0.13089E+02
        -0.22907E-08
        -0.11066E+02
        -0.23049E-08
        -0.78493E+01
        -0.18227E-08
        -0.54020E+01
        -0.10778E-08
        -0.37749E+01
        -0.83338E-09
        -0.11223E-02
        -0.32422E-03
        -0.31338E-03
        -0.18692E-03
        -0.66304E-04
        -0.36927E-03
         0.16348E-06
        -0.31235E-03
        -0.84356E-03
        -0.71396E-03
        -0.22460E-03
        -0.12487E-02
        -0.32377E-03
        -0.33341E-04
        -0.93060E-03
         0.34515E-03
        -0.27803E-03
         0.22894E-03
         0.11293E-03
        -0.11124E-03
         0.68189E-04
         0.74769E-04
        -0.13593E-03
         0.13979E-04
        -0.50139E-03
         0.71998E-04
         0.10856E-05
         0.23194E-04
        -0.13713E-04
        -0.23880E-03
         0.32180E-03
        -0.17374E-03
         0.23318E-03
        -0.38066E-04
        -0.49004E-04
        -0.70047E-04
         0.50623E-04
        -0.41853E-03
        -0.44530E-03
        -0.10459E-02
        -0.14445E-02
        -0.80956E-04
        -0.14920E-03
        -0.32936E-03
        -0.43922E-04
         0.13696E-02
         0.91471E-04
        -0.55159E-03
        -0.54278E-03
        -0.35685E-04
         0.60977E-03
        -0.12262E-03
        -0.20769E-02
         0.16796E-02
        -0.49168E-02
        -0.60783E-02
        -0.79838E-02
        -0.11985E-01
        -0.14630E-01
        -0.13997E-01
        -0.13006E-01
        -0.12504E-01
        -0.86530E-02
        -0.22564E-02
        -0.73775E-03
        -0.28195E-03
         0.31916E-03
         0.92366E-03
         0.17266E-02
         0.36345E-02
         0.99729E-02
         0.99139E-02
         0.72650E-02
         0.68871E-02
         0.67245E-02
         0.58897E-02
         0.23955E-02
         0.17638E-02
        -0.28039E-01
        -0.17686E-01
        -0.16366E-01
        -0.38820E-02
        -0.21254E-01
        -0.95599E-02
        -0.75811E-02
        -0.26500E-01
        -0.17380E-01
        -0.24924E-01
         0.13179E-01
         0.57008E-01
         0.33781E-01
         0.48555E-02
         0.56164E-01
         0.10634E-01
        -0.32227E-02
         0.30768E-02
         0.13868E-01
         0.26812E-02
         0.11950E-01
         0.84844E-02
        -0.49188E-02
         0.41527E-02
        -0.16785E-01
         0.41519E-02
         0.10418E-02
         0.19368E-02
        -0.30937E-02
        -0.16744E-01
         0.11460E-01
         0.30190E-02
         0.74078E-02
         0.64321E-02
        -0.30662E-02
         0.93482E-02
         0.17847E-01
         0.42692E-01
         0.37654E-01
         0.33184E-01
         0.24374E-01
        -0.60232E-02
        -0.12406E-01
        -0.15499E-01
        -0.19958E-01
        -0.40765E-01
        -0.23724E-01
        -0.15689E-01
        -0.19719E-01
        -0.23278E-01
        -0.24117E-01
        -0.18097E-02
         0.29940E-01
        -0.42818E-01
         0.99599E-01
         0.12872E+00
         0.16602E+00
         0.19906E+00
         0.19508E+00
         0.17058E+00
         0.16351E+00
         0.16167E+00
         0.10154E+00
         0.33472E-01
         0.13358E-01
         0.11449E-01
        -0.52995E-02
        -0.44932E-01
        -0.89985E-01
        -0.12513E+00
        -0.16292E+00
        -0.18060E+00
        -0.15875E+00
        -0.15015E+00
        -0.14962E+00
        -0.10537E+00
        -0.54724E-01
        -0.51820E-01
        -0.28056E-01
        -0.17689E-01
        -0.16374E-01
        -0.39105E-02
        -0.21257E-01
        -0.95674E-02
        -0.75906E-02
        -0.26545E-01
        -0.17411E-01
        -0.25017E-01
         0.13186E-01
         0.57003E-01
         0.33789E-01
         0.48556E-02
         0.56235E-01
         0.10634E-01
        -0.32520E-02
         0.30722E-02
         0.13877E-01
         0.26662E-02
         0.11979E-01
         0.84925E-02
        -0.49200E-02
         0.41508E-02
        -0.16861E-01
         0.41444E-02
         0.10541E-02
         0.19476E-02
        -0.30733E-02
        -0.16779E-01
         0.11463E-01
         0.30124E-02
         0.74242E-02
         0.64426E-02
        -0.30374E-02
         0.93543E-02
         0.17847E-01
         0.42758E-01
         0.37735E-01
         0.33223E-01
         0.24393E-01
        -0.60070E-02
        -0.12419E-01
        -0.15507E-01
        -0.19959E-01
        -0.40765E-01
        -0.23727E-01
        -0.15680E-01
        -0.19693E-01
        -0.23247E-01
        -0.24106E-01
        -0.17823E-02
         0.29912E-01
        -0.42820E-01
         0.99618E-01
         0.12872E+00
         0.16601E+00
         0.19899E+00
         0.19500E+00
         0.17052E+00
         0.16347E+00
         0.16162E+00
         0.10152E+00
         0.33487E-01
         0.13357E-01
         0.11473E-01
        -0.52563E-02
        -0.44955E-01
        -0.90026E-01
        -0.12516E+00
        -0.16291E+00
        -0.18059E+00
        -0.15874E+00
        -0.15014E+00
        -0.14958E+00
        -0.10529E+00
        -0.54663E-01
        -0.51752E-01
        -0.28074E-01
        -0.17692E-01
        -0.16382E-01
        -0.39392E-02
        -0.21259E-01
        -0.95753E-02
        -0.76001E-02
        -0.26589E-01
        -0.17442E-01
        -0.25110E-01
         0.13194E-01
         0.56998E-01
         0.33798E-01
         0.48551E-02
         0.56307E-01
         0.10635E-01
        -0.32817E-02
         0.30675E-02
         0.13887E-01
         0.26510E-02
         0.12009E-01
         0.85004E-02
        -0.49219E-02
         0.41482E-02
        -0.16936E-01
         0.41358E-02
         0.10672E-02
         0.19591E-02
        -0.30510E-02
        -0.16813E-01
         0.11464E-01
         0.30044E-02
         0.74407E-02
         0.64530E-02
        -0.30085E-02
         0.93607E-02
         0.17845E-01
         0.42824E-01
         0.37816E-01
         0.33261E-01
         0.24412E-01
        -0.59891E-02
        -0.12431E-01
        -0.15517E-01
        -0.19961E-01
        -0.40766E-01
        -0.23729E-01
        -0.15670E-01
        -0.19667E-01
        -0.23216E-01
        -0.24096E-01
        -0.17550E-02
         0.29884E-01
        -0.42823E-01
         0.99636E-01
         0.12873E+00
         0.16599E+00
         0.19892E+00
         0.19492E+00
         0.17047E+00
         0.16344E+00
         0.16158E+00
         0.10150E+00
         0.33504E-01
         0.13356E-01
         0.11496E-01
        -0.52129E-02
        -0.44980E-01
        -0.90068E-01
        -0.12519E+00
        -0.16291E+00
        -0.18058E+00
        -0.15873E+00
        -0.15014E+00
        -0.14954E+00
        -0.10522E+00
        -0.54604E-01
        -0.51684E-01
        -0.28091E-01
        -0.17696E-01
        -0.16391E-01
        -0.39682E-02
        -0.21262E-01
        -0.95830E-02
        -0.76102E-02
        -0.26634E-01
        -0.17474E-01
        -0.25201E-01
         0.13202E-01
         0.56994E-01
         0.33807E-01
         0.48552E-02
         0.56378E-01
         0.10636E-01
        -0.33118E-02
         0.30628E-02
         0.13897E-01
         0.26349E-02
         0.12039E-01
         0.85076E-02
        -0.49261E-02
         0.41441E-02
        -0.17009E-01
         0.41244E-02
         0.10807E-02
         0.19744E-02
        -0.30234E-02
        -0.16844E-01
         0.11465E-01
         0.29936E-02
         0.74570E-02
         0.64634E-02
        -0.29796E-02
         0.93667E-02
         0.17844E-01
         0.42890E-01
         0.37899E-01
         0.33303E-01
         0.24435E-01
        -0.59663E-02
        -0.12441E-01
        -0.15532E-01
        -0.19967E-01
        -0.40768E-01
        -0.23733E-01
        -0.15661E-01
        -0.19640E-01
        -0.23185E-01
        -0.24086E-01
        -0.17278E-02
         0.29856E-01
        -0.42825E-01
         0.99655E-01
         0.12873E+00
         0.16597E+00
         0.19886E+00
         0.19484E+00
         0.17042E+00
         0.16341E+00
         0.16153E+00
         0.10148E+00
         0.33523E-01
         0.13356E-01
         0.11520E-01
        -0.51691E-02
        -0.45006E-01
        -0.90117E-01
        -0.12522E+00
        -0.16291E+00
        -0.18057E+00
        -0.15872E+00
        -0.15013E+00
        -0.14951E+00
        -0.10515E+00
        -0.54544E-01
        -0.51616E-01
        -0.28109E-01
        -0.17699E-01
        -0.16399E-01
        -0.39969E-02
        -0.21264E-01
        -0.95906E-02
        -0.76195E-02
        -0.26678E-01
        -0.17505E-01
        -0.25292E-01
         0.13210E-01
         0.56989E-01
         0.33815E-01
         0.48555E-02
         0.56450E-01
         0.10637E-01
        -0.33424E-02
         0.30580E-02
         0.13908E-01
         0.26179E-02
         0.12070E-01
         0.85140E-02
        -0.49326E-02
         0.41383E-02
        -0.17079E-01
         0.41102E-02
         0.10958E-02
         0.19930E-02
        -0.29902E-02
        -0.16872E-01
         0.11465E-01
         0.29795E-02
         0.74733E-02
         0.64739E-02
        -0.29506E-02
         0.93729E-02
         0.17843E-01
         0.42957E-01
         0.37984E-01
         0.33347E-01
         0.24461E-01
        -0.59384E-02
        -0.12448E-01
        -0.15553E-01
        -0.19977E-01
        -0.40773E-01
        -0.23738E-01
        -0.15652E-01
        -0.19615E-01
        -0.23153E-01
        -0.24075E-01
        -0.17004E-02
         0.29828E-01
        -0.42828E-01
         0.99673E-01
         0.12873E+00
         0.16595E+00
         0.19879E+00
         0.19475E+00
         0.17037E+00
         0.16337E+00
         0.16149E+00
         0.10146E+00
         0.33547E-01
         0.13357E-01
         0.11542E-01
        -0.51253E-02
        -0.45035E-01
        -0.90172E-01
        -0.12526E+00
        -0.16291E+00
        -0.18056E+00
        -0.15871E+00
        -0.15012E+00
        -0.14947E+00
        -0.10507E+00
        -0.54485E-01
        -0.51548E-01
        -0.28125E-01
        -0.17701E-01
        -0.16407E-01
        -0.40260E-02
        -0.21267E-01
        -0.95982E-02
        -0.76279E-02
        -0.26720E-01
        -0.17537E-01
        -0.25379E-01
         0.13219E-01
         0.56984E-01
         0.33824E-01
         0.48564E-02
         0.56522E-01
         0.10638E-01
        -0.33737E-02
         0.30533E-02
         0.13918E-01
         0.26005E-02
         0.12101E-01
         0.85201E-02
        -0.49401E-02
         0.41319E-02
        -0.17147E-01
         0.40950E-02
         0.11120E-02
         0.20136E-02
        -0.29547E-02
        -0.16898E-01
         0.11465E-01
         0.29638E-02
         0.74900E-02
         0.64849E-02
        -0.29214E-02
         0.93797E-02
         0.17843E-01
         0.43024E-01
         0.38069E-01
         0.33392E-01
         0.24488E-01
        -0.59088E-02
        -0.12455E-01
        -0.15575E-01
        -0.19990E-01
        -0.40780E-01
        -0.23744E-01
        -0.15645E-01
        -0.19590E-01
        -0.23122E-01
        -0.24065E-01
        -0.16730E-02
         0.29800E-01
        -0.42830E-01
         0.99691E-01
         0.12873E+00
         0.16593E+00
         0.19872E+00
         0.19467E+00
         0.17032E+00
         0.16334E+00
         0.16145E+00
         0.10145E+00
         0.33572E-01
         0.13359E-01
         0.11565E-01
        -0.50815E-02
        -0.45064E-01
        -0.90229E-01
        -0.12530E+00
        -0.16291E+00
        -0.18055E+00
        -0.15870E+00
        -0.15012E+00
        -0.14943E+00
        -0.10500E+00
        -0.54425E-01
        -0.51480E-01
        -0.28140E-01
        -0.17700E-01
        -0.16415E-01
        -0.40559E-02
        -0.21269E-01
        -0.96061E-02
        -0.76345E-02
        -0.26758E-01
        -0.17569E-01
        -0.25463E-01
         0.13230E-01
         0.56982E-01
         0.33836E-01
         0.48601E-02
         0.56594E-01
         0.10640E-01
        -0.34057E-02
         0.30486E-02
         0.13929E-01
         0.25832E-02
         0.12132E-01
         0.85263E-02
        -0.49476E-02
         0.41257E-02
        -0.17214E-01
         0.40797E-02
         0.11312E-02
         0.20356E-02
        -0.29186E-02
        -0.16924E-01
         0.11464E-01
         0.29469E-02
         0.75072E-02
         0.64963E-02
        -0.28921E-02
         0.93869E-02
         0.17844E-01
         0.43092E-01
         0.38155E-01
         0.33438E-01
         0.24515E-01
        -0.58786E-02
        -0.12461E-01
        -0.15598E-01
        -0.20003E-01
        -0.40788E-01
        -0.23754E-01
        -0.15642E-01
        -0.19570E-01
        -0.23093E-01
        -0.24055E-01
        -0.16453E-02
         0.29772E-01
        -0.42833E-01
         0.99709E-01
         0.12873E+00
         0.16591E+00
         0.19866E+00
         0.19459E+00
         0.17027E+00
         0.16330E+00
         0.16140E+00
         0.10143E+00
         0.33596E-01
         0.13361E-01
         0.11588E-01
        -0.50376E-02
        -0.45093E-01
        -0.90286E-01
        -0.12534E+00
        -0.16290E+00
        -0.18054E+00
        -0.15869E+00
        -0.15012E+00
        -0.14939E+00
        -0.10492E+00
        -0.54366E-01
        -0.51412E-01
        -0.28155E-01
        -0.17699E-01
        -0.16423E-01
        -0.40861E-02
        -0.21272E-01
        -0.96138E-02
        -0.76396E-02
        -0.26795E-01
        -0.17602E-01
        -0.25546E-01
         0.13242E-01
         0.56978E-01
         0.33847E-01
         0.48645E-02
         0.56667E-01
         0.10642E-01
        -0.34381E-02
         0.30437E-02
         0.13940E-01
         0.25658E-02
         0.12164E-01
         0.85327E-02
        -0.49549E-02
         0.41196E-02
        -0.17280E-01
         0.40645E-02
         0.11510E-02
         0.20581E-02
        -0.28823E-02
        -0.16949E-01
         0.11462E-01
         0.29294E-02
         0.75246E-02
         0.65083E-02
        -0.28625E-02
         0.93946E-02
         0.17845E-01
         0.43161E-01
         0.38242E-01
         0.33484E-01
         0.24543E-01
        -0.58483E-02
        -0.12467E-01
        -0.15621E-01
        -0.20016E-01
        -0.40797E-01
        -0.23765E-01
        -0.15641E-01
        -0.19551E-01
        -0.23064E-01
        -0.24045E-01
        -0.16176E-02
         0.29744E-01
        -0.42835E-01
         0.99726E-01
         0.12873E+00
         0.16589E+00
         0.19859E+00
         0.19451E+00
         0.17022E+00
         0.16327E+00
         0.16136E+00
         0.10142E+00
         0.33621E-01
         0.13363E-01
         0.11611E-01
        -0.49937E-02
        -0.45122E-01
        -0.90343E-01
        -0.12537E+00
        -0.16290E+00
        -0.18052E+00
        -0.15868E+00
        -0.15011E+00
        -0.14935E+00
        -0.10485E+00
        -0.54306E-01
        -0.51344E-01
        -0.28169E-01
        -0.17698E-01
        -0.16431E-01
        -0.41164E-02
        -0.21275E-01
        -0.96215E-02
        -0.76448E-02
        -0.26831E-01
        -0.17634E-01
        -0.25627E-01
         0.13253E-01
         0.56976E-01
         0.33858E-01
         0.48695E-02
         0.56740E-01
         0.10644E-01
        -0.34707E-02
         0.30388E-02
         0.13950E-01
         0.25483E-02
         0.12195E-01
         0.85391E-02
        -0.49624E-02
         0.41136E-02
        -0.17346E-01
         0.40494E-02
         0.11714E-02
         0.20803E-02
        -0.28461E-02
        -0.16974E-01
         0.11461E-01
         0.29120E-02
         0.75421E-02
         0.65201E-02
        -0.28328E-02
         0.94018E-02
         0.17846E-01
         0.43230E-01
         0.38329E-01
         0.33529E-01
         0.24570E-01
        -0.58183E-02
        -0.12473E-01
        -0.15644E-01
        -0.20030E-01
        -0.40807E-01
        -0.23775E-01
        -0.15640E-01
        -0.19533E-01
        -0.23035E-01
        -0.24036E-01
        -0.15898E-02
         0.29716E-01
        -0.42838E-01
         0.99744E-01
         0.12873E+00
         0.16587E+00
         0.19852E+00
         0.19443E+00
         0.17017E+00
         0.16324E+00
         0.16131E+00
         0.10140E+00
         0.33645E-01
         0.13365E-01
         0.11635E-01
        -0.49499E-02
        -0.45152E-01
        -0.90400E-01
        -0.12541E+00
        -0.16289E+00
        -0.18051E+00
        -0.15867E+00
        -0.15011E+00
        -0.14932E+00
        -0.10477E+00
        -0.54247E-01
        -0.51277E-01
        -0.28183E-01
        -0.17697E-01
        -0.16438E-01
        -0.41465E-02
        -0.21277E-01
        -0.96290E-02
        -0.76500E-02
        -0.26867E-01
        -0.17667E-01
        -0.25709E-01
         0.13265E-01
         0.56973E-01
         0.33870E-01
         0.48737E-02
         0.56813E-01
         0.10646E-01
        -0.35034E-02
         0.30340E-02
         0.13961E-01
         0.25307E-02
         0.12226E-01
         0.85453E-02
        -0.49694E-02
         0.41076E-02
        -0.17412E-01
         0.40343E-02
         0.11912E-02
         0.21024E-02
        -0.28100E-02
        -0.16999E-01
         0.11460E-01
         0.28946E-02
         0.75593E-02
         0.65319E-02
        -0.28031E-02
         0.94095E-02
         0.17847E-01
         0.43299E-01
         0.38415E-01
         0.33575E-01
         0.24598E-01
        -0.57883E-02
        -0.12479E-01
        -0.15666E-01
        -0.20044E-01
        -0.40816E-01
        -0.23786E-01
        -0.15640E-01
        -0.19514E-01
        -0.23006E-01
        -0.24026E-01
        -0.15620E-02
         0.29688E-01
        -0.42840E-01
         0.99760E-01
         0.12873E+00
         0.16585E+00
         0.19846E+00
         0.19434E+00
         0.17011E+00
         0.16321E+00
         0.16126E+00
         0.10138E+00
         0.33670E-01
         0.13367E-01
         0.11658E-01
        -0.49062E-02
        -0.45181E-01
        -0.90457E-01
        -0.12545E+00
        -0.16289E+00
        -0.18050E+00
        -0.15867E+00
        -0.15011E+00
        -0.14928E+00
        -0.10470E+00
        -0.54188E-01
        -0.51209E-01
        -0.28197E-01
        -0.17695E-01
        -0.16446E-01
        -0.41765E-02
        -0.21280E-01
        -0.96367E-02
        -0.76557E-02
        -0.26903E-01
        -0.17700E-01
        -0.25791E-01
         0.13277E-01
         0.56970E-01
         0.33881E-01
         0.48785E-02
         0.56886E-01
         0.10648E-01
        -0.35362E-02
         0.30291E-02
         0.13972E-01
         0.25130E-02
         0.12257E-01
         0.85514E-02
        -0.49768E-02
         0.41017E-02
        -0.17477E-01
         0.40193E-02
         0.12114E-02
         0.21241E-02
        -0.27739E-02
        -0.17025E-01
         0.11458E-01
         0.28772E-02
         0.75767E-02
         0.65438E-02
        -0.27733E-02
         0.94170E-02
         0.17849E-01
         0.43368E-01
         0.38502E-01
         0.33620E-01
         0.24625E-01
        -0.57583E-02
        -0.12485E-01
        -0.15689E-01
        -0.20058E-01
        -0.40825E-01
        -0.23798E-01
        -0.15639E-01
        -0.19495E-01
        -0.22977E-01
        -0.24016E-01
        -0.15342E-02
         0.29660E-01
        -0.42842E-01
         0.99777E-01
         0.12873E+00
         0.16583E+00
         0.19839E+00
         0.19426E+00
         0.17006E+00
         0.16317E+00
         0.16122E+00
         0.10137E+00
         0.33694E-01
         0.13369E-01
         0.11681E-01
        -0.48623E-02
        -0.45210E-01
        -0.90514E-01
        -0.12549E+00
        -0.16288E+00
        -0.18049E+00
        -0.15866E+00
        -0.15010E+00
        -0.14924E+00
        -0.10462E+00
        -0.54129E-01
        -0.51141E-01
        -0.28212E-01
        -0.17694E-01
        -0.16454E-01
        -0.42069E-02
        -0.21283E-01
        -0.96443E-02
        -0.76608E-02
        -0.26939E-01
        -0.17733E-01
        -0.25872E-01
         0.13289E-01
         0.56967E-01
         0.33892E-01
         0.48832E-02
         0.56958E-01
         0.10650E-01
        -0.35691E-02
         0.30242E-02
         0.13982E-01
         0.24954E-02
         0.12288E-01
         0.85574E-02
        -0.49842E-02
         0.40959E-02
        -0.17543E-01
         0.40043E-02
         0.12311E-02
         0.21457E-02
        -0.27379E-02
        -0.17050E-01
         0.11457E-01
         0.28598E-02
         0.75940E-02
         0.65558E-02
        -0.27433E-02
         0.94245E-02
         0.17850E-01
         0.43438E-01
         0.38589E-01
         0.33665E-01
         0.24653E-01
        -0.57286E-02
        -0.12491E-01
        -0.15711E-01
        -0.20071E-01
        -0.40835E-01
        -0.23808E-01
        -0.15638E-01
        -0.19477E-01
        -0.22948E-01
        -0.24007E-01
        -0.15065E-02
         0.29632E-01
        -0.42844E-01
         0.99794E-01
         0.12873E+00
         0.16581E+00
         0.19832E+00
         0.19418E+00
         0.17001E+00
         0.16314E+00
         0.16117E+00
         0.10135E+00
         0.33718E-01
         0.13371E-01
         0.11704E-01
        -0.48183E-02
        -0.45239E-01
        -0.90571E-01
        -0.12552E+00
        -0.16288E+00
        -0.18048E+00
        -0.15865E+00
        -0.15010E+00
        -0.14920E+00
        -0.10455E+00
        -0.54071E-01
        -0.51073E-01
        -0.28226E-01
        -0.17693E-01
        -0.16462E-01
        -0.42373E-02
        -0.21286E-01
        -0.96519E-02
        -0.76660E-02
        -0.26975E-01
        -0.17766E-01
        -0.25953E-01
         0.13301E-01
         0.56964E-01
         0.33904E-01
         0.48873E-02
         0.57032E-01
         0.10652E-01
        -0.36019E-02
         0.30192E-02
         0.13993E-01
         0.24780E-02
         0.12319E-01
         0.85635E-02
        -0.49914E-02
         0.40900E-02
        -0.17608E-01
         0.39892E-02
         0.12514E-02
         0.21670E-02
        -0.27019E-02
        -0.17075E-01
         0.11456E-01
         0.28422E-02
         0.76112E-02
         0.65676E-02
        -0.27134E-02
         0.94323E-02
         0.17851E-01
         0.43507E-01
         0.38676E-01
         0.33711E-01
         0.24680E-01
        -0.56985E-02
        -0.12497E-01
        -0.15734E-01
        -0.20085E-01
        -0.40843E-01
        -0.23819E-01
        -0.15637E-01
        -0.19458E-01
        -0.22920E-01
        -0.23997E-01
        -0.14788E-02
         0.29604E-01
        -0.42846E-01
         0.99811E-01
         0.12874E+00
         0.16579E+00
         0.19825E+00
         0.19409E+00
         0.16996E+00
         0.16311E+00
         0.16112E+00
         0.10133E+00
         0.33743E-01
         0.13373E-01
         0.11728E-01
        -0.47744E-02
        -0.45268E-01
        -0.90629E-01
        -0.12556E+00
        -0.16287E+00
        -0.18047E+00
        -0.15864E+00
        -0.15010E+00
        -0.14916E+00
        -0.10447E+00
        -0.54012E-01
        -0.51005E-01
        -0.28240E-01
        -0.17691E-01
        -0.16470E-01
        -0.42677E-02
        -0.21288E-01
        -0.96596E-02
        -0.76718E-02
        -0.27010E-01
        -0.17798E-01
        -0.26034E-01
         0.13312E-01
         0.56961E-01
         0.33915E-01
         0.48920E-02
         0.57104E-01
         0.10654E-01
        -0.36349E-02
         0.30143E-02
         0.14004E-01
         0.24605E-02
         0.12350E-01
         0.85695E-02
        -0.49988E-02
         0.40842E-02
        -0.17674E-01
         0.39741E-02
         0.12712E-02
         0.21881E-02
        -0.26661E-02
        -0.17100E-01
         0.11454E-01
         0.28248E-02
         0.76285E-02
         0.65796E-02
        -0.26833E-02
         0.94398E-02
         0.17852E-01
         0.43577E-01
         0.38763E-01
         0.33755E-01
         0.24708E-01
        -0.56686E-02
        -0.12503E-01
        -0.15757E-01
        -0.20099E-01
        -0.40853E-01
        -0.23830E-01
        -0.15637E-01
        -0.19439E-01
        -0.22891E-01
        -0.23987E-01
        -0.14513E-02
         0.29575E-01
        -0.42848E-01
         0.99828E-01
         0.12874E+00
         0.16577E+00
         0.19819E+00
         0.19401E+00
         0.16991E+00
         0.16307E+00
         0.16108E+00
         0.10132E+00
         0.33767E-01
         0.13375E-01
         0.11751E-01
        -0.47306E-02
        -0.45297E-01
        -0.90686E-01
        -0.12560E+00
        -0.16287E+00
        -0.18045E+00
        -0.15864E+00
        -0.15009E+00
        -0.14912E+00
        -0.10440E+00
        -0.53954E-01
        -0.50937E-01
        -0.28254E-01
        -0.17690E-01
        -0.16478E-01
        -0.42980E-02
        -0.21291E-01
        -0.96671E-02
        -0.76770E-02
        -0.27046E-01
        -0.17831E-01
        -0.26115E-01
         0.13324E-01
         0.56959E-01
         0.33926E-01
         0.48960E-02
         0.57177E-01
         0.10656E-01
        -0.36681E-02
         0.30094E-02
         0.14014E-01
         0.24429E-02
         0.12381E-01
         0.85755E-02
        -0.50059E-02
         0.40785E-02
        -0.17739E-01
         0.39590E-02
         0.12913E-02
         0.22088E-02
        -0.26304E-02
        -0.17125E-01
         0.11453E-01
         0.28072E-02
         0.76457E-02
         0.65915E-02
        -0.26532E-02
         0.94475E-02
         0.17853E-01
         0.43647E-01
         0.38850E-01
         0.33800E-01
         0.24735E-01
        -0.56386E-02
        -0.12509E-01
        -0.15779E-01
        -0.20113E-01
        -0.40862E-01
        -0.23841E-01
        -0.15636E-01
        -0.19421E-01
        -0.22862E-01
        -0.23978E-01
        -0.14236E-02
         0.29547E-01
        -0.42850E-01
         0.99844E-01
         0.12874E+00
         0.16575E+00
         0.19812E+00
         0.19393E+00
         0.16986E+00
         0.16304E+00
         0.16103E+00
         0.10130E+00
         0.33791E-01
         0.13377E-01
         0.11774E-01
        -0.46868E-02
        -0.45326E-01
        -0.90743E-01
        -0.12563E+00
        -0.16287E+00
        -0.18044E+00
        -0.15863E+00
        -0.15009E+00
        -0.14908E+00
        -0.10432E+00
        -0.53896E-01
        -0.50869E-01
        -0.28268E-01
        -0.17688E-01
        -0.16485E-01
        -0.43283E-02
        -0.21294E-01
        -0.96748E-02
        -0.76824E-02
        -0.27082E-01
        -0.17864E-01
        -0.26196E-01
         0.13336E-01
         0.56956E-01
         0.33938E-01
         0.49005E-02
         0.57250E-01
         0.10659E-01
        -0.37014E-02
         0.30044E-02
         0.14025E-01
         0.24253E-02
         0.12412E-01
         0.85812E-02
        -0.50132E-02
         0.40729E-02
        -0.17804E-01
         0.39438E-02
         0.13108E-02
         0.22292E-02
        -0.25949E-02
        -0.17150E-01
         0.11452E-01
         0.27898E-02
         0.76629E-02
         0.66036E-02
        -0.26229E-02
         0.94550E-02
         0.17854E-01
         0.43717E-01
         0.38937E-01
         0.33844E-01
         0.24763E-01
        -0.56088E-02
        -0.12516E-01
        -0.15801E-01
        -0.20127E-01
        -0.40871E-01
        -0.23852E-01
        -0.15635E-01
        -0.19402E-01
        -0.22833E-01
        -0.23968E-01
        -0.13958E-02
         0.29519E-01
        -0.42852E-01
         0.99861E-01
         0.12874E+00
         0.16573E+00
         0.19805E+00
         0.19384E+00
         0.16980E+00
         0.16301E+00
         0.16098E+00
         0.10128E+00
         0.33816E-01
         0.13379E-01
         0.11797E-01
        -0.46429E-02
        -0.45355E-01
        -0.90800E-01
        -0.12567E+00
        -0.16286E+00
        -0.18043E+00
        -0.15862E+00
        -0.15009E+00
        -0.14904E+00
        -0.10425E+00
        -0.53838E-01
        -0.50801E-01
        -0.28281E-01
        -0.17687E-01
        -0.16493E-01
        -0.43586E-02
        -0.21296E-01
        -0.96823E-02
        -0.76880E-02
        -0.27117E-01
        -0.17898E-01
        -0.26277E-01
         0.13348E-01
         0.56953E-01
         0.33949E-01
         0.49044E-02
         0.57323E-01
         0.10661E-01
        -0.37349E-02
         0.29994E-02
         0.14035E-01
         0.24079E-02
         0.12443E-01
         0.85867E-02
        -0.50204E-02
         0.40672E-02
        -0.17870E-01
         0.39286E-02
         0.13309E-02
         0.22495E-02
        -0.25593E-02
        -0.17175E-01
         0.11450E-01
         0.27723E-02
         0.76800E-02
         0.66156E-02
        -0.25925E-02
         0.94625E-02
         0.17855E-01
         0.43787E-01
         0.39024E-01
         0.33889E-01
         0.24790E-01
        -0.55792E-02
        -0.12522E-01
        -0.15824E-01
        -0.20141E-01
        -0.40881E-01
        -0.23863E-01
        -0.15635E-01
        -0.19384E-01
        -0.22804E-01
        -0.23958E-01
        -0.13684E-02
         0.29490E-01
        -0.42854E-01
         0.99877E-01
         0.12874E+00
         0.16571E+00
         0.19798E+00
         0.19376E+00
         0.16975E+00
         0.16297E+00
         0.16093E+00
         0.10127E+00
         0.33841E-01
         0.13381E-01
         0.11820E-01
        -0.45992E-02
        -0.45384E-01
        -0.90857E-01
        -0.12571E+00
        -0.16286E+00
        -0.18042E+00
        -0.15862E+00
        -0.15008E+00
        -0.14900E+00
        -0.10417E+00
        -0.53781E-01
        -0.50733E-01
        -0.28295E-01
        -0.17686E-01
        -0.16501E-01
        -0.43892E-02
        -0.21299E-01
        -0.96898E-02
        -0.76934E-02
        -0.27152E-01
        -0.17931E-01
        -0.26358E-01
         0.13360E-01
         0.56950E-01
         0.33960E-01
         0.49087E-02
         0.57396E-01
         0.10663E-01
        -0.37687E-02
         0.29943E-02
         0.14046E-01
         0.23914E-02
         0.12474E-01
         0.85921E-02
        -0.50277E-02
         0.40615E-02
        -0.17935E-01
         0.39136E-02
         0.13508E-02
         0.22696E-02
        -0.25238E-02
        -0.17198E-01
         0.11449E-01
         0.27546E-02
         0.76971E-02
         0.66277E-02
        -0.25621E-02
         0.94703E-02
         0.17857E-01
         0.43859E-01
         0.39111E-01
         0.33930E-01
         0.24817E-01
        -0.55492E-02
        -0.12528E-01
        -0.15847E-01
        -0.20155E-01
        -0.40890E-01
        -0.23874E-01
        -0.15634E-01
        -0.19365E-01
        -0.22775E-01
        -0.23949E-01
        -0.13408E-02
         0.29462E-01
        -0.42855E-01
         0.99893E-01
         0.12874E+00
         0.16569E+00
         0.19792E+00
         0.19367E+00
         0.16970E+00
         0.16294E+00
         0.16088E+00
         0.10125E+00
         0.33865E-01
         0.13381E-01
         0.11843E-01
        -0.45556E-02
        -0.45413E-01
        -0.90915E-01
        -0.12575E+00
        -0.16285E+00
        -0.18041E+00
        -0.15861E+00
        -0.15008E+00
        -0.14896E+00
        -0.10410E+00
        -0.53723E-01
        -0.50665E-01
        -0.28309E-01
        -0.17684E-01
        -0.16509E-01
        -0.44196E-02
        -0.21302E-01
        -0.96972E-02
        -0.76987E-02
        -0.27187E-01
        -0.17965E-01
        -0.26438E-01
         0.13372E-01
         0.56948E-01
         0.33972E-01
         0.49131E-02
         0.57469E-01
         0.10665E-01
        -0.38031E-02
         0.29892E-02
         0.14057E-01
         0.23755E-02
         0.12505E-01
         0.85973E-02
        -0.50349E-02
         0.40559E-02
        -0.18001E-01
         0.38984E-02
         0.13716E-02
         0.22894E-02
        -0.24884E-02
        -0.17219E-01
         0.11447E-01
         0.27371E-02
         0.77141E-02
         0.66396E-02
        -0.25315E-02
         0.94778E-02
         0.17858E-01
         0.43931E-01
         0.39197E-01
         0.33971E-01
         0.24844E-01
        -0.55193E-02
        -0.12535E-01
        -0.15869E-01
        -0.20169E-01
        -0.40900E-01
        -0.23885E-01
        -0.15633E-01
        -0.19347E-01
        -0.22746E-01
        -0.23939E-01
        -0.13131E-02
         0.29433E-01
        -0.42857E-01
         0.99909E-01
         0.12874E+00
         0.16567E+00
         0.19785E+00
         0.19359E+00
         0.16965E+00
         0.16291E+00
         0.16083E+00
         0.10124E+00
         0.33891E-01
         0.13381E-01
         0.11865E-01
        -0.45118E-02
        -0.45442E-01
        -0.90972E-01
        -0.12578E+00
        -0.16285E+00
        -0.18040E+00
        -0.15860E+00
        -0.15008E+00
        -0.14892E+00
        -0.10403E+00
        -0.53666E-01
        -0.50597E-01
        -0.28323E-01
        -0.17683E-01
        -0.16517E-01
        -0.44499E-02
        -0.21305E-01
        -0.97048E-02
        -0.77046E-02
        -0.27222E-01
        -0.17999E-01
        -0.26519E-01
         0.13384E-01
         0.56945E-01
         0.33983E-01
         0.49168E-02
         0.57541E-01
         0.10667E-01
        -0.38377E-02
         0.29842E-02
         0.14067E-01
         0.23601E-02
         0.12536E-01
         0.86026E-02
        -0.50417E-02
         0.40507E-02
        -0.18066E-01
         0.38838E-02
         0.13918E-02
         0.23085E-02
        -0.24534E-02
        -0.17241E-01
         0.11446E-01
         0.27199E-02
         0.77312E-02
         0.66519E-02
        -0.25012E-02
         0.94852E-02
         0.17858E-01
         0.44003E-01
         0.39283E-01
         0.34010E-01
         0.24870E-01
        -0.54900E-02
        -0.12542E-01
        -0.15891E-01
        -0.20183E-01
        -0.40909E-01
        -0.23896E-01
        -0.15633E-01
        -0.19329E-01
        -0.22717E-01
        -0.23930E-01
        -0.12856E-02
         0.29404E-01
        -0.42859E-01
         0.99925E-01
         0.12874E+00
         0.16565E+00
         0.19778E+00
         0.19351E+00
         0.16960E+00
         0.16287E+00
         0.16078E+00
         0.10123E+00
         0.33915E-01
         0.13380E-01
         0.11888E-01
        -0.44679E-02
        -0.45470E-01
        -0.91029E-01
        -0.12582E+00
        -0.16285E+00
        -0.18038E+00
        -0.15859E+00
        -0.15007E+00
        -0.14888E+00
        -0.10395E+00
        -0.53610E-01
        -0.50529E-01
        -0.28472E-01
        -0.17770E-01
        -0.16608E-01
        -0.45004E-02
        -0.21413E-01
        -0.97587E-02
        -0.77493E-02
        -0.27387E-01
        -0.18116E-01
        -0.26722E-01
         0.13461E-01
         0.57225E-01
         0.34158E-01
         0.49451E-02
         0.57904E-01
         0.10720E-01
        -0.38888E-02
         0.29933E-02
         0.14145E-01
         0.23578E-02
         0.12625E-01
         0.86488E-02
        -0.50681E-02
         0.40676E-02
        -0.18217E-01
         0.38924E-02
         0.14173E-02
         0.23345E-02
        -0.24372E-02
        -0.17349E-01
         0.11501E-01
         0.27209E-02
         0.77842E-02
         0.66956E-02
        -0.24861E-02
         0.95344E-02
         0.17941E-01
         0.44292E-01
         0.39561E-01
         0.34219E-01
         0.25017E-01
        -0.54948E-02
        -0.12614E-01
        -0.15979E-01
        -0.20285E-01
        -0.41108E-01
        -0.24015E-01
        -0.15701E-01
        -0.19401E-01
        -0.22798E-01
        -0.24036E-01
        -0.12645E-02
         0.29534E-01
        -0.43100E-01
         0.10049E+00
         0.12944E+00
         0.16654E+00
         0.19884E+00
         0.19454E+00
         0.17053E+00
         0.16379E+00
         0.16167E+00
         0.10180E+00
         0.34120E-01
         0.13445E-01
         0.11969E-01
        -0.44485E-02
        -0.45718E-01
        -0.91530E-01
        -0.12651E+00
        -0.16374E+00
        -0.18137E+00
        -0.15942E+00
        -0.15084E+00
        -0.14962E+00
        -0.10443E+00
        -0.53837E-01
        -0.50729E-01
        -0.42709E-01
        -0.26774E-01
        -0.24882E-01
        -0.67978E-02
        -0.30980E-01
        -0.14257E-01
        -0.11659E-01
        -0.40934E-01
        -0.27133E-01
        -0.39864E-01
         0.19916E-01
         0.81324E-01
         0.49263E-01
         0.72874E-02
         0.82781E-01
         0.16096E-01
        -0.58601E-02
         0.44896E-02
         0.20970E-01
         0.34954E-02
         0.18216E-01
         0.12626E-01
        -0.73154E-02
         0.60735E-02
        -0.27452E-01
         0.58577E-02
         0.21234E-02
         0.35212E-02
        -0.36583E-02
        -0.26099E-01
         0.17270E-01
         0.40730E-02
         0.11728E-01
         0.10076E-01
        -0.34832E-02
         0.13911E-01
         0.26175E-01
         0.64724E-01
         0.58650E-01
         0.50901E-01
         0.36698E-01
        -0.81018E-02
        -0.18629E-01
        -0.23247E-01
        -0.29416E-01
        -0.57939E-01
        -0.34716E-01
        -0.22963E-01
        -0.28514E-01
        -0.33363E-01
        -0.34352E-01
        -0.18123E-02
         0.37147E-01
        -0.54168E-01
         0.12628E+00
         0.16309E+00
         0.20962E+00
         0.25076E+00
         0.24814E+00
         0.21954E+00
         0.21053E+00
         0.20652E+00
         0.13020E+00
         0.43554E-01
         0.17350E-01
         0.15517E-01
        -0.56487E-02
        -0.57758E-01
        -0.11528E+00
        -0.15843E+00
        -0.20505E+00
        -0.22734E+00
        -0.20194E+00
        -0.19194E+00
        -0.18967E+00
        -0.13282E+00
        -0.68232E-01
        -0.64056E-01
  
SCALARS                      strain_xz  double 1
LOOKUP_TABLE default
        -0.88531E-01
         0.60917E+00
         0.20363E+01
        -0.14429E+00
        -0.46625E-09
         0.16532E-09
         0.55279E-09
         0.11040E-09
         0.54994E+01
         0.37627E+01
         0.16534E-08
         0.14893E-08
        -0.23237E+00
         0.94783E+00
        -0.20392E-09
        -0.95529E-09
         0.21008E+00
         0.90890E+00
        -0.69004E-09
        -0.10277E-08
         0.12966E+01
         0.21110E+01
         0.20690E+01
        -0.68624E-09
        -0.31645E-09
         0.55285E-09
         0.22534E+01
         0.17554E+01
        -0.12846E-08
        -0.10190E-08
        -0.49080E+00
         0.10551E+01
        -0.10762E+00
         0.13079E-09
        -0.50541E-09
        -0.31137E-09
        -0.14243E+01
        -0.65958E+00
        -0.75037E-09
        -0.79895E-09
        -0.27802E+01
        -0.37971E+01
        -0.16926E-08
        -0.12482E-08
        -0.30533E+01
        -0.16569E+01
        -0.18588E-08
        -0.89468E-09
         0.81055E+00
        -0.56159E-09
        -0.21195E+01
        -0.15633E-09
         0.81428E+00
        -0.10973E-08
        -0.60204E+00
        -0.29028E-09
        -0.26133E+01
        -0.74964E+00
        -0.24866E-09
        -0.60105E-09
         0.52375E-01
        -0.14178E+01
         0.49735E-09
         0.34106E-09
         0.37820E+00
        -0.50027E-10
         0.12431E+01
         0.32905E-09
         0.74945E+01
         0.52623E+01
         0.20567E-08
         0.14916E-08
         0.33828E+01
         0.10861E-08
        -0.71444E+00
        -0.75133E-09
        -0.22127E+01
        -0.14746E-09
        -0.46518E+01
        -0.22877E-09
        -0.60702E+01
        -0.45095E+01
        -0.83841E-09
        -0.95886E-09
        -0.41927E+01
        -0.10312E-08
        -0.36770E+01
        -0.14847E-08
        -0.22227E+01
        -0.94696E-09
        -0.33512E+01
        -0.25397E+01
        -0.40415E-09
         0.55424E-09
         0.59424E+00
         0.65011E-09
         0.16407E+01
         0.27297E-09
         0.38802E+01
         0.67408E-09
         0.55667E+01
         0.39216E+01
         0.15543E-08
         0.16219E-08
         0.11707E+02
         0.12733E+02
         0.28719E-08
         0.28302E-08
         0.11069E+02
         0.24535E-08
         0.98909E+01
         0.18335E-08
         0.70623E+01
         0.10076E-08
         0.48327E+01
         0.10775E-09
         0.16473E+01
        -0.38376E-09
        -0.20547E+01
        -0.30703E-09
        -0.48961E+01
        -0.30177E-09
        -0.73225E+01
        -0.68052E-09
        -0.10292E+02
        -0.12947E-08
        -0.12637E+02
        -0.15450E-08
        -0.13971E+02
        -0.14577E-08
        -0.14205E+02
        -0.15852E-08
        -0.13742E+02
        -0.20573E-08
        -0.12741E+02
        -0.24260E-08
        -0.11020E+02
        -0.22552E-08
        -0.87562E+01
        -0.18328E-08
        -0.52147E+01
        -0.86525E-09
        -0.41427E+00
         0.16522E-09
         0.26541E+01
         0.40113E-09
         0.42915E+01
         0.65594E-09
         0.67094E+01
         0.12837E-08
         0.92293E+01
         0.21065E-08
         0.11787E+02
         0.25308E-08
         0.13159E+02
         0.25886E-08
        -0.34757E-03
         0.10107E-03
         0.13128E-03
        -0.50767E-03
         0.21140E-03
         0.85615E-03
        -0.54305E-06
        -0.99139E-04
        -0.16089E-03
        -0.16521E-03
        -0.54671E-04
        -0.30853E-03
        -0.24450E-03
         0.69438E-04
         0.18294E-03
         0.66042E-03
         0.50389E-03
        -0.29877E-03
        -0.17575E-03
        -0.24635E-03
        -0.89916E-03
        -0.12729E-02
        -0.62224E-03
        -0.23592E-03
         0.15823E-03
        -0.11453E-03
        -0.10719E-03
        -0.14687E-04
         0.73248E-04
        -0.18161E-03
         0.56319E-03
         0.55037E-04
        -0.26444E-03
        -0.57329E-04
        -0.14164E-02
        -0.23783E-03
         0.69346E-04
         0.18572E-03
         0.12319E-03
         0.73293E-03
         0.22130E-02
         0.46491E-03
        -0.10330E-02
        -0.61121E-03
        -0.35405E-04
         0.52934E-03
        -0.10109E-04
         0.35473E-03
         0.94618E-04
         0.18576E-04
        -0.72339E-03
         0.26784E-03
        -0.11347E-01
        -0.80083E-02
        -0.77379E-02
        -0.58895E-02
        -0.45188E-02
        -0.29108E-02
         0.20974E-03
         0.26614E-02
         0.39597E-02
         0.69157E-02
         0.12076E-01
         0.87207E-02
         0.59340E-02
         0.49327E-02
         0.38506E-02
         0.28178E-02
         0.26036E-02
         0.36784E-02
         0.42286E-02
        -0.57940E-03
        -0.17319E-02
        -0.19360E-02
        -0.34408E-02
        -0.69218E-02
        -0.62495E-02
        -0.55074E-02
        -0.95207E-02
         0.19546E-02
        -0.37211E-02
        -0.10835E-01
         0.22222E-01
         0.18992E-01
         0.55336E-02
        -0.12078E-01
        -0.55503E-02
        -0.11483E-01
        -0.23200E-02
         0.84604E-02
         0.27839E-01
        -0.21353E-01
        -0.22107E-01
         0.18706E-01
         0.10414E-01
        -0.62376E-02
        -0.41976E-02
        -0.73719E-02
        -0.43728E-01
        -0.41676E-01
        -0.41126E-01
        -0.99495E-02
         0.56510E-02
         0.38051E-02
        -0.20634E-01
         0.27399E-02
        -0.69060E-02
        -0.94172E-02
         0.14372E-01
         0.93000E-02
        -0.93215E-02
        -0.80450E-02
         0.39628E-01
         0.21875E-01
         0.25090E-01
        -0.24520E-01
        -0.41059E-02
        -0.11905E-01
        -0.43728E-01
        -0.44984E-01
        -0.43970E-01
        -0.31797E-01
        -0.24487E-01
        -0.14326E-01
         0.15485E-01
         0.18282E-01
        -0.24167E-02
         0.29097E-02
         0.29821E-01
         0.26272E-01
         0.16498E+00
         0.16623E+00
         0.14915E+00
         0.12303E+00
         0.91737E-01
         0.42215E-01
        -0.10487E-01
        -0.34021E-01
        -0.44827E-01
        -0.82118E-01
        -0.14589E+00
        -0.17213E+00
        -0.14456E+00
        -0.13758E+00
        -0.15148E+00
        -0.15592E+00
        -0.14226E+00
        -0.13445E+00
        -0.68532E-01
         0.17808E-01
         0.39423E-01
         0.39957E-01
         0.71004E-01
         0.12296E+00
         0.15735E+00
         0.15687E+00
        -0.95387E-02
         0.19618E-02
        -0.37281E-02
        -0.10842E-01
         0.22201E-01
         0.18974E-01
         0.55688E-02
        -0.12048E-01
        -0.55564E-02
        -0.11474E-01
        -0.22730E-02
         0.84810E-02
         0.27855E-01
        -0.21300E-01
        -0.22095E-01
         0.18725E-01
         0.10437E-01
        -0.62204E-02
        -0.41956E-02
        -0.73589E-02
        -0.43724E-01
        -0.41671E-01
        -0.41123E-01
        -0.99500E-02
         0.56637E-02
         0.38115E-02
        -0.20640E-01
         0.26884E-02
        -0.69545E-02
        -0.94231E-02
         0.14393E-01
         0.92988E-02
        -0.92827E-02
        -0.80487E-02
         0.39648E-01
         0.21865E-01
         0.25082E-01
        -0.24560E-01
        -0.41453E-02
        -0.11942E-01
        -0.43755E-01
        -0.45010E-01
        -0.43972E-01
        -0.31792E-01
        -0.24478E-01
        -0.14318E-01
         0.15482E-01
         0.18288E-01
        -0.23991E-02
         0.28998E-02
         0.29802E-01
         0.26234E-01
         0.16493E+00
         0.16618E+00
         0.14914E+00
         0.12303E+00
         0.91709E-01
         0.42202E-01
        -0.10499E-01
        -0.34042E-01
        -0.44790E-01
        -0.82086E-01
        -0.14587E+00
        -0.17213E+00
        -0.14455E+00
        -0.13757E+00
        -0.15149E+00
        -0.15595E+00
        -0.14229E+00
        -0.13448E+00
        -0.68513E-01
         0.17816E-01
         0.39395E-01
         0.39941E-01
         0.70952E-01
         0.12289E+00
         0.15727E+00
         0.15680E+00
        -0.95568E-02
         0.19689E-02
        -0.37351E-02
        -0.10849E-01
         0.22179E-01
         0.18957E-01
         0.56041E-02
        -0.12017E-01
        -0.55621E-02
        -0.11464E-01
        -0.22262E-02
         0.85015E-02
         0.27872E-01
        -0.21248E-01
        -0.22083E-01
         0.18745E-01
         0.10460E-01
        -0.62029E-02
        -0.41935E-02
        -0.73464E-02
        -0.43720E-01
        -0.41666E-01
        -0.41120E-01
        -0.99506E-02
         0.56773E-02
         0.38183E-02
        -0.20646E-01
         0.26375E-02
        -0.70034E-02
        -0.94291E-02
         0.14414E-01
         0.92981E-02
        -0.92436E-02
        -0.80523E-02
         0.39668E-01
         0.21855E-01
         0.25074E-01
        -0.24599E-01
        -0.41846E-02
        -0.11980E-01
        -0.43783E-01
        -0.45036E-01
        -0.43975E-01
        -0.31788E-01
        -0.24470E-01
        -0.14311E-01
         0.15479E-01
         0.18294E-01
        -0.23810E-02
         0.28895E-02
         0.29783E-01
         0.26195E-01
         0.16487E+00
         0.16614E+00
         0.14913E+00
         0.12303E+00
         0.91681E-01
         0.42190E-01
        -0.10511E-01
        -0.34063E-01
        -0.44752E-01
        -0.82053E-01
        -0.14585E+00
        -0.17213E+00
        -0.14454E+00
        -0.13756E+00
        -0.15151E+00
        -0.15598E+00
        -0.14231E+00
        -0.13450E+00
        -0.68494E-01
         0.17824E-01
         0.39366E-01
         0.39926E-01
         0.70900E-01
         0.12281E+00
         0.15720E+00
         0.15673E+00
        -0.95748E-02
         0.19763E-02
        -0.37419E-02
        -0.10857E-01
         0.22157E-01
         0.18940E-01
         0.56390E-02
        -0.11987E-01
        -0.55671E-02
        -0.11453E-01
        -0.21794E-02
         0.85225E-02
         0.27889E-01
        -0.21195E-01
        -0.22071E-01
         0.18767E-01
         0.10485E-01
        -0.61854E-02
        -0.41917E-02
        -0.73333E-02
        -0.43717E-01
        -0.41663E-01
        -0.41120E-01
        -0.99511E-02
         0.56935E-02
         0.38268E-02
        -0.20651E-01
         0.25882E-02
        -0.70520E-02
        -0.94346E-02
         0.14437E-01
         0.92990E-02
        -0.92044E-02
        -0.80559E-02
         0.39687E-01
         0.21845E-01
         0.25066E-01
        -0.24638E-01
        -0.42238E-02
        -0.12018E-01
        -0.43811E-01
        -0.45065E-01
        -0.43981E-01
        -0.31785E-01
        -0.24460E-01
        -0.14304E-01
         0.15477E-01
         0.18300E-01
        -0.23629E-02
         0.28793E-02
         0.29764E-01
         0.26156E-01
         0.16481E+00
         0.16610E+00
         0.14911E+00
         0.12303E+00
         0.91653E-01
         0.42177E-01
        -0.10523E-01
        -0.34084E-01
        -0.44714E-01
        -0.82021E-01
        -0.14582E+00
        -0.17214E+00
        -0.14453E+00
        -0.13756E+00
        -0.15154E+00
        -0.15602E+00
        -0.14234E+00
        -0.13453E+00
        -0.68475E-01
         0.17832E-01
         0.39337E-01
         0.39910E-01
         0.70848E-01
         0.12274E+00
         0.15712E+00
         0.15666E+00
        -0.95927E-02
         0.19837E-02
        -0.37489E-02
        -0.10864E-01
         0.22136E-01
         0.18922E-01
         0.56744E-02
        -0.11956E-01
        -0.55714E-02
        -0.11440E-01
        -0.21326E-02
         0.85431E-02
         0.27906E-01
        -0.21143E-01
        -0.22060E-01
         0.18790E-01
         0.10510E-01
        -0.61679E-02
        -0.41894E-02
        -0.73201E-02
        -0.43716E-01
        -0.41661E-01
        -0.41122E-01
        -0.99517E-02
         0.57122E-02
         0.38365E-02
        -0.20655E-01
         0.25405E-02
        -0.71005E-02
        -0.94398E-02
         0.14462E-01
         0.93013E-02
        -0.91650E-02
        -0.80595E-02
         0.39707E-01
         0.21836E-01
         0.25058E-01
        -0.24677E-01
        -0.42628E-02
        -0.12056E-01
        -0.43841E-01
        -0.45095E-01
        -0.43990E-01
        -0.31783E-01
        -0.24450E-01
        -0.14295E-01
         0.15475E-01
         0.18307E-01
        -0.23449E-02
         0.28691E-02
         0.29745E-01
         0.26117E-01
         0.16476E+00
         0.16606E+00
         0.14910E+00
         0.12303E+00
         0.91625E-01
         0.42165E-01
        -0.10535E-01
        -0.34105E-01
        -0.44677E-01
        -0.81988E-01
        -0.14580E+00
        -0.17215E+00
        -0.14452E+00
        -0.13755E+00
        -0.15156E+00
        -0.15607E+00
        -0.14237E+00
        -0.13455E+00
        -0.68456E-01
         0.17840E-01
         0.39308E-01
         0.39895E-01
         0.70796E-01
         0.12266E+00
         0.15704E+00
         0.15659E+00
        -0.96099E-02
         0.19917E-02
        -0.37550E-02
        -0.10871E-01
         0.22114E-01
         0.18905E-01
         0.57098E-02
        -0.11924E-01
        -0.55755E-02
        -0.11426E-01
        -0.20857E-02
         0.85638E-02
         0.27923E-01
        -0.21090E-01
        -0.22047E-01
         0.18814E-01
         0.10535E-01
        -0.61503E-02
        -0.41870E-02
        -0.73075E-02
        -0.43716E-01
        -0.41659E-01
        -0.41126E-01
        -0.99525E-02
         0.57308E-02
         0.38464E-02
        -0.20659E-01
         0.24931E-02
        -0.71494E-02
        -0.94459E-02
         0.14487E-01
         0.93033E-02
        -0.91252E-02
        -0.80627E-02
         0.39728E-01
         0.21827E-01
         0.25051E-01
        -0.24716E-01
        -0.43019E-02
        -0.12094E-01
        -0.43871E-01
        -0.45126E-01
        -0.44000E-01
        -0.31782E-01
        -0.24441E-01
        -0.14288E-01
         0.15473E-01
         0.18314E-01
        -0.23263E-02
         0.28598E-02
         0.29727E-01
         0.26079E-01
         0.16470E+00
         0.16601E+00
         0.14908E+00
         0.12303E+00
         0.91597E-01
         0.42152E-01
        -0.10546E-01
        -0.34126E-01
        -0.44639E-01
        -0.81956E-01
        -0.14578E+00
        -0.17215E+00
        -0.14451E+00
        -0.13755E+00
        -0.15158E+00
        -0.15612E+00
        -0.14240E+00
        -0.13458E+00
        -0.68436E-01
         0.17847E-01
         0.39279E-01
         0.39879E-01
         0.70744E-01
         0.12259E+00
         0.15696E+00
         0.15652E+00
        -0.96257E-02
         0.20013E-02
        -0.37598E-02
        -0.10877E-01
         0.22093E-01
         0.18888E-01
         0.57458E-02
        -0.11892E-01
        -0.55799E-02
        -0.11414E-01
        -0.20386E-02
         0.85845E-02
         0.27940E-01
        -0.21037E-01
        -0.22035E-01
         0.18837E-01
         0.10560E-01
        -0.61325E-02
        -0.41851E-02
        -0.72951E-02
        -0.43715E-01
        -0.41658E-01
        -0.41129E-01
        -0.99537E-02
         0.57473E-02
         0.38552E-02
        -0.20664E-01
         0.24446E-02
        -0.71987E-02
        -0.94528E-02
         0.14510E-01
         0.93037E-02
        -0.90846E-02
        -0.80650E-02
         0.39748E-01
         0.21819E-01
         0.25044E-01
        -0.24754E-01
        -0.43413E-02
        -0.12132E-01
        -0.43901E-01
        -0.45157E-01
        -0.44010E-01
        -0.31781E-01
        -0.24433E-01
        -0.14282E-01
         0.15470E-01
         0.18320E-01
        -0.23062E-02
         0.28526E-02
         0.29711E-01
         0.26042E-01
         0.16465E+00
         0.16597E+00
         0.14907E+00
         0.12303E+00
         0.91568E-01
         0.42139E-01
        -0.10558E-01
        -0.34147E-01
        -0.44601E-01
        -0.81924E-01
        -0.14575E+00
        -0.17216E+00
        -0.14451E+00
        -0.13754E+00
        -0.15161E+00
        -0.15616E+00
        -0.14243E+00
        -0.13460E+00
        -0.68417E-01
         0.17853E-01
         0.39249E-01
         0.39864E-01
         0.70694E-01
         0.12251E+00
         0.15689E+00
         0.15645E+00
        -0.96408E-02
         0.20115E-02
        -0.37639E-02
        -0.10884E-01
         0.22073E-01
         0.18870E-01
         0.57822E-02
        -0.11859E-01
        -0.55845E-02
        -0.11401E-01
        -0.19914E-02
         0.86052E-02
         0.27958E-01
        -0.20984E-01
        -0.22023E-01
         0.18861E-01
         0.10584E-01
        -0.61147E-02
        -0.41829E-02
        -0.72835E-02
        -0.43715E-01
        -0.41657E-01
        -0.41133E-01
        -0.99547E-02
         0.57627E-02
         0.38635E-02
        -0.20668E-01
         0.23957E-02
        -0.72486E-02
        -0.94604E-02
         0.14533E-01
         0.93031E-02
        -0.90435E-02
        -0.80669E-02
         0.39770E-01
         0.21812E-01
         0.25038E-01
        -0.24793E-01
        -0.43807E-02
        -0.12171E-01
        -0.43931E-01
        -0.45189E-01
        -0.44021E-01
        -0.31781E-01
        -0.24426E-01
        -0.14276E-01
         0.15466E-01
         0.18325E-01
        -0.22855E-02
         0.28464E-02
         0.29695E-01
         0.26005E-01
         0.16459E+00
         0.16593E+00
         0.14906E+00
         0.12303E+00
         0.91540E-01
         0.42127E-01
        -0.10570E-01
        -0.34168E-01
        -0.44564E-01
        -0.81892E-01
        -0.14573E+00
        -0.17217E+00
        -0.14450E+00
        -0.13754E+00
        -0.15163E+00
        -0.15621E+00
        -0.14247E+00
        -0.13463E+00
        -0.68397E-01
         0.17859E-01
         0.39218E-01
         0.39848E-01
         0.70644E-01
         0.12244E+00
         0.15681E+00
         0.15638E+00
        -0.96559E-02
         0.20217E-02
        -0.37679E-02
        -0.10890E-01
         0.22052E-01
         0.18853E-01
         0.58184E-02
        -0.11827E-01
        -0.55891E-02
        -0.11389E-01
        -0.19443E-02
         0.86259E-02
         0.27975E-01
        -0.20932E-01
        -0.22011E-01
         0.18884E-01
         0.10608E-01
        -0.60970E-02
        -0.41806E-02
        -0.72715E-02
        -0.43714E-01
        -0.41656E-01
        -0.41137E-01
        -0.99561E-02
         0.57781E-02
         0.38716E-02
        -0.20673E-01
         0.23470E-02
        -0.72985E-02
        -0.94679E-02
         0.14555E-01
         0.93025E-02
        -0.90024E-02
        -0.80689E-02
         0.39792E-01
         0.21804E-01
         0.25032E-01
        -0.24832E-01
        -0.44202E-02
        -0.12209E-01
        -0.43962E-01
        -0.45221E-01
        -0.44032E-01
        -0.31781E-01
        -0.24419E-01
        -0.14271E-01
         0.15462E-01
         0.18331E-01
        -0.22647E-02
         0.28404E-02
         0.29680E-01
         0.25967E-01
         0.16453E+00
         0.16589E+00
         0.14904E+00
         0.12303E+00
         0.91512E-01
         0.42114E-01
        -0.10581E-01
        -0.34189E-01
        -0.44526E-01
        -0.81860E-01
        -0.14571E+00
        -0.17217E+00
        -0.14450E+00
        -0.13753E+00
        -0.15166E+00
        -0.15626E+00
        -0.14250E+00
        -0.13465E+00
        -0.68376E-01
         0.17865E-01
         0.39187E-01
         0.39833E-01
         0.70593E-01
         0.12237E+00
         0.15673E+00
         0.15631E+00
        -0.96710E-02
         0.20320E-02
        -0.37719E-02
        -0.10897E-01
         0.22031E-01
         0.18835E-01
         0.58549E-02
        -0.11794E-01
        -0.55937E-02
        -0.11377E-01
        -0.18973E-02
         0.86466E-02
         0.27993E-01
        -0.20880E-01
        -0.21998E-01
         0.18908E-01
         0.10631E-01
        -0.60794E-02
        -0.41784E-02
        -0.72598E-02
        -0.43713E-01
        -0.41654E-01
        -0.41140E-01
        -0.99574E-02
         0.57934E-02
         0.38798E-02
        -0.20678E-01
         0.22985E-02
        -0.73482E-02
        -0.94753E-02
         0.14578E-01
         0.93018E-02
        -0.89615E-02
        -0.80709E-02
         0.39813E-01
         0.21797E-01
         0.25026E-01
        -0.24870E-01
        -0.44597E-02
        -0.12248E-01
        -0.43992E-01
        -0.45253E-01
        -0.44042E-01
        -0.31781E-01
        -0.24412E-01
        -0.14265E-01
         0.15458E-01
         0.18337E-01
        -0.22441E-02
         0.28340E-02
         0.29664E-01
         0.25930E-01
         0.16448E+00
         0.16584E+00
         0.14903E+00
         0.12303E+00
         0.91484E-01
         0.42101E-01
        -0.10593E-01
        -0.34209E-01
        -0.44489E-01
        -0.81827E-01
        -0.14568E+00
        -0.17218E+00
        -0.14449E+00
        -0.13753E+00
        -0.15168E+00
        -0.15631E+00
        -0.14253E+00
        -0.13467E+00
        -0.68357E-01
         0.17870E-01
         0.39156E-01
         0.39817E-01
         0.70543E-01
         0.12229E+00
         0.15666E+00
         0.15624E+00
        -0.96860E-02
         0.20423E-02
        -0.37760E-02
        -0.10904E-01
         0.22011E-01
         0.18818E-01
         0.58909E-02
        -0.11762E-01
        -0.55983E-02
        -0.11365E-01
        -0.18501E-02
         0.86675E-02
         0.28011E-01
        -0.20827E-01
        -0.21986E-01
         0.18931E-01
         0.10655E-01
        -0.60619E-02
        -0.41766E-02
        -0.72476E-02
        -0.43713E-01
        -0.41653E-01
        -0.41144E-01
        -0.99588E-02
         0.58086E-02
         0.38879E-02
        -0.20683E-01
         0.22500E-02
        -0.73979E-02
        -0.94826E-02
         0.14600E-01
         0.93012E-02
        -0.89205E-02
        -0.80728E-02
         0.39835E-01
         0.21789E-01
         0.25020E-01
        -0.24909E-01
        -0.44994E-02
        -0.12287E-01
        -0.44022E-01
        -0.45284E-01
        -0.44053E-01
        -0.31780E-01
        -0.24405E-01
        -0.14260E-01
         0.15453E-01
         0.18343E-01
        -0.22233E-02
         0.28277E-02
         0.29650E-01
         0.25892E-01
         0.16442E+00
         0.16580E+00
         0.14901E+00
         0.12303E+00
         0.91455E-01
         0.42088E-01
        -0.10604E-01
        -0.34230E-01
        -0.44451E-01
        -0.81795E-01
        -0.14566E+00
        -0.17219E+00
        -0.14449E+00
        -0.13752E+00
        -0.15170E+00
        -0.15635E+00
        -0.14256E+00
        -0.13469E+00
        -0.68337E-01
         0.17876E-01
         0.39126E-01
         0.39802E-01
         0.70493E-01
         0.12222E+00
         0.15658E+00
         0.15617E+00
        -0.97010E-02
         0.20525E-02
        -0.37799E-02
        -0.10910E-01
         0.21990E-01
         0.18801E-01
         0.59273E-02
        -0.11729E-01
        -0.56028E-02
        -0.11353E-01
        -0.18031E-02
         0.86884E-02
         0.28028E-01
        -0.20775E-01
        -0.21973E-01
         0.18955E-01
         0.10679E-01
        -0.60441E-02
        -0.41744E-02
        -0.72359E-02
        -0.43712E-01
        -0.41652E-01
        -0.41147E-01
        -0.99603E-02
         0.58237E-02
         0.38962E-02
        -0.20688E-01
         0.22017E-02
        -0.74471E-02
        -0.94903E-02
         0.14623E-01
         0.93005E-02
        -0.88793E-02
        -0.80748E-02
         0.39857E-01
         0.21782E-01
         0.25014E-01
        -0.24947E-01
        -0.45391E-02
        -0.12326E-01
        -0.44053E-01
        -0.45316E-01
        -0.44063E-01
        -0.31780E-01
        -0.24398E-01
        -0.14255E-01
         0.15449E-01
         0.18349E-01
        -0.22025E-02
         0.28218E-02
         0.29634E-01
         0.25855E-01
         0.16436E+00
         0.16576E+00
         0.14900E+00
         0.12303E+00
         0.91427E-01
         0.42076E-01
        -0.10616E-01
        -0.34251E-01
        -0.44414E-01
        -0.81763E-01
        -0.14564E+00
        -0.17219E+00
        -0.14448E+00
        -0.13752E+00
        -0.15173E+00
        -0.15640E+00
        -0.14259E+00
        -0.13472E+00
        -0.68317E-01
         0.17881E-01
         0.39095E-01
         0.39786E-01
         0.70443E-01
         0.12215E+00
         0.15650E+00
         0.15611E+00
        -0.97162E-02
         0.20628E-02
        -0.37838E-02
        -0.10916E-01
         0.21969E-01
         0.18783E-01
         0.59635E-02
        -0.11697E-01
        -0.56072E-02
        -0.11341E-01
        -0.17562E-02
         0.87090E-02
         0.28046E-01
        -0.20723E-01
        -0.21961E-01
         0.18978E-01
         0.10703E-01
        -0.60264E-02
        -0.41723E-02
        -0.72239E-02
        -0.43711E-01
        -0.41651E-01
        -0.41151E-01
        -0.99618E-02
         0.58386E-02
         0.39043E-02
        -0.20692E-01
         0.21534E-02
        -0.74967E-02
        -0.94977E-02
         0.14645E-01
         0.92998E-02
        -0.88381E-02
        -0.80767E-02
         0.39878E-01
         0.21775E-01
         0.25008E-01
        -0.24985E-01
        -0.45790E-02
        -0.12364E-01
        -0.44084E-01
        -0.45347E-01
        -0.44074E-01
        -0.31781E-01
        -0.24391E-01
        -0.14249E-01
         0.15445E-01
         0.18355E-01
        -0.21816E-02
         0.28155E-02
         0.29618E-01
         0.25817E-01
         0.16431E+00
         0.16572E+00
         0.14899E+00
         0.12303E+00
         0.91399E-01
         0.42063E-01
        -0.10627E-01
        -0.34271E-01
        -0.44376E-01
        -0.81730E-01
        -0.14561E+00
        -0.17220E+00
        -0.14447E+00
        -0.13751E+00
        -0.15175E+00
        -0.15645E+00
        -0.14263E+00
        -0.13474E+00
        -0.68297E-01
         0.17887E-01
         0.39064E-01
         0.39771E-01
         0.70393E-01
         0.12207E+00
         0.15643E+00
         0.15604E+00
        -0.97314E-02
         0.20730E-02
        -0.37877E-02
        -0.10923E-01
         0.21949E-01
         0.18766E-01
         0.59993E-02
        -0.11664E-01
        -0.56117E-02
        -0.11329E-01
        -0.17095E-02
         0.87297E-02
         0.28063E-01
        -0.20670E-01
        -0.21948E-01
         0.19001E-01
         0.10727E-01
        -0.60088E-02
        -0.41707E-02
        -0.72122E-02
        -0.43710E-01
        -0.41649E-01
        -0.41154E-01
        -0.99632E-02
         0.58536E-02
         0.39124E-02
        -0.20697E-01
         0.21053E-02
        -0.75462E-02
        -0.95049E-02
         0.14668E-01
         0.92991E-02
        -0.87968E-02
        -0.80786E-02
         0.39900E-01
         0.21768E-01
         0.25002E-01
        -0.25023E-01
        -0.46188E-02
        -0.12403E-01
        -0.44114E-01
        -0.45378E-01
        -0.44085E-01
        -0.31781E-01
        -0.24384E-01
        -0.14244E-01
         0.15441E-01
         0.18361E-01
        -0.21607E-02
         0.28092E-02
         0.29603E-01
         0.25780E-01
         0.16425E+00
         0.16568E+00
         0.14897E+00
         0.12303E+00
         0.91371E-01
         0.42050E-01
        -0.10639E-01
        -0.34291E-01
        -0.44339E-01
        -0.81698E-01
        -0.14559E+00
        -0.17221E+00
        -0.14447E+00
        -0.13751E+00
        -0.15178E+00
        -0.15650E+00
        -0.14266E+00
        -0.13476E+00
        -0.68277E-01
         0.17892E-01
         0.39033E-01
         0.39756E-01
         0.70343E-01
         0.12200E+00
         0.15635E+00
         0.15597E+00
        -0.97465E-02
         0.20831E-02
        -0.37916E-02
        -0.10929E-01
         0.21928E-01
         0.18748E-01
         0.60354E-02
        -0.11632E-01
        -0.56162E-02
        -0.11317E-01
        -0.16627E-02
         0.87509E-02
         0.28080E-01
        -0.20618E-01
        -0.21936E-01
         0.19025E-01
         0.10750E-01
        -0.59912E-02
        -0.41685E-02
        -0.72001E-02
        -0.43710E-01
        -0.41648E-01
        -0.41158E-01
        -0.99647E-02
         0.58684E-02
         0.39205E-02
        -0.20701E-01
         0.20572E-02
        -0.75957E-02
        -0.95121E-02
         0.14690E-01
         0.92983E-02
        -0.87555E-02
        -0.80805E-02
         0.39922E-01
         0.21761E-01
         0.24997E-01
        -0.25061E-01
        -0.46587E-02
        -0.12442E-01
        -0.44144E-01
        -0.45410E-01
        -0.44095E-01
        -0.31780E-01
        -0.24376E-01
        -0.14238E-01
         0.15437E-01
         0.18366E-01
        -0.21395E-02
         0.28031E-02
         0.29587E-01
         0.25743E-01
         0.16420E+00
         0.16564E+00
         0.14896E+00
         0.12303E+00
         0.91343E-01
         0.42037E-01
        -0.10650E-01
        -0.34311E-01
        -0.44301E-01
        -0.81665E-01
        -0.14556E+00
        -0.17221E+00
        -0.14446E+00
        -0.13751E+00
        -0.15180E+00
        -0.15654E+00
        -0.14269E+00
        -0.13479E+00
        -0.68257E-01
         0.17897E-01
         0.39002E-01
         0.39741E-01
         0.70293E-01
         0.12193E+00
         0.15627E+00
         0.15590E+00
        -0.97617E-02
         0.20934E-02
        -0.37956E-02
        -0.10936E-01
         0.21908E-01
         0.18731E-01
         0.60713E-02
        -0.11599E-01
        -0.56206E-02
        -0.11305E-01
        -0.16159E-02
         0.87716E-02
         0.28098E-01
        -0.20566E-01
        -0.21923E-01
         0.19048E-01
         0.10774E-01
        -0.59738E-02
        -0.41665E-02
        -0.71884E-02
        -0.43709E-01
        -0.41647E-01
        -0.41161E-01
        -0.99662E-02
         0.58830E-02
         0.39287E-02
        -0.20706E-01
         0.20092E-02
        -0.76451E-02
        -0.95193E-02
         0.14713E-01
         0.92976E-02
        -0.87144E-02
        -0.80825E-02
         0.39944E-01
         0.21754E-01
         0.24991E-01
        -0.25098E-01
        -0.46987E-02
        -0.12481E-01
        -0.44174E-01
        -0.45441E-01
        -0.44105E-01
        -0.31780E-01
        -0.24370E-01
        -0.14233E-01
         0.15433E-01
         0.18372E-01
        -0.21186E-02
         0.27968E-02
         0.29572E-01
         0.25705E-01
         0.16414E+00
         0.16559E+00
         0.14894E+00
         0.12303E+00
         0.91315E-01
         0.42024E-01
        -0.10661E-01
        -0.34331E-01
        -0.44264E-01
        -0.81633E-01
        -0.14554E+00
        -0.17222E+00
        -0.14446E+00
        -0.13750E+00
        -0.15183E+00
        -0.15659E+00
        -0.14272E+00
        -0.13481E+00
        -0.68237E-01
         0.17902E-01
         0.38971E-01
         0.39726E-01
         0.70242E-01
         0.12185E+00
         0.15620E+00
         0.15583E+00
        -0.97768E-02
         0.21036E-02
        -0.37995E-02
        -0.10942E-01
         0.21888E-01
         0.18714E-01
         0.61074E-02
        -0.11567E-01
        -0.56249E-02
        -0.11292E-01
        -0.15691E-02
         0.87926E-02
         0.28116E-01
        -0.20514E-01
        -0.21910E-01
         0.19072E-01
         0.10798E-01
        -0.59563E-02
        -0.41645E-02
        -0.71763E-02
        -0.43708E-01
        -0.41645E-01
        -0.41165E-01
        -0.99678E-02
         0.58972E-02
         0.39367E-02
        -0.20710E-01
         0.19607E-02
        -0.76940E-02
        -0.95264E-02
         0.14735E-01
         0.92970E-02
        -0.86732E-02
        -0.80846E-02
         0.39966E-01
         0.21746E-01
         0.24985E-01
        -0.25136E-01
        -0.47392E-02
        -0.12520E-01
        -0.44203E-01
        -0.45472E-01
        -0.44116E-01
        -0.31780E-01
        -0.24362E-01
        -0.14227E-01
         0.15429E-01
         0.18378E-01
        -0.20977E-02
         0.27904E-02
         0.29556E-01
         0.25668E-01
         0.16408E+00
         0.16555E+00
         0.14893E+00
         0.12303E+00
         0.91287E-01
         0.42012E-01
        -0.10672E-01
        -0.34351E-01
        -0.44227E-01
        -0.81600E-01
        -0.14552E+00
        -0.17223E+00
        -0.14445E+00
        -0.13750E+00
        -0.15185E+00
        -0.15664E+00
        -0.14275E+00
        -0.13483E+00
        -0.68217E-01
         0.17908E-01
         0.38941E-01
         0.39710E-01
         0.70192E-01
         0.12178E+00
         0.15612E+00
         0.15576E+00
        -0.97919E-02
         0.21138E-02
        -0.38033E-02
        -0.10948E-01
         0.21867E-01
         0.18696E-01
         0.61432E-02
        -0.11534E-01
        -0.56288E-02
        -0.11278E-01
        -0.15224E-02
         0.88135E-02
         0.28133E-01
        -0.20462E-01
        -0.21896E-01
         0.19095E-01
         0.10821E-01
        -0.59387E-02
        -0.41631E-02
        -0.71648E-02
        -0.43708E-01
        -0.41644E-01
        -0.41169E-01
        -0.99692E-02
         0.59106E-02
         0.39451E-02
        -0.20712E-01
         0.19110E-02
        -0.77433E-02
        -0.95341E-02
         0.14758E-01
         0.92962E-02
        -0.86319E-02
        -0.80866E-02
         0.39987E-01
         0.21740E-01
         0.24979E-01
        -0.25172E-01
        -0.47808E-02
        -0.12558E-01
        -0.44231E-01
        -0.45500E-01
        -0.44124E-01
        -0.31780E-01
        -0.24355E-01
        -0.14222E-01
         0.15425E-01
         0.18384E-01
        -0.20769E-02
         0.27842E-02
         0.29541E-01
         0.25630E-01
         0.16403E+00
         0.16551E+00
         0.14891E+00
         0.12303E+00
         0.91259E-01
         0.41999E-01
        -0.10683E-01
        -0.34371E-01
        -0.44190E-01
        -0.81567E-01
        -0.14549E+00
        -0.17224E+00
        -0.14445E+00
        -0.13749E+00
        -0.15187E+00
        -0.15668E+00
        -0.14279E+00
        -0.13485E+00
        -0.68198E-01
         0.17913E-01
         0.38910E-01
         0.39695E-01
         0.70142E-01
         0.12171E+00
         0.15604E+00
         0.15569E+00
        -0.98071E-02
         0.21239E-02
        -0.38071E-02
        -0.10955E-01
         0.21846E-01
         0.18679E-01
         0.61791E-02
        -0.11502E-01
        -0.56323E-02
        -0.11262E-01
        -0.14758E-02
         0.88343E-02
         0.28151E-01
        -0.20409E-01
        -0.21883E-01
         0.19118E-01
         0.10845E-01
        -0.59212E-02
        -0.41612E-02
        -0.71529E-02
        -0.43707E-01
        -0.41641E-01
        -0.41173E-01
        -0.99708E-02
         0.59229E-02
         0.39531E-02
        -0.20713E-01
         0.18598E-02
        -0.77925E-02
        -0.95414E-02
         0.14780E-01
         0.92954E-02
        -0.85905E-02
        -0.80886E-02
         0.40010E-01
         0.21733E-01
         0.24973E-01
        -0.25208E-01
        -0.48236E-02
        -0.12597E-01
        -0.44256E-01
        -0.45526E-01
        -0.44132E-01
        -0.31780E-01
        -0.24348E-01
        -0.14217E-01
         0.15421E-01
         0.18390E-01
        -0.20558E-02
         0.27780E-02
         0.29525E-01
         0.25592E-01
         0.16397E+00
         0.16547E+00
         0.14890E+00
         0.12303E+00
         0.91231E-01
         0.41987E-01
        -0.10694E-01
        -0.34390E-01
        -0.44153E-01
        -0.81532E-01
        -0.14547E+00
        -0.17226E+00
        -0.14445E+00
        -0.13749E+00
        -0.15190E+00
        -0.15673E+00
        -0.14282E+00
        -0.13488E+00
        -0.68177E-01
         0.17918E-01
         0.38879E-01
         0.39680E-01
         0.70092E-01
         0.12163E+00
         0.15597E+00
         0.15562E+00
        -0.98222E-02
         0.21341E-02
        -0.38110E-02
        -0.10961E-01
         0.21826E-01
         0.18662E-01
         0.62146E-02
        -0.11469E-01
        -0.56355E-02
        -0.11247E-01
        -0.14296E-02
         0.88548E-02
         0.28168E-01
        -0.20356E-01
        -0.21869E-01
         0.19141E-01
         0.10868E-01
        -0.59039E-02
        -0.41592E-02
        -0.71414E-02
        -0.43706E-01
        -0.41639E-01
        -0.41176E-01
        -0.99723E-02
         0.59348E-02
         0.39612E-02
        -0.20714E-01
         0.18084E-02
        -0.78414E-02
        -0.95486E-02
         0.14803E-01
         0.92947E-02
        -0.85495E-02
        -0.80907E-02
         0.40032E-01
         0.21726E-01
         0.24967E-01
        -0.25244E-01
        -0.48668E-02
        -0.12635E-01
        -0.44280E-01
        -0.45551E-01
        -0.44140E-01
        -0.31780E-01
        -0.24341E-01
        -0.14211E-01
         0.15417E-01
         0.18396E-01
        -0.20350E-02
         0.27715E-02
         0.29511E-01
         0.25556E-01
         0.16391E+00
         0.16543E+00
         0.14888E+00
         0.12303E+00
         0.91203E-01
         0.41973E-01
        -0.10704E-01
        -0.34409E-01
        -0.44117E-01
        -0.81497E-01
        -0.14544E+00
        -0.17228E+00
        -0.14445E+00
        -0.13748E+00
        -0.15192E+00
        -0.15678E+00
        -0.14285E+00
        -0.13490E+00
        -0.68158E-01
         0.17924E-01
         0.38849E-01
         0.39664E-01
         0.70043E-01
         0.12156E+00
         0.15589E+00
         0.15555E+00
        -0.98836E-02
         0.21524E-02
        -0.38336E-02
        -0.11018E-01
         0.21909E-01
         0.18734E-01
         0.62763E-02
        -0.11496E-01
        -0.56648E-02
        -0.11289E-01
        -0.13963E-02
         0.89145E-02
         0.28319E-01
        -0.20410E-01
        -0.21970E-01
         0.19252E-01
         0.10942E-01
        -0.59151E-02
        -0.41761E-02
        -0.71626E-02
        -0.43907E-01
        -0.41834E-01
        -0.41366E-01
        -0.10020E-01
         0.59745E-02
         0.39869E-02
        -0.20820E-01
         0.17692E-02
        -0.79253E-02
        -0.96017E-02
         0.14894E-01
         0.93371E-02
        -0.85518E-02
        -0.81314E-02
         0.40247E-01
         0.21823E-01
         0.25080E-01
        -0.25406E-01
        -0.49308E-02
        -0.12732E-01
        -0.44525E-01
        -0.45801E-01
        -0.44360E-01
        -0.31924E-01
        -0.24447E-01
        -0.14272E-01
         0.15488E-01
         0.18491E-01
        -0.20260E-02
         0.27782E-02
         0.29638E-01
         0.25642E-01
         0.16477E+00
         0.16629E+00
         0.14969E+00
         0.12370E+00
         0.91677E-01
         0.42192E-01
        -0.10780E-01
        -0.34622E-01
        -0.44337E-01
        -0.81940E-01
        -0.14626E+00
        -0.17325E+00
        -0.14521E+00
        -0.13817E+00
        -0.15270E+00
        -0.15760E+00
        -0.14359E+00
        -0.13563E+00
        -0.68515E-01
         0.18032E-01
         0.39032E-01
         0.39856E-01
         0.70369E-01
         0.12214E+00
         0.15663E+00
         0.15630E+00
        -0.14833E-01
         0.32532E-02
        -0.57437E-02
        -0.16559E-01
         0.31663E-01
         0.27324E-01
         0.94649E-02
        -0.17152E-01
        -0.84745E-02
        -0.16813E-01
        -0.20357E-02
         0.12673E-01
         0.40841E-01
        -0.30024E-01
        -0.31381E-01
         0.28912E-01
         0.16397E-01
        -0.88703E-02
        -0.61876E-02
        -0.10640E-01
        -0.63238E-01
        -0.61037E-01
        -0.59734E-01
        -0.14962E-01
         0.89897E-02
         0.60055E-02
        -0.30899E-01
         0.26162E-02
        -0.12003E-01
        -0.14431E-01
         0.22379E-01
         0.13991E-01
        -0.12823E-01
        -0.12225E-01
         0.57134E-01
         0.31826E-01
         0.36591E-01
        -0.37144E-01
        -0.73353E-02
        -0.18956E-01
        -0.65302E-01
        -0.67652E-01
        -0.65451E-01
        -0.46428E-01
        -0.35444E-01
        -0.20113E-01
         0.22385E-01
         0.27076E-01
        -0.29609E-02
         0.40637E-02
         0.42347E-01
         0.37290E-01
         0.20740E+00
         0.20889E+00
         0.18809E+00
         0.15586E+00
         0.11538E+00
         0.53195E-01
        -0.13770E-01
        -0.44584E-01
        -0.56963E-01
        -0.10465E+00
        -0.18706E+00
        -0.22114E+00
        -0.18748E+00
        -0.17893E+00
        -0.19516E+00
        -0.19910E+00
        -0.18082E+00
        -0.16984E+00
        -0.85782E-01
         0.22619E-01
         0.49434E-01
         0.50705E-01
         0.89186E-01
         0.15536E+00
         0.19858E+00
         0.19746E+00
  
SCALARS                      strain_xy  double 1
LOOKUP_TABLE default
         0.15357E-02
         0.34740E-02
         0.30436E-01
        -0.11225E-02
        -0.10486E-18
         0.10248E-19
         0.15408E-18
         0.23470E-19
         0.30877E+00
        -0.13862E+00
         0.68583E-18
         0.54386E-18
        -0.11133E-01
         0.23067E-02
         0.60535E-19
        -0.18181E-19
        -0.35854E-02
        -0.55857E-01
         0.30137E-20
         0.45925E-19
         0.40770E-01
         0.24843E+00
         0.25753E+00
         0.46698E-18
         0.37188E-18
        -0.54306E-18
         0.26047E-01
         0.20614E+00
         0.62877E-18
         0.96763E-18
         0.95675E-02
        -0.17659E-01
        -0.15759E-02
        -0.33188E-19
         0.13092E-18
        -0.16745E-20
         0.81905E-01
         0.35810E-01
         0.35039E-18
         0.29027E-18
         0.15623E+00
         0.13399E+00
         0.59732E-18
         0.40256E-18
         0.15766E+00
         0.29579E-01
        -0.21760E-19
         0.16200E-18
        -0.37197E-01
         0.47878E-19
         0.10037E-01
        -0.10794E-20
        -0.21593E-02
         0.36188E-18
        -0.10528E-01
         0.55686E-19
        -0.14954E+00
         0.77264E-02
         0.12941E-20
        -0.63489E-20
        -0.12377E-02
         0.12186E+00
         0.35267E-19
         0.90459E-19
        -0.54164E-02
        -0.71604E-20
        -0.76014E-01
         0.57376E-19
         0.37267E+00
         0.13674E+00
         0.44319E-19
        -0.42440E-18
         0.30498E+00
        -0.67857E-18
        -0.10605E+00
         0.45450E-18
        -0.33113E+00
         0.67713E-19
        -0.57693E+00
         0.88053E-19
        -0.11267E+01
        -0.63996E+00
         0.20701E-18
        -0.52491E-19
        -0.83915E-01
        -0.63166E-20
         0.29740E+00
        -0.56970E-18
         0.42453E+00
        -0.63612E-18
         0.90067E+00
         0.41543E+00
        -0.40267E-18
         0.44696E-18
        -0.68214E-01
         0.40697E-18
        -0.16947E+00
         0.17482E-18
        -0.39060E+00
         0.46418E-18
        -0.94245E+00
        -0.54846E+00
         0.99531E-18
         0.49765E-18
         0.13800E+01
        -0.57993E+00
        -0.64667E-18
         0.79193E-18
         0.32641E+01
        -0.18378E-17
         0.42747E+01
        -0.20090E-17
         0.36896E+01
        -0.13635E-17
         0.29395E+01
        -0.14463E-18
         0.11843E+01
         0.40764E-18
        -0.15011E+01
         0.25239E-18
        -0.33633E+01
         0.23073E-18
        -0.44659E+01
         0.49504E-18
        -0.45897E+01
         0.60189E-18
        -0.39440E+01
         0.23713E-18
        -0.22446E+01
         0.14457E-18
         0.16349E+00
         0.23630E-18
         0.20986E+01
         0.15840E-18
         0.34989E+01
        -0.56487E-18
         0.47206E+01
        -0.14822E-17
         0.40640E+01
        -0.18810E-17
         0.25605E+01
        -0.11641E-17
         0.26602E+00
         0.22210E-18
        -0.18057E+01
         0.47073E-18
        -0.26803E+01
         0.75019E-18
        -0.33090E+01
         0.14773E-17
        -0.30396E+01
         0.19169E-17
        -0.28103E+01
         0.13619E-17
        -0.23129E+01
         0.10771E-17
        -0.14860E-06
         0.41361E-08
         0.80654E-08
        -0.39077E-07
        -0.98797E-07
         0.76020E-07
        -0.14163E-08
         0.14749E-07
        -0.54200E-07
        -0.24876E-07
         0.51122E-08
         0.18113E-07
         0.24876E-06
        -0.94991E-08
        -0.83414E-07
        -0.93091E-07
         0.54919E-07
         0.29259E-07
         0.10088E-08
        -0.65080E-08
        -0.59642E-08
         0.15797E-07
         0.56759E-07
        -0.92142E-09
         0.17999E-07
         0.17349E-08
        -0.35877E-09
        -0.64180E-09
        -0.10171E-07
         0.11001E-07
        -0.72666E-07
         0.11232E-08
         0.24686E-07
        -0.62939E-09
        -0.63721E-08
         0.84267E-07
         0.17978E-06
        -0.24723E-06
        -0.12220E-06
         0.10007E-06
         0.10490E-05
        -0.10218E-06
         0.11247E-07
         0.79161E-07
         0.22378E-06
        -0.50115E-07
        -0.35431E-07
        -0.14256E-08
        -0.50567E-08
        -0.10976E-06
        -0.14862E-06
        -0.11309E-06
        -0.10776E-04
         0.51305E-05
        -0.15230E-04
        -0.13332E-04
        -0.13723E-04
        -0.15035E-04
         0.14147E-05
         0.17445E-04
         0.23963E-04
         0.40426E-04
         0.49730E-04
         0.76105E-05
         0.12661E-05
         0.30553E-06
         0.94796E-08
         0.11276E-05
         0.18125E-05
        -0.19374E-05
        -0.18542E-04
         0.23743E-05
         0.43915E-05
         0.46662E-05
         0.84346E-05
         0.17106E-04
         0.48166E-05
         0.23860E-05
        -0.13331E-03
         0.17260E-04
        -0.30408E-04
        -0.21001E-04
         0.23587E-03
         0.90661E-04
         0.20945E-04
        -0.15984E-03
        -0.48166E-04
        -0.14292E-03
         0.15265E-04
        -0.24101E-03
        -0.46975E-03
         0.51769E-04
         0.62046E-03
        -0.99325E-04
         0.16757E-04
         0.95823E-05
         0.29065E-04
         0.98685E-05
         0.26102E-03
         0.17662E-03
        -0.10104E-03
         0.20629E-04
         0.47361E-04
        -0.78879E-05
         0.10733E-04
        -0.26494E-05
        -0.10667E-04
        -0.78731E-04
        -0.82241E-04
        -0.14018E-04
         0.34477E-04
         0.25837E-04
         0.60689E-04
        -0.10211E-03
        -0.22363E-03
         0.52296E-03
         0.77216E-04
         0.19730E-03
         0.53247E-03
        -0.13535E-03
        -0.27250E-03
        -0.24613E-03
        -0.24407E-03
        -0.29170E-03
         0.18346E-03
         0.14323E-03
        -0.23795E-04
         0.33823E-04
         0.35920E-03
         0.23743E-04
        -0.24837E-02
         0.35801E-02
        -0.74773E-02
        -0.79705E-02
        -0.76739E-02
        -0.42398E-02
         0.10313E-02
         0.29196E-02
         0.36862E-02
         0.66836E-02
         0.74554E-02
         0.28989E-02
         0.96923E-03
         0.79022E-03
        -0.40311E-03
        -0.35209E-02
        -0.64372E-02
        -0.84716E-02
        -0.56184E-02
         0.16191E-02
         0.31459E-02
         0.30137E-02
         0.53408E-02
         0.65115E-02
         0.43293E-02
         0.40865E-02
        -0.13365E-03
         0.17327E-04
        -0.30480E-04
        -0.21169E-04
         0.23567E-03
         0.90648E-04
         0.21105E-04
        -0.15970E-03
        -0.48305E-04
        -0.14334E-03
         0.14965E-04
        -0.24157E-03
        -0.47015E-03
         0.51643E-04
         0.62092E-03
        -0.99433E-04
         0.16947E-04
         0.95415E-05
         0.29070E-04
         0.97962E-05
         0.26164E-03
         0.17677E-03
        -0.10106E-03
         0.20621E-04
         0.47683E-04
        -0.78866E-05
         0.10863E-04
        -0.26141E-05
        -0.10671E-04
        -0.78947E-04
        -0.82375E-04
        -0.13986E-04
         0.34410E-04
         0.25891E-04
         0.60149E-04
        -0.10213E-03
        -0.22355E-03
         0.52461E-03
         0.78124E-04
         0.19815E-03
         0.53321E-03
        -0.13506E-03
        -0.27279E-03
        -0.24621E-03
        -0.24399E-03
        -0.29155E-03
         0.18344E-03
         0.14319E-03
        -0.23590E-04
         0.33662E-04
         0.35882E-03
         0.23349E-04
        -0.24805E-02
         0.35793E-02
        -0.74780E-02
        -0.79706E-02
        -0.76706E-02
        -0.42371E-02
         0.10320E-02
         0.29205E-02
         0.36823E-02
         0.66791E-02
         0.74527E-02
         0.29003E-02
         0.96905E-03
         0.79180E-03
        -0.39987E-03
        -0.35235E-02
        -0.64412E-02
        -0.84752E-02
        -0.56168E-02
         0.16198E-02
         0.31433E-02
         0.30123E-02
         0.53355E-02
         0.65029E-02
         0.43224E-02
         0.40793E-02
        -0.13398E-03
         0.17394E-04
        -0.30553E-04
        -0.21339E-04
         0.23547E-03
         0.90641E-04
         0.21266E-04
        -0.15957E-03
        -0.48442E-04
        -0.14375E-03
         0.14666E-04
        -0.24213E-03
        -0.47055E-03
         0.51510E-04
         0.62138E-03
        -0.99546E-04
         0.17139E-04
         0.95003E-05
         0.29076E-04
         0.97237E-05
         0.26227E-03
         0.17691E-03
        -0.10109E-03
         0.20609E-04
         0.48010E-04
        -0.78844E-05
         0.11001E-04
        -0.25798E-05
        -0.10668E-04
        -0.79158E-04
        -0.82511E-04
        -0.13948E-04
         0.34341E-04
         0.25944E-04
         0.59606E-04
        -0.10216E-03
        -0.22346E-03
         0.52625E-03
         0.79035E-04
         0.19901E-03
         0.53398E-03
        -0.13474E-03
        -0.27308E-03
        -0.24634E-03
        -0.24393E-03
        -0.29142E-03
         0.18342E-03
         0.14315E-03
        -0.23381E-04
         0.33498E-04
         0.35845E-03
         0.22957E-04
        -0.24774E-02
         0.35786E-02
        -0.74788E-02
        -0.79707E-02
        -0.76674E-02
        -0.42344E-02
         0.10328E-02
         0.29215E-02
         0.36784E-02
         0.66746E-02
         0.74501E-02
         0.29018E-02
         0.96891E-03
         0.79338E-03
        -0.39662E-03
        -0.35262E-02
        -0.64454E-02
        -0.84788E-02
        -0.56151E-02
         0.16204E-02
         0.31408E-02
         0.30110E-02
         0.53303E-02
         0.64943E-02
         0.43155E-02
         0.40722E-02
        -0.13432E-03
         0.17462E-04
        -0.30624E-04
        -0.21510E-04
         0.23526E-03
         0.90630E-04
         0.21426E-04
        -0.15942E-03
        -0.48573E-04
        -0.14413E-03
         0.14366E-04
        -0.24271E-03
        -0.47097E-03
         0.51384E-04
         0.62184E-03
        -0.99669E-04
         0.17337E-04
         0.94587E-05
         0.29085E-04
         0.96474E-05
         0.26292E-03
         0.17705E-03
        -0.10118E-03
         0.20590E-04
         0.48353E-04
        -0.78803E-05
         0.11144E-04
        -0.25513E-05
        -0.10645E-04
        -0.79350E-04
        -0.82650E-04
        -0.13899E-04
         0.34270E-04
         0.25998E-04
         0.59064E-04
        -0.10218E-03
        -0.22337E-03
         0.52791E-03
         0.79951E-04
         0.19988E-03
         0.53483E-03
        -0.13431E-03
        -0.27333E-03
        -0.24656E-03
        -0.24391E-03
        -0.29128E-03
         0.18343E-03
         0.14311E-03
        -0.23172E-04
         0.33334E-04
         0.35805E-03
         0.22568E-04
        -0.24742E-02
         0.35779E-02
        -0.74795E-02
        -0.79708E-02
        -0.76641E-02
        -0.42317E-02
         0.10335E-02
         0.29224E-02
         0.36746E-02
         0.66701E-02
         0.74475E-02
         0.29036E-02
         0.96886E-03
         0.79495E-03
        -0.39335E-03
        -0.35292E-02
        -0.64502E-02
        -0.84828E-02
        -0.56135E-02
         0.16211E-02
         0.31383E-02
         0.30097E-02
         0.53250E-02
         0.64857E-02
         0.43087E-02
         0.40650E-02
        -0.13465E-03
         0.17531E-04
        -0.30697E-04
        -0.21680E-04
         0.23506E-03
         0.90618E-04
         0.21587E-04
        -0.15928E-03
        -0.48698E-04
        -0.14448E-03
         0.14066E-04
        -0.24328E-03
        -0.47137E-03
         0.51259E-04
         0.62229E-03
        -0.99801E-04
         0.17540E-04
         0.94171E-05
         0.29091E-04
         0.95678E-05
         0.26358E-03
         0.17717E-03
        -0.10131E-03
         0.20562E-04
         0.48712E-04
        -0.78729E-05
         0.11302E-04
        -0.25279E-05
        -0.10601E-04
        -0.79524E-04
        -0.82792E-04
        -0.13837E-04
         0.34198E-04
         0.26051E-04
         0.58518E-04
        -0.10220E-03
        -0.22329E-03
         0.52957E-03
         0.80870E-04
         0.20078E-03
         0.53575E-03
        -0.13377E-03
        -0.27355E-03
        -0.24688E-03
        -0.24393E-03
        -0.29114E-03
         0.18345E-03
         0.14308E-03
        -0.22966E-04
         0.33171E-04
         0.35768E-03
         0.22177E-04
        -0.24710E-02
         0.35772E-02
        -0.74802E-02
        -0.79709E-02
        -0.76608E-02
        -0.42290E-02
         0.10343E-02
         0.29233E-02
         0.36707E-02
         0.66656E-02
         0.74451E-02
         0.29057E-02
         0.96891E-03
         0.79649E-03
        -0.39008E-03
        -0.35325E-02
        -0.64555E-02
        -0.84869E-02
        -0.56119E-02
         0.16217E-02
         0.31358E-02
         0.30084E-02
         0.53197E-02
         0.64771E-02
         0.43018E-02
         0.40578E-02
        -0.13497E-03
         0.17604E-04
        -0.30762E-04
        -0.21852E-04
         0.23486E-03
         0.90606E-04
         0.21746E-04
        -0.15911E-03
        -0.48822E-04
        -0.14481E-03
         0.13766E-04
        -0.24385E-03
        -0.47178E-03
         0.51141E-04
         0.62274E-03
        -0.99940E-04
         0.17746E-04
         0.93758E-05
         0.29097E-04
         0.94880E-05
         0.26426E-03
         0.17729E-03
        -0.10148E-03
         0.20532E-04
         0.49066E-04
        -0.78642E-05
         0.11471E-04
        -0.25064E-05
        -0.10547E-04
        -0.79699E-04
        -0.82929E-04
        -0.13767E-04
         0.34126E-04
         0.26106E-04
         0.57968E-04
        -0.10223E-03
        -0.22322E-03
         0.53123E-03
         0.81795E-04
         0.20169E-03
         0.53670E-03
        -0.13319E-03
        -0.27375E-03
        -0.24722E-03
        -0.24399E-03
        -0.29105E-03
         0.18347E-03
         0.14307E-03
        -0.22756E-04
         0.33020E-04
         0.35731E-03
         0.21788E-04
        -0.24678E-02
         0.35765E-02
        -0.74809E-02
        -0.79710E-02
        -0.76575E-02
        -0.42263E-02
         0.10350E-02
         0.29242E-02
         0.36668E-02
         0.66611E-02
         0.74427E-02
         0.29080E-02
         0.96901E-03
         0.79803E-03
        -0.38681E-03
        -0.35359E-02
        -0.64611E-02
        -0.84911E-02
        -0.56102E-02
         0.16222E-02
         0.31332E-02
         0.30071E-02
         0.53145E-02
         0.64686E-02
         0.42950E-02
         0.40506E-02
        -0.13527E-03
         0.17688E-04
        -0.30816E-04
        -0.22027E-04
         0.23467E-03
         0.90599E-04
         0.21902E-04
        -0.15890E-03
        -0.48951E-04
        -0.14513E-03
         0.13466E-04
        -0.24443E-03
        -0.47223E-03
         0.51052E-04
         0.62320E-03
        -0.10008E-03
         0.17956E-04
         0.93343E-05
         0.29106E-04
         0.94087E-05
         0.26494E-03
         0.17742E-03
        -0.10164E-03
         0.20504E-04
         0.49398E-04
        -0.78528E-05
         0.11671E-04
        -0.24844E-05
        -0.10490E-04
        -0.79878E-04
        -0.83054E-04
        -0.13689E-04
         0.34052E-04
         0.26160E-04
         0.57417E-04
        -0.10227E-03
        -0.22317E-03
         0.53291E-03
         0.82731E-04
         0.20261E-03
         0.53768E-03
        -0.13260E-03
        -0.27395E-03
        -0.24757E-03
        -0.24407E-03
        -0.29097E-03
         0.18350E-03
         0.14310E-03
        -0.22536E-04
         0.32895E-04
         0.35696E-03
         0.21396E-04
        -0.24647E-02
         0.35758E-02
        -0.74815E-02
        -0.79711E-02
        -0.76542E-02
        -0.42236E-02
         0.10357E-02
         0.29251E-02
         0.36630E-02
         0.66566E-02
         0.74403E-02
         0.29103E-02
         0.96911E-03
         0.79958E-03
        -0.38353E-03
        -0.35393E-02
        -0.64667E-02
        -0.84952E-02
        -0.56084E-02
         0.16227E-02
         0.31307E-02
         0.30059E-02
         0.53093E-02
         0.64600E-02
         0.42881E-02
         0.40435E-02
        -0.13555E-03
         0.17776E-04
        -0.30864E-04
        -0.22205E-04
         0.23448E-03
         0.90587E-04
         0.22055E-04
        -0.15868E-03
        -0.49082E-04
        -0.14544E-03
         0.13166E-04
        -0.24500E-03
        -0.47268E-03
         0.50969E-04
         0.62365E-03
        -0.10023E-03
         0.18168E-04
         0.92924E-05
         0.29113E-04
         0.93307E-05
         0.26561E-03
         0.17755E-03
        -0.10180E-03
         0.20476E-04
         0.49721E-04
        -0.78402E-05
         0.11879E-04
        -0.24617E-05
        -0.10431E-04
        -0.80061E-04
        -0.83175E-04
        -0.13607E-04
         0.33977E-04
         0.26214E-04
         0.56861E-04
        -0.10232E-03
        -0.22313E-03
         0.53459E-03
         0.83671E-04
         0.20353E-03
         0.53866E-03
        -0.13202E-03
        -0.27415E-03
        -0.24793E-03
        -0.24416E-03
        -0.29093E-03
         0.18354E-03
         0.14313E-03
        -0.22312E-04
         0.32782E-04
         0.35663E-03
         0.21006E-04
        -0.24615E-02
         0.35750E-02
        -0.74821E-02
        -0.79712E-02
        -0.76509E-02
        -0.42208E-02
         0.10364E-02
         0.29260E-02
         0.36591E-02
         0.66521E-02
         0.74379E-02
         0.29125E-02
         0.96921E-03
         0.80115E-03
        -0.38025E-03
        -0.35427E-02
        -0.64723E-02
        -0.84992E-02
        -0.56066E-02
         0.16231E-02
         0.31281E-02
         0.30047E-02
         0.53041E-02
         0.64515E-02
         0.42813E-02
         0.40363E-02
        -0.13583E-03
         0.17866E-04
        -0.30912E-04
        -0.22383E-04
         0.23429E-03
         0.90575E-04
         0.22209E-04
        -0.15846E-03
        -0.49214E-04
        -0.14576E-03
         0.12866E-04
        -0.24558E-03
        -0.47313E-03
         0.50894E-04
         0.62411E-03
        -0.10037E-03
         0.18382E-04
         0.92506E-05
         0.29120E-04
         0.92517E-05
         0.26629E-03
         0.17767E-03
        -0.10196E-03
         0.20449E-04
         0.50043E-04
        -0.78276E-05
         0.12092E-04
        -0.24376E-05
        -0.10371E-04
        -0.80245E-04
        -0.83295E-04
        -0.13525E-04
         0.33901E-04
         0.26268E-04
         0.56301E-04
        -0.10236E-03
        -0.22309E-03
         0.53628E-03
         0.84618E-04
         0.20445E-03
         0.53964E-03
        -0.13143E-03
        -0.27435E-03
        -0.24830E-03
        -0.24427E-03
        -0.29089E-03
         0.18357E-03
         0.14317E-03
        -0.22088E-04
         0.32672E-04
         0.35631E-03
         0.20615E-04
        -0.24583E-02
         0.35743E-02
        -0.74827E-02
        -0.79712E-02
        -0.76476E-02
        -0.42181E-02
         0.10371E-02
         0.29269E-02
         0.36553E-02
         0.66476E-02
         0.74355E-02
         0.29148E-02
         0.96933E-03
         0.80275E-03
        -0.37697E-03
        -0.35460E-02
        -0.64778E-02
        -0.85032E-02
        -0.56048E-02
         0.16235E-02
         0.31255E-02
         0.30035E-02
         0.52989E-02
         0.64430E-02
         0.42745E-02
         0.40292E-02
        -0.13611E-03
         0.17955E-04
        -0.30959E-04
        -0.22560E-04
         0.23410E-03
         0.90562E-04
         0.22363E-04
        -0.15824E-03
        -0.49345E-04
        -0.14607E-03
         0.12566E-04
        -0.24616E-03
        -0.47360E-03
         0.50811E-04
         0.62456E-03
        -0.10051E-03
         0.18597E-04
         0.92092E-05
         0.29126E-04
         0.91730E-05
         0.26696E-03
         0.17780E-03
        -0.10211E-03
         0.20422E-04
         0.50366E-04
        -0.78149E-05
         0.12299E-04
        -0.24126E-05
        -0.10309E-04
        -0.80427E-04
        -0.83414E-04
        -0.13443E-04
         0.33824E-04
         0.26322E-04
         0.55741E-04
        -0.10242E-03
        -0.22306E-03
         0.53797E-03
         0.85568E-04
         0.20538E-03
         0.54061E-03
        -0.13084E-03
        -0.27455E-03
        -0.24866E-03
        -0.24436E-03
        -0.29084E-03
         0.18361E-03
         0.14321E-03
        -0.21866E-04
         0.32557E-04
         0.35597E-03
         0.20226E-04
        -0.24552E-02
         0.35736E-02
        -0.74832E-02
        -0.79713E-02
        -0.76443E-02
        -0.42154E-02
         0.10378E-02
         0.29278E-02
         0.36515E-02
         0.66430E-02
         0.74331E-02
         0.29170E-02
         0.96945E-03
         0.80434E-03
        -0.37370E-03
        -0.35494E-02
        -0.64834E-02
        -0.85073E-02
        -0.56030E-02
         0.16239E-02
         0.31229E-02
         0.30022E-02
         0.52938E-02
         0.64345E-02
         0.42677E-02
         0.40220E-02
        -0.13639E-03
         0.18044E-04
        -0.31008E-04
        -0.22738E-04
         0.23391E-03
         0.90552E-04
         0.22517E-04
        -0.15802E-03
        -0.49477E-04
        -0.14638E-03
         0.12265E-04
        -0.24674E-03
        -0.47405E-03
         0.50733E-04
         0.62501E-03
        -0.10066E-03
         0.18813E-04
         0.91680E-05
         0.29136E-04
         0.90935E-05
         0.26763E-03
         0.17792E-03
        -0.10228E-03
         0.20395E-04
         0.50689E-04
        -0.78019E-05
         0.12510E-04
        -0.23861E-05
        -0.10246E-04
        -0.80609E-04
        -0.83534E-04
        -0.13361E-04
         0.33746E-04
         0.26376E-04
         0.55179E-04
        -0.10246E-03
        -0.22302E-03
         0.53967E-03
         0.86524E-04
         0.20630E-03
         0.54159E-03
        -0.13026E-03
        -0.27475E-03
        -0.24901E-03
        -0.24445E-03
        -0.29080E-03
         0.18365E-03
         0.14324E-03
        -0.21643E-04
         0.32444E-04
         0.35565E-03
         0.19837E-04
        -0.24520E-02
         0.35728E-02
        -0.74838E-02
        -0.79713E-02
        -0.76410E-02
        -0.42126E-02
         0.10384E-02
         0.29287E-02
         0.36476E-02
         0.66385E-02
         0.74306E-02
         0.29192E-02
         0.96956E-03
         0.80590E-03
        -0.37042E-03
        -0.35528E-02
        -0.64890E-02
        -0.85113E-02
        -0.56013E-02
         0.16243E-02
         0.31202E-02
         0.30010E-02
         0.52886E-02
         0.64259E-02
         0.42610E-02
         0.40149E-02
        -0.13667E-03
         0.18133E-04
        -0.31055E-04
        -0.22916E-04
         0.23372E-03
         0.90539E-04
         0.22671E-04
        -0.15779E-03
        -0.49609E-04
        -0.14668E-03
         0.11964E-04
        -0.24732E-03
        -0.47450E-03
         0.50655E-04
         0.62545E-03
        -0.10080E-03
         0.19030E-04
         0.91263E-05
         0.29143E-04
         0.90154E-05
         0.26831E-03
         0.17804E-03
        -0.10244E-03
         0.20369E-04
         0.51011E-04
        -0.77896E-05
         0.12717E-04
        -0.23586E-05
        -0.10180E-04
        -0.80794E-04
        -0.83653E-04
        -0.13280E-04
         0.33667E-04
         0.26431E-04
         0.54613E-04
        -0.10251E-03
        -0.22298E-03
         0.54137E-03
         0.87485E-04
         0.20724E-03
         0.54257E-03
        -0.12968E-03
        -0.27495E-03
        -0.24937E-03
        -0.24455E-03
        -0.29076E-03
         0.18368E-03
         0.14329E-03
        -0.21420E-04
         0.32335E-04
         0.35532E-03
         0.19450E-04
        -0.24488E-02
         0.35721E-02
        -0.74843E-02
        -0.79714E-02
        -0.76377E-02
        -0.42100E-02
         0.10391E-02
         0.29295E-02
         0.36438E-02
         0.66339E-02
         0.74282E-02
         0.29215E-02
         0.96967E-03
         0.80747E-03
        -0.36713E-03
        -0.35562E-02
        -0.64945E-02
        -0.85153E-02
        -0.55995E-02
         0.16247E-02
         0.31176E-02
         0.29998E-02
         0.52834E-02
         0.64174E-02
         0.42543E-02
         0.40078E-02
        -0.13696E-03
         0.18223E-04
        -0.31102E-04
        -0.23096E-04
         0.23353E-03
         0.90527E-04
         0.22825E-04
        -0.15756E-03
        -0.49740E-04
        -0.14698E-03
         0.11663E-04
        -0.24790E-03
        -0.47496E-03
         0.50570E-04
         0.62590E-03
        -0.10095E-03
         0.19248E-04
         0.90844E-05
         0.29151E-04
         0.89374E-05
         0.26898E-03
         0.17816E-03
        -0.10259E-03
         0.20343E-04
         0.51333E-04
        -0.77763E-05
         0.12929E-04
        -0.23297E-05
        -0.10113E-04
        -0.80975E-04
        -0.83772E-04
        -0.13197E-04
         0.33587E-04
         0.26485E-04
         0.54046E-04
        -0.10256E-03
        -0.22294E-03
         0.54306E-03
         0.88453E-04
         0.20817E-03
         0.54356E-03
        -0.12908E-03
        -0.27515E-03
        -0.24973E-03
        -0.24465E-03
        -0.29069E-03
         0.18372E-03
         0.14332E-03
        -0.21196E-04
         0.32222E-04
         0.35498E-03
         0.19065E-04
        -0.24456E-02
         0.35714E-02
        -0.74849E-02
        -0.79715E-02
        -0.76345E-02
        -0.42072E-02
         0.10398E-02
         0.29304E-02
         0.36400E-02
         0.66293E-02
         0.74257E-02
         0.29237E-02
         0.96977E-03
         0.80905E-03
        -0.36384E-03
        -0.35596E-02
        -0.65001E-02
        -0.85193E-02
        -0.55977E-02
         0.16251E-02
         0.31150E-02
         0.29986E-02
         0.52782E-02
         0.64090E-02
         0.42476E-02
         0.40007E-02
        -0.13724E-03
         0.18312E-04
        -0.31149E-04
        -0.23275E-04
         0.23335E-03
         0.90514E-04
         0.22980E-04
        -0.15733E-03
        -0.49872E-04
        -0.14728E-03
         0.11362E-04
        -0.24847E-03
        -0.47542E-03
         0.50491E-04
         0.62634E-03
        -0.10109E-03
         0.19468E-04
         0.90431E-05
         0.29161E-04
         0.88600E-05
         0.26966E-03
         0.17828E-03
        -0.10275E-03
         0.20317E-04
         0.51655E-04
        -0.77629E-05
         0.13136E-04
        -0.22999E-05
        -0.10045E-04
        -0.81156E-04
        -0.83890E-04
        -0.13115E-04
         0.33506E-04
         0.26539E-04
         0.53476E-04
        -0.10261E-03
        -0.22290E-03
         0.54476E-03
         0.89423E-04
         0.20910E-03
         0.54454E-03
        -0.12849E-03
        -0.27535E-03
        -0.25009E-03
        -0.24475E-03
        -0.29066E-03
         0.18376E-03
         0.14336E-03
        -0.20973E-04
         0.32110E-04
         0.35466E-03
         0.18683E-04
        -0.24424E-02
         0.35706E-02
        -0.74854E-02
        -0.79716E-02
        -0.76312E-02
        -0.42045E-02
         0.10404E-02
         0.29312E-02
         0.36361E-02
         0.66247E-02
         0.74233E-02
         0.29259E-02
         0.96988E-03
         0.81063E-03
        -0.36057E-03
        -0.35630E-02
        -0.65057E-02
        -0.85233E-02
        -0.55959E-02
         0.16254E-02
         0.31124E-02
         0.29973E-02
         0.52730E-02
         0.64005E-02
         0.42409E-02
         0.39935E-02
        -0.13752E-03
         0.18400E-04
        -0.31196E-04
        -0.23454E-04
         0.23316E-03
         0.90500E-04
         0.23134E-04
        -0.15710E-03
        -0.50004E-04
        -0.14758E-03
         0.11061E-04
        -0.24906E-03
        -0.47587E-03
         0.50404E-04
         0.62678E-03
        -0.10123E-03
         0.19689E-04
         0.90021E-05
         0.29168E-04
         0.87818E-05
         0.27033E-03
         0.17840E-03
        -0.10291E-03
         0.20292E-04
         0.51978E-04
        -0.77494E-05
         0.13347E-04
        -0.22686E-05
        -0.99755E-05
        -0.81337E-04
        -0.84009E-04
        -0.13033E-04
         0.33424E-04
         0.26594E-04
         0.52905E-04
        -0.10266E-03
        -0.22286E-03
         0.54646E-03
         0.90398E-04
         0.21004E-03
         0.54552E-03
        -0.12791E-03
        -0.27555E-03
        -0.25045E-03
        -0.24484E-03
        -0.29062E-03
         0.18379E-03
         0.14340E-03
        -0.20748E-04
         0.32000E-04
         0.35433E-03
         0.18300E-04
        -0.24392E-02
         0.35699E-02
        -0.74859E-02
        -0.79716E-02
        -0.76280E-02
        -0.42017E-02
         0.10411E-02
         0.29319E-02
         0.36323E-02
         0.66201E-02
         0.74209E-02
         0.29281E-02
         0.96999E-03
         0.81221E-03
        -0.35728E-03
        -0.35663E-02
        -0.65114E-02
        -0.85273E-02
        -0.55941E-02
         0.16258E-02
         0.31098E-02
         0.29961E-02
         0.52679E-02
         0.63920E-02
         0.42342E-02
         0.39864E-02
        -0.13780E-03
         0.18489E-04
        -0.31243E-04
        -0.23633E-04
         0.23297E-03
         0.90490E-04
         0.23288E-04
        -0.15687E-03
        -0.50137E-04
        -0.14788E-03
         0.10760E-04
        -0.24964E-03
        -0.47633E-03
         0.50324E-04
         0.62721E-03
        -0.10138E-03
         0.19911E-04
         0.89611E-05
         0.29176E-04
         0.87044E-05
         0.27101E-03
         0.17851E-03
        -0.10307E-03
         0.20267E-04
         0.52299E-04
        -0.77358E-05
         0.13552E-04
        -0.22362E-05
        -0.99046E-05
        -0.81517E-04
        -0.84127E-04
        -0.12951E-04
         0.33341E-04
         0.26649E-04
         0.52329E-04
        -0.10271E-03
        -0.22283E-03
         0.54816E-03
         0.91380E-04
         0.21096E-03
         0.54649E-03
        -0.12732E-03
        -0.27575E-03
        -0.25079E-03
        -0.24495E-03
        -0.29056E-03
         0.18383E-03
         0.14344E-03
        -0.20525E-04
         0.31887E-04
         0.35400E-03
         0.17917E-04
        -0.24360E-02
         0.35691E-02
        -0.74864E-02
        -0.79717E-02
        -0.76247E-02
        -0.41990E-02
         0.10417E-02
         0.29327E-02
         0.36285E-02
         0.66155E-02
         0.74185E-02
         0.29304E-02
         0.97008E-03
         0.81376E-03
        -0.35399E-03
        -0.35697E-02
        -0.65170E-02
        -0.85313E-02
        -0.55923E-02
         0.16262E-02
         0.31072E-02
         0.29949E-02
         0.52627E-02
         0.63835E-02
         0.42276E-02
         0.39793E-02
        -0.13808E-03
         0.18578E-04
        -0.31290E-04
        -0.23813E-04
         0.23278E-03
         0.90476E-04
         0.23443E-04
        -0.15663E-03
        -0.50269E-04
        -0.14817E-03
         0.10458E-04
        -0.25023E-03
        -0.47679E-03
         0.50235E-04
         0.62764E-03
        -0.10152E-03
         0.20136E-04
         0.89200E-05
         0.29185E-04
         0.86277E-05
         0.27168E-03
         0.17862E-03
        -0.10323E-03
         0.20242E-04
         0.52619E-04
        -0.77218E-05
         0.13763E-04
        -0.22020E-05
        -0.98313E-05
        -0.81695E-04
        -0.84245E-04
        -0.12869E-04
         0.33258E-04
         0.26705E-04
         0.51752E-04
        -0.10275E-03
        -0.22278E-03
         0.54986E-03
         0.92373E-04
         0.21190E-03
         0.54746E-03
        -0.12673E-03
        -0.27595E-03
        -0.25116E-03
        -0.24504E-03
        -0.29053E-03
         0.18387E-03
         0.14348E-03
        -0.20303E-04
         0.31775E-04
         0.35367E-03
         0.17539E-04
        -0.24328E-02
         0.35684E-02
        -0.74869E-02
        -0.79717E-02
        -0.76213E-02
        -0.41962E-02
         0.10423E-02
         0.29335E-02
         0.36247E-02
         0.66108E-02
         0.74161E-02
         0.29327E-02
         0.97015E-03
         0.81531E-03
        -0.35072E-03
        -0.35731E-02
        -0.65225E-02
        -0.85353E-02
        -0.55906E-02
         0.16265E-02
         0.31046E-02
         0.29937E-02
         0.52575E-02
         0.63750E-02
         0.42209E-02
         0.39722E-02
        -0.13836E-03
         0.18666E-04
        -0.31336E-04
        -0.23993E-04
         0.23259E-03
         0.90462E-04
         0.23597E-04
        -0.15640E-03
        -0.50397E-04
        -0.14844E-03
         0.10155E-04
        -0.25081E-03
        -0.47724E-03
         0.50151E-04
         0.62805E-03
        -0.10167E-03
         0.20363E-04
         0.88786E-05
         0.29197E-04
         0.85546E-05
         0.27235E-03
         0.17872E-03
        -0.10339E-03
         0.20216E-04
         0.52931E-04
        -0.77087E-05
         0.13970E-04
        -0.21654E-05
        -0.97571E-05
        -0.81871E-04
        -0.84364E-04
        -0.12785E-04
         0.33173E-04
         0.26760E-04
         0.51173E-04
        -0.10281E-03
        -0.22275E-03
         0.55156E-03
         0.93392E-04
         0.21282E-03
         0.54840E-03
        -0.12613E-03
        -0.27615E-03
        -0.25152E-03
        -0.24514E-03
        -0.29048E-03
         0.18390E-03
         0.14352E-03
        -0.20082E-04
         0.31663E-04
         0.35336E-03
         0.17161E-04
        -0.24296E-02
         0.35676E-02
        -0.74874E-02
        -0.79718E-02
        -0.76181E-02
        -0.41935E-02
         0.10429E-02
         0.29343E-02
         0.36209E-02
         0.66060E-02
         0.74139E-02
         0.29351E-02
         0.97019E-03
         0.81686E-03
        -0.34745E-03
        -0.35764E-02
        -0.65281E-02
        -0.85393E-02
        -0.55888E-02
         0.16269E-02
         0.31020E-02
         0.29925E-02
         0.52523E-02
         0.63666E-02
         0.42143E-02
         0.39651E-02
        -0.13865E-03
         0.18754E-04
        -0.31382E-04
        -0.24173E-04
         0.23240E-03
         0.90446E-04
         0.23751E-04
        -0.15615E-03
        -0.50523E-04
        -0.14869E-03
         0.98533E-05
        -0.25139E-03
        -0.47770E-03
         0.50066E-04
         0.62847E-03
        -0.10181E-03
         0.20593E-04
         0.88373E-05
         0.29205E-04
         0.84837E-05
         0.27303E-03
         0.17882E-03
        -0.10354E-03
         0.20192E-04
         0.53235E-04
        -0.76943E-05
         0.14185E-04
        -0.21258E-05
        -0.96814E-05
        -0.82036E-04
        -0.84481E-04
        -0.12703E-04
         0.33087E-04
         0.26815E-04
         0.50589E-04
        -0.10285E-03
        -0.22271E-03
         0.55325E-03
         0.94433E-04
         0.21373E-03
         0.54929E-03
        -0.12552E-03
        -0.27635E-03
        -0.25187E-03
        -0.24525E-03
        -0.29044E-03
         0.18394E-03
         0.14356E-03
        -0.19860E-04
         0.31553E-04
         0.35302E-03
         0.16781E-04
        -0.24264E-02
         0.35668E-02
        -0.74879E-02
        -0.79718E-02
        -0.76148E-02
        -0.41908E-02
         0.10435E-02
         0.29351E-02
         0.36171E-02
         0.66010E-02
         0.74116E-02
         0.29375E-02
         0.97015E-03
         0.81841E-03
        -0.34416E-03
        -0.35798E-02
        -0.65337E-02
        -0.85432E-02
        -0.55870E-02
         0.16273E-02
         0.30994E-02
         0.29912E-02
         0.52471E-02
         0.63581E-02
         0.42078E-02
         0.39580E-02
        -0.13893E-03
         0.18843E-04
        -0.31430E-04
        -0.24353E-04
         0.23222E-03
         0.90435E-04
         0.23906E-04
        -0.15591E-03
        -0.50648E-04
        -0.14894E-03
         0.95531E-05
        -0.25196E-03
        -0.47815E-03
         0.49975E-04
         0.62887E-03
        -0.10195E-03
         0.20825E-04
         0.87966E-05
         0.29214E-04
         0.84150E-05
         0.27370E-03
         0.17892E-03
        -0.10369E-03
         0.20169E-04
         0.53536E-04
        -0.76810E-05
         0.14395E-04
        -0.20843E-05
        -0.96052E-05
        -0.82200E-04
        -0.84600E-04
        -0.12622E-04
         0.33002E-04
         0.26871E-04
         0.50011E-04
        -0.10290E-03
        -0.22266E-03
         0.55494E-03
         0.95488E-04
         0.21461E-03
         0.55016E-03
        -0.12492E-03
        -0.27655E-03
        -0.25222E-03
        -0.24534E-03
        -0.29040E-03
         0.18398E-03
         0.14361E-03
        -0.19640E-04
         0.31439E-04
         0.35271E-03
         0.16406E-04
        -0.24232E-02
         0.35661E-02
        -0.74884E-02
        -0.79719E-02
        -0.76116E-02
        -0.41880E-02
         0.10441E-02
         0.29358E-02
         0.36134E-02
         0.65958E-02
         0.74095E-02
         0.29400E-02
         0.97006E-03
         0.81995E-03
        -0.34087E-03
        -0.35831E-02
        -0.65393E-02
        -0.85472E-02
        -0.55852E-02
         0.16277E-02
         0.30969E-02
         0.29900E-02
         0.52419E-02
         0.63498E-02
         0.42013E-02
         0.39509E-02
        -0.14088E-03
         0.19148E-04
        -0.31872E-04
        -0.24816E-04
         0.23499E-03
         0.91541E-04
         0.24352E-04
        -0.15768E-03
        -0.51369E-04
        -0.15107E-03
         0.94141E-05
        -0.25584E-03
        -0.48477E-03
         0.50560E-04
         0.63814E-03
        -0.10330E-03
         0.21300E-04
         0.88599E-05
         0.29574E-04
         0.84555E-05
         0.27773E-03
         0.18127E-03
        -0.10502E-03
         0.20403E-04
         0.54500E-04
        -0.77671E-05
         0.14782E-04
        -0.20685E-05
        -0.96740E-05
        -0.83422E-04
        -0.85736E-04
        -0.12717E-04
         0.33317E-04
         0.27252E-04
         0.50143E-04
        -0.10421E-03
        -0.22538E-03
         0.56419E-03
         0.97764E-04
         0.21833E-03
         0.55844E-03
        -0.12613E-03
        -0.28038E-03
        -0.25548E-03
        -0.24838E-03
        -0.29405E-03
         0.18630E-03
         0.14539E-03
        -0.19681E-04
         0.31718E-04
         0.35694E-03
         0.16238E-04
        -0.24613E-02
         0.36259E-02
        -0.76168E-02
        -0.81050E-02
        -0.77384E-02
        -0.42589E-02
         0.10637E-02
         0.29886E-02
         0.36747E-02
         0.67118E-02
         0.75403E-02
         0.29919E-02
         0.98497E-03
         0.83373E-03
        -0.34283E-03
        -0.36401E-02
        -0.66438E-02
        -0.86897E-02
        -0.56798E-02
         0.16566E-02
         0.31451E-02
         0.30361E-02
         0.53223E-02
         0.64446E-02
         0.42624E-02
         0.40073E-02
        -0.32537E-03
         0.44781E-04
        -0.73443E-04
        -0.57698E-04
         0.50604E-03
         0.20052E-03
         0.56865E-04
        -0.36201E-03
        -0.11799E-03
        -0.34558E-03
         0.20958E-04
        -0.53584E-03
        -0.10415E-02
         0.11323E-03
         0.13529E-02
        -0.23868E-03
         0.49373E-04
         0.20388E-04
         0.66737E-04
         0.19157E-04
         0.59458E-03
         0.39800E-03
        -0.22521E-03
         0.46684E-04
         0.12726E-03
        -0.18053E-04
         0.33951E-04
        -0.47629E-05
        -0.22707E-04
        -0.19445E-03
        -0.19828E-03
        -0.29270E-04
         0.77102E-04
         0.63231E-04
         0.10302E-03
        -0.22839E-03
        -0.49423E-03
         0.12497E-02
         0.22329E-03
         0.50051E-03
         0.12447E-02
        -0.28406E-03
        -0.63064E-03
        -0.55573E-03
        -0.53744E-03
        -0.60329E-03
         0.40104E-03
         0.32020E-03
        -0.43448E-04
         0.69854E-04
         0.75188E-03
         0.34825E-04
        -0.41206E-02
         0.60463E-02
        -0.12725E-01
        -0.13590E-01
        -0.12977E-01
        -0.71974E-02
         0.18435E-02
         0.52623E-02
         0.64454E-02
         0.11653E-01
         0.13100E-01
         0.51592E-02
         0.17241E-02
         0.14662E-02
        -0.58313E-03
        -0.60950E-02
        -0.11062E-01
        -0.14376E-01
        -0.94236E-02
         0.27579E-02
         0.53161E-02
         0.51682E-02
         0.90103E-02
         0.10980E-01
         0.72103E-02
         0.67279E-02
  
SCALARS                      strain_eq  double 1
LOOKUP_TABLE default
         0.35296E+02
         0.34865E+02
         0.35108E+02
         0.35630E+02
         0.48132E-08
         0.53369E-08
         0.51851E-08
         0.46655E-08
         0.34590E+02
         0.34880E+02
         0.52490E-08
         0.50198E-08
         0.34229E+02
         0.34215E+02
         0.57428E-08
         0.54689E-08
         0.35556E+02
         0.34223E+02
         0.42840E-08
         0.48183E-08
         0.33756E+02
         0.33274E+02
         0.33856E+02
         0.59147E-08
         0.56421E-08
         0.56119E-08
         0.33376E+02
         0.32756E+02
         0.57290E-08
         0.52033E-08
         0.35530E+02
         0.34958E+02
         0.36082E+02
         0.46619E-08
         0.43778E-08
         0.41934E-08
         0.35168E+02
         0.34461E+02
         0.50824E-08
         0.46335E-08
         0.34840E+02
         0.34241E+02
         0.47275E-08
         0.40785E-08
         0.35303E+02
         0.35579E+02
         0.51049E-08
         0.52940E-08
         0.33897E+02
         0.45752E-08
         0.35527E+02
         0.53199E-08
         0.33256E+02
         0.50020E-08
         0.33085E+02
         0.46170E-08
         0.33015E+02
         0.33696E+02
         0.46788E-08
         0.46007E-08
         0.35519E+02
         0.35238E+02
         0.47207E-08
         0.53437E-08
         0.35657E+02
         0.45310E-08
         0.35362E+02
         0.49624E-08
         0.34233E+02
         0.34425E+02
         0.53081E-08
         0.53047E-08
         0.34350E+02
         0.53682E-08
         0.32531E+02
         0.42911E-08
         0.32397E+02
         0.39940E-08
         0.32345E+02
         0.41607E-08
         0.32345E+02
         0.32864E+02
         0.40243E-08
         0.41799E-08
         0.33575E+02
         0.39365E-08
         0.35232E+02
         0.52855E-08
         0.34832E+02
         0.53824E-08
         0.34336E+02
         0.34558E+02
         0.53773E-08
         0.52750E-08
         0.34842E+02
         0.47337E-08
         0.34944E+02
         0.46348E-08
         0.34759E+02
         0.50132E-08
         0.34466E+02
         0.34751E+02
         0.51538E-08
         0.51397E-08
         0.32902E+02
         0.32877E+02
         0.49006E-08
         0.47303E-08
         0.32507E+02
         0.47592E-08
         0.32493E+02
         0.46465E-08
         0.32317E+02
         0.46409E-08
         0.31555E+02
         0.43510E-08
         0.30639E+02
         0.36817E-08
         0.30231E+02
         0.31109E-08
         0.30202E+02
         0.30172E-08
         0.30253E+02
         0.32146E-08
         0.30759E+02
         0.33161E-08
         0.31202E+02
         0.31065E-08
         0.31891E+02
         0.28352E-08
         0.32608E+02
         0.29343E-08
         0.33255E+02
         0.34782E-08
         0.33648E+02
         0.40605E-08
         0.33488E+02
         0.43277E-08
         0.33111E+02
         0.46210E-08
         0.32975E+02
         0.48562E-08
         0.32288E+02
         0.45309E-08
         0.32291E+02
         0.39891E-08
         0.32610E+02
         0.39814E-08
         0.32792E+02
         0.43811E-08
         0.33138E+02
         0.46489E-08
         0.32993E+02
         0.44984E-08
         0.32885E+02
         0.43981E-08
         0.66449E-01
         0.37643E-01
         0.41582E-01
         0.78513E-01
         0.89978E-02
         0.44899E-01
         0.20175E-03
         0.23794E-01
         0.72798E-01
         0.42608E-01
         0.25656E-01
         0.33673E-01
         0.12436E-01
         0.10986E-01
         0.24658E-01
         0.76800E-01
         0.70025E-01
         0.88865E-01
         0.34467E-01
         0.44640E-01
         0.30095E-01
         0.39759E-01
         0.21827E-01
         0.26491E-01
         0.43794E-01
         0.42564E-01
         0.12803E-01
         0.15543E-01
         0.70509E-02
         0.26919E-01
         0.73459E-01
         0.37225E-01
         0.73202E-01
         0.49600E-01
         0.39255E-01
         0.99493E-02
         0.37081E-02
         0.12370E-01
         0.14477E-01
         0.41346E-01
         0.61301E-01
         0.13281E-01
         0.30703E-01
         0.24835E-01
         0.23809E-02
         0.38163E-01
         0.34810E-02
         0.32526E-01
         0.30055E-01
         0.22464E-02
         0.26928E-01
         0.12238E-01
         0.11162E+00
         0.73976E-01
         0.80210E-01
         0.71530E-01
         0.73828E-01
         0.94220E-01
         0.11531E+00
         0.12204E+00
         0.11900E+00
         0.12121E+00
         0.13024E+00
         0.75694E-01
         0.55661E-01
         0.48041E-01
         0.35261E-01
         0.25632E-01
         0.26092E-01
         0.42601E-01
         0.98997E-01
         0.85410E-01
         0.65859E-01
         0.66013E-01
         0.69391E-01
         0.88043E-01
         0.60612E-01
         0.50599E-01
         0.34196E-01
         0.20547E-01
         0.19381E-01
         0.13290E-01
         0.35512E-01
         0.24553E-01
         0.10838E-01
         0.33632E-01
         0.21068E-01
         0.31691E-01
         0.15452E-01
         0.66576E-01
         0.50558E-01
         0.25287E-01
         0.69726E-01
         0.24847E-01
         0.12588E-01
         0.80313E-02
         0.16731E-01
         0.90579E-02
         0.52357E-01
         0.49121E-01
         0.47836E-01
         0.12449E-01
         0.20451E-01
         0.65031E-02
         0.23857E-01
         0.38750E-02
         0.87380E-02
         0.22183E-01
         0.21226E-01
         0.11291E-01
         0.13749E-01
         0.11894E-01
         0.45904E-01
         0.27470E-01
         0.35558E-01
         0.56866E-01
         0.43744E-01
         0.40715E-01
         0.57825E-01
         0.52420E-01
         0.52768E-01
         0.40851E-01
         0.36482E-01
         0.49905E-01
         0.32717E-01
         0.27820E-01
         0.22941E-01
         0.27091E-01
         0.44294E-01
         0.30412E-01
         0.19430E+00
         0.19894E+00
         0.20794E+00
         0.20643E+00
         0.22003E+00
         0.23620E+00
         0.22668E+00
         0.20161E+00
         0.19648E+00
         0.21025E+00
         0.20607E+00
         0.20327E+00
         0.16808E+00
         0.15979E+00
         0.17552E+00
         0.18798E+00
         0.19507E+00
         0.21299E+00
         0.20489E+00
         0.21043E+00
         0.18952E+00
         0.17996E+00
         0.19189E+00
         0.18760E+00
         0.19304E+00
         0.19142E+00
         0.34222E-01
         0.20552E-01
         0.19392E-01
         0.13309E-01
         0.35496E-01
         0.24539E-01
         0.10871E-01
         0.33664E-01
         0.21104E-01
         0.31784E-01
         0.15451E-01
         0.66574E-01
         0.50578E-01
         0.25227E-01
         0.69799E-01
         0.24867E-01
         0.12623E-01
         0.80111E-02
         0.16741E-01
         0.90379E-02
         0.52361E-01
         0.49118E-01
         0.47833E-01
         0.12449E-01
         0.20539E-01
         0.65016E-02
         0.23865E-01
         0.38339E-02
         0.87796E-02
         0.22222E-01
         0.21247E-01
         0.11287E-01
         0.13726E-01
         0.11905E-01
         0.45924E-01
         0.27463E-01
         0.35550E-01
         0.56954E-01
         0.43842E-01
         0.40772E-01
         0.57863E-01
         0.52447E-01
         0.52775E-01
         0.40850E-01
         0.36474E-01
         0.49902E-01
         0.32717E-01
         0.27818E-01
         0.22908E-01
         0.27054E-01
         0.44269E-01
         0.30365E-01
         0.19423E+00
         0.19890E+00
         0.20793E+00
         0.20643E+00
         0.21999E+00
         0.23612E+00
         0.22658E+00
         0.20156E+00
         0.19643E+00
         0.21019E+00
         0.20603E+00
         0.20327E+00
         0.16807E+00
         0.15979E+00
         0.17554E+00
         0.18803E+00
         0.19512E+00
         0.21303E+00
         0.20488E+00
         0.21042E+00
         0.18949E+00
         0.17994E+00
         0.19183E+00
         0.18748E+00
         0.19293E+00
         0.19132E+00
         0.34248E-01
         0.20556E-01
         0.19403E-01
         0.13328E-01
         0.35479E-01
         0.24526E-01
         0.10904E-01
         0.33696E-01
         0.21141E-01
         0.31876E-01
         0.15451E-01
         0.66572E-01
         0.50597E-01
         0.25168E-01
         0.69870E-01
         0.24888E-01
         0.12659E-01
         0.79907E-02
         0.16751E-01
         0.90184E-02
         0.52366E-01
         0.49114E-01
         0.47831E-01
         0.12449E-01
         0.20627E-01
         0.64997E-02
         0.23873E-01
         0.37944E-02
         0.88209E-02
         0.22260E-01
         0.21267E-01
         0.11283E-01
         0.13702E-01
         0.11916E-01
         0.45945E-01
         0.27455E-01
         0.35541E-01
         0.57043E-01
         0.43941E-01
         0.40828E-01
         0.57902E-01
         0.52475E-01
         0.52782E-01
         0.40852E-01
         0.36469E-01
         0.49901E-01
         0.32718E-01
         0.27816E-01
         0.22876E-01
         0.27016E-01
         0.44245E-01
         0.30318E-01
         0.19416E+00
         0.19885E+00
         0.20793E+00
         0.20644E+00
         0.21996E+00
         0.23604E+00
         0.22649E+00
         0.20151E+00
         0.19638E+00
         0.21013E+00
         0.20600E+00
         0.20328E+00
         0.16805E+00
         0.15978E+00
         0.17556E+00
         0.18807E+00
         0.19517E+00
         0.21308E+00
         0.20487E+00
         0.21040E+00
         0.18947E+00
         0.17993E+00
         0.19176E+00
         0.18735E+00
         0.19282E+00
         0.19122E+00
         0.34274E-01
         0.20561E-01
         0.19414E-01
         0.13348E-01
         0.35463E-01
         0.24512E-01
         0.10937E-01
         0.33728E-01
         0.21177E-01
         0.31967E-01
         0.15451E-01
         0.66570E-01
         0.50618E-01
         0.25109E-01
         0.69943E-01
         0.24910E-01
         0.12696E-01
         0.79701E-02
         0.16761E-01
         0.89978E-02
         0.52373E-01
         0.49112E-01
         0.47831E-01
         0.12447E-01
         0.20712E-01
         0.64967E-02
         0.23879E-01
         0.37596E-02
         0.88599E-02
         0.22294E-01
         0.21289E-01
         0.11280E-01
         0.13679E-01
         0.11926E-01
         0.45965E-01
         0.27448E-01
         0.35533E-01
         0.57132E-01
         0.44041E-01
         0.40888E-01
         0.57944E-01
         0.52503E-01
         0.52791E-01
         0.40856E-01
         0.36464E-01
         0.49900E-01
         0.32720E-01
         0.27814E-01
         0.22844E-01
         0.26979E-01
         0.44220E-01
         0.30271E-01
         0.19409E+00
         0.19880E+00
         0.20793E+00
         0.20644E+00
         0.21992E+00
         0.23596E+00
         0.22640E+00
         0.20145E+00
         0.19633E+00
         0.21006E+00
         0.20596E+00
         0.20329E+00
         0.16804E+00
         0.15977E+00
         0.17559E+00
         0.18813E+00
         0.19523E+00
         0.21313E+00
         0.20486E+00
         0.21039E+00
         0.18945E+00
         0.17992E+00
         0.19170E+00
         0.18723E+00
         0.19272E+00
         0.19111E+00
         0.34299E-01
         0.20566E-01
         0.19425E-01
         0.13367E-01
         0.35447E-01
         0.24497E-01
         0.10970E-01
         0.33760E-01
         0.21213E-01
         0.32056E-01
         0.15452E-01
         0.66568E-01
         0.50638E-01
         0.25050E-01
         0.70015E-01
         0.24934E-01
         0.12735E-01
         0.79495E-02
         0.16772E-01
         0.89768E-02
         0.52381E-01
         0.49111E-01
         0.47834E-01
         0.12445E-01
         0.20796E-01
         0.64923E-02
         0.23885E-01
         0.37292E-02
         0.88964E-02
         0.22325E-01
         0.21311E-01
         0.11278E-01
         0.13656E-01
         0.11937E-01
         0.45985E-01
         0.27440E-01
         0.35525E-01
         0.57221E-01
         0.44143E-01
         0.40951E-01
         0.57988E-01
         0.52534E-01
         0.52803E-01
         0.40865E-01
         0.36463E-01
         0.49902E-01
         0.32724E-01
         0.27814E-01
         0.22812E-01
         0.26941E-01
         0.44196E-01
         0.30224E-01
         0.19402E+00
         0.19875E+00
         0.20793E+00
         0.20644E+00
         0.21988E+00
         0.23588E+00
         0.22630E+00
         0.20140E+00
         0.19628E+00
         0.21000E+00
         0.20593E+00
         0.20330E+00
         0.16803E+00
         0.15977E+00
         0.17561E+00
         0.18819E+00
         0.19529E+00
         0.21318E+00
         0.20485E+00
         0.21038E+00
         0.18943E+00
         0.17991E+00
         0.19163E+00
         0.18711E+00
         0.19261E+00
         0.19101E+00
         0.34323E-01
         0.20569E-01
         0.19436E-01
         0.13386E-01
         0.35431E-01
         0.24483E-01
         0.11002E-01
         0.33790E-01
         0.21250E-01
         0.32142E-01
         0.15453E-01
         0.66566E-01
         0.50658E-01
         0.24991E-01
         0.70087E-01
         0.24958E-01
         0.12774E-01
         0.79288E-02
         0.16783E-01
         0.89564E-02
         0.52390E-01
         0.49111E-01
         0.47839E-01
         0.12443E-01
         0.20877E-01
         0.64874E-02
         0.23891E-01
         0.37012E-02
         0.89327E-02
         0.22355E-01
         0.21333E-01
         0.11275E-01
         0.13632E-01
         0.11948E-01
         0.46006E-01
         0.27434E-01
         0.35518E-01
         0.57311E-01
         0.44246E-01
         0.41015E-01
         0.58033E-01
         0.52565E-01
         0.52817E-01
         0.40875E-01
         0.36464E-01
         0.49907E-01
         0.32729E-01
         0.27815E-01
         0.22781E-01
         0.26905E-01
         0.44172E-01
         0.30179E-01
         0.19395E+00
         0.19871E+00
         0.20793E+00
         0.20644E+00
         0.21985E+00
         0.23580E+00
         0.22621E+00
         0.20135E+00
         0.19623E+00
         0.20994E+00
         0.20590E+00
         0.20332E+00
         0.16803E+00
         0.15977E+00
         0.17564E+00
         0.18825E+00
         0.19536E+00
         0.21323E+00
         0.20483E+00
         0.21037E+00
         0.18941E+00
         0.17990E+00
         0.19157E+00
         0.18699E+00
         0.19250E+00
         0.19091E+00
         0.34346E-01
         0.20570E-01
         0.19446E-01
         0.13405E-01
         0.35416E-01
         0.24470E-01
         0.11033E-01
         0.33815E-01
         0.21287E-01
         0.32224E-01
         0.15457E-01
         0.66567E-01
         0.50681E-01
         0.24933E-01
         0.70160E-01
         0.24983E-01
         0.12812E-01
         0.79081E-02
         0.16795E-01
         0.89362E-02
         0.52399E-01
         0.49111E-01
         0.47844E-01
         0.12442E-01
         0.20956E-01
         0.64815E-02
         0.23897E-01
         0.36739E-02
         0.89695E-02
         0.22384E-01
         0.21354E-01
         0.11269E-01
         0.13609E-01
         0.11958E-01
         0.46028E-01
         0.27429E-01
         0.35512E-01
         0.57401E-01
         0.44350E-01
         0.41080E-01
         0.58079E-01
         0.52596E-01
         0.52830E-01
         0.40885E-01
         0.36466E-01
         0.49913E-01
         0.32736E-01
         0.27818E-01
         0.22755E-01
         0.26870E-01
         0.44150E-01
         0.30133E-01
         0.19388E+00
         0.19866E+00
         0.20793E+00
         0.20644E+00
         0.21981E+00
         0.23573E+00
         0.22611E+00
         0.20129E+00
         0.19619E+00
         0.20987E+00
         0.20586E+00
         0.20333E+00
         0.16802E+00
         0.15976E+00
         0.17566E+00
         0.18831E+00
         0.19542E+00
         0.21328E+00
         0.20482E+00
         0.21035E+00
         0.18940E+00
         0.17989E+00
         0.19150E+00
         0.18687E+00
         0.19239E+00
         0.19081E+00
         0.34367E-01
         0.20570E-01
         0.19456E-01
         0.13424E-01
         0.35401E-01
         0.24456E-01
         0.11063E-01
         0.33838E-01
         0.21324E-01
         0.32305E-01
         0.15463E-01
         0.66567E-01
         0.50704E-01
         0.24874E-01
         0.70233E-01
         0.25008E-01
         0.12850E-01
         0.78872E-02
         0.16806E-01
         0.89169E-02
         0.52408E-01
         0.49111E-01
         0.47849E-01
         0.12440E-01
         0.21034E-01
         0.64753E-02
         0.23903E-01
         0.36477E-02
         0.90075E-02
         0.22414E-01
         0.21373E-01
         0.11262E-01
         0.13585E-01
         0.11969E-01
         0.46050E-01
         0.27425E-01
         0.35507E-01
         0.57493E-01
         0.44454E-01
         0.41145E-01
         0.58125E-01
         0.52629E-01
         0.52844E-01
         0.40897E-01
         0.36470E-01
         0.49921E-01
         0.32744E-01
         0.27822E-01
         0.22731E-01
         0.26836E-01
         0.44129E-01
         0.30088E-01
         0.19381E+00
         0.19861E+00
         0.20793E+00
         0.20644E+00
         0.21978E+00
         0.23565E+00
         0.22602E+00
         0.20124E+00
         0.19614E+00
         0.20981E+00
         0.20583E+00
         0.20334E+00
         0.16801E+00
         0.15976E+00
         0.17569E+00
         0.18837E+00
         0.19549E+00
         0.21333E+00
         0.20481E+00
         0.21034E+00
         0.18938E+00
         0.17988E+00
         0.19143E+00
         0.18674E+00
         0.19228E+00
         0.19071E+00
         0.34389E-01
         0.20570E-01
         0.19466E-01
         0.13444E-01
         0.35386E-01
         0.24442E-01
         0.11093E-01
         0.33861E-01
         0.21362E-01
         0.32386E-01
         0.15467E-01
         0.66567E-01
         0.50727E-01
         0.24817E-01
         0.70307E-01
         0.25033E-01
         0.12888E-01
         0.78663E-02
         0.16817E-01
         0.88971E-02
         0.52417E-01
         0.49111E-01
         0.47855E-01
         0.12439E-01
         0.21112E-01
         0.64692E-02
         0.23910E-01
         0.36222E-02
         0.90457E-02
         0.22444E-01
         0.21393E-01
         0.11256E-01
         0.13561E-01
         0.11979E-01
         0.46073E-01
         0.27420E-01
         0.35502E-01
         0.57584E-01
         0.44559E-01
         0.41209E-01
         0.58171E-01
         0.52660E-01
         0.52858E-01
         0.40908E-01
         0.36474E-01
         0.49929E-01
         0.32751E-01
         0.27827E-01
         0.22707E-01
         0.26802E-01
         0.44109E-01
         0.30043E-01
         0.19374E+00
         0.19857E+00
         0.20792E+00
         0.20644E+00
         0.21974E+00
         0.23557E+00
         0.22592E+00
         0.20118E+00
         0.19609E+00
         0.20974E+00
         0.20580E+00
         0.20336E+00
         0.16801E+00
         0.15976E+00
         0.17572E+00
         0.18844E+00
         0.19556E+00
         0.21338E+00
         0.20479E+00
         0.21033E+00
         0.18936E+00
         0.17987E+00
         0.19137E+00
         0.18662E+00
         0.19218E+00
         0.19061E+00
         0.34410E-01
         0.20570E-01
         0.19476E-01
         0.13463E-01
         0.35371E-01
         0.24428E-01
         0.11124E-01
         0.33885E-01
         0.21399E-01
         0.32466E-01
         0.15473E-01
         0.66567E-01
         0.50750E-01
         0.24759E-01
         0.70380E-01
         0.25057E-01
         0.12926E-01
         0.78457E-02
         0.16828E-01
         0.88777E-02
         0.52426E-01
         0.49111E-01
         0.47859E-01
         0.12438E-01
         0.21190E-01
         0.64631E-02
         0.23917E-01
         0.35976E-02
         0.90843E-02
         0.22473E-01
         0.21412E-01
         0.11249E-01
         0.13538E-01
         0.11990E-01
         0.46095E-01
         0.27416E-01
         0.35498E-01
         0.57675E-01
         0.44664E-01
         0.41274E-01
         0.58218E-01
         0.52692E-01
         0.52871E-01
         0.40920E-01
         0.36477E-01
         0.49937E-01
         0.32760E-01
         0.27831E-01
         0.22682E-01
         0.26768E-01
         0.44087E-01
         0.29998E-01
         0.19367E+00
         0.19852E+00
         0.20792E+00
         0.20644E+00
         0.21970E+00
         0.23549E+00
         0.22582E+00
         0.20113E+00
         0.19604E+00
         0.20968E+00
         0.20576E+00
         0.20337E+00
         0.16800E+00
         0.15976E+00
         0.17574E+00
         0.18850E+00
         0.19563E+00
         0.21343E+00
         0.20478E+00
         0.21032E+00
         0.18935E+00
         0.17987E+00
         0.19130E+00
         0.18650E+00
         0.19207E+00
         0.19051E+00
         0.34431E-01
         0.20569E-01
         0.19485E-01
         0.13483E-01
         0.35356E-01
         0.24414E-01
         0.11154E-01
         0.33907E-01
         0.21437E-01
         0.32547E-01
         0.15479E-01
         0.66568E-01
         0.50773E-01
         0.24701E-01
         0.70453E-01
         0.25082E-01
         0.12964E-01
         0.78250E-02
         0.16839E-01
         0.88577E-02
         0.52435E-01
         0.49111E-01
         0.47865E-01
         0.12437E-01
         0.21267E-01
         0.64571E-02
         0.23924E-01
         0.35737E-02
         0.91232E-02
         0.22503E-01
         0.21432E-01
         0.11242E-01
         0.13515E-01
         0.12000E-01
         0.46118E-01
         0.27411E-01
         0.35493E-01
         0.57767E-01
         0.44769E-01
         0.41338E-01
         0.58264E-01
         0.52724E-01
         0.52885E-01
         0.40931E-01
         0.36481E-01
         0.49945E-01
         0.32768E-01
         0.27836E-01
         0.22658E-01
         0.26734E-01
         0.44067E-01
         0.29953E-01
         0.19360E+00
         0.19847E+00
         0.20792E+00
         0.20644E+00
         0.21967E+00
         0.23540E+00
         0.22573E+00
         0.20108E+00
         0.19599E+00
         0.20961E+00
         0.20573E+00
         0.20338E+00
         0.16799E+00
         0.15975E+00
         0.17577E+00
         0.18856E+00
         0.19569E+00
         0.21348E+00
         0.20477E+00
         0.21030E+00
         0.18933E+00
         0.17986E+00
         0.19123E+00
         0.18638E+00
         0.19196E+00
         0.19040E+00
         0.34452E-01
         0.20569E-01
         0.19495E-01
         0.13502E-01
         0.35341E-01
         0.24400E-01
         0.11185E-01
         0.33931E-01
         0.21475E-01
         0.32627E-01
         0.15485E-01
         0.66568E-01
         0.50796E-01
         0.24644E-01
         0.70526E-01
         0.25107E-01
         0.13002E-01
         0.78042E-02
         0.16850E-01
         0.88383E-02
         0.52444E-01
         0.49111E-01
         0.47870E-01
         0.12436E-01
         0.21344E-01
         0.64514E-02
         0.23931E-01
         0.35507E-02
         0.91619E-02
         0.22533E-01
         0.21451E-01
         0.11236E-01
         0.13492E-01
         0.12010E-01
         0.46141E-01
         0.27407E-01
         0.35488E-01
         0.57859E-01
         0.44874E-01
         0.41403E-01
         0.58310E-01
         0.52756E-01
         0.52899E-01
         0.40942E-01
         0.36485E-01
         0.49954E-01
         0.32775E-01
         0.27841E-01
         0.22634E-01
         0.26700E-01
         0.44046E-01
         0.29908E-01
         0.19353E+00
         0.19843E+00
         0.20791E+00
         0.20645E+00
         0.21963E+00
         0.23532E+00
         0.22563E+00
         0.20102E+00
         0.19594E+00
         0.20955E+00
         0.20569E+00
         0.20340E+00
         0.16799E+00
         0.15975E+00
         0.17580E+00
         0.18863E+00
         0.19576E+00
         0.21353E+00
         0.20475E+00
         0.21029E+00
         0.18931E+00
         0.17985E+00
         0.19117E+00
         0.18626E+00
         0.19186E+00
         0.19030E+00
         0.34473E-01
         0.20569E-01
         0.19505E-01
         0.13522E-01
         0.35326E-01
         0.24387E-01
         0.11215E-01
         0.33954E-01
         0.21513E-01
         0.32707E-01
         0.15492E-01
         0.66568E-01
         0.50819E-01
         0.24586E-01
         0.70600E-01
         0.25132E-01
         0.13040E-01
         0.77833E-02
         0.16861E-01
         0.88186E-02
         0.52453E-01
         0.49111E-01
         0.47875E-01
         0.12435E-01
         0.21421E-01
         0.64454E-02
         0.23938E-01
         0.35283E-02
         0.92015E-02
         0.22562E-01
         0.21471E-01
         0.11229E-01
         0.13468E-01
         0.12021E-01
         0.46163E-01
         0.27403E-01
         0.35483E-01
         0.57950E-01
         0.44980E-01
         0.41468E-01
         0.58356E-01
         0.52788E-01
         0.52912E-01
         0.40954E-01
         0.36489E-01
         0.49960E-01
         0.32784E-01
         0.27845E-01
         0.22610E-01
         0.26666E-01
         0.44024E-01
         0.29863E-01
         0.19346E+00
         0.19838E+00
         0.20791E+00
         0.20645E+00
         0.21960E+00
         0.23524E+00
         0.22554E+00
         0.20097E+00
         0.19589E+00
         0.20948E+00
         0.20566E+00
         0.20341E+00
         0.16798E+00
         0.15975E+00
         0.17582E+00
         0.18869E+00
         0.19583E+00
         0.21358E+00
         0.20474E+00
         0.21028E+00
         0.18929E+00
         0.17984E+00
         0.19110E+00
         0.18614E+00
         0.19175E+00
         0.19020E+00
         0.34494E-01
         0.20569E-01
         0.19515E-01
         0.13541E-01
         0.35312E-01
         0.24373E-01
         0.11246E-01
         0.33976E-01
         0.21550E-01
         0.32788E-01
         0.15498E-01
         0.66569E-01
         0.50842E-01
         0.24528E-01
         0.70673E-01
         0.25156E-01
         0.13078E-01
         0.77626E-02
         0.16872E-01
         0.87993E-02
         0.52462E-01
         0.49111E-01
         0.47880E-01
         0.12434E-01
         0.21499E-01
         0.64395E-02
         0.23944E-01
         0.35069E-02
         0.92415E-02
         0.22592E-01
         0.21490E-01
         0.11222E-01
         0.13445E-01
         0.12031E-01
         0.46186E-01
         0.27399E-01
         0.35478E-01
         0.58042E-01
         0.45085E-01
         0.41532E-01
         0.58402E-01
         0.52819E-01
         0.52926E-01
         0.40966E-01
         0.36493E-01
         0.49969E-01
         0.32792E-01
         0.27849E-01
         0.22586E-01
         0.26632E-01
         0.44004E-01
         0.29818E-01
         0.19339E+00
         0.19833E+00
         0.20791E+00
         0.20645E+00
         0.21956E+00
         0.23516E+00
         0.22544E+00
         0.20091E+00
         0.19584E+00
         0.20941E+00
         0.20563E+00
         0.20342E+00
         0.16797E+00
         0.15974E+00
         0.17585E+00
         0.18875E+00
         0.19589E+00
         0.21363E+00
         0.20473E+00
         0.21026E+00
         0.18928E+00
         0.17983E+00
         0.19104E+00
         0.18601E+00
         0.19164E+00
         0.19010E+00
         0.34515E-01
         0.20569E-01
         0.19525E-01
         0.13561E-01
         0.35297E-01
         0.24359E-01
         0.11276E-01
         0.33999E-01
         0.21588E-01
         0.32868E-01
         0.15505E-01
         0.66569E-01
         0.50865E-01
         0.24471E-01
         0.70747E-01
         0.25181E-01
         0.13116E-01
         0.77419E-02
         0.16883E-01
         0.87795E-02
         0.52471E-01
         0.49111E-01
         0.47885E-01
         0.12433E-01
         0.21576E-01
         0.64337E-02
         0.23951E-01
         0.34861E-02
         0.92818E-02
         0.22621E-01
         0.21510E-01
         0.11215E-01
         0.13423E-01
         0.12042E-01
         0.46208E-01
         0.27395E-01
         0.35474E-01
         0.58134E-01
         0.45190E-01
         0.41596E-01
         0.58449E-01
         0.52851E-01
         0.52940E-01
         0.40977E-01
         0.36496E-01
         0.49977E-01
         0.32800E-01
         0.27854E-01
         0.22562E-01
         0.26598E-01
         0.43983E-01
         0.29773E-01
         0.19332E+00
         0.19829E+00
         0.20791E+00
         0.20645E+00
         0.21952E+00
         0.23508E+00
         0.22534E+00
         0.20086E+00
         0.19579E+00
         0.20935E+00
         0.20559E+00
         0.20344E+00
         0.16797E+00
         0.15974E+00
         0.17588E+00
         0.18881E+00
         0.19596E+00
         0.21368E+00
         0.20471E+00
         0.21025E+00
         0.18926E+00
         0.17982E+00
         0.19097E+00
         0.18589E+00
         0.19154E+00
         0.19000E+00
         0.34536E-01
         0.20568E-01
         0.19534E-01
         0.13581E-01
         0.35282E-01
         0.24345E-01
         0.11307E-01
         0.34022E-01
         0.21626E-01
         0.32948E-01
         0.15512E-01
         0.66570E-01
         0.50888E-01
         0.24414E-01
         0.70820E-01
         0.25206E-01
         0.13155E-01
         0.77214E-02
         0.16894E-01
         0.87602E-02
         0.52480E-01
         0.49111E-01
         0.47890E-01
         0.12432E-01
         0.21653E-01
         0.64279E-02
         0.23958E-01
         0.34661E-02
         0.93225E-02
         0.22650E-01
         0.21529E-01
         0.11209E-01
         0.13400E-01
         0.12052E-01
         0.46232E-01
         0.27391E-01
         0.35469E-01
         0.58226E-01
         0.45296E-01
         0.41659E-01
         0.58494E-01
         0.52883E-01
         0.52953E-01
         0.40988E-01
         0.36501E-01
         0.49985E-01
         0.32808E-01
         0.27859E-01
         0.22538E-01
         0.26564E-01
         0.43962E-01
         0.29728E-01
         0.19325E+00
         0.19824E+00
         0.20790E+00
         0.20645E+00
         0.21949E+00
         0.23500E+00
         0.22524E+00
         0.20080E+00
         0.19574E+00
         0.20928E+00
         0.20556E+00
         0.20345E+00
         0.16796E+00
         0.15974E+00
         0.17590E+00
         0.18888E+00
         0.19603E+00
         0.21372E+00
         0.20470E+00
         0.21024E+00
         0.18924E+00
         0.17982E+00
         0.19090E+00
         0.18577E+00
         0.19143E+00
         0.18990E+00
         0.34557E-01
         0.20568E-01
         0.19544E-01
         0.13601E-01
         0.35267E-01
         0.24331E-01
         0.11338E-01
         0.34045E-01
         0.21664E-01
         0.33028E-01
         0.15520E-01
         0.66570E-01
         0.50911E-01
         0.24356E-01
         0.70894E-01
         0.25230E-01
         0.13193E-01
         0.77007E-02
         0.16905E-01
         0.87406E-02
         0.52489E-01
         0.49110E-01
         0.47895E-01
         0.12431E-01
         0.21730E-01
         0.64221E-02
         0.23964E-01
         0.34464E-02
         0.93630E-02
         0.22679E-01
         0.21549E-01
         0.11203E-01
         0.13377E-01
         0.12063E-01
         0.46255E-01
         0.27387E-01
         0.35464E-01
         0.58318E-01
         0.45401E-01
         0.41723E-01
         0.58539E-01
         0.52914E-01
         0.52966E-01
         0.41000E-01
         0.36504E-01
         0.49994E-01
         0.32816E-01
         0.27864E-01
         0.22515E-01
         0.26530E-01
         0.43941E-01
         0.29684E-01
         0.19317E+00
         0.19819E+00
         0.20790E+00
         0.20645E+00
         0.21945E+00
         0.23492E+00
         0.22515E+00
         0.20075E+00
         0.19570E+00
         0.20921E+00
         0.20553E+00
         0.20347E+00
         0.16796E+00
         0.15973E+00
         0.17593E+00
         0.18894E+00
         0.19610E+00
         0.21377E+00
         0.20469E+00
         0.21022E+00
         0.18923E+00
         0.17981E+00
         0.19083E+00
         0.18565E+00
         0.19132E+00
         0.18980E+00
         0.34578E-01
         0.20568E-01
         0.19554E-01
         0.13620E-01
         0.35252E-01
         0.24317E-01
         0.11368E-01
         0.34068E-01
         0.21702E-01
         0.33107E-01
         0.15527E-01
         0.66571E-01
         0.50934E-01
         0.24298E-01
         0.70967E-01
         0.25255E-01
         0.13232E-01
         0.76800E-02
         0.16917E-01
         0.87219E-02
         0.52498E-01
         0.49110E-01
         0.47901E-01
         0.12430E-01
         0.21806E-01
         0.64167E-02
         0.23968E-01
         0.34267E-02
         0.94042E-02
         0.22707E-01
         0.21568E-01
         0.11196E-01
         0.13355E-01
         0.12073E-01
         0.46277E-01
         0.27383E-01
         0.35459E-01
         0.58410E-01
         0.45506E-01
         0.41784E-01
         0.58582E-01
         0.52942E-01
         0.52978E-01
         0.41012E-01
         0.36508E-01
         0.50002E-01
         0.32824E-01
         0.27868E-01
         0.22491E-01
         0.26496E-01
         0.43921E-01
         0.29639E-01
         0.19310E+00
         0.19815E+00
         0.20790E+00
         0.20645E+00
         0.21941E+00
         0.23484E+00
         0.22505E+00
         0.20069E+00
         0.19565E+00
         0.20914E+00
         0.20550E+00
         0.20349E+00
         0.16795E+00
         0.15973E+00
         0.17596E+00
         0.18900E+00
         0.19616E+00
         0.21382E+00
         0.20467E+00
         0.21021E+00
         0.18921E+00
         0.17980E+00
         0.19077E+00
         0.18553E+00
         0.19122E+00
         0.18970E+00
         0.34599E-01
         0.20568E-01
         0.19564E-01
         0.13640E-01
         0.35237E-01
         0.24303E-01
         0.11399E-01
         0.34090E-01
         0.21741E-01
         0.33186E-01
         0.15534E-01
         0.66571E-01
         0.50957E-01
         0.24240E-01
         0.71040E-01
         0.25280E-01
         0.13270E-01
         0.76592E-02
         0.16928E-01
         0.87031E-02
         0.52507E-01
         0.49108E-01
         0.47906E-01
         0.12429E-01
         0.21882E-01
         0.64109E-02
         0.23971E-01
         0.34068E-02
         0.94457E-02
         0.22733E-01
         0.21588E-01
         0.11189E-01
         0.13332E-01
         0.12084E-01
         0.46301E-01
         0.27379E-01
         0.35455E-01
         0.58503E-01
         0.45611E-01
         0.41844E-01
         0.58622E-01
         0.52968E-01
         0.52989E-01
         0.41023E-01
         0.36513E-01
         0.50010E-01
         0.32832E-01
         0.27873E-01
         0.22467E-01
         0.26462E-01
         0.43899E-01
         0.29593E-01
         0.19303E+00
         0.19810E+00
         0.20789E+00
         0.20645E+00
         0.21938E+00
         0.23476E+00
         0.22495E+00
         0.20064E+00
         0.19560E+00
         0.20907E+00
         0.20546E+00
         0.20351E+00
         0.16795E+00
         0.15973E+00
         0.17598E+00
         0.18906E+00
         0.19623E+00
         0.21387E+00
         0.20466E+00
         0.21020E+00
         0.18919E+00
         0.17979E+00
         0.19070E+00
         0.18541E+00
         0.19111E+00
         0.18960E+00
         0.34620E-01
         0.20568E-01
         0.19574E-01
         0.13660E-01
         0.35223E-01
         0.24290E-01
         0.11430E-01
         0.34113E-01
         0.21779E-01
         0.33264E-01
         0.15542E-01
         0.66572E-01
         0.50980E-01
         0.24182E-01
         0.71113E-01
         0.25304E-01
         0.13309E-01
         0.76387E-02
         0.16939E-01
         0.86849E-02
         0.52516E-01
         0.49107E-01
         0.47911E-01
         0.12429E-01
         0.21959E-01
         0.64057E-02
         0.23973E-01
         0.33869E-02
         0.94873E-02
         0.22758E-01
         0.21608E-01
         0.11183E-01
         0.13310E-01
         0.12095E-01
         0.46324E-01
         0.27375E-01
         0.35450E-01
         0.58596E-01
         0.45715E-01
         0.41901E-01
         0.58661E-01
         0.52992E-01
         0.52999E-01
         0.41035E-01
         0.36516E-01
         0.50018E-01
         0.32840E-01
         0.27878E-01
         0.22443E-01
         0.26428E-01
         0.43879E-01
         0.29549E-01
         0.19296E+00
         0.19806E+00
         0.20789E+00
         0.20645E+00
         0.21934E+00
         0.23468E+00
         0.22485E+00
         0.20058E+00
         0.19555E+00
         0.20899E+00
         0.20543E+00
         0.20354E+00
         0.16796E+00
         0.15973E+00
         0.17601E+00
         0.18912E+00
         0.19630E+00
         0.21392E+00
         0.20465E+00
         0.21019E+00
         0.18918E+00
         0.17978E+00
         0.19063E+00
         0.18528E+00
         0.19101E+00
         0.18950E+00
         0.35407E-01
         0.21673E-01
         0.20715E-01
         0.14941E-01
         0.36211E-01
         0.25390E-01
         0.13442E-01
         0.35074E-01
         0.22776E-01
         0.34291E-01
         0.17437E-01
         0.67671E-01
         0.51988E-01
         0.25554E-01
         0.72326E-01
         0.26161E-01
         0.14855E-01
         0.94645E-02
         0.18292E-01
         0.11121E-01
         0.53390E-01
         0.50000E-01
         0.48744E-01
         0.14004E-01
         0.23264E-01
         0.88254E-02
         0.25376E-01
         0.82768E-02
         0.12238E-01
         0.24066E-01
         0.22565E-01
         0.12866E-01
         0.14595E-01
         0.13631E-01
         0.47392E-01
         0.28513E-01
         0.36433E-01
         0.59766E-01
         0.46908E-01
         0.43064E-01
         0.59749E-01
         0.54005E-01
         0.53926E-01
         0.41872E-01
         0.37447E-01
         0.51046E-01
         0.33896E-01
         0.28909E-01
         0.23560E-01
         0.27492E-01
         0.44857E-01
         0.30547E-01
         0.19535E+00
         0.20044E+00
         0.21044E+00
         0.20891E+00
         0.22194E+00
         0.23749E+00
         0.22760E+00
         0.20316E+00
         0.19811E+00
         0.21171E+00
         0.20808E+00
         0.20606E+00
         0.16994E+00
         0.16154E+00
         0.17797E+00
         0.19123E+00
         0.19848E+00
         0.21641E+00
         0.20719E+00
         0.21278E+00
         0.19141E+00
         0.18187E+00
         0.19282E+00
         0.18737E+00
         0.19313E+00
         0.19161E+00
         0.85838E-01
         0.77416E-01
         0.75816E-01
         0.67008E-01
         0.93931E-01
         0.81872E-01
         0.78368E-01
         0.92999E-01
         0.73951E-01
         0.92232E-01
         0.87031E-01
         0.13534E+00
         0.11380E+00
         0.93582E-01
         0.14305E+00
         0.75440E-01
         0.72418E-01
         0.61882E-01
         0.76176E-01
         0.76550E-01
         0.10998E+00
         0.10838E+00
         0.10308E+00
         0.71568E-01
         0.84894E-01
         0.67357E-01
         0.93330E-01
         0.84590E-01
         0.86092E-01
         0.87844E-01
         0.73310E-01
         0.70814E-01
         0.67294E-01
         0.69554E-01
         0.10896E+00
         0.88489E-01
         0.94899E-01
         0.12907E+00
         0.11526E+00
         0.11100E+00
         0.12788E+00
         0.11892E+00
         0.11534E+00
         0.95269E-01
         0.93445E-01
         0.11200E+00
         0.92824E-01
         0.85296E-01
         0.80331E-01
         0.85294E-01
         0.10420E+00
         0.87606E-01
         0.28865E+00
         0.29232E+00
         0.30559E+00
         0.30232E+00
         0.31955E+00
         0.34228E+00
         0.33467E+00
         0.30743E+00
         0.30157E+00
         0.31802E+00
         0.31170E+00
         0.30431E+00
         0.25651E+00
         0.24367E+00
         0.26073E+00
         0.27471E+00
         0.28316E+00
         0.30793E+00
         0.30157E+00
         0.30868E+00
         0.28073E+00
         0.26846E+00
         0.28265E+00
         0.27651E+00
         0.28186E+00
         0.27906E+00
  
SCALARS                     nodal_mass  double 1
LOOKUP_TABLE default
         0.24608E-05
         0.19551E-05
         0.20945E-05
         0.35953E-05
         0.12304E-05
         0.97770E-06
         0.10472E-05
         0.17973E-05
         0.19315E-05
         0.24627E-05
         0.96570E-06
         0.12312E-05
         0.13823E-05
         0.16614E-05
         0.69133E-06
         0.83095E-06
         0.27274E-05
         0.20125E-05
         0.13635E-05
         0.10066E-05
         0.81737E-06
         0.15393E-05
         0.16929E-05
         0.40889E-06
         0.76975E-06
         0.84649E-06
         0.13859E-05
         0.17532E-05
         0.69345E-06
         0.87672E-06
         0.32470E-05
         0.25355E-05
         0.32225E-05
         0.16233E-05
         0.12675E-05
         0.16109E-05
         0.18980E-05
         0.21673E-05
         0.94902E-06
         0.10836E-05
         0.20482E-05
         0.22683E-05
         0.10242E-05
         0.11342E-05
         0.17426E-05
         0.10823E-05
         0.87140E-06
         0.54121E-06
         0.20598E-05
         0.10301E-05
         0.17103E-05
         0.85523E-06
         0.17977E-05
         0.89958E-06
         0.18362E-05
         0.91859E-06
         0.15911E-05
         0.19369E-05
         0.79575E-06
         0.96860E-06
         0.24553E-05
         0.17361E-05
         0.12277E-05
         0.86816E-06
         0.27409E-05
         0.13702E-05
         0.23792E-05
         0.11891E-05
         0.10821E-05
         0.16705E-05
         0.54106E-06
         0.83538E-06
         0.18955E-05
         0.94787E-06
         0.20026E-05
         0.10014E-05
         0.19316E-05
         0.96578E-06
         0.15181E-05
         0.75906E-06
         0.95443E-06
         0.15782E-05
         0.47723E-06
         0.78918E-06
         0.20886E-05
         0.10443E-05
         0.16867E-05
         0.84342E-06
         0.14838E-05
         0.74203E-06
         0.97224E-06
         0.16569E-05
         0.48620E-06
         0.82849E-06
         0.22482E-05
         0.11241E-05
         0.23568E-05
         0.11783E-05
         0.19018E-05
         0.95085E-06
         0.11709E-05
         0.20091E-05
         0.58544E-06
         0.10044E-05
         0.74681E-06
         0.94889E-06
         0.37348E-06
         0.47447E-06
         0.88885E-06
         0.44455E-06
         0.10466E-05
         0.52333E-06
         0.10205E-05
         0.51021E-06
         0.99108E-06
         0.49550E-06
         0.10560E-05
         0.52791E-06
         0.11142E-05
         0.55694E-06
         0.10497E-05
         0.52469E-06
         0.82085E-06
         0.41039E-06
         0.66950E-06
         0.33475E-06
         0.86397E-06
         0.43199E-06
         0.11504E-05
         0.57519E-06
         0.12637E-05
         0.63182E-06
         0.12132E-05
         0.60658E-06
         0.10948E-05
         0.54745E-06
         0.99429E-06
         0.49718E-06
         0.80759E-06
         0.40382E-06
         0.67982E-06
         0.33995E-06
         0.88797E-06
         0.44401E-06
         0.11753E-05
         0.58766E-06
         0.12140E-05
         0.60702E-06
         0.98236E-06
         0.49125E-06
         0.79766E-06
         0.39889E-06
         0.97540E-06
         0.48769E-06
         0.11548E-05
         0.57743E-06
         0.24609E-05
         0.19547E-05
         0.20946E-05
         0.35969E-05
         0.19318E-05
         0.24634E-05
         0.13815E-05
         0.16603E-05
         0.27283E-05
         0.20111E-05
         0.81658E-06
         0.15390E-05
         0.16927E-05
         0.13839E-05
         0.17528E-05
         0.32479E-05
         0.25367E-05
         0.32241E-05
         0.18980E-05
         0.21675E-05
         0.20481E-05
         0.22684E-05
         0.17424E-05
         0.10822E-05
         0.20589E-05
         0.17102E-05
         0.17950E-05
         0.18344E-05
         0.15904E-05
         0.19365E-05
         0.24555E-05
         0.17359E-05
         0.27423E-05
         0.23814E-05
         0.10820E-05
         0.16702E-05
         0.18953E-05
         0.20025E-05
         0.19317E-05
         0.15181E-05
         0.95442E-06
         0.15780E-05
         0.20884E-05
         0.16864E-05
         0.14835E-05
         0.97197E-06
         0.16567E-05
         0.22482E-05
         0.23571E-05
         0.19022E-05
         0.11709E-05
         0.20101E-05
         0.74658E-06
         0.94886E-06
         0.88841E-06
         0.10467E-05
         0.10207E-05
         0.99128E-06
         0.10565E-05
         0.11150E-05
         0.10503E-05
         0.82102E-06
         0.66954E-06
         0.86398E-06
         0.11506E-05
         0.12640E-05
         0.12133E-05
         0.10948E-05
         0.99421E-06
         0.80751E-06
         0.67970E-06
         0.88789E-06
         0.11752E-05
         0.12140E-05
         0.98215E-06
         0.79747E-06
         0.97551E-06
         0.11548E-05
         0.24611E-05
         0.19543E-05
         0.20949E-05
         0.35987E-05
         0.19321E-05
         0.24642E-05
         0.13808E-05
         0.16594E-05
         0.27293E-05
         0.20098E-05
         0.81582E-06
         0.15388E-05
         0.16927E-05
         0.13821E-05
         0.17525E-05
         0.32489E-05
         0.25379E-05
         0.32257E-05
         0.18982E-05
         0.21678E-05
         0.20480E-05
         0.22685E-05
         0.17423E-05
         0.10821E-05
         0.20580E-05
         0.17101E-05
         0.17924E-05
         0.18326E-05
         0.15898E-05
         0.19361E-05
         0.24558E-05
         0.17357E-05
         0.27438E-05
         0.23836E-05
         0.10821E-05
         0.16699E-05
         0.18951E-05
         0.20024E-05
         0.19318E-05
         0.15183E-05
         0.95445E-06
         0.15778E-05
         0.20884E-05
         0.16862E-05
         0.14831E-05
         0.97174E-06
         0.16566E-05
         0.22483E-05
         0.23575E-05
         0.19026E-05
         0.11709E-05
         0.20112E-05
         0.74636E-06
         0.94886E-06
         0.88800E-06
         0.10467E-05
         0.10210E-05
         0.99152E-06
         0.10570E-05
         0.11159E-05
         0.10509E-05
         0.82122E-06
         0.66961E-06
         0.86402E-06
         0.11507E-05
         0.12643E-05
         0.12135E-05
         0.10948E-05
         0.99417E-06
         0.80747E-06
         0.67961E-06
         0.88784E-06
         0.11752E-05
         0.12140E-05
         0.98197E-06
         0.79731E-06
         0.97565E-06
         0.11548E-05
         0.24612E-05
         0.19539E-05
         0.20950E-05
         0.36004E-05
         0.19324E-05
         0.24650E-05
         0.13801E-05
         0.16584E-05
         0.27303E-05
         0.20085E-05
         0.81504E-06
         0.15385E-05
         0.16925E-05
         0.13801E-05
         0.17521E-05
         0.32498E-05
         0.25390E-05
         0.32274E-05
         0.18982E-05
         0.21681E-05
         0.20479E-05
         0.22686E-05
         0.17421E-05
         0.10820E-05
         0.20571E-05
         0.17099E-05
         0.17897E-05
         0.18308E-05
         0.15891E-05
         0.19356E-05
         0.24561E-05
         0.17355E-05
         0.27453E-05
         0.23857E-05
         0.10820E-05
         0.16696E-05
         0.18948E-05
         0.20022E-05
         0.19320E-05
         0.15183E-05
         0.95445E-06
         0.15776E-05
         0.20883E-05
         0.16859E-05
         0.14828E-05
         0.97149E-06
         0.16564E-05
         0.22483E-05
         0.23578E-05
         0.19030E-05
         0.11710E-05
         0.20122E-05
         0.74613E-06
         0.94884E-06
         0.88756E-06
         0.10467E-05
         0.10212E-05
         0.99173E-06
         0.10574E-05
         0.11167E-05
         0.10515E-05
         0.82140E-06
         0.66966E-06
         0.86404E-06
         0.11509E-05
         0.12646E-05
         0.12136E-05
         0.10947E-05
         0.99410E-06
         0.80740E-06
         0.67950E-06
         0.88777E-06
         0.11752E-05
         0.12140E-05
         0.98177E-06
         0.79713E-06
         0.97576E-06
         0.11547E-05
         0.24613E-05
         0.19535E-05
         0.20952E-05
         0.36022E-05
         0.19327E-05
         0.24657E-05
         0.13794E-05
         0.16574E-05
         0.27313E-05
         0.20072E-05
         0.81426E-06
         0.15382E-05
         0.16924E-05
         0.13782E-05
         0.17517E-05
         0.32508E-05
         0.25402E-05
         0.32290E-05
         0.18983E-05
         0.21684E-05
         0.20479E-05
         0.22687E-05
         0.17420E-05
         0.10819E-05
         0.20563E-05
         0.17098E-05
         0.17870E-05
         0.18290E-05
         0.15884E-05
         0.19352E-05
         0.24563E-05
         0.17353E-05
         0.27467E-05
         0.23879E-05
         0.10820E-05
         0.16693E-05
         0.18946E-05
         0.20021E-05
         0.19321E-05
         0.15184E-05
         0.95445E-06
         0.15773E-05
         0.20882E-05
         0.16857E-05
         0.14824E-05
         0.97124E-06
         0.16563E-05
         0.22484E-05
         0.23582E-05
         0.19034E-05
         0.11710E-05
         0.20132E-05
         0.74590E-06
         0.94883E-06
         0.88713E-06
         0.10468E-05
         0.10215E-05
         0.99194E-06
         0.10579E-05
         0.11175E-05
         0.10521E-05
         0.82159E-06
         0.66972E-06
         0.86406E-06
         0.11510E-05
         0.12649E-05
         0.12138E-05
         0.10947E-05
         0.99404E-06
         0.80734E-06
         0.67940E-06
         0.88771E-06
         0.11752E-05
         0.12140E-05
         0.98157E-06
         0.79696E-06
         0.97588E-06
         0.11547E-05
         0.24615E-05
         0.19531E-05
         0.20954E-05
         0.36039E-05
         0.19331E-05
         0.24665E-05
         0.13787E-05
         0.16564E-05
         0.27322E-05
         0.20059E-05
         0.81349E-06
         0.15380E-05
         0.16923E-05
         0.13763E-05
         0.17514E-05
         0.32518E-05
         0.25414E-05
         0.32306E-05
         0.18984E-05
         0.21687E-05
         0.20478E-05
         0.22688E-05
         0.17418E-05
         0.10818E-05
         0.20554E-05
         0.17096E-05
         0.17843E-05
         0.18272E-05
         0.15878E-05
         0.19347E-05
         0.24566E-05
         0.17351E-05
         0.27482E-05
         0.23901E-05
         0.10820E-05
         0.16690E-05
         0.18943E-05
         0.20019E-05
         0.19322E-05
         0.15185E-05
         0.95446E-06
         0.15771E-05
         0.20881E-05
         0.16855E-05
         0.14821E-05
         0.97100E-06
         0.16562E-05
         0.22484E-05
         0.23586E-05
         0.19038E-05
         0.11710E-05
         0.20142E-05
         0.74568E-06
         0.94882E-06
         0.88671E-06
         0.10468E-05
         0.10217E-05
         0.99216E-06
         0.10583E-05
         0.11183E-05
         0.10528E-05
         0.82178E-06
         0.66977E-06
         0.86408E-06
         0.11512E-05
         0.12652E-05
         0.12139E-05
         0.10947E-05
         0.99398E-06
         0.80728E-06
         0.67930E-06
         0.88766E-06
         0.11752E-05
         0.12140E-05
         0.98138E-06
         0.79679E-06
         0.97601E-06
         0.11547E-05
         0.24616E-05
         0.19527E-05
         0.20956E-05
         0.36056E-05
         0.19334E-05
         0.24672E-05
         0.13779E-05
         0.16554E-05
         0.27332E-05
         0.20046E-05
         0.81271E-06
         0.15377E-05
         0.16922E-05
         0.13744E-05
         0.17510E-05
         0.32527E-05
         0.25425E-05
         0.32322E-05
         0.18984E-05
         0.21689E-05
         0.20477E-05
         0.22689E-05
         0.17416E-05
         0.10816E-05
         0.20545E-05
         0.17095E-05
         0.17817E-05
         0.18254E-05
         0.15871E-05
         0.19343E-05
         0.24568E-05
         0.17349E-05
         0.27496E-05
         0.23922E-05
         0.10820E-05
         0.16686E-05
         0.18941E-05
         0.20018E-05
         0.19324E-05
         0.15186E-05
         0.95446E-06
         0.15769E-05
         0.20880E-05
         0.16852E-05
         0.14817E-05
         0.97074E-06
         0.16560E-05
         0.22484E-05
         0.23589E-05
         0.19042E-05
         0.11710E-05
         0.20152E-05
         0.74544E-06
         0.94880E-06
         0.88627E-06
         0.10469E-05
         0.10219E-05
         0.99237E-06
         0.10588E-05
         0.11191E-05
         0.10534E-05
         0.82196E-06
         0.66982E-06
         0.86410E-06
         0.11513E-05
         0.12654E-05
         0.12140E-05
         0.10947E-05
         0.99391E-06
         0.80721E-06
         0.67919E-06
         0.88759E-06
         0.11751E-05
         0.12140E-05
         0.98118E-06
         0.79661E-06
         0.97612E-06
         0.11546E-05
         0.24618E-05
         0.19523E-05
         0.20957E-05
         0.36073E-05
         0.19337E-05
         0.24680E-05
         0.13772E-05
         0.16545E-05
         0.27341E-05
         0.20033E-05
         0.81194E-06
         0.15374E-05
         0.16921E-05
         0.13725E-05
         0.17506E-05
         0.32537E-05
         0.25437E-05
         0.32339E-05
         0.18985E-05
         0.21692E-05
         0.20476E-05
         0.22690E-05
         0.17414E-05
         0.10815E-05
         0.20536E-05
         0.17093E-05
         0.17790E-05
         0.18236E-05
         0.15864E-05
         0.19339E-05
         0.24571E-05
         0.17347E-05
         0.27511E-05
         0.23944E-05
         0.10820E-05
         0.16683E-05
         0.18938E-05
         0.20016E-05
         0.19325E-05
         0.15186E-05
         0.95446E-06
         0.15767E-05
         0.20878E-05
         0.16850E-05
         0.14814E-05
         0.97050E-06
         0.16559E-05
         0.22484E-05
         0.23593E-05
         0.19046E-05
         0.11711E-05
         0.20162E-05
         0.74522E-06
         0.94878E-06
         0.88584E-06
         0.10469E-05
         0.10222E-05
         0.99258E-06
         0.10593E-05
         0.11199E-05
         0.10540E-05
         0.82215E-06
         0.66988E-06
         0.86413E-06
         0.11515E-05
         0.12657E-05
         0.12142E-05
         0.10946E-05
         0.99385E-06
         0.80715E-06
         0.67909E-06
         0.88752E-06
         0.11751E-05
         0.12140E-05
         0.98098E-06
         0.79643E-06
         0.97624E-06
         0.11546E-05
         0.24619E-05
         0.19519E-05
         0.20959E-05
         0.36091E-05
         0.19340E-05
         0.24688E-05
         0.13765E-05
         0.16535E-05
         0.27351E-05
         0.20020E-05
         0.81117E-06
         0.15372E-05
         0.16920E-05
         0.13706E-05
         0.17503E-05
         0.32546E-05
         0.25448E-05
         0.32355E-05
         0.18986E-05
         0.21695E-05
         0.20475E-05
         0.22691E-05
         0.17413E-05
         0.10814E-05
         0.20527E-05
         0.17092E-05
         0.17763E-05
         0.18219E-05
         0.15858E-05
         0.19334E-05
         0.24573E-05
         0.17345E-05
         0.27525E-05
         0.23966E-05
         0.10820E-05
         0.16680E-05
         0.18936E-05
         0.20015E-05
         0.19326E-05
         0.15187E-05
         0.95447E-06
         0.15765E-05
         0.20878E-05
         0.16848E-05
         0.14810E-05
         0.97025E-06
         0.16557E-05
         0.22485E-05
         0.23597E-05
         0.19050E-05
         0.11711E-05
         0.20172E-05
         0.74499E-06
         0.94877E-06
         0.88541E-06
         0.10469E-05
         0.10224E-05
         0.99280E-06
         0.10597E-05
         0.11207E-05
         0.10546E-05
         0.82234E-06
         0.66994E-06
         0.86415E-06
         0.11517E-05
         0.12660E-05
         0.12143E-05
         0.10946E-05
         0.99379E-06
         0.80709E-06
         0.67898E-06
         0.88746E-06
         0.11751E-05
         0.12140E-05
         0.98079E-06
         0.79626E-06
         0.97636E-06
         0.11546E-05
         0.24621E-05
         0.19515E-05
         0.20961E-05
         0.36108E-05
         0.19343E-05
         0.24695E-05
         0.13758E-05
         0.16525E-05
         0.27361E-05
         0.20006E-05
         0.81039E-06
         0.15369E-05
         0.16919E-05
         0.13686E-05
         0.17499E-05
         0.32556E-05
         0.25460E-05
         0.32371E-05
         0.18986E-05
         0.21697E-05
         0.20474E-05
         0.22692E-05
         0.17411E-05
         0.10813E-05
         0.20519E-05
         0.17091E-05
         0.17736E-05
         0.18201E-05
         0.15851E-05
         0.19330E-05
         0.24575E-05
         0.17342E-05
         0.27540E-05
         0.23987E-05
         0.10820E-05
         0.16677E-05
         0.18933E-05
         0.20014E-05
         0.19328E-05
         0.15188E-05
         0.95448E-06
         0.15763E-05
         0.20876E-05
         0.16845E-05
         0.14807E-05
         0.97000E-06
         0.16556E-05
         0.22485E-05
         0.23600E-05
         0.19053E-05
         0.11711E-05
         0.20182E-05
         0.74476E-06
         0.94875E-06
         0.88498E-06
         0.10470E-05
         0.10227E-05
         0.99301E-06
         0.10602E-05
         0.11215E-05
         0.10553E-05
         0.82252E-06
         0.66999E-06
         0.86417E-06
         0.11518E-05
         0.12663E-05
         0.12145E-05
         0.10946E-05
         0.99373E-06
         0.80702E-06
         0.67888E-06
         0.88740E-06
         0.11751E-05
         0.12140E-05
         0.98058E-06
         0.79608E-06
         0.97648E-06
         0.11546E-05
         0.24622E-05
         0.19511E-05
         0.20963E-05
         0.36125E-05
         0.19346E-05
         0.24703E-05
         0.13751E-05
         0.16515E-05
         0.27370E-05
         0.19993E-05
         0.80962E-06
         0.15366E-05
         0.16917E-05
         0.13667E-05
         0.17495E-05
         0.32565E-05
         0.25471E-05
         0.32388E-05
         0.18987E-05
         0.21700E-05
         0.20473E-05
         0.22693E-05
         0.17409E-05
         0.10812E-05
         0.20510E-05
         0.17089E-05
         0.17710E-05
         0.18183E-05
         0.15844E-05
         0.19325E-05
         0.24578E-05
         0.17340E-05
         0.27554E-05
         0.24009E-05
         0.10820E-05
         0.16674E-05
         0.18931E-05
         0.20012E-05
         0.19329E-05
         0.15189E-05
         0.95448E-06
         0.15760E-05
         0.20875E-05
         0.16843E-05
         0.14803E-05
         0.96975E-06
         0.16555E-05
         0.22485E-05
         0.23604E-05
         0.19057E-05
         0.11712E-05
         0.20192E-05
         0.74453E-06
         0.94874E-06
         0.88455E-06
         0.10470E-05
         0.10229E-05
         0.99322E-06
         0.10606E-05
         0.11223E-05
         0.10559E-05
         0.82270E-06
         0.67004E-06
         0.86419E-06
         0.11520E-05
         0.12666E-05
         0.12146E-05
         0.10945E-05
         0.99366E-06
         0.80696E-06
         0.67877E-06
         0.88733E-06
         0.11751E-05
         0.12140E-05
         0.98038E-06
         0.79590E-06
         0.97660E-06
         0.11545E-05
         0.24623E-05
         0.19507E-05
         0.20964E-05
         0.36142E-05
         0.19349E-05
         0.24710E-05
         0.13743E-05
         0.16505E-05
         0.27380E-05
         0.19980E-05
         0.80885E-06
         0.15364E-05
         0.16916E-05
         0.13648E-05
         0.17492E-05
         0.32575E-05
         0.25483E-05
         0.32404E-05
         0.18988E-05
         0.21703E-05
         0.20473E-05
         0.22694E-05
         0.17407E-05
         0.10811E-05
         0.20501E-05
         0.17088E-05
         0.17683E-05
         0.18165E-05
         0.15837E-05
         0.19321E-05
         0.24580E-05
         0.17338E-05
         0.27569E-05
         0.24031E-05
         0.10820E-05
         0.16670E-05
         0.18928E-05
         0.20011E-05
         0.19330E-05
         0.15189E-05
         0.95448E-06
         0.15758E-05
         0.20874E-05
         0.16840E-05
         0.14800E-05
         0.96950E-06
         0.16553E-05
         0.22485E-05
         0.23608E-05
         0.19061E-05
         0.11712E-05
         0.20202E-05
         0.74430E-06
         0.94872E-06
         0.88412E-06
         0.10470E-05
         0.10231E-05
         0.99344E-06
         0.10611E-05
         0.11231E-05
         0.10565E-05
         0.82289E-06
         0.67009E-06
         0.86422E-06
         0.11521E-05
         0.12669E-05
         0.12147E-05
         0.10945E-05
         0.99360E-06
         0.80690E-06
         0.67867E-06
         0.88727E-06
         0.11750E-05
         0.12140E-05
         0.98019E-06
         0.79573E-06
         0.97672E-06
         0.11545E-05
         0.24625E-05
         0.19503E-05
         0.20966E-05
         0.36160E-05
         0.19352E-05
         0.24718E-05
         0.13736E-05
         0.16496E-05
         0.27389E-05
         0.19967E-05
         0.80807E-06
         0.15361E-05
         0.16915E-05
         0.13629E-05
         0.17488E-05
         0.32584E-05
         0.25495E-05
         0.32420E-05
         0.18988E-05
         0.21705E-05
         0.20472E-05
         0.22695E-05
         0.17406E-05
         0.10810E-05
         0.20492E-05
         0.17086E-05
         0.17656E-05
         0.18147E-05
         0.15831E-05
         0.19317E-05
         0.24583E-05
         0.17336E-05
         0.27583E-05
         0.24053E-05
         0.10820E-05
         0.16667E-05
         0.18926E-05
         0.20009E-05
         0.19331E-05
         0.15190E-05
         0.95449E-06
         0.15756E-05
         0.20873E-05
         0.16838E-05
         0.14796E-05
         0.96925E-06
         0.16552E-05
         0.22486E-05
         0.23611E-05
         0.19065E-05
         0.11712E-05
         0.20212E-05
         0.74407E-06
         0.94870E-06
         0.88368E-06
         0.10471E-05
         0.10234E-05
         0.99365E-06
         0.10616E-05
         0.11239E-05
         0.10571E-05
         0.82307E-06
         0.67014E-06
         0.86424E-06
         0.11523E-05
         0.12672E-05
         0.12149E-05
         0.10945E-05
         0.99354E-06
         0.80683E-06
         0.67856E-06
         0.88721E-06
         0.11750E-05
         0.12140E-05
         0.97999E-06
         0.79555E-06
         0.97684E-06
         0.11545E-05
         0.24626E-05
         0.19499E-05
         0.20968E-05
         0.36177E-05
         0.19355E-05
         0.24725E-05
         0.13729E-05
         0.16486E-05
         0.27399E-05
         0.19954E-05
         0.80730E-06
         0.15358E-05
         0.16914E-05
         0.13610E-05
         0.17484E-05
         0.32594E-05
         0.25506E-05
         0.32437E-05
         0.18989E-05
         0.21708E-05
         0.20471E-05
         0.22696E-05
         0.17404E-05
         0.10808E-05
         0.20483E-05
         0.17085E-05
         0.17629E-05
         0.18129E-05
         0.15824E-05
         0.19312E-05
         0.24585E-05
         0.17334E-05
         0.27598E-05
         0.24074E-05
         0.10820E-05
         0.16664E-05
         0.18923E-05
         0.20008E-05
         0.19333E-05
         0.15191E-05
         0.95449E-06
         0.15754E-05
         0.20872E-05
         0.16835E-05
         0.14793E-05
         0.96901E-06
         0.16550E-05
         0.22486E-05
         0.23615E-05
         0.19069E-05
         0.11713E-05
         0.20222E-05
         0.74384E-06
         0.94869E-06
         0.88325E-06
         0.10471E-05
         0.10236E-05
         0.99386E-06
         0.10620E-05
         0.11247E-05
         0.10577E-05
         0.82326E-06
         0.67020E-06
         0.86426E-06
         0.11524E-05
         0.12674E-05
         0.12150E-05
         0.10944E-05
         0.99348E-06
         0.80677E-06
         0.67846E-06
         0.88714E-06
         0.11750E-05
         0.12140E-05
         0.97979E-06
         0.79538E-06
         0.97696E-06
         0.11544E-05
         0.24628E-05
         0.19495E-05
         0.20970E-05
         0.36194E-05
         0.19358E-05
         0.24733E-05
         0.13722E-05
         0.16476E-05
         0.27409E-05
         0.19941E-05
         0.80652E-06
         0.15355E-05
         0.16913E-05
         0.13591E-05
         0.17481E-05
         0.32604E-05
         0.25518E-05
         0.32453E-05
         0.18990E-05
         0.21711E-05
         0.20470E-05
         0.22697E-05
         0.17402E-05
         0.10807E-05
         0.20474E-05
         0.17084E-05
         0.17603E-05
         0.18111E-05
         0.15817E-05
         0.19308E-05
         0.24588E-05
         0.17332E-05
         0.27613E-05
         0.24096E-05
         0.10819E-05
         0.16661E-05
         0.18921E-05
         0.20006E-05
         0.19334E-05
         0.15192E-05
         0.95450E-06
         0.15752E-05
         0.20871E-05
         0.16833E-05
         0.14789E-05
         0.96876E-06
         0.16549E-05
         0.22486E-05
         0.23619E-05
         0.19073E-05
         0.11713E-05
         0.20232E-05
         0.74362E-06
         0.94868E-06
         0.88282E-06
         0.10472E-05
         0.10238E-05
         0.99408E-06
         0.10625E-05
         0.11255E-05
         0.10584E-05
         0.82345E-06
         0.67025E-06
         0.86428E-06
         0.11526E-05
         0.12677E-05
         0.12152E-05
         0.10944E-05
         0.99342E-06
         0.80671E-06
         0.67836E-06
         0.88709E-06
         0.11750E-05
         0.12140E-05
         0.97959E-06
         0.79521E-06
         0.97708E-06
         0.11544E-05
         0.24629E-05
         0.19491E-05
         0.20972E-05
         0.36212E-05
         0.19361E-05
         0.24741E-05
         0.13715E-05
         0.16466E-05
         0.27418E-05
         0.19928E-05
         0.80575E-06
         0.15353E-05
         0.16912E-05
         0.13572E-05
         0.17477E-05
         0.32613E-05
         0.25529E-05
         0.32469E-05
         0.18990E-05
         0.21714E-05
         0.20469E-05
         0.22698E-05
         0.17400E-05
         0.10806E-05
         0.20466E-05
         0.17082E-05
         0.17576E-05
         0.18093E-05
         0.15810E-05
         0.19303E-05
         0.24590E-05
         0.17330E-05
         0.27627E-05
         0.24118E-05
         0.10819E-05
         0.16658E-05
         0.18919E-05
         0.20005E-05
         0.19335E-05
         0.15192E-05
         0.95450E-06
         0.15750E-05
         0.20870E-05
         0.16831E-05
         0.14786E-05
         0.96851E-06
         0.16548E-05
         0.22487E-05
         0.23622E-05
         0.19077E-05
         0.11713E-05
         0.20242E-05
         0.74339E-06
         0.94866E-06
         0.88239E-06
         0.10472E-05
         0.10241E-05
         0.99429E-06
         0.10630E-05
         0.11263E-05
         0.10590E-05
         0.82363E-06
         0.67030E-06
         0.86430E-06
         0.11527E-05
         0.12680E-05
         0.12153E-05
         0.10944E-05
         0.99335E-06
         0.80665E-06
         0.67825E-06
         0.88702E-06
         0.11749E-05
         0.12140E-05
         0.97939E-06
         0.79503E-06
         0.97720E-06
         0.11544E-05
         0.24631E-05
         0.19487E-05
         0.20973E-05
         0.36229E-05
         0.19364E-05
         0.24748E-05
         0.13707E-05
         0.16456E-05
         0.27428E-05
         0.19915E-05
         0.80498E-06
         0.15350E-05
         0.16911E-05
         0.13553E-05
         0.17473E-05
         0.32623E-05
         0.25541E-05
         0.32486E-05
         0.18991E-05
         0.21716E-05
         0.20468E-05
         0.22699E-05
         0.17399E-05
         0.10805E-05
         0.20457E-05
         0.17081E-05
         0.17549E-05
         0.18075E-05
         0.15804E-05
         0.19299E-05
         0.24592E-05
         0.17328E-05
         0.27642E-05
         0.24140E-05
         0.10819E-05
         0.16654E-05
         0.18916E-05
         0.20003E-05
         0.19337E-05
         0.15193E-05
         0.95450E-06
         0.15748E-05
         0.20869E-05
         0.16828E-05
         0.14782E-05
         0.96826E-06
         0.16546E-05
         0.22487E-05
         0.23626E-05
         0.19081E-05
         0.11714E-05
         0.20253E-05
         0.74316E-06
         0.94864E-06
         0.88196E-06
         0.10472E-05
         0.10243E-05
         0.99450E-06
         0.10634E-05
         0.11271E-05
         0.10596E-05
         0.82381E-06
         0.67036E-06
         0.86432E-06
         0.11529E-05
         0.12683E-05
         0.12154E-05
         0.10943E-05
         0.99329E-06
         0.80658E-06
         0.67815E-06
         0.88696E-06
         0.11749E-05
         0.12140E-05
         0.97919E-06
         0.79485E-06
         0.97732E-06
         0.11544E-05
         0.24632E-05
         0.19483E-05
         0.20975E-05
         0.36246E-05
         0.19368E-05
         0.24756E-05
         0.13700E-05
         0.16447E-05
         0.27437E-05
         0.19902E-05
         0.80421E-06
         0.15347E-05
         0.16910E-05
         0.13534E-05
         0.17470E-05
         0.32632E-05
         0.25552E-05
         0.32502E-05
         0.18992E-05
         0.21719E-05
         0.20467E-05
         0.22700E-05
         0.17397E-05
         0.10804E-05
         0.20448E-05
         0.17079E-05
         0.17523E-05
         0.18057E-05
         0.15797E-05
         0.19295E-05
         0.24595E-05
         0.17326E-05
         0.27656E-05
         0.24161E-05
         0.10819E-05
         0.16651E-05
         0.18914E-05
         0.20002E-05
         0.19338E-05
         0.15194E-05
         0.95451E-06
         0.15745E-05
         0.20868E-05
         0.16826E-05
         0.14779E-05
         0.96801E-06
         0.16545E-05
         0.22487E-05
         0.23630E-05
         0.19085E-05
         0.11714E-05
         0.20263E-05
         0.74293E-06
         0.94863E-06
         0.88153E-06
         0.10473E-05
         0.10245E-05
         0.99472E-06
         0.10639E-05
         0.11279E-05
         0.10602E-05
         0.82400E-06
         0.67041E-06
         0.86435E-06
         0.11530E-05
         0.12686E-05
         0.12156E-05
         0.10943E-05
         0.99323E-06
         0.80652E-06
         0.67804E-06
         0.88690E-06
         0.11749E-05
         0.12140E-05
         0.97900E-06
         0.79468E-06
         0.97744E-06
         0.11543E-05
         0.24633E-05
         0.19479E-05
         0.20977E-05
         0.36264E-05
         0.19371E-05
         0.24763E-05
         0.13693E-05
         0.16437E-05
         0.27447E-05
         0.19888E-05
         0.80343E-06
         0.15345E-05
         0.16908E-05
         0.13515E-05
         0.17466E-05
         0.32642E-05
         0.25564E-05
         0.32518E-05
         0.18992E-05
         0.21722E-05
         0.20466E-05
         0.22701E-05
         0.17395E-05
         0.10803E-05
         0.20439E-05
         0.17078E-05
         0.17496E-05
         0.18039E-05
         0.15790E-05
         0.19290E-05
         0.24597E-05
         0.17323E-05
         0.27671E-05
         0.24183E-05
         0.10819E-05
         0.16648E-05
         0.18911E-05
         0.20001E-05
         0.19339E-05
         0.15195E-05
         0.95452E-06
         0.15743E-05
         0.20867E-05
         0.16823E-05
         0.14775E-05
         0.96776E-06
         0.16543E-05
         0.22487E-05
         0.23633E-05
         0.19089E-05
         0.11714E-05
         0.20273E-05
         0.74270E-06
         0.94861E-06
         0.88109E-06
         0.10473E-05
         0.10248E-05
         0.99493E-06
         0.10643E-05
         0.11287E-05
         0.10609E-05
         0.82418E-06
         0.67046E-06
         0.86437E-06
         0.11532E-05
         0.12689E-05
         0.12157E-05
         0.10943E-05
         0.99316E-06
         0.80646E-06
         0.67794E-06
         0.88683E-06
         0.11749E-05
         0.12140E-05
         0.97879E-06
         0.79450E-06
         0.97755E-06
         0.11543E-05
         0.24635E-05
         0.19475E-05
         0.20979E-05
         0.36281E-05
         0.19374E-05
         0.24771E-05
         0.13686E-05
         0.16427E-05
         0.27456E-05
         0.19875E-05
         0.80266E-06
         0.15342E-05
         0.16907E-05
         0.13496E-05
         0.17463E-05
         0.32651E-05
         0.25575E-05
         0.32534E-05
         0.18993E-05
         0.21724E-05
         0.20466E-05
         0.22702E-05
         0.17393E-05
         0.10802E-05
         0.20430E-05
         0.17076E-05
         0.17469E-05
         0.18021E-05
         0.15784E-05
         0.19286E-05
         0.24600E-05
         0.17321E-05
         0.27685E-05
         0.24205E-05
         0.10819E-05
         0.16645E-05
         0.18909E-05
         0.19999E-05
         0.19341E-05
         0.15195E-05
         0.95452E-06
         0.15741E-05
         0.20866E-05
         0.16821E-05
         0.14772E-05
         0.96751E-06
         0.16542E-05
         0.22488E-05
         0.23637E-05
         0.19092E-05
         0.11715E-05
         0.20283E-05
         0.74247E-06
         0.94860E-06
         0.88066E-06
         0.10473E-05
         0.10250E-05
         0.99514E-06
         0.10648E-05
         0.11295E-05
         0.10615E-05
         0.82437E-06
         0.67052E-06
         0.86439E-06
         0.11533E-05
         0.12691E-05
         0.12159E-05
         0.10942E-05
         0.99310E-06
         0.80639E-06
         0.67783E-06
         0.88676E-06
         0.11748E-05
         0.12140E-05
         0.97859E-06
         0.79433E-06
         0.97767E-06
         0.11543E-05
         0.24636E-05
         0.19471E-05
         0.20980E-05
         0.36298E-05
         0.19377E-05
         0.24779E-05
         0.13679E-05
         0.16417E-05
         0.27466E-05
         0.19862E-05
         0.80189E-06
         0.15339E-05
         0.16906E-05
         0.13477E-05
         0.17459E-05
         0.32661E-05
         0.25587E-05
         0.32551E-05
         0.18994E-05
         0.21727E-05
         0.20465E-05
         0.22703E-05
         0.17392E-05
         0.10800E-05
         0.20421E-05
         0.17075E-05
         0.17443E-05
         0.18003E-05
         0.15777E-05
         0.19281E-05
         0.24602E-05
         0.17319E-05
         0.27700E-05
         0.24227E-05
         0.10819E-05
         0.16642E-05
         0.18906E-05
         0.19998E-05
         0.19342E-05
         0.15196E-05
         0.95453E-06
         0.15739E-05
         0.20865E-05
         0.16819E-05
         0.14768E-05
         0.96727E-06
         0.16541E-05
         0.22488E-05
         0.23640E-05
         0.19096E-05
         0.11715E-05
         0.20293E-05
         0.74225E-06
         0.94859E-06
         0.88023E-06
         0.10474E-05
         0.10253E-05
         0.99535E-06
         0.10653E-05
         0.11303E-05
         0.10621E-05
         0.82456E-06
         0.67057E-06
         0.86441E-06
         0.11535E-05
         0.12694E-05
         0.12160E-05
         0.10942E-05
         0.99304E-06
         0.80633E-06
         0.67773E-06
         0.88671E-06
         0.11748E-05
         0.12140E-05
         0.97840E-06
         0.79415E-06
         0.97780E-06
         0.11542E-05
         0.24637E-05
         0.19466E-05
         0.20982E-05
         0.36315E-05
         0.19380E-05
         0.24786E-05
         0.13671E-05
         0.16407E-05
         0.27475E-05
         0.19849E-05
         0.80110E-06
         0.15336E-05
         0.16905E-05
         0.13457E-05
         0.17455E-05
         0.32669E-05
         0.25598E-05
         0.32567E-05
         0.18994E-05
         0.21729E-05
         0.20464E-05
         0.22703E-05
         0.17390E-05
         0.10799E-05
         0.20412E-05
         0.17073E-05
         0.17416E-05
         0.17985E-05
         0.15770E-05
         0.19277E-05
         0.24604E-05
         0.17317E-05
         0.27714E-05
         0.24248E-05
         0.10819E-05
         0.16638E-05
         0.18903E-05
         0.19996E-05
         0.19343E-05
         0.15196E-05
         0.95451E-06
         0.15737E-05
         0.20864E-05
         0.16816E-05
         0.14765E-05
         0.96700E-06
         0.16539E-05
         0.22488E-05
         0.23644E-05
         0.19100E-05
         0.11715E-05
         0.20303E-05
         0.74200E-06
         0.94855E-06
         0.87978E-06
         0.10474E-05
         0.10255E-05
         0.99555E-06
         0.10657E-05
         0.11311E-05
         0.10627E-05
         0.82472E-06
         0.67061E-06
         0.86442E-06
         0.11536E-05
         0.12697E-05
         0.12161E-05
         0.10941E-05
         0.99295E-06
         0.80625E-06
         0.67761E-06
         0.88662E-06
         0.11748E-05
         0.12140E-05
         0.97818E-06
         0.79396E-06
         0.97790E-06
         0.11542E-05
         0.24639E-05
         0.19463E-05
         0.20984E-05
         0.36333E-05
         0.19383E-05
         0.24794E-05
         0.13664E-05
         0.16398E-05
         0.27485E-05
         0.19836E-05
         0.80034E-06
         0.15334E-05
         0.16904E-05
         0.13439E-05
         0.17452E-05
         0.32679E-05
         0.25610E-05
         0.32583E-05
         0.18995E-05
         0.21732E-05
         0.20463E-05
         0.22704E-05
         0.17388E-05
         0.10798E-05
         0.20404E-05
         0.17072E-05
         0.17389E-05
         0.17967E-05
         0.15763E-05
         0.19272E-05
         0.24607E-05
         0.17315E-05
         0.27729E-05
         0.24270E-05
         0.10819E-05
         0.16635E-05
         0.18901E-05
         0.19995E-05
         0.19345E-05
         0.15197E-05
         0.95453E-06
         0.15735E-05
         0.20863E-05
         0.16814E-05
         0.14761E-05
         0.96677E-06
         0.16538E-05
         0.22488E-05
         0.23647E-05
         0.19104E-05
         0.11716E-05
         0.20313E-05
         0.74179E-06
         0.94855E-06
         0.87936E-06
         0.10475E-05
         0.10257E-05
         0.99577E-06
         0.10662E-05
         0.11319E-05
         0.10633E-05
         0.82492E-06
         0.67068E-06
         0.86446E-06
         0.11538E-05
         0.12700E-05
         0.12163E-05
         0.10941E-05
         0.99291E-06
         0.80620E-06
         0.67752E-06
         0.88657E-06
         0.11748E-05
         0.12140E-05
         0.97800E-06
         0.79380E-06
         0.97803E-06
         0.11542E-05
         0.12320E-05
         0.97306E-06
         0.10493E-05
         0.18171E-05
         0.96926E-06
         0.12399E-05
         0.68306E-06
         0.81967E-06
         0.13745E-05
         0.99152E-06
         0.39999E-06
         0.76665E-06
         0.84519E-06
         0.67148E-06
         0.87252E-06
         0.16343E-05
         0.12808E-05
         0.16296E-05
         0.94981E-06
         0.10867E-05
         0.10232E-05
         0.11353E-05
         0.86940E-06
         0.53990E-06
         0.10200E-05
         0.85360E-06
         0.86884E-06
         0.89793E-06
         0.78802E-06
         0.96354E-06
         0.12305E-05
         0.86572E-06
         0.13869E-05
         0.12141E-05
         0.54095E-06
         0.83170E-06
         0.94503E-06
         0.99975E-06
         0.96729E-06
         0.75992E-06
         0.47728E-06
         0.78670E-06
         0.10432E-05
         0.84065E-06
         0.73800E-06
         0.48334E-06
         0.82688E-06
         0.11245E-05
         0.11825E-05
         0.95534E-06
         0.58581E-06
         0.10159E-05
         0.37085E-06
         0.47429E-06
         0.43959E-06
         0.52375E-06
         0.51294E-06
         0.49796E-06
         0.53322E-06
         0.56619E-06
         0.53185E-06
         0.41252E-06
         0.33536E-06
         0.43225E-06
         0.57696E-06
         0.63509E-06
         0.60820E-06
         0.54708E-06
         0.49646E-06
         0.40310E-06
         0.33875E-06
         0.44329E-06
         0.58740E-06
         0.60700E-06
         0.48897E-06
         0.39687E-06
         0.48906E-06
         0.57710E-06
  
SCALARS                 Poissons_ratio  double 1
LOOKUP_TABLE default
         0.30000E+00
         0.30000E+00
         0.30000E+00
         0.30000E+00
         0.30000E+00
         0.30000E+00
         0.30000E+00
         0.30000E+00
         0.30000E+00
         0.30000E+00
         0.30000E+00
         0.30000E+00
         0.30000E+00
         0.30000E+00
         0.30000E+00
         0.30000E+00
         0.30000E+00
         0.30000E+00
         0.30000E+00
         0.30000E+00
         0.30000E+00
         0.30000E+00
         0.30000E+00
         0.30000E+00
         0.30000E+00
         0.30000E+00
         0.30000E+00
         0.30000E+00
         0.30000E+00
         0.30000E+00
         0.30000E+00
         0.30000E+00
         0.30000E+00
         0.30000E+00
         0.30000E+00
         0.30000E+00
         0.30000E+00
         0.30000E+00
         0.30000E+00
         0.30000E+00
         0.30000E+00
         0.30000E+00
         0.30000E+00
         0.30000E+00
         0.30000E+00
         0.30000E+00
         0.30000E+00
         0.30000E+00
         0.30000E+00
         0.30000E+00
         0.30000E+00
         0.30000E+00
         0.30000E+00
         0.30000E+00
         0.30000E+00
         0.30000E+00
         0.30000E+00
         0.30000E+00
         0.30000E+00
         0.30000E+00
         0.30000E+00
         0.30000E+00
         0.30000E+00
         0.30000E+00
         0.30000E+00
         0.30000E+00
         0.30000E+00
         0.30000E+00
         0.30000E+00
         0.30000E+00
         0.30000E+00
         0.30000E+00
         0.30000E+00
         0.30000E+00
         0.30000E+00
         0.30000E+00
         0.30000E+00
         0.30000E+00
         0.30000E+00
         0.30000E+00
         0.30000E+00
         0.30000E+00
         0.30000E+00
         0.30000E+00
         0.30000E+00
         0.30000E+00
         0.30000E+00
         0.30000E+00
         0.30000E+00
         0.30000E+00
         0.30000E+00
         0.30000E+00
         0.30000E+00
         0.30000E+00
         0.30000E+00
         0.30000E+00
         0.30000E+00
         0.30000E+00
         0.30000E+00
         0.30000E+00
         0.30000E+00
         0.30000E+00
         0.30000E+00
         0.30000E+00
         0.30000E+00
         0.30000E+00
         0.30000E+00
         0.30000E+00
         0.30000E+00
         0.30000E+00
         0.30000E+00
         0.30000E+00
         0.30000E+00
         0.30000E+00
         0.30000E+00
         0.30000E+00
         0.30000E+00
         0.30000E+00
         0.30000E+00
         0.30000E+00
         0.30000E+00
         0.30000E+00
         0.30000E+00
         0.30000E+00
         0.30000E+00
         0.30000E+00
         0.30000E+00
         0.30000E+00
         0.30000E+00
         0.30000E+00
         0.30000E+00
         0.30000E+00
         0.30000E+00
         0.30000E+00
         0.30000E+00
         0.30000E+00
         0.30000E+00
         0.30000E+00
         0.30000E+00
         0.30000E+00
         0.30000E+00
         0.30000E+00
         0.30000E+00
         0.30000E+00
         0.30000E+00
         0.30000E+00
         0.30000E+00
         0.30000E+00
         0.30000E+00
         0.30000E+00
         0.30000E+00
         0.30000E+00
         0.30000E+00
         0.30000E+00
         0.30000E+00
         0.30000E+00
         0.30000E+00
         0.30000E+00
         0.30000E+00
         0.30000E+00
         0.30000E+00
         0.30000E+00
         0.30000E+00
         0.30000E+00
         0.30000E+00
         0.30000E+00
         0.30000E+00
         0.30000E+00
         0.30000E+00
         0.30000E+00
         0.30000E+00
         0.30000E+00
         0.30000E+00
         0.30000E+00
         0.30000E+00
         0.30000E+00
         0.30000E+00
         0.30000E+00
         0.30000E+00
         0.30000E+00
         0.30000E+00
         0.30000E+00
         0.30000E+00
         0.30000E+00
         0.30000E+00
         0.30000E+00
         0.30000E+00
         0.30000E+00
         0.30000E+00
         0.30000E+00
         0.30000E+00
         0.30000E+00
         0.30000E+00
         0.30000E+00
         0.30000E+00
         0.30000E+00
         0.30000E+00
         0.30000E+00
         0.30000E+00
         0.30000E+00
         0.30000E+00
         0.30000E+00
         0.30000E+00
         0.30000E+00
         0.30000E+00
         0.30000E+00
         0.30000E+00
         0.30000E+00
         0.30000E+00
         0.30000E+00
         0.30000E+00
         0.30000E+00
         0.30000E+00
         0.30000E+00
         0.30000E+00
         0.30000E+00
         0.30000E+00
         0.30000E+00
         0.30000E+00
         0.30000E+00
         0.30000E+00
         0.30000E+00
         0.30000E+00
         0.30000E+00
         0.30000E+00
         0.30000E+00
         0.30000E+00
         0.30000E+00
         0.30000E+00
         0.30000E+00
         0.30000E+00
         0.30000E+00
         0.30000E+00
         0.30000E+00
         0.30000E+00
         0.30000E+00
         0.30000E+00
         0.30000E+00
         0.30000E+00
         0.30000E+00
         0.30000E+00
         0.30000E+00
         0.30000E+00
         0.30000E+00
         0.30000E+00
         0.30000E+00
         0.30000E+00
         0.30000E+00
         0.30000E+00
         0.30000E+00
         0.30000E+00
         0.30000E+00
         0.30000E+00
         0.30000E+00
         0.30000E+00
         0.30000E+00
         0.30000E+00
         0.30000E+00
         0.30000E+00
         0.30000E+00
         0.30000E+00
         0.30000E+00
         0.30000E+00
         0.30000E+00
         0.30000E+00
         0.30000E+00
         0.30000E+00
         0.30000E+00
         0.30000E+00
         0.30000E+00
         0.30000E+00
         0.30000E+00
         0.30000E+00
         0.30000E+00
         0.30000E+00
         0.30000E+00
         0.30000E+00
         0.30000E+00
         0.30000E+00
         0.30000E+00
         0.30000E+00
         0.30000E+00
         0.30000E+00
         0.30000E+00
         0.30000E+00
         0.30000E+00
         0.30000E+00
         0.30000E+00
         0.30000E+00
         0.30000E+00
         0.30000E+00
         0.30000E+00
         0.30000E+00
         0.30000E+00
         0.30000E+00
         0.30000E+00
         0.30000E+00
         0.30000E+00
         0.30000E+00
         0.30000E+00
         0.30000E+00
         0.30000E+00
         0.30000E+00
         0.30000E+00
         0.30000E+00
         0.30000E+00
         0.30000E+00
         0.30000E+00
         0.30000E+00
         0.30000E+00
         0.30000E+00
         0.30000E+00
         0.30000E+00
         0.30000E+00
         0.30000E+00
         0.30000E+00
         0.30000E+00
         0.30000E+00
         0.30000E+00
         0.30000E+00
         0.30000E+00
         0.30000E+00
         0.30000E+00
         0.30000E+00
         0.30000E+00
         0.30000E+00
         0.30000E+00
         0.30000E+00
         0.30000E+00
         0.30000E+00
         0.30000E+00
         0.30000E+00
         0.30000E+00
         0.30000E+00
         0.30000E+00
         0.30000E+00
         0.30000E+00
         0.30000E+00
         0.30000E+00
         0.30000E+00
         0.30000E+00
         0.30000E+00
         0.30000E+00
         0.30000E+00
         0.30000E+00
         0.30000E+00
         0.30000E+00
         0.30000E+00
         0.30000E+00
         0.30000E+00
         0.30000E+00
         0.30000E+00
         0.30000E+00
         0.30000E+00
         0.30000E+00
         0.30000E+00
         0.30000E+00
         0.30000E+00
         0.30000E+00
         0.30000E+00
         0.30000E+00
         0.30000E+00
         0.30000E+00
         0.30000E+00
         0.30000E+00
         0.30000E+00
         0.30000E+00
         0.30000E+00
         0.30000E+00
         0.30000E+00
         0.30000E+00
         0.30000E+00
         0.30000E+00
         0.30000E+00
         0.30000E+00
         0.30000E+00
         0.30000E+00
         0.30000E+00
         0.30000E+00
         0.30000E+00
         0.30000E+00
         0.30000E+00
         0.30000E+00
         0.30000E+00
         0.30000E+00
         0.30000E+00
         0.30000E+00
         0.30000E+00
         0.30000E+00
         0.30000E+00
         0.30000E+00
         0.30000E+00
         0.30000E+00
         0.30000E+00
         0.30000E+00
         0.30000E+00
         0.30000E+00
         0.30000E+00
         0.30000E+00
         0.30000E+00
         0.30000E+00
         0.30000E+00
         0.30000E+00
         0.30000E+00
         0.30000E+00
         0.30000E+00
         0.30000E+00
         0.30000E+00
         0.30000E+00
         0.30000E+00
         0.30000E+00
         0.30000E+00
         0.30000E+00
         0.30000E+00
         0.30000E+00
         0.30000E+00
         0.30000E+00
         0.30000E+00
         0.30000E+00
         0.30000E+00
         0.30000E+00
         0.30000E+00
         0.30000E+00
         0.30000E+00
         0.30000E+00
         0.30000E+00
         0.30000E+00
         0.30000E+00
         0.30000E+00
         0.30000E+00
         0.30000E+00
         0.30000E+00
         0.30000E+00
         0.30000E+00
         0.30000E+00
         0.30000E+00
         0.30000E+00
         0.30000E+00
         0.30000E+00
         0.30000E+00
         0.30000E+00
         0.30000E+00
         0.30000E+00
         0.30000E+00
         0.30000E+00
         0.30000E+00
         0.30000E+00
         0.30000E+00
         0.30000E+00
         0.30000E+00
         0.30000E+00
         0.30000E+00
         0.30000E+00
         0.30000E+00
         0.30000E+00
         0.30000E+00
         0.30000E+00
         0.30000E+00
         0.30000E+00
         0.30000E+00
         0.30000E+00
         0.30000E+00
         0.30000E+00
         0.30000E+00
         0.30000E+00
         0.30000E+00
         0.30000E+00
         0.30000E+00
         0.30000E+00
         0.30000E+00
         0.30000E+00
         0.30000E+00
         0.30000E+00
         0.30000E+00
         0.30000E+00
         0.30000E+00
         0.30000E+00
         0.30000E+00
         0.30000E+00
         0.30000E+00
         0.30000E+00
         0.30000E+00
         0.30000E+00
         0.30000E+00
         0.30000E+00
         0.30000E+00
         0.30000E+00
         0.30000E+00
         0.30000E+00
         0.30000E+00
         0.30000E+00
         0.30000E+00
         0.30000E+00
         0.30000E+00
         0.30000E+00
         0.30000E+00
         0.30000E+00
         0.30000E+00
         0.30000E+00
         0.30000E+00
         0.30000E+00
         0.30000E+00
         0.30000E+00
         0.30000E+00
         0.30000E+00
         0.30000E+00
         0.30000E+00
         0.30000E+00
         0.30000E+00
         0.30000E+00
         0.30000E+00
         0.30000E+00
         0.30000E+00
         0.30000E+00
         0.30000E+00
         0.30000E+00
         0.30000E+00
         0.30000E+00
         0.30000E+00
         0.30000E+00
         0.30000E+00
         0.30000E+00
         0.30000E+00
         0.30000E+00
         0.30000E+00
         0.30000E+00
         0.30000E+00
         0.30000E+00
         0.30000E+00
         0.30000E+00
         0.30000E+00
         0.30000E+00
         0.30000E+00
         0.30000E+00
         0.30000E+00
         0.30000E+00
         0.30000E+00
         0.30000E+00
         0.30000E+00
         0.30000E+00
         0.30000E+00
         0.30000E+00
         0.30000E+00
         0.30000E+00
         0.30000E+00
         0.30000E+00
         0.30000E+00
         0.30000E+00
         0.30000E+00
         0.30000E+00
         0.30000E+00
         0.30000E+00
         0.30000E+00
         0.30000E+00
         0.30000E+00
         0.30000E+00
         0.30000E+00
         0.30000E+00
         0.30000E+00
         0.30000E+00
         0.30000E+00
         0.30000E+00
         0.30000E+00
         0.30000E+00
         0.30000E+00
         0.30000E+00
         0.30000E+00
         0.30000E+00
         0.30000E+00
         0.30000E+00
         0.30000E+00
         0.30000E+00
         0.30000E+00
         0.30000E+00
         0.30000E+00
         0.30000E+00
         0.30000E+00
         0.30000E+00
         0.30000E+00
         0.30000E+00
         0.30000E+00
         0.30000E+00
         0.30000E+00
         0.30000E+00
         0.30000E+00
         0.30000E+00
         0.30000E+00
         0.30000E+00
         0.30000E+00
         0.30000E+00
         0.30000E+00
         0.30000E+00
         0.30000E+00
         0.30000E+00
         0.30000E+00
         0.30000E+00
         0.30000E+00
         0.30000E+00
         0.30000E+00
         0.30000E+00
         0.30000E+00
         0.30000E+00
         0.30000E+00
         0.30000E+00
         0.30000E+00
         0.30000E+00
         0.30000E+00
         0.30000E+00
         0.30000E+00
         0.30000E+00
         0.30000E+00
         0.30000E+00
         0.30000E+00
         0.30000E+00
         0.30000E+00
         0.30000E+00
         0.30000E+00
         0.30000E+00
         0.30000E+00
         0.30000E+00
         0.30000E+00
         0.30000E+00
         0.30000E+00
         0.30000E+00
         0.30000E+00
         0.30000E+00
         0.30000E+00
         0.30000E+00
         0.30000E+00
         0.30000E+00
         0.30000E+00
         0.30000E+00
         0.30000E+00
         0.30000E+00
         0.30000E+00
         0.30000E+00
         0.30000E+00
         0.30000E+00
         0.30000E+00
         0.30000E+00
         0.30000E+00
         0.30000E+00
         0.30000E+00
         0.30000E+00
         0.30000E+00
         0.30000E+00
         0.30000E+00
         0.30000E+00
         0.30000E+00
         0.30000E+00
         0.30000E+00
         0.30000E+00
         0.30000E+00
         0.30000E+00
         0.30000E+00
         0.30000E+00
         0.30000E+00
         0.30000E+00
         0.30000E+00
         0.30000E+00
         0.30000E+00
         0.30000E+00
         0.30000E+00
         0.30000E+00
         0.30000E+00
         0.30000E+00
         0.30000E+00
         0.30000E+00
         0.30000E+00
         0.30000E+00
         0.30000E+00
         0.30000E+00
         0.30000E+00
         0.30000E+00
         0.30000E+00
         0.30000E+00
         0.30000E+00
         0.30000E+00
         0.30000E+00
         0.30000E+00
         0.30000E+00
         0.30000E+00
         0.30000E+00
         0.30000E+00
         0.30000E+00
         0.30000E+00
         0.30000E+00
         0.30000E+00
         0.30000E+00
         0.30000E+00
         0.30000E+00
         0.30000E+00
         0.30000E+00
         0.30000E+00
         0.30000E+00
         0.30000E+00
         0.30000E+00
         0.30000E+00
         0.30000E+00
         0.30000E+00
         0.30000E+00
         0.30000E+00
         0.30000E+00
         0.30000E+00
         0.30000E+00
         0.30000E+00
         0.30000E+00
         0.30000E+00
         0.30000E+00
         0.30000E+00
         0.30000E+00
         0.30000E+00
         0.30000E+00
         0.30000E+00
         0.30000E+00
         0.30000E+00
         0.30000E+00
         0.30000E+00
         0.30000E+00
         0.30000E+00
         0.30000E+00
         0.30000E+00
         0.30000E+00
         0.30000E+00
         0.30000E+00
         0.30000E+00
         0.30000E+00
         0.30000E+00
         0.30000E+00
         0.30000E+00
         0.30000E+00
         0.30000E+00
         0.30000E+00
         0.30000E+00
         0.30000E+00
         0.30000E+00
         0.30000E+00
         0.30000E+00
         0.30000E+00
         0.30000E+00
         0.30000E+00
         0.30000E+00
         0.30000E+00
         0.30000E+00
         0.30000E+00
         0.30000E+00
         0.30000E+00
         0.30000E+00
         0.30000E+00
         0.30000E+00
         0.30000E+00
         0.30000E+00
         0.30000E+00
         0.30000E+00
         0.30000E+00
         0.30000E+00
         0.30000E+00
         0.30000E+00
         0.30000E+00
         0.30000E+00
         0.30000E+00
         0.30000E+00
         0.30000E+00
         0.30000E+00
         0.30000E+00
         0.30000E+00
         0.30000E+00
         0.30000E+00
         0.30000E+00
         0.30000E+00
         0.30000E+00
         0.30000E+00
         0.30000E+00
         0.30000E+00
         0.30000E+00
         0.30000E+00
         0.30000E+00
         0.30000E+00
         0.30000E+00
         0.30000E+00
         0.30000E+00
         0.30000E+00
         0.30000E+00
         0.30000E+00
         0.30000E+00
         0.30000E+00
         0.30000E+00
         0.30000E+00
         0.30000E+00
         0.30000E+00
         0.30000E+00
         0.30000E+00
         0.30000E+00
         0.30000E+00
         0.30000E+00
         0.30000E+00
         0.30000E+00
         0.30000E+00
         0.30000E+00
         0.30000E+00
         0.30000E+00
         0.30000E+00
         0.30000E+00
         0.30000E+00
         0.30000E+00
         0.30000E+00
         0.30000E+00
         0.30000E+00
         0.30000E+00
         0.30000E+00
         0.30000E+00
         0.30000E+00
         0.30000E+00
         0.30000E+00
         0.30000E+00
         0.30000E+00
         0.30000E+00
         0.30000E+00
         0.30000E+00
         0.30000E+00
         0.30000E+00
         0.30000E+00
         0.30000E+00
         0.30000E+00
         0.30000E+00
         0.30000E+00
         0.30000E+00
         0.30000E+00
         0.30000E+00
         0.30000E+00
         0.30000E+00
         0.30000E+00
         0.30000E+00
         0.30000E+00
         0.30000E+00
         0.30000E+00
         0.30000E+00
         0.30000E+00
         0.30000E+00
         0.30000E+00
         0.30000E+00
         0.30000E+00
         0.30000E+00
         0.30000E+00
         0.30000E+00
         0.30000E+00
         0.30000E+00
         0.30000E+00
         0.30000E+00
         0.30000E+00
         0.30000E+00
         0.30000E+00
         0.30000E+00
         0.30000E+00
         0.30000E+00
         0.30000E+00
         0.30000E+00
         0.30000E+00
         0.30000E+00
         0.30000E+00
         0.30000E+00
         0.30000E+00
         0.30000E+00
         0.30000E+00
         0.30000E+00
         0.30000E+00
         0.30000E+00
         0.30000E+00
         0.30000E+00
         0.30000E+00
         0.30000E+00
         0.30000E+00
         0.30000E+00
         0.30000E+00
         0.30000E+00
         0.30000E+00
         0.30000E+00
         0.30000E+00
         0.30000E+00
         0.30000E+00
         0.30000E+00
         0.30000E+00
         0.30000E+00
         0.30000E+00
         0.30000E+00
         0.30000E+00
         0.30000E+00
         0.30000E+00
         0.30000E+00
         0.30000E+00
         0.30000E+00
         0.30000E+00
         0.30000E+00
         0.30000E+00
         0.30000E+00
         0.30000E+00
         0.30000E+00
         0.30000E+00
         0.30000E+00
         0.30000E+00
         0.30000E+00
         0.30000E+00
         0.30000E+00
         0.30000E+00
         0.30000E+00
         0.30000E+00
         0.30000E+00
         0.30000E+00
         0.30000E+00
         0.30000E+00
         0.30000E+00
         0.30000E+00
         0.30000E+00
         0.30000E+00
         0.30000E+00
         0.30000E+00
         0.30000E+00
         0.30000E+00
         0.30000E+00
         0.30000E+00
         0.30000E+00
         0.30000E+00
         0.30000E+00
         0.30000E+00
         0.30000E+00
         0.30000E+00
         0.30000E+00
         0.30000E+00
         0.30000E+00
         0.30000E+00
         0.30000E+00
         0.30000E+00
         0.30000E+00
         0.30000E+00
         0.30000E+00
         0.30000E+00
         0.30000E+00
         0.30000E+00
         0.30000E+00
         0.30000E+00
         0.30000E+00
         0.30000E+00
         0.30000E+00
         0.30000E+00
         0.30000E+00
         0.30000E+00
         0.30000E+00
         0.30000E+00
         0.30000E+00
         0.30000E+00
         0.30000E+00
         0.30000E+00
         0.30000E+00
         0.30000E+00
         0.30000E+00
         0.30000E+00
         0.30000E+00
         0.30000E+00
         0.30000E+00
         0.30000E+00
         0.30000E+00
         0.30000E+00
         0.30000E+00
         0.30000E+00
         0.30000E+00
         0.30000E+00
         0.30000E+00
         0.30000E+00
         0.30000E+00
         0.30000E+00
         0.30000E+00
         0.30000E+00
         0.30000E+00
         0.30000E+00
         0.30000E+00
         0.30000E+00
         0.30000E+00
         0.30000E+00
         0.30000E+00
         0.30000E+00
         0.30000E+00
         0.30000E+00
         0.30000E+00
         0.30000E+00
         0.30000E+00
         0.30000E+00
         0.30000E+00
         0.30000E+00
         0.30000E+00
         0.30000E+00
         0.30000E+00
         0.30000E+00
         0.30000E+00
         0.30000E+00
         0.30000E+00
         0.30000E+00
         0.30000E+00
         0.30000E+00
         0.30000E+00
         0.30000E+00
         0.30000E+00
         0.30000E+00
         0.30000E+00
         0.30000E+00
         0.30000E+00
         0.30000E+00
         0.30000E+00
         0.30000E+00
         0.30000E+00
         0.30000E+00
         0.30000E+00
         0.30000E+00
         0.30000E+00
         0.30000E+00
         0.30000E+00
         0.30000E+00
         0.30000E+00
         0.30000E+00
         0.30000E+00
         0.30000E+00
         0.30000E+00
         0.30000E+00
         0.30000E+00
         0.30000E+00
         0.30000E+00
         0.30000E+00
         0.30000E+00
         0.30000E+00
         0.30000E+00
         0.30000E+00
         0.30000E+00
         0.30000E+00
         0.30000E+00
         0.30000E+00
         0.30000E+00
         0.30000E+00
         0.30000E+00
         0.30000E+00
         0.30000E+00
         0.30000E+00
         0.30000E+00
         0.30000E+00
         0.30000E+00
         0.30000E+00
         0.30000E+00
         0.30000E+00
         0.30000E+00
         0.30000E+00
         0.30000E+00
         0.30000E+00
         0.30000E+00
         0.30000E+00
         0.30000E+00
         0.30000E+00
         0.30000E+00
         0.30000E+00
         0.30000E+00
         0.30000E+00
         0.30000E+00
         0.30000E+00
         0.30000E+00
         0.30000E+00
         0.30000E+00
         0.30000E+00
         0.30000E+00
         0.30000E+00
         0.30000E+00
         0.30000E+00
         0.30000E+00
         0.30000E+00
         0.30000E+00
         0.30000E+00
         0.30000E+00
         0.30000E+00
         0.30000E+00
         0.30000E+00
         0.30000E+00
         0.30000E+00
         0.30000E+00
         0.30000E+00
         0.30000E+00
         0.30000E+00
         0.30000E+00
         0.30000E+00
         0.30000E+00
         0.30000E+00
         0.30000E+00
         0.30000E+00
         0.30000E+00
         0.30000E+00
         0.30000E+00
         0.30000E+00
         0.30000E+00
         0.30000E+00
         0.30000E+00
         0.30000E+00
         0.30000E+00
         0.30000E+00
         0.30000E+00
         0.30000E+00
         0.30000E+00
         0.30000E+00
         0.30000E+00
         0.30000E+00
         0.30000E+00
         0.30000E+00
         0.30000E+00
         0.30000E+00
         0.30000E+00
         0.30000E+00
         0.30000E+00
         0.30000E+00
         0.30000E+00
         0.30000E+00
         0.30000E+00
         0.30000E+00
         0.30000E+00
         0.30000E+00
         0.30000E+00
         0.30000E+00
         0.30000E+00
         0.30000E+00
         0.30000E+00
         0.30000E+00
         0.30000E+00
         0.30000E+00
         0.30000E+00
         0.30000E+00
         0.30000E+00
         0.30000E+00
         0.30000E+00
         0.30000E+00
         0.30000E+00
         0.30000E+00
         0.30000E+00
         0.30000E+00
         0.30000E+00
         0.30000E+00
         0.30000E+00
         0.30000E+00
         0.30000E+00
         0.30000E+00
         0.30000E+00
         0.30000E+00
         0.30000E+00
         0.30000E+00
         0.30000E+00
         0.30000E+00
         0.30000E+00
         0.30000E+00
         0.30000E+00
         0.30000E+00
         0.30000E+00
         0.30000E+00
         0.30000E+00
         0.30000E+00
         0.30000E+00
         0.30000E+00
         0.30000E+00
         0.30000E+00
         0.30000E+00
         0.30000E+00
         0.30000E+00
         0.30000E+00
         0.30000E+00
         0.30000E+00
         0.30000E+00
         0.30000E+00
         0.30000E+00
         0.30000E+00
         0.30000E+00
         0.30000E+00
         0.30000E+00
         0.30000E+00
         0.30000E+00
         0.30000E+00
         0.30000E+00
         0.30000E+00
         0.30000E+00
         0.30000E+00
         0.30000E+00
         0.30000E+00
         0.30000E+00
         0.30000E+00
         0.30000E+00
         0.30000E+00
         0.30000E+00
         0.30000E+00
         0.30000E+00
         0.30000E+00
         0.30000E+00
         0.30000E+00
         0.30000E+00
         0.30000E+00
         0.30000E+00
         0.30000E+00
         0.30000E+00
         0.30000E+00
         0.30000E+00
         0.30000E+00
         0.30000E+00
         0.30000E+00
         0.30000E+00
         0.30000E+00
         0.30000E+00
         0.30000E+00
         0.30000E+00
         0.30000E+00
         0.30000E+00
         0.30000E+00
         0.30000E+00
         0.30000E+00
         0.30000E+00
         0.30000E+00
         0.30000E+00
         0.30000E+00
         0.30000E+00
         0.30000E+00
         0.30000E+00
         0.30000E+00
         0.30000E+00
         0.30000E+00
         0.30000E+00
         0.30000E+00
         0.30000E+00
         0.30000E+00
         0.30000E+00
         0.30000E+00
         0.30000E+00
         0.30000E+00
         0.30000E+00
         0.30000E+00
         0.30000E+00
         0.30000E+00
         0.30000E+00
         0.30000E+00
         0.30000E+00
         0.30000E+00
         0.30000E+00
         0.30000E+00
         0.30000E+00
         0.30000E+00
         0.30000E+00
         0.30000E+00
         0.30000E+00
         0.30000E+00
         0.30000E+00
         0.30000E+00
         0.30000E+00
         0.30000E+00
         0.30000E+00
         0.30000E+00
         0.30000E+00
         0.30000E+00
         0.30000E+00
         0.30000E+00
         0.30000E+00
         0.30000E+00
         0.30000E+00
         0.30000E+00
         0.30000E+00
         0.30000E+00
         0.30000E+00
         0.30000E+00
         0.30000E+00
         0.30000E+00
         0.30000E+00
         0.30000E+00
         0.30000E+00
         0.30000E+00
         0.30000E+00
         0.30000E+00
         0.30000E+00
         0.30000E+00
         0.30000E+00
         0.30000E+00
         0.30000E+00
         0.30000E+00
         0.30000E+00
         0.30000E+00
         0.30000E+00
         0.30000E+00
         0.30000E+00
         0.30000E+00
         0.30000E+00
         0.30000E+00
         0.30000E+00
         0.30000E+00
         0.30000E+00
         0.30000E+00
         0.30000E+00
         0.30000E+00
         0.30000E+00
         0.30000E+00
         0.30000E+00
         0.30000E+00
         0.30000E+00
         0.30000E+00
         0.30000E+00
         0.30000E+00
         0.30000E+00
         0.30000E+00
         0.30000E+00
         0.30000E+00
         0.30000E+00
         0.30000E+00
         0.30000E+00
         0.30000E+00
         0.30000E+00
         0.30000E+00
         0.30000E+00
         0.30000E+00
         0.30000E+00
         0.30000E+00
         0.30000E+00
         0.30000E+00
         0.30000E+00
         0.30000E+00
         0.30000E+00
         0.30000E+00
         0.30000E+00
         0.30000E+00
         0.30000E+00
         0.30000E+00
         0.30000E+00
         0.30000E+00
         0.30000E+00
         0.30000E+00
         0.30000E+00
         0.30000E+00
         0.30000E+00
         0.30000E+00
         0.30000E+00
         0.30000E+00
         0.30000E+00
         0.30000E+00
         0.30000E+00
         0.30000E+00
         0.30000E+00
         0.30000E+00
         0.30000E+00
         0.30000E+00
         0.30000E+00
         0.30000E+00
         0.30000E+00
         0.30000E+00
         0.30000E+00
         0.30000E+00
         0.30000E+00
         0.30000E+00
         0.30000E+00
         0.30000E+00
         0.30000E+00
         0.30000E+00
         0.30000E+00
         0.30000E+00
         0.30000E+00
         0.30000E+00
         0.30000E+00
         0.30000E+00
         0.30000E+00
         0.30000E+00
         0.30000E+00
         0.30000E+00
         0.30000E+00
         0.30000E+00
         0.30000E+00
         0.30000E+00
         0.30000E+00
         0.30000E+00
         0.30000E+00
         0.30000E+00
         0.30000E+00
         0.30000E+00
         0.30000E+00
         0.30000E+00
         0.30000E+00
         0.30000E+00
         0.30000E+00
         0.30000E+00
         0.30000E+00
         0.30000E+00
         0.30000E+00
         0.30000E+00
         0.30000E+00
         0.30000E+00
         0.30000E+00
         0.30000E+00
         0.30000E+00
         0.30000E+00
         0.30000E+00
         0.30000E+00
         0.30000E+00
         0.30000E+00
         0.30000E+00
         0.30000E+00
         0.30000E+00
         0.30000E+00
         0.30000E+00
         0.30000E+00
         0.30000E+00
         0.30000E+00
         0.30000E+00
         0.30000E+00
         0.30000E+00
         0.30000E+00
         0.30000E+00
         0.30000E+00
         0.30000E+00
         0.30000E+00
         0.30000E+00
         0.30000E+00
         0.30000E+00
         0.30000E+00
         0.30000E+00
         0.30000E+00
         0.30000E+00
         0.30000E+00
         0.30000E+00
         0.30000E+00
         0.30000E+00
         0.30000E+00
         0.30000E+00
         0.30000E+00
         0.30000E+00
         0.30000E+00
         0.30000E+00
         0.30000E+00
         0.30000E+00
         0.30000E+00
         0.30000E+00
         0.30000E+00
         0.30000E+00
         0.30000E+00
         0.30000E+00
         0.30000E+00
         0.30000E+00
         0.30000E+00
         0.30000E+00
         0.30000E+00
         0.30000E+00
         0.30000E+00
         0.30000E+00
         0.30000E+00
         0.30000E+00
         0.30000E+00
         0.30000E+00
         0.30000E+00
         0.30000E+00
         0.30000E+00
         0.30000E+00
         0.30000E+00
         0.30000E+00
         0.30000E+00
         0.30000E+00
         0.30000E+00
         0.30000E+00
         0.30000E+00
         0.30000E+00
         0.30000E+00
         0.30000E+00
         0.30000E+00
         0.30000E+00
         0.30000E+00
         0.30000E+00
         0.30000E+00
         0.30000E+00
         0.30000E+00
         0.30000E+00
         0.30000E+00
         0.30000E+00
         0.30000E+00
         0.30000E+00
         0.30000E+00
         0.30000E+00
         0.30000E+00
         0.30000E+00
         0.30000E+00
         0.30000E+00
         0.30000E+00
         0.30000E+00
         0.30000E+00
         0.30000E+00
         0.30000E+00
         0.30000E+00
         0.30000E+00
         0.30000E+00
         0.30000E+00
         0.30000E+00
         0.30000E+00
         0.30000E+00
         0.30000E+00
         0.30000E+00
         0.30000E+00
         0.30000E+00
         0.30000E+00
         0.30000E+00
         0.30000E+00
         0.30000E+00
         0.30000E+00
         0.30000E+00
         0.30000E+00
         0.30000E+00
         0.30000E+00
         0.30000E+00
         0.30000E+00
         0.30000E+00
         0.30000E+00
         0.30000E+00
         0.30000E+00
         0.30000E+00
         0.30000E+00
         0.30000E+00
         0.30000E+00
         0.30000E+00
         0.30000E+00
         0.30000E+00
         0.30000E+00
         0.30000E+00
         0.30000E+00
         0.30000E+00
         0.30000E+00
         0.30000E+00
         0.30000E+00
         0.30000E+00
         0.30000E+00
         0.30000E+00
         0.30000E+00
         0.30000E+00
         0.30000E+00
         0.30000E+00
         0.30000E+00
         0.30000E+00
         0.30000E+00
         0.30000E+00
         0.30000E+00
         0.30000E+00
         0.30000E+00
         0.30000E+00
         0.30000E+00
         0.30000E+00
         0.30000E+00
         0.30000E+00
         0.30000E+00
         0.30000E+00
         0.30000E+00
         0.30000E+00
         0.30000E+00
         0.30000E+00
         0.30000E+00
         0.30000E+00
         0.30000E+00
         0.30000E+00
         0.30000E+00
         0.30000E+00
         0.30000E+00
         0.30000E+00
         0.30000E+00
         0.30000E+00
         0.30000E+00
         0.30000E+00
         0.30000E+00
         0.30000E+00
         0.30000E+00
         0.30000E+00
         0.30000E+00
         0.30000E+00
         0.30000E+00
         0.30000E+00
         0.30000E+00
         0.30000E+00
         0.30000E+00
         0.30000E+00
         0.30000E+00
         0.30000E+00
         0.30000E+00
         0.30000E+00
         0.30000E+00
         0.30000E+00
         0.30000E+00
         0.30000E+00
         0.30000E+00
         0.30000E+00
         0.30000E+00
         0.30000E+00
         0.30000E+00
         0.30000E+00
         0.30000E+00
         0.30000E+00
         0.30000E+00
         0.30000E+00
         0.30000E+00
         0.30000E+00
         0.30000E+00
         0.30000E+00
         0.30000E+00
         0.30000E+00
         0.30000E+00
         0.30000E+00
         0.30000E+00
         0.30000E+00
         0.30000E+00
         0.30000E+00
         0.30000E+00
         0.30000E+00
         0.30000E+00
         0.30000E+00
         0.30000E+00
         0.30000E+00
         0.30000E+00
         0.30000E+00
         0.30000E+00
         0.30000E+00
         0.30000E+00
         0.30000E+00
         0.30000E+00
         0.30000E+00
         0.30000E+00
         0.30000E+00
         0.30000E+00
         0.30000E+00
         0.30000E+00
         0.30000E+00
         0.30000E+00
         0.30000E+00
         0.30000E+00
         0.30000E+00
         0.30000E+00
         0.30000E+00
         0.30000E+00
         0.30000E+00
         0.30000E+00
         0.30000E+00
         0.30000E+00
         0.30000E+00
         0.30000E+00
         0.30000E+00
         0.30000E+00
         0.30000E+00
         0.30000E+00
         0.30000E+00
         0.30000E+00
         0.30000E+00
         0.30000E+00
         0.30000E+00
         0.30000E+00
         0.30000E+00
         0.30000E+00
         0.30000E+00
         0.30000E+00
         0.30000E+00
         0.30000E+00
         0.30000E+00
         0.30000E+00
         0.30000E+00
         0.30000E+00
         0.30000E+00
         0.30000E+00
         0.30000E+00
         0.30000E+00
         0.30000E+00
         0.30000E+00
         0.30000E+00
         0.30000E+00
         0.30000E+00
         0.30000E+00
         0.30000E+00
         0.30000E+00
         0.30000E+00
         0.30000E+00
         0.30000E+00
         0.30000E+00
         0.30000E+00
         0.30000E+00
         0.30000E+00
         0.30000E+00
         0.30000E+00
         0.30000E+00
         0.30000E+00
         0.30000E+00
         0.30000E+00
         0.30000E+00
         0.30000E+00
         0.30000E+00
         0.30000E+00
         0.30000E+00
         0.30000E+00
         0.30000E+00
         0.30000E+00
         0.30000E+00
         0.30000E+00
         0.30000E+00
         0.30000E+00
         0.30000E+00
         0.30000E+00
         0.30000E+00
         0.30000E+00
         0.30000E+00
         0.30000E+00
         0.30000E+00
         0.30000E+00
         0.30000E+00
         0.30000E+00
         0.30000E+00
         0.30000E+00
         0.30000E+00
         0.30000E+00
         0.30000E+00
         0.30000E+00
         0.30000E+00
         0.30000E+00
         0.30000E+00
         0.30000E+00
         0.30000E+00
         0.30000E+00
         0.30000E+00
         0.30000E+00
         0.30000E+00
         0.30000E+00
         0.30000E+00
         0.30000E+00
         0.30000E+00
         0.30000E+00
         0.30000E+00
         0.30000E+00
         0.30000E+00
         0.30000E+00
         0.30000E+00
         0.30000E+00
         0.30000E+00
         0.30000E+00
         0.30000E+00
         0.30000E+00
         0.30000E+00
         0.30000E+00
         0.30000E+00
         0.30000E+00
         0.30000E+00
         0.30000E+00
         0.30000E+00
         0.30000E+00
         0.30000E+00
         0.30000E+00
         0.30000E+00
         0.30000E+00
         0.30000E+00
         0.30000E+00
         0.30000E+00
         0.30000E+00
         0.30000E+00
         0.30000E+00
         0.30000E+00
         0.30000E+00
         0.30000E+00
         0.30000E+00
         0.30000E+00
         0.30000E+00
         0.30000E+00
         0.30000E+00
         0.30000E+00
         0.30000E+00
         0.30000E+00
         0.30000E+00
         0.30000E+00
         0.30000E+00
         0.30000E+00
         0.30000E+00
         0.30000E+00
         0.30000E+00
         0.30000E+00
         0.30000E+00
         0.30000E+00
         0.30000E+00
         0.30000E+00
         0.30000E+00
         0.30000E+00
         0.30000E+00
         0.30000E+00
         0.30000E+00
         0.30000E+00
         0.30000E+00
         0.30000E+00
         0.30000E+00
         0.30000E+00
         0.30000E+00
         0.30000E+00
         0.30000E+00
         0.30000E+00
         0.30000E+00
         0.30000E+00
         0.30000E+00
         0.30000E+00
         0.30000E+00
         0.30000E+00
         0.30000E+00
         0.30000E+00
         0.30000E+00
         0.30000E+00
         0.30000E+00
         0.30000E+00
         0.30000E+00
         0.30000E+00
         0.30000E+00
         0.30000E+00
         0.30000E+00
         0.30000E+00
         0.30000E+00
         0.30000E+00
         0.30000E+00
         0.30000E+00
         0.30000E+00
         0.30000E+00
         0.30000E+00
         0.30000E+00
         0.30000E+00
         0.30000E+00
         0.30000E+00
         0.30000E+00
         0.30000E+00
         0.30000E+00
         0.30000E+00
         0.30000E+00
         0.30000E+00
         0.30000E+00
         0.30000E+00
         0.30000E+00
         0.30000E+00
         0.30000E+00
         0.30000E+00
         0.30000E+00
         0.30000E+00
         0.30000E+00
         0.30000E+00
         0.30000E+00
         0.30000E+00
         0.30000E+00
         0.30000E+00
         0.30000E+00
         0.30000E+00
         0.30000E+00
         0.30000E+00
         0.30000E+00
         0.30000E+00
         0.30000E+00
         0.30000E+00
         0.30000E+00
         0.30000E+00
         0.30000E+00
         0.30000E+00
         0.30000E+00
         0.30000E+00
         0.30000E+00
         0.30000E+00
         0.30000E+00
         0.30000E+00
         0.30000E+00
         0.30000E+00
         0.30000E+00
         0.30000E+00
         0.30000E+00
         0.30000E+00
         0.30000E+00
         0.30000E+00
         0.30000E+00
         0.30000E+00
         0.30000E+00
         0.30000E+00
         0.30000E+00
         0.30000E+00
         0.30000E+00
         0.30000E+00
         0.30000E+00
         0.30000E+00
         0.30000E+00
         0.30000E+00
         0.30000E+00
         0.30000E+00
         0.30000E+00
         0.30000E+00
         0.30000E+00
         0.30000E+00
         0.30000E+00
         0.30000E+00
         0.30000E+00
         0.30000E+00
         0.30000E+00
         0.30000E+00
         0.30000E+00
         0.30000E+00
         0.30000E+00
         0.30000E+00
         0.30000E+00
         0.30000E+00
         0.30000E+00
         0.30000E+00
         0.30000E+00
         0.30000E+00
         0.30000E+00
         0.30000E+00
         0.30000E+00
         0.30000E+00
         0.30000E+00
         0.30000E+00
         0.30000E+00
         0.30000E+00
         0.30000E+00
         0.30000E+00
         0.30000E+00
         0.30000E+00
         0.30000E+00
         0.30000E+00
         0.30000E+00
         0.30000E+00
         0.30000E+00
         0.30000E+00
         0.30000E+00
         0.30000E+00
         0.30000E+00
         0.30000E+00
         0.30000E+00
         0.30000E+00
         0.30000E+00
         0.30000E+00
         0.30000E+00
         0.30000E+00
         0.30000E+00
         0.30000E+00
         0.30000E+00
         0.30000E+00
         0.30000E+00
         0.30000E+00
         0.30000E+00
         0.30000E+00
         0.30000E+00
         0.30000E+00
         0.30000E+00
         0.30000E+00
         0.30000E+00
         0.30000E+00
         0.30000E+00
         0.30000E+00
         0.30000E+00
         0.30000E+00
         0.30000E+00
         0.30000E+00
         0.30000E+00
         0.30000E+00
         0.30000E+00
         0.30000E+00
         0.30000E+00
  
SCALARS                 Youngs_modulus  double 1
LOOKUP_TABLE default
         0.78200E+11
         0.78200E+11
         0.78200E+11
         0.78200E+11
         0.78200E+11
         0.78200E+11
         0.78200E+11
         0.78200E+11
         0.78200E+11
         0.78200E+11
         0.78200E+11
         0.78200E+11
         0.78200E+11
         0.78200E+11
         0.78200E+11
         0.78200E+11
         0.78200E+11
         0.78200E+11
         0.78200E+11
         0.78200E+11
         0.78200E+11
         0.78200E+11
         0.78200E+11
         0.78200E+11
         0.78200E+11
         0.78200E+11
         0.78200E+11
         0.78200E+11
         0.78200E+11
         0.78200E+11
         0.78200E+11
         0.78200E+11
         0.78200E+11
         0.78200E+11
         0.78200E+11
         0.78200E+11
         0.78200E+11
         0.78200E+11
         0.78200E+11
         0.78200E+11
         0.78200E+11
         0.78200E+11
         0.78200E+11
         0.78200E+11
         0.78200E+11
         0.78200E+11
         0.78200E+11
         0.78200E+11
         0.78200E+11
         0.78200E+11
         0.78200E+11
         0.78200E+11
         0.78200E+11
         0.78200E+11
         0.78200E+11
         0.78200E+11
         0.78200E+11
         0.78200E+11
         0.78200E+11
         0.78200E+11
         0.78200E+11
         0.78200E+11
         0.78200E+11
         0.78200E+11
         0.78200E+11
         0.78200E+11
         0.78200E+11
         0.78200E+11
         0.78200E+11
         0.78200E+11
         0.78200E+11
         0.78200E+11
         0.78200E+11
         0.78200E+11
         0.78200E+11
         0.78200E+11
         0.78200E+11
         0.78200E+11
         0.78200E+11
         0.78200E+11
         0.78200E+11
         0.78200E+11
         0.78200E+11
         0.78200E+11
         0.78200E+11
         0.78200E+11
         0.78200E+11
         0.78200E+11
         0.78200E+11
         0.78200E+11
         0.78200E+11
         0.78200E+11
         0.78200E+11
         0.78200E+11
         0.78200E+11
         0.78200E+11
         0.78200E+11
         0.78200E+11
         0.78200E+11
         0.78200E+11
         0.78200E+11
         0.78200E+11
         0.78200E+11
         0.78200E+11
         0.78200E+11
         0.78200E+11
         0.78200E+11
         0.78200E+11
         0.78200E+11
         0.78200E+11
         0.78200E+11
         0.78200E+11
         0.78200E+11
         0.78200E+11
         0.78200E+11
         0.78200E+11
         0.78200E+11
         0.78200E+11
         0.78200E+11
         0.78200E+11
         0.78200E+11
         0.78200E+11
         0.78200E+11
         0.78200E+11
         0.78200E+11
         0.78200E+11
         0.78200E+11
         0.78200E+11
         0.78200E+11
         0.78200E+11
         0.78200E+11
         0.78200E+11
         0.78200E+11
         0.78200E+11
         0.78200E+11
         0.78200E+11
         0.78200E+11
         0.78200E+11
         0.78200E+11
         0.78200E+11
         0.78200E+11
         0.78200E+11
         0.78200E+11
         0.78200E+11
         0.78200E+11
         0.78200E+11
         0.78200E+11
         0.78200E+11
         0.78200E+11
         0.78200E+11
         0.78200E+11
         0.78200E+11
         0.78200E+11
         0.78200E+11
         0.78200E+11
         0.78200E+11
         0.78200E+11
         0.78200E+11
         0.78200E+11
         0.78200E+11
         0.78200E+11
         0.78200E+11
         0.78200E+11
         0.78200E+11
         0.78200E+11
         0.78200E+11
         0.78200E+11
         0.78200E+11
         0.78200E+11
         0.78200E+11
         0.78200E+11
         0.78200E+11
         0.78200E+11
         0.78200E+11
         0.78200E+11
         0.78200E+11
         0.78200E+11
         0.78200E+11
         0.78200E+11
         0.78200E+11
         0.78200E+11
         0.78200E+11
         0.78200E+11
         0.78200E+11
         0.78200E+11
         0.78200E+11
         0.78200E+11
         0.78200E+11
         0.78200E+11
         0.78200E+11
         0.78200E+11
         0.78200E+11
         0.78200E+11
         0.78200E+11
         0.78200E+11
         0.78200E+11
         0.78200E+11
         0.78200E+11
         0.78200E+11
         0.78200E+11
         0.78200E+11
         0.78200E+11
         0.78200E+11
         0.78200E+11
         0.78200E+11
         0.78200E+11
         0.78200E+11
         0.78200E+11
         0.78200E+11
         0.78200E+11
         0.78200E+11
         0.78200E+11
         0.78200E+11
         0.78200E+11
         0.78200E+11
         0.78200E+11
         0.78200E+11
         0.78200E+11
         0.78200E+11
         0.78200E+11
         0.78200E+11
         0.78200E+11
         0.78200E+11
         0.78200E+11
         0.78200E+11
         0.78200E+11
         0.78200E+11
         0.78200E+11
         0.78200E+11
         0.78200E+11
         0.78200E+11
         0.78200E+11
         0.78200E+11
         0.78200E+11
         0.78200E+11
         0.78200E+11
         0.78200E+11
         0.78200E+11
         0.78200E+11
         0.78200E+11
         0.78200E+11
         0.78200E+11
         0.78200E+11
         0.78200E+11
         0.78200E+11
         0.78200E+11
         0.78200E+11
         0.78200E+11
         0.78200E+11
         0.78200E+11
         0.78200E+11
         0.78200E+11
         0.78200E+11
         0.78200E+11
         0.78200E+11
         0.78200E+11
         0.78200E+11
         0.78200E+11
         0.78200E+11
         0.78200E+11
         0.78200E+11
         0.78200E+11
         0.78200E+11
         0.78200E+11
         0.78200E+11
         0.78200E+11
         0.78200E+11
         0.78200E+11
         0.78200E+11
         0.78200E+11
         0.78200E+11
         0.78200E+11
         0.78200E+11
         0.78200E+11
         0.78200E+11
         0.78200E+11
         0.78200E+11
         0.78200E+11
         0.78200E+11
         0.78200E+11
         0.78200E+11
         0.78200E+11
         0.78200E+11
         0.78200E+11
         0.78200E+11
         0.78200E+11
         0.78200E+11
         0.78200E+11
         0.78200E+11
         0.78200E+11
         0.78200E+11
         0.78200E+11
         0.78200E+11
         0.78200E+11
         0.78200E+11
         0.78200E+11
         0.78200E+11
         0.78200E+11
         0.78200E+11
         0.78200E+11
         0.78200E+11
         0.78200E+11
         0.78200E+11
         0.78200E+11
         0.78200E+11
         0.78200E+11
         0.78200E+11
         0.78200E+11
         0.78200E+11
         0.78200E+11
         0.78200E+11
         0.78200E+11
         0.78200E+11
         0.78200E+11
         0.78200E+11
         0.78200E+11
         0.78200E+11
         0.78200E+11
         0.78200E+11
         0.78200E+11
         0.78200E+11
         0.78200E+11
         0.78200E+11
         0.78200E+11
         0.78200E+11
         0.78200E+11
         0.78200E+11
         0.78200E+11
         0.78200E+11
         0.78200E+11
         0.78200E+11
         0.78200E+11
         0.78200E+11
         0.78200E+11
         0.78200E+11
         0.78200E+11
         0.78200E+11
         0.78200E+11
         0.78200E+11
         0.78200E+11
         0.78200E+11
         0.78200E+11
         0.78200E+11
         0.78200E+11
         0.78200E+11
         0.78200E+11
         0.78200E+11
         0.78200E+11
         0.78200E+11
         0.78200E+11
         0.78200E+11
         0.78200E+11
         0.78200E+11
         0.78200E+11
         0.78200E+11
         0.78200E+11
         0.78200E+11
         0.78200E+11
         0.78200E+11
         0.78200E+11
         0.78200E+11
         0.78200E+11
         0.78200E+11
         0.78200E+11
         0.78200E+11
         0.78200E+11
         0.78200E+11
         0.78200E+11
         0.78200E+11
         0.78200E+11
         0.78200E+11
         0.78200E+11
         0.78200E+11
         0.78200E+11
         0.78200E+11
         0.78200E+11
         0.78200E+11
         0.78200E+11
         0.78200E+11
         0.78200E+11
         0.78200E+11
         0.78200E+11
         0.78200E+11
         0.78200E+11
         0.78200E+11
         0.78200E+11
         0.78200E+11
         0.78200E+11
         0.78200E+11
         0.78200E+11
         0.78200E+11
         0.78200E+11
         0.78200E+11
         0.78200E+11
         0.78200E+11
         0.78200E+11
         0.78200E+11
         0.78200E+11
         0.78200E+11
         0.78200E+11
         0.78200E+11
         0.78200E+11
         0.78200E+11
         0.78200E+11
         0.78200E+11
         0.78200E+11
         0.78200E+11
         0.78200E+11
         0.78200E+11
         0.78200E+11
         0.78200E+11
         0.78200E+11
         0.78200E+11
         0.78200E+11
         0.78200E+11
         0.78200E+11
         0.78200E+11
         0.78200E+11
         0.78200E+11
         0.78200E+11
         0.78200E+11
         0.78200E+11
         0.78200E+11
         0.78200E+11
         0.78200E+11
         0.78200E+11
         0.78200E+11
         0.78200E+11
         0.78200E+11
         0.78200E+11
         0.78200E+11
         0.78200E+11
         0.78200E+11
         0.78200E+11
         0.78200E+11
         0.78200E+11
         0.78200E+11
         0.78200E+11
         0.78200E+11
         0.78200E+11
         0.78200E+11
         0.78200E+11
         0.78200E+11
         0.78200E+11
         0.78200E+11
         0.78200E+11
         0.78200E+11
         0.78200E+11
         0.78200E+11
         0.78200E+11
         0.78200E+11
         0.78200E+11
         0.78200E+11
         0.78200E+11
         0.78200E+11
         0.78200E+11
         0.78200E+11
         0.78200E+11
         0.78200E+11
         0.78200E+11
         0.78200E+11
         0.78200E+11
         0.78200E+11
         0.78200E+11
         0.78200E+11
         0.78200E+11
         0.78200E+11
         0.78200E+11
         0.78200E+11
         0.78200E+11
         0.78200E+11
         0.78200E+11
         0.78200E+11
         0.78200E+11
         0.78200E+11
         0.78200E+11
         0.78200E+11
         0.78200E+11
         0.78200E+11
         0.78200E+11
         0.78200E+11
         0.78200E+11
         0.78200E+11
         0.78200E+11
         0.78200E+11
         0.78200E+11
         0.78200E+11
         0.78200E+11
         0.78200E+11
         0.78200E+11
         0.78200E+11
         0.78200E+11
         0.78200E+11
         0.78200E+11
         0.78200E+11
         0.78200E+11
         0.78200E+11
         0.78200E+11
         0.78200E+11
         0.78200E+11
         0.78200E+11
         0.78200E+11
         0.78200E+11
         0.78200E+11
         0.78200E+11
         0.78200E+11
         0.78200E+11
         0.78200E+11
         0.78200E+11
         0.78200E+11
         0.78200E+11
         0.78200E+11
         0.78200E+11
         0.78200E+11
         0.78200E+11
         0.78200E+11
         0.78200E+11
         0.78200E+11
         0.78200E+11
         0.78200E+11
         0.78200E+11
         0.78200E+11
         0.78200E+11
         0.78200E+11
         0.78200E+11
         0.78200E+11
         0.78200E+11
         0.78200E+11
         0.78200E+11
         0.78200E+11
         0.78200E+11
         0.78200E+11
         0.78200E+11
         0.78200E+11
         0.78200E+11
         0.78200E+11
         0.78200E+11
         0.78200E+11
         0.78200E+11
         0.78200E+11
         0.78200E+11
         0.78200E+11
         0.78200E+11
         0.78200E+11
         0.78200E+11
         0.78200E+11
         0.78200E+11
         0.78200E+11
         0.78200E+11
         0.78200E+11
         0.78200E+11
         0.78200E+11
         0.78200E+11
         0.78200E+11
         0.78200E+11
         0.78200E+11
         0.78200E+11
         0.78200E+11
         0.78200E+11
         0.78200E+11
         0.78200E+11
         0.78200E+11
         0.78200E+11
         0.78200E+11
         0.78200E+11
         0.78200E+11
         0.78200E+11
         0.78200E+11
         0.78200E+11
         0.78200E+11
         0.78200E+11
         0.78200E+11
         0.78200E+11
         0.78200E+11
         0.78200E+11
         0.78200E+11
         0.78200E+11
         0.78200E+11
         0.78200E+11
         0.78200E+11
         0.78200E+11
         0.78200E+11
         0.78200E+11
         0.78200E+11
         0.78200E+11
         0.78200E+11
         0.78200E+11
         0.78200E+11
         0.78200E+11
         0.78200E+11
         0.78200E+11
         0.78200E+11
         0.78200E+11
         0.78200E+11
         0.78200E+11
         0.78200E+11
         0.78200E+11
         0.78200E+11
         0.78200E+11
         0.78200E+11
         0.78200E+11
         0.78200E+11
         0.78200E+11
         0.78200E+11
         0.78200E+11
         0.78200E+11
         0.78200E+11
         0.78200E+11
         0.78200E+11
         0.78200E+11
         0.78200E+11
         0.78200E+11
         0.78200E+11
         0.78200E+11
         0.78200E+11
         0.78200E+11
         0.78200E+11
         0.78200E+11
         0.78200E+11
         0.78200E+11
         0.78200E+11
         0.78200E+11
         0.78200E+11
         0.78200E+11
         0.78200E+11
         0.78200E+11
         0.78200E+11
         0.78200E+11
         0.78200E+11
         0.78200E+11
         0.78200E+11
         0.78200E+11
         0.78200E+11
         0.78200E+11
         0.78200E+11
         0.78200E+11
         0.78200E+11
         0.78200E+11
         0.78200E+11
         0.78200E+11
         0.78200E+11
         0.78200E+11
         0.78200E+11
         0.78200E+11
         0.78200E+11
         0.78200E+11
         0.78200E+11
         0.78200E+11
         0.78200E+11
         0.78200E+11
         0.78200E+11
         0.78200E+11
         0.78200E+11
         0.78200E+11
         0.78200E+11
         0.78200E+11
         0.78200E+11
         0.78200E+11
         0.78200E+11
         0.78200E+11
         0.78200E+11
         0.78200E+11
         0.78200E+11
         0.78200E+11
         0.78200E+11
         0.78200E+11
         0.78200E+11
         0.78200E+11
         0.78200E+11
         0.78200E+11
         0.78200E+11
         0.78200E+11
         0.78200E+11
         0.78200E+11
         0.78200E+11
         0.78200E+11
         0.78200E+11
         0.78200E+11
         0.78200E+11
         0.78200E+11
         0.78200E+11
         0.78200E+11
         0.78200E+11
         0.78200E+11
         0.78200E+11
         0.78200E+11
         0.78200E+11
         0.78200E+11
         0.78200E+11
         0.78200E+11
         0.78200E+11
         0.78200E+11
         0.78200E+11
         0.78200E+11
         0.78200E+11
         0.78200E+11
         0.78200E+11
         0.78200E+11
         0.78200E+11
         0.78200E+11
         0.78200E+11
         0.78200E+11
         0.78200E+11
         0.78200E+11
         0.78200E+11
         0.78200E+11
         0.78200E+11
         0.78200E+11
         0.78200E+11
         0.78200E+11
         0.78200E+11
         0.78200E+11
         0.78200E+11
         0.78200E+11
         0.78200E+11
         0.78200E+11
         0.78200E+11
         0.78200E+11
         0.78200E+11
         0.78200E+11
         0.78200E+11
         0.78200E+11
         0.78200E+11
         0.78200E+11
         0.78200E+11
         0.78200E+11
         0.78200E+11
         0.78200E+11
         0.78200E+11
         0.78200E+11
         0.78200E+11
         0.78200E+11
         0.78200E+11
         0.78200E+11
         0.78200E+11
         0.78200E+11
         0.78200E+11
         0.78200E+11
         0.78200E+11
         0.78200E+11
         0.78200E+11
         0.78200E+11
         0.78200E+11
         0.78200E+11
         0.78200E+11
         0.78200E+11
         0.78200E+11
         0.78200E+11
         0.78200E+11
         0.78200E+11
         0.78200E+11
         0.78200E+11
         0.78200E+11
         0.78200E+11
         0.78200E+11
         0.78200E+11
         0.78200E+11
         0.78200E+11
         0.78200E+11
         0.78200E+11
         0.78200E+11
         0.78200E+11
         0.78200E+11
         0.78200E+11
         0.78200E+11
         0.78200E+11
         0.78200E+11
         0.78200E+11
         0.78200E+11
         0.78200E+11
         0.78200E+11
         0.78200E+11
         0.78200E+11
         0.78200E+11
         0.78200E+11
         0.78200E+11
         0.78200E+11
         0.78200E+11
         0.78200E+11
         0.78200E+11
         0.78200E+11
         0.78200E+11
         0.78200E+11
         0.78200E+11
         0.78200E+11
         0.78200E+11
         0.78200E+11
         0.78200E+11
         0.78200E+11
         0.78200E+11
         0.78200E+11
         0.78200E+11
         0.78200E+11
         0.78200E+11
         0.78200E+11
         0.78200E+11
         0.78200E+11
         0.78200E+11
         0.78200E+11
         0.78200E+11
         0.78200E+11
         0.78200E+11
         0.78200E+11
         0.78200E+11
         0.78200E+11
         0.78200E+11
         0.78200E+11
         0.78200E+11
         0.78200E+11
         0.78200E+11
         0.78200E+11
         0.78200E+11
         0.78200E+11
         0.78200E+11
         0.78200E+11
         0.78200E+11
         0.78200E+11
         0.78200E+11
         0.78200E+11
         0.78200E+11
         0.78200E+11
         0.78200E+11
         0.78200E+11
         0.78200E+11
         0.78200E+11
         0.78200E+11
         0.78200E+11
         0.78200E+11
         0.78200E+11
         0.78200E+11
         0.78200E+11
         0.78200E+11
         0.78200E+11
         0.78200E+11
         0.78200E+11
         0.78200E+11
         0.78200E+11
         0.78200E+11
         0.78200E+11
         0.78200E+11
         0.78200E+11
         0.78200E+11
         0.78200E+11
         0.78200E+11
         0.78200E+11
         0.78200E+11
         0.78200E+11
         0.78200E+11
         0.78200E+11
         0.78200E+11
         0.78200E+11
         0.78200E+11
         0.78200E+11
         0.78200E+11
         0.78200E+11
         0.78200E+11
         0.78200E+11
         0.78200E+11
         0.78200E+11
         0.78200E+11
         0.78200E+11
         0.78200E+11
         0.78200E+11
         0.78200E+11
         0.78200E+11
         0.78200E+11
         0.78200E+11
         0.78200E+11
         0.78200E+11
         0.78200E+11
         0.78200E+11
         0.78200E+11
         0.78200E+11
         0.78200E+11
         0.78200E+11
         0.78200E+11
         0.78200E+11
         0.78200E+11
         0.78200E+11
         0.78200E+11
         0.78200E+11
         0.78200E+11
         0.78200E+11
         0.78200E+11
         0.78200E+11
         0.78200E+11
         0.78200E+11
         0.78200E+11
         0.78200E+11
         0.78200E+11
         0.78200E+11
         0.78200E+11
         0.78200E+11
         0.78200E+11
         0.78200E+11
         0.78200E+11
         0.78200E+11
         0.78200E+11
         0.78200E+11
         0.78200E+11
         0.78200E+11
         0.78200E+11
         0.78200E+11
         0.78200E+11
         0.78200E+11
         0.78200E+11
         0.78200E+11
         0.78200E+11
         0.78200E+11
         0.78200E+11
         0.78200E+11
         0.78200E+11
         0.78200E+11
         0.78200E+11
         0.78200E+11
         0.78200E+11
         0.78200E+11
         0.78200E+11
         0.78200E+11
         0.78200E+11
         0.78200E+11
         0.78200E+11
         0.78200E+11
         0.78200E+11
         0.78200E+11
         0.78200E+11
         0.78200E+11
         0.78200E+11
         0.78200E+11
         0.78200E+11
         0.78200E+11
         0.78200E+11
         0.78200E+11
         0.78200E+11
         0.78200E+11
         0.78200E+11
         0.78200E+11
         0.78200E+11
         0.78200E+11
         0.78200E+11
         0.78200E+11
         0.78200E+11
         0.78200E+11
         0.78200E+11
         0.78200E+11
         0.78200E+11
         0.78200E+11
         0.78200E+11
         0.78200E+11
         0.78200E+11
         0.78200E+11
         0.78200E+11
         0.78200E+11
         0.78200E+11
         0.78200E+11
         0.78200E+11
         0.78200E+11
         0.78200E+11
         0.78200E+11
         0.78200E+11
         0.78200E+11
         0.78200E+11
         0.78200E+11
         0.78200E+11
         0.78200E+11
         0.78200E+11
         0.78200E+11
         0.78200E+11
         0.78200E+11
         0.78200E+11
         0.78200E+11
         0.78200E+11
         0.78200E+11
         0.78200E+11
         0.78200E+11
         0.78200E+11
         0.78200E+11
         0.78200E+11
         0.78200E+11
         0.78200E+11
         0.78200E+11
         0.78200E+11
         0.78200E+11
         0.78200E+11
         0.78200E+11
         0.78200E+11
         0.78200E+11
         0.78200E+11
         0.78200E+11
         0.78200E+11
         0.78200E+11
         0.78200E+11
         0.78200E+11
         0.78200E+11
         0.78200E+11
         0.78200E+11
         0.78200E+11
         0.78200E+11
         0.78200E+11
         0.78200E+11
         0.78200E+11
         0.78200E+11
         0.78200E+11
         0.78200E+11
         0.78200E+11
         0.78200E+11
         0.78200E+11
         0.78200E+11
         0.78200E+11
         0.78200E+11
         0.78200E+11
         0.78200E+11
         0.78200E+11
         0.78200E+11
         0.78200E+11
         0.78200E+11
         0.78200E+11
         0.78200E+11
         0.78200E+11
         0.78200E+11
         0.78200E+11
         0.78200E+11
         0.78200E+11
         0.78200E+11
         0.78200E+11
         0.78200E+11
         0.78200E+11
         0.78200E+11
         0.78200E+11
         0.78200E+11
         0.78200E+11
         0.78200E+11
         0.78200E+11
         0.78200E+11
         0.78200E+11
         0.78200E+11
         0.78200E+11
         0.78200E+11
         0.78200E+11
         0.78200E+11
         0.78200E+11
         0.78200E+11
         0.78200E+11
         0.78200E+11
         0.78200E+11
         0.78200E+11
         0.78200E+11
         0.78200E+11
         0.78200E+11
         0.78200E+11
         0.78200E+11
         0.78200E+11
         0.78200E+11
         0.78200E+11
         0.78200E+11
         0.78200E+11
         0.78200E+11
         0.78200E+11
         0.78200E+11
         0.78200E+11
         0.78200E+11
         0.78200E+11
         0.78200E+11
         0.78200E+11
         0.78200E+11
         0.78200E+11
         0.78200E+11
         0.78200E+11
         0.78200E+11
         0.78200E+11
         0.78200E+11
         0.78200E+11
         0.78200E+11
         0.78200E+11
         0.78200E+11
         0.78200E+11
         0.78200E+11
         0.78200E+11
         0.78200E+11
         0.78200E+11
         0.78200E+11
         0.78200E+11
         0.78200E+11
         0.78200E+11
         0.78200E+11
         0.78200E+11
         0.78200E+11
         0.78200E+11
         0.78200E+11
         0.78200E+11
         0.78200E+11
         0.78200E+11
         0.78200E+11
         0.78200E+11
         0.78200E+11
         0.78200E+11
         0.78200E+11
         0.78200E+11
         0.78200E+11
         0.78200E+11
         0.78200E+11
         0.78200E+11
         0.78200E+11
         0.78200E+11
         0.78200E+11
         0.78200E+11
         0.78200E+11
         0.78200E+11
         0.78200E+11
         0.78200E+11
         0.78200E+11
         0.78200E+11
         0.78200E+11
         0.78200E+11
         0.78200E+11
         0.78200E+11
         0.78200E+11
         0.78200E+11
         0.78200E+11
         0.78200E+11
         0.78200E+11
         0.78200E+11
         0.78200E+11
         0.78200E+11
         0.78200E+11
         0.78200E+11
         0.78200E+11
         0.78200E+11
         0.78200E+11
         0.78200E+11
         0.78200E+11
         0.78200E+11
         0.78200E+11
         0.78200E+11
         0.78200E+11
         0.78200E+11
         0.78200E+11
         0.78200E+11
         0.78200E+11
         0.78200E+11
         0.78200E+11
         0.78200E+11
         0.78200E+11
         0.78200E+11
         0.78200E+11
         0.78200E+11
         0.78200E+11
         0.78200E+11
         0.78200E+11
         0.78200E+11
         0.78200E+11
         0.78200E+11
         0.78200E+11
         0.78200E+11
         0.78200E+11
         0.78200E+11
         0.78200E+11
         0.78200E+11
         0.78200E+11
         0.78200E+11
         0.78200E+11
         0.78200E+11
         0.78200E+11
         0.78200E+11
         0.78200E+11
         0.78200E+11
         0.78200E+11
         0.78200E+11
         0.78200E+11
         0.78200E+11
         0.78200E+11
         0.78200E+11
         0.78200E+11
         0.78200E+11
         0.78200E+11
         0.78200E+11
         0.78200E+11
         0.78200E+11
         0.78200E+11
         0.78200E+11
         0.78200E+11
         0.78200E+11
         0.78200E+11
         0.78200E+11
         0.78200E+11
         0.78200E+11
         0.78200E+11
         0.78200E+11
         0.78200E+11
         0.78200E+11
         0.78200E+11
         0.78200E+11
         0.78200E+11
         0.78200E+11
         0.78200E+11
         0.78200E+11
         0.78200E+11
         0.78200E+11
         0.78200E+11
         0.78200E+11
         0.78200E+11
         0.78200E+11
         0.78200E+11
         0.78200E+11
         0.78200E+11
         0.78200E+11
         0.78200E+11
         0.78200E+11
         0.78200E+11
         0.78200E+11
         0.78200E+11
         0.78200E+11
         0.78200E+11
         0.78200E+11
         0.78200E+11
         0.78200E+11
         0.78200E+11
         0.78200E+11
         0.78200E+11
         0.78200E+11
         0.78200E+11
         0.78200E+11
         0.78200E+11
         0.78200E+11
         0.78200E+11
         0.78200E+11
         0.78200E+11
         0.78200E+11
         0.78200E+11
         0.78200E+11
         0.78200E+11
         0.78200E+11
         0.78200E+11
         0.78200E+11
         0.78200E+11
         0.78200E+11
         0.78200E+11
         0.78200E+11
         0.78200E+11
         0.78200E+11
         0.78200E+11
         0.78200E+11
         0.78200E+11
         0.78200E+11
         0.78200E+11
         0.78200E+11
         0.78200E+11
         0.78200E+11
         0.78200E+11
         0.78200E+11
         0.78200E+11
         0.78200E+11
         0.78200E+11
         0.78200E+11
         0.78200E+11
         0.78200E+11
         0.78200E+11
         0.78200E+11
         0.78200E+11
         0.78200E+11
         0.78200E+11
         0.78200E+11
         0.78200E+11
         0.78200E+11
         0.78200E+11
         0.78200E+11
         0.78200E+11
         0.78200E+11
         0.78200E+11
         0.78200E+11
         0.78200E+11
         0.78200E+11
         0.78200E+11
         0.78200E+11
         0.78200E+11
         0.78200E+11
         0.78200E+11
         0.78200E+11
         0.78200E+11
         0.78200E+11
         0.78200E+11
         0.78200E+11
         0.78200E+11
         0.78200E+11
         0.78200E+11
         0.78200E+11
         0.78200E+11
         0.78200E+11
         0.78200E+11
         0.78200E+11
         0.78200E+11
         0.78200E+11
         0.78200E+11
         0.78200E+11
         0.78200E+11
         0.78200E+11
         0.78200E+11
         0.78200E+11
         0.78200E+11
         0.78200E+11
         0.78200E+11
         0.78200E+11
         0.78200E+11
         0.78200E+11
         0.78200E+11
         0.78200E+11
         0.78200E+11
         0.78200E+11
         0.78200E+11
         0.78200E+11
         0.78200E+11
         0.78200E+11
         0.78200E+11
         0.78200E+11
         0.78200E+11
         0.78200E+11
         0.78200E+11
         0.78200E+11
         0.78200E+11
         0.78200E+11
         0.78200E+11
         0.78200E+11
         0.78200E+11
         0.78200E+11
         0.78200E+11
         0.78200E+11
         0.78200E+11
         0.78200E+11
         0.78200E+11
         0.78200E+11
         0.78200E+11
         0.78200E+11
         0.78200E+11
         0.78200E+11
         0.78200E+11
         0.78200E+11
         0.78200E+11
         0.78200E+11
         0.78200E+11
         0.78200E+11
         0.78200E+11
         0.78200E+11
         0.78200E+11
         0.78200E+11
         0.78200E+11
         0.78200E+11
         0.78200E+11
         0.78200E+11
         0.78200E+11
         0.78200E+11
         0.78200E+11
         0.78200E+11
         0.78200E+11
         0.78200E+11
         0.78200E+11
         0.78200E+11
         0.78200E+11
         0.78200E+11
         0.78200E+11
         0.78200E+11
         0.78200E+11
         0.78200E+11
         0.78200E+11
         0.78200E+11
         0.78200E+11
         0.78200E+11
         0.78200E+11
         0.78200E+11
         0.78200E+11
         0.78200E+11
         0.78200E+11
         0.78200E+11
         0.78200E+11
         0.78200E+11
         0.78200E+11
         0.78200E+11
         0.78200E+11
         0.78200E+11
         0.78200E+11
         0.78200E+11
         0.78200E+11
         0.78200E+11
         0.78200E+11
         0.78200E+11
         0.78200E+11
         0.78200E+11
         0.78200E+11
         0.78200E+11
         0.78200E+11
         0.78200E+11
         0.78200E+11
         0.78200E+11
         0.78200E+11
         0.78200E+11
         0.78200E+11
         0.78200E+11
         0.78200E+11
         0.78200E+11
         0.78200E+11
         0.78200E+11
         0.78200E+11
         0.78200E+11
         0.78200E+11
         0.78200E+11
         0.78200E+11
         0.78200E+11
         0.78200E+11
         0.78200E+11
         0.78200E+11
         0.78200E+11
         0.78200E+11
         0.78200E+11
         0.78200E+11
         0.78200E+11
         0.78200E+11
         0.78200E+11
         0.78200E+11
         0.78200E+11
         0.78200E+11
         0.78200E+11
         0.78200E+11
         0.78200E+11
         0.78200E+11
         0.78200E+11
         0.78200E+11
         0.78200E+11
         0.78200E+11
         0.78200E+11
         0.78200E+11
         0.78200E+11
         0.78200E+11
         0.78200E+11
         0.78200E+11
         0.78200E+11
         0.78200E+11
         0.78200E+11
         0.78200E+11
         0.78200E+11
         0.78200E+11
         0.78200E+11
         0.78200E+11
         0.78200E+11
         0.78200E+11
         0.78200E+11
         0.78200E+11
         0.78200E+11
         0.78200E+11
         0.78200E+11
         0.78200E+11
         0.78200E+11
         0.78200E+11
         0.78200E+11
         0.78200E+11
         0.78200E+11
         0.78200E+11
         0.78200E+11
         0.78200E+11
         0.78200E+11
         0.78200E+11
         0.78200E+11
         0.78200E+11
         0.78200E+11
         0.78200E+11
         0.78200E+11
         0.78200E+11
         0.78200E+11
         0.78200E+11
         0.78200E+11
         0.78200E+11
         0.78200E+11
         0.78200E+11
         0.78200E+11
         0.78200E+11
         0.78200E+11
         0.78200E+11
         0.78200E+11
         0.78200E+11
         0.78200E+11
         0.78200E+11
         0.78200E+11
         0.78200E+11
         0.78200E+11
         0.78200E+11
         0.78200E+11
         0.78200E+11
         0.78200E+11
         0.78200E+11
         0.78200E+11
         0.78200E+11
         0.78200E+11
         0.78200E+11
         0.78200E+11
         0.78200E+11
         0.78200E+11
         0.78200E+11
         0.78200E+11
         0.78200E+11
         0.78200E+11
         0.78200E+11
         0.78200E+11
         0.78200E+11
         0.78200E+11
         0.78200E+11
         0.78200E+11
         0.78200E+11
         0.78200E+11
         0.78200E+11
         0.78200E+11
         0.78200E+11
         0.78200E+11
         0.78200E+11
         0.78200E+11
         0.78200E+11
         0.78200E+11
         0.78200E+11
         0.78200E+11
         0.78200E+11
         0.78200E+11
         0.78200E+11
         0.78200E+11
         0.78200E+11
         0.78200E+11
         0.78200E+11
         0.78200E+11
         0.78200E+11
         0.78200E+11
         0.78200E+11
         0.78200E+11
         0.78200E+11
         0.78200E+11
         0.78200E+11
         0.78200E+11
         0.78200E+11
         0.78200E+11
         0.78200E+11
         0.78200E+11
         0.78200E+11
         0.78200E+11
         0.78200E+11
         0.78200E+11
         0.78200E+11
         0.78200E+11
         0.78200E+11
         0.78200E+11
         0.78200E+11
         0.78200E+11
         0.78200E+11
         0.78200E+11
         0.78200E+11
         0.78200E+11
         0.78200E+11
         0.78200E+11
         0.78200E+11
         0.78200E+11
         0.78200E+11
         0.78200E+11
         0.78200E+11
         0.78200E+11
         0.78200E+11
         0.78200E+11
         0.78200E+11
         0.78200E+11
         0.78200E+11
         0.78200E+11
         0.78200E+11
         0.78200E+11
         0.78200E+11
         0.78200E+11
         0.78200E+11
         0.78200E+11
         0.78200E+11
         0.78200E+11
         0.78200E+11
         0.78200E+11
         0.78200E+11
         0.78200E+11
         0.78200E+11
         0.78200E+11
         0.78200E+11
         0.78200E+11
         0.78200E+11
         0.78200E+11
         0.78200E+11
         0.78200E+11
         0.78200E+11
         0.78200E+11
         0.78200E+11
         0.78200E+11
         0.78200E+11
         0.78200E+11
         0.78200E+11
         0.78200E+11
         0.78200E+11
         0.78200E+11
         0.78200E+11
         0.78200E+11
         0.78200E+11
         0.78200E+11
         0.78200E+11
         0.78200E+11
         0.78200E+11
         0.78200E+11
         0.78200E+11
         0.78200E+11
         0.78200E+11
         0.78200E+11
         0.78200E+11
         0.78200E+11
         0.78200E+11
         0.78200E+11
         0.78200E+11
         0.78200E+11
         0.78200E+11
         0.78200E+11
         0.78200E+11
         0.78200E+11
         0.78200E+11
         0.78200E+11
         0.78200E+11
         0.78200E+11
         0.78200E+11
         0.78200E+11
         0.78200E+11
         0.78200E+11
         0.78200E+11
         0.78200E+11
         0.78200E+11
         0.78200E+11
         0.78200E+11
         0.78200E+11
         0.78200E+11
         0.78200E+11
         0.78200E+11
         0.78200E+11
         0.78200E+11
         0.78200E+11
         0.78200E+11
         0.78200E+11
         0.78200E+11
         0.78200E+11
         0.78200E+11
         0.78200E+11
         0.78200E+11
         0.78200E+11
         0.78200E+11
         0.78200E+11
         0.78200E+11
         0.78200E+11
         0.78200E+11
         0.78200E+11
         0.78200E+11
         0.78200E+11
         0.78200E+11
         0.78200E+11
         0.78200E+11
         0.78200E+11
         0.78200E+11
         0.78200E+11
         0.78200E+11
         0.78200E+11
         0.78200E+11
         0.78200E+11
         0.78200E+11
         0.78200E+11
         0.78200E+11
         0.78200E+11
         0.78200E+11
         0.78200E+11
         0.78200E+11
         0.78200E+11
         0.78200E+11
         0.78200E+11
         0.78200E+11
         0.78200E+11
         0.78200E+11
         0.78200E+11
         0.78200E+11
         0.78200E+11
         0.78200E+11
         0.78200E+11
         0.78200E+11
         0.78200E+11
         0.78200E+11
         0.78200E+11
         0.78200E+11
         0.78200E+11
         0.78200E+11
         0.78200E+11
         0.78200E+11
         0.78200E+11
         0.78200E+11
         0.78200E+11
         0.78200E+11
         0.78200E+11
         0.78200E+11
         0.78200E+11
         0.78200E+11
         0.78200E+11
         0.78200E+11
         0.78200E+11
         0.78200E+11
         0.78200E+11
         0.78200E+11
         0.78200E+11
         0.78200E+11
         0.78200E+11
         0.78200E+11
         0.78200E+11
         0.78200E+11
         0.78200E+11
         0.78200E+11
         0.78200E+11
         0.78200E+11
         0.78200E+11
         0.78200E+11
         0.78200E+11
         0.78200E+11
         0.78200E+11
         0.78200E+11
         0.78200E+11
         0.78200E+11
         0.78200E+11
         0.78200E+11
         0.78200E+11
         0.78200E+11
         0.78200E+11
         0.78200E+11
         0.78200E+11
         0.78200E+11
         0.78200E+11
         0.78200E+11
         0.78200E+11
         0.78200E+11
         0.78200E+11
         0.78200E+11
         0.78200E+11
         0.78200E+11
         0.78200E+11
         0.78200E+11
         0.78200E+11
         0.78200E+11
         0.78200E+11
         0.78200E+11
         0.78200E+11
         0.78200E+11
         0.78200E+11
         0.78200E+11
         0.78200E+11
         0.78200E+11
         0.78200E+11
         0.78200E+11
         0.78200E+11
         0.78200E+11
         0.78200E+11
         0.78200E+11
         0.78200E+11
         0.78200E+11
         0.78200E+11
         0.78200E+11
         0.78200E+11
         0.78200E+11
         0.78200E+11
         0.78200E+11
         0.78200E+11
         0.78200E+11
         0.78200E+11
         0.78200E+11
         0.78200E+11
         0.78200E+11
         0.78200E+11
         0.78200E+11
         0.78200E+11
         0.78200E+11
         0.78200E+11
         0.78200E+11
         0.78200E+11
         0.78200E+11
         0.78200E+11
         0.78200E+11
         0.78200E+11
         0.78200E+11
         0.78200E+11
         0.78200E+11
         0.78200E+11
         0.78200E+11
         0.78200E+11
         0.78200E+11
         0.78200E+11
         0.78200E+11
         0.78200E+11
         0.78200E+11
         0.78200E+11
         0.78200E+11
         0.78200E+11
         0.78200E+11
         0.78200E+11
         0.78200E+11
         0.78200E+11
         0.78200E+11
         0.78200E+11
         0.78200E+11
         0.78200E+11
         0.78200E+11
         0.78200E+11
         0.78200E+11
         0.78200E+11
         0.78200E+11
         0.78200E+11
         0.78200E+11
         0.78200E+11
         0.78200E+11
         0.78200E+11
         0.78200E+11
         0.78200E+11
         0.78200E+11
         0.78200E+11
         0.78200E+11
         0.78200E+11
         0.78200E+11
         0.78200E+11
         0.78200E+11
         0.78200E+11
         0.78200E+11
         0.78200E+11
         0.78200E+11
         0.78200E+11
         0.78200E+11
         0.78200E+11
         0.78200E+11
         0.78200E+11
         0.78200E+11
         0.78200E+11
         0.78200E+11
         0.78200E+11
         0.78200E+11
         0.78200E+11
         0.78200E+11
         0.78200E+11
         0.78200E+11
         0.78200E+11
         0.78200E+11
         0.78200E+11
         0.78200E+11
         0.78200E+11
         0.78200E+11
         0.78200E+11
         0.78200E+11
         0.78200E+11
         0.78200E+11
         0.78200E+11
         0.78200E+11
         0.78200E+11
         0.78200E+11
         0.78200E+11
         0.78200E+11
         0.78200E+11
         0.78200E+11
         0.78200E+11
         0.78200E+11
         0.78200E+11
         0.78200E+11
         0.78200E+11
         0.78200E+11
         0.78200E+11
         0.78200E+11
         0.78200E+11
         0.78200E+11
         0.78200E+11
         0.78200E+11
         0.78200E+11
         0.78200E+11
         0.78200E+11
         0.78200E+11
         0.78200E+11
         0.78200E+11
         0.78200E+11
         0.78200E+11
         0.78200E+11
         0.78200E+11
         0.78200E+11
         0.78200E+11
         0.78200E+11
         0.78200E+11
         0.78200E+11
         0.78200E+11
         0.78200E+11
         0.78200E+11
         0.78200E+11
         0.78200E+11
         0.78200E+11
         0.78200E+11
         0.78200E+11
         0.78200E+11
         0.78200E+11
         0.78200E+11
         0.78200E+11
         0.78200E+11
         0.78200E+11
         0.78200E+11
         0.78200E+11
         0.78200E+11
         0.78200E+11
         0.78200E+11
         0.78200E+11
         0.78200E+11
         0.78200E+11
         0.78200E+11
         0.78200E+11
         0.78200E+11
         0.78200E+11
         0.78200E+11
         0.78200E+11
         0.78200E+11
         0.78200E+11
         0.78200E+11
         0.78200E+11
         0.78200E+11
         0.78200E+11
         0.78200E+11
         0.78200E+11
         0.78200E+11
         0.78200E+11
         0.78200E+11
         0.78200E+11
         0.78200E+11
         0.78200E+11
         0.78200E+11
         0.78200E+11
         0.78200E+11
         0.78200E+11
         0.78200E+11
         0.78200E+11
         0.78200E+11
         0.78200E+11
         0.78200E+11
         0.78200E+11
         0.78200E+11
         0.78200E+11
         0.78200E+11
         0.78200E+11
         0.78200E+11
         0.78200E+11
         0.78200E+11
         0.78200E+11
         0.78200E+11
         0.78200E+11
         0.78200E+11
         0.78200E+11
         0.78200E+11
         0.78200E+11
  
SCALARS                        density  double 1
LOOKUP_TABLE default
         0.27000E+04
         0.27000E+04
         0.27000E+04
         0.27000E+04
         0.27000E+04
         0.27000E+04
         0.27000E+04
         0.27000E+04
         0.27000E+04
         0.27000E+04
         0.27000E+04
         0.27000E+04
         0.27000E+04
         0.27000E+04
         0.27000E+04
         0.27000E+04
         0.27000E+04
         0.27000E+04
         0.27000E+04
         0.27000E+04
         0.27000E+04
         0.27000E+04
         0.27000E+04
         0.27000E+04
         0.27000E+04
         0.27000E+04
         0.27000E+04
         0.27000E+04
         0.27000E+04
         0.27000E+04
         0.27000E+04
         0.27000E+04
         0.27000E+04
         0.27000E+04
         0.27000E+04
         0.27000E+04
         0.27000E+04
         0.27000E+04
         0.27000E+04
         0.27000E+04
         0.27000E+04
         0.27000E+04
         0.27000E+04
         0.27000E+04
         0.27000E+04
         0.27000E+04
         0.27000E+04
         0.27000E+04
         0.27000E+04
         0.27000E+04
         0.27000E+04
         0.27000E+04
         0.27000E+04
         0.27000E+04
         0.27000E+04
         0.27000E+04
         0.27000E+04
         0.27000E+04
         0.27000E+04
         0.27000E+04
         0.27000E+04
         0.27000E+04
         0.27000E+04
         0.27000E+04
         0.27000E+04
         0.27000E+04
         0.27000E+04
         0.27000E+04
         0.27000E+04
         0.27000E+04
         0.27000E+04
         0.27000E+04
         0.27000E+04
         0.27000E+04
         0.27000E+04
         0.27000E+04
         0.27000E+04
         0.27000E+04
         0.27000E+04
         0.27000E+04
         0.27000E+04
         0.27000E+04
         0.27000E+04
         0.27000E+04
         0.27000E+04
         0.27000E+04
         0.27000E+04
         0.27000E+04
         0.27000E+04
         0.27000E+04
         0.27000E+04
         0.27000E+04
         0.27000E+04
         0.27000E+04
         0.27000E+04
         0.27000E+04
         0.27000E+04
         0.27000E+04
         0.27000E+04
         0.27000E+04
         0.27000E+04
         0.27000E+04
         0.27000E+04
         0.27000E+04
         0.27000E+04
         0.27000E+04
         0.27000E+04
         0.27000E+04
         0.27000E+04
         0.27000E+04
         0.27000E+04
         0.27000E+04
         0.27000E+04
         0.27000E+04
         0.27000E+04
         0.27000E+04
         0.27000E+04
         0.27000E+04
         0.27000E+04
         0.27000E+04
         0.27000E+04
         0.27000E+04
         0.27000E+04
         0.27000E+04
         0.27000E+04
         0.27000E+04
         0.27000E+04
         0.27000E+04
         0.27000E+04
         0.27000E+04
         0.27000E+04
         0.27000E+04
         0.27000E+04
         0.27000E+04
         0.27000E+04
         0.27000E+04
         0.27000E+04
         0.27000E+04
         0.27000E+04
         0.27000E+04
         0.27000E+04
         0.27000E+04
         0.27000E+04
         0.27000E+04
         0.27000E+04
         0.27000E+04
         0.27000E+04
         0.27000E+04
         0.27000E+04
         0.27000E+04
         0.27000E+04
         0.27000E+04
         0.27000E+04
         0.27000E+04
         0.27000E+04
         0.27000E+04
         0.27000E+04
         0.27000E+04
         0.27000E+04
         0.27000E+04
         0.27000E+04
         0.27000E+04
         0.27000E+04
         0.27000E+04
         0.27000E+04
         0.27000E+04
         0.27000E+04
         0.27000E+04
         0.27000E+04
         0.27000E+04
         0.27000E+04
         0.27000E+04
         0.27000E+04
         0.27000E+04
         0.27000E+04
         0.27000E+04
         0.27000E+04
         0.27000E+04
         0.27000E+04
         0.27000E+04
         0.27000E+04
         0.27000E+04
         0.27000E+04
         0.27000E+04
         0.27000E+04
         0.27000E+04
         0.27000E+04
         0.27000E+04
         0.27000E+04
         0.27000E+04
         0.27000E+04
         0.27000E+04
         0.27000E+04
         0.27000E+04
         0.27000E+04
         0.27000E+04
         0.27000E+04
         0.27000E+04
         0.27000E+04
         0.27000E+04
         0.27000E+04
         0.27000E+04
         0.27000E+04
         0.27000E+04
         0.27000E+04
         0.27000E+04
         0.27000E+04
         0.27000E+04
         0.27000E+04
         0.27000E+04
         0.27000E+04
         0.27000E+04
         0.27000E+04
         0.27000E+04
         0.27000E+04
         0.27000E+04
         0.27000E+04
         0.27000E+04
         0.27000E+04
         0.27000E+04
         0.27000E+04
         0.27000E+04
         0.27000E+04
         0.27000E+04
         0.27000E+04
         0.27000E+04
         0.27000E+04
         0.27000E+04
         0.27000E+04
         0.27000E+04
         0.27000E+04
         0.27000E+04
         0.27000E+04
         0.27000E+04
         0.27000E+04
         0.27000E+04
         0.27000E+04
         0.27000E+04
         0.27000E+04
         0.27000E+04
         0.27000E+04
         0.27000E+04
         0.27000E+04
         0.27000E+04
         0.27000E+04
         0.27000E+04
         0.27000E+04
         0.27000E+04
         0.27000E+04
         0.27000E+04
         0.27000E+04
         0.27000E+04
         0.27000E+04
         0.27000E+04
         0.27000E+04
         0.27000E+04
         0.27000E+04
         0.27000E+04
         0.27000E+04
         0.27000E+04
         0.27000E+04
         0.27000E+04
         0.27000E+04
         0.27000E+04
         0.27000E+04
         0.27000E+04
         0.27000E+04
         0.27000E+04
         0.27000E+04
         0.27000E+04
         0.27000E+04
         0.27000E+04
         0.27000E+04
         0.27000E+04
         0.27000E+04
         0.27000E+04
         0.27000E+04
         0.27000E+04
         0.27000E+04
         0.27000E+04
         0.27000E+04
         0.27000E+04
         0.27000E+04
         0.27000E+04
         0.27000E+04
         0.27000E+04
         0.27000E+04
         0.27000E+04
         0.27000E+04
         0.27000E+04
         0.27000E+04
         0.27000E+04
         0.27000E+04
         0.27000E+04
         0.27000E+04
         0.27000E+04
         0.27000E+04
         0.27000E+04
         0.27000E+04
         0.27000E+04
         0.27000E+04
         0.27000E+04
         0.27000E+04
         0.27000E+04
         0.27000E+04
         0.27000E+04
         0.27000E+04
         0.27000E+04
         0.27000E+04
         0.27000E+04
         0.27000E+04
         0.27000E+04
         0.27000E+04
         0.27000E+04
         0.27000E+04
         0.27000E+04
         0.27000E+04
         0.27000E+04
         0.27000E+04
         0.27000E+04
         0.27000E+04
         0.27000E+04
         0.27000E+04
         0.27000E+04
         0.27000E+04
         0.27000E+04
         0.27000E+04
         0.27000E+04
         0.27000E+04
         0.27000E+04
         0.27000E+04
         0.27000E+04
         0.27000E+04
         0.27000E+04
         0.27000E+04
         0.27000E+04
         0.27000E+04
         0.27000E+04
         0.27000E+04
         0.27000E+04
         0.27000E+04
         0.27000E+04
         0.27000E+04
         0.27000E+04
         0.27000E+04
         0.27000E+04
         0.27000E+04
         0.27000E+04
         0.27000E+04
         0.27000E+04
         0.27000E+04
         0.27000E+04
         0.27000E+04
         0.27000E+04
         0.27000E+04
         0.27000E+04
         0.27000E+04
         0.27000E+04
         0.27000E+04
         0.27000E+04
         0.27000E+04
         0.27000E+04
         0.27000E+04
         0.27000E+04
         0.27000E+04
         0.27000E+04
         0.27000E+04
         0.27000E+04
         0.27000E+04
         0.27000E+04
         0.27000E+04
         0.27000E+04
         0.27000E+04
         0.27000E+04
         0.27000E+04
         0.27000E+04
         0.27000E+04
         0.27000E+04
         0.27000E+04
         0.27000E+04
         0.27000E+04
         0.27000E+04
         0.27000E+04
         0.27000E+04
         0.27000E+04
         0.27000E+04
         0.27000E+04
         0.27000E+04
         0.27000E+04
         0.27000E+04
         0.27000E+04
         0.27000E+04
         0.27000E+04
         0.27000E+04
         0.27000E+04
         0.27000E+04
         0.27000E+04
         0.27000E+04
         0.27000E+04
         0.27000E+04
         0.27000E+04
         0.27000E+04
         0.27000E+04
         0.27000E+04
         0.27000E+04
         0.27000E+04
         0.27000E+04
         0.27000E+04
         0.27000E+04
         0.27000E+04
         0.27000E+04
         0.27000E+04
         0.27000E+04
         0.27000E+04
         0.27000E+04
         0.27000E+04
         0.27000E+04
         0.27000E+04
         0.27000E+04
         0.27000E+04
         0.27000E+04
         0.27000E+04
         0.27000E+04
         0.27000E+04
         0.27000E+04
         0.27000E+04
         0.27000E+04
         0.27000E+04
         0.27000E+04
         0.27000E+04
         0.27000E+04
         0.27000E+04
         0.27000E+04
         0.27000E+04
         0.27000E+04
         0.27000E+04
         0.27000E+04
         0.27000E+04
         0.27000E+04
         0.27000E+04
         0.27000E+04
         0.27000E+04
         0.27000E+04
         0.27000E+04
         0.27000E+04
         0.27000E+04
         0.27000E+04
         0.27000E+04
         0.27000E+04
         0.27000E+04
         0.27000E+04
         0.27000E+04
         0.27000E+04
         0.27000E+04
         0.27000E+04
         0.27000E+04
         0.27000E+04
         0.27000E+04
         0.27000E+04
         0.27000E+04
         0.27000E+04
         0.27000E+04
         0.27000E+04
         0.27000E+04
         0.27000E+04
         0.27000E+04
         0.27000E+04
         0.27000E+04
         0.27000E+04
         0.27000E+04
         0.27000E+04
         0.27000E+04
         0.27000E+04
         0.27000E+04
         0.27000E+04
         0.27000E+04
         0.27000E+04
         0.27000E+04
         0.27000E+04
         0.27000E+04
         0.27000E+04
         0.27000E+04
         0.27000E+04
         0.27000E+04
         0.27000E+04
         0.27000E+04
         0.27000E+04
         0.27000E+04
         0.27000E+04
         0.27000E+04
         0.27000E+04
         0.27000E+04
         0.27000E+04
         0.27000E+04
         0.27000E+04
         0.27000E+04
         0.27000E+04
         0.27000E+04
         0.27000E+04
         0.27000E+04
         0.27000E+04
         0.27000E+04
         0.27000E+04
         0.27000E+04
         0.27000E+04
         0.27000E+04
         0.27000E+04
         0.27000E+04
         0.27000E+04
         0.27000E+04
         0.27000E+04
         0.27000E+04
         0.27000E+04
         0.27000E+04
         0.27000E+04
         0.27000E+04
         0.27000E+04
         0.27000E+04
         0.27000E+04
         0.27000E+04
         0.27000E+04
         0.27000E+04
         0.27000E+04
         0.27000E+04
         0.27000E+04
         0.27000E+04
         0.27000E+04
         0.27000E+04
         0.27000E+04
         0.27000E+04
         0.27000E+04
         0.27000E+04
         0.27000E+04
         0.27000E+04
         0.27000E+04
         0.27000E+04
         0.27000E+04
         0.27000E+04
         0.27000E+04
         0.27000E+04
         0.27000E+04
         0.27000E+04
         0.27000E+04
         0.27000E+04
         0.27000E+04
         0.27000E+04
         0.27000E+04
         0.27000E+04
         0.27000E+04
         0.27000E+04
         0.27000E+04
         0.27000E+04
         0.27000E+04
         0.27000E+04
         0.27000E+04
         0.27000E+04
         0.27000E+04
         0.27000E+04
         0.27000E+04
         0.27000E+04
         0.27000E+04
         0.27000E+04
         0.27000E+04
         0.27000E+04
         0.27000E+04
         0.27000E+04
         0.27000E+04
         0.27000E+04
         0.27000E+04
         0.27000E+04
         0.27000E+04
         0.27000E+04
         0.27000E+04
         0.27000E+04
         0.27000E+04
         0.27000E+04
         0.27000E+04
         0.27000E+04
         0.27000E+04
         0.27000E+04
         0.27000E+04
         0.27000E+04
         0.27000E+04
         0.27000E+04
         0.27000E+04
         0.27000E+04
         0.27000E+04
         0.27000E+04
         0.27000E+04
         0.27000E+04
         0.27000E+04
         0.27000E+04
         0.27000E+04
         0.27000E+04
         0.27000E+04
         0.27000E+04
         0.27000E+04
         0.27000E+04
         0.27000E+04
         0.27000E+04
         0.27000E+04
         0.27000E+04
         0.27000E+04
         0.27000E+04
         0.27000E+04
         0.27000E+04
         0.27000E+04
         0.27000E+04
         0.27000E+04
         0.27000E+04
         0.27000E+04
         0.27000E+04
         0.27000E+04
         0.27000E+04
         0.27000E+04
         0.27000E+04
         0.27000E+04
         0.27000E+04
         0.27000E+04
         0.27000E+04
         0.27000E+04
         0.27000E+04
         0.27000E+04
         0.27000E+04
         0.27000E+04
         0.27000E+04
         0.27000E+04
         0.27000E+04
         0.27000E+04
         0.27000E+04
         0.27000E+04
         0.27000E+04
         0.27000E+04
         0.27000E+04
         0.27000E+04
         0.27000E+04
         0.27000E+04
         0.27000E+04
         0.27000E+04
         0.27000E+04
         0.27000E+04
         0.27000E+04
         0.27000E+04
         0.27000E+04
         0.27000E+04
         0.27000E+04
         0.27000E+04
         0.27000E+04
         0.27000E+04
         0.27000E+04
         0.27000E+04
         0.27000E+04
         0.27000E+04
         0.27000E+04
         0.27000E+04
         0.27000E+04
         0.27000E+04
         0.27000E+04
         0.27000E+04
         0.27000E+04
         0.27000E+04
         0.27000E+04
         0.27000E+04
         0.27000E+04
         0.27000E+04
         0.27000E+04
         0.27000E+04
         0.27000E+04
         0.27000E+04
         0.27000E+04
         0.27000E+04
         0.27000E+04
         0.27000E+04
         0.27000E+04
         0.27000E+04
         0.27000E+04
         0.27000E+04
         0.27000E+04
         0.27000E+04
         0.27000E+04
         0.27000E+04
         0.27000E+04
         0.27000E+04
         0.27000E+04
         0.27000E+04
         0.27000E+04
         0.27000E+04
         0.27000E+04
         0.27000E+04
         0.27000E+04
         0.27000E+04
         0.27000E+04
         0.27000E+04
         0.27000E+04
         0.27000E+04
         0.27000E+04
         0.27000E+04
         0.27000E+04
         0.27000E+04
         0.27000E+04
         0.27000E+04
         0.27000E+04
         0.27000E+04
         0.27000E+04
         0.27000E+04
         0.27000E+04
         0.27000E+04
         0.27000E+04
         0.27000E+04
         0.27000E+04
         0.27000E+04
         0.27000E+04
         0.27000E+04
         0.27000E+04
         0.27000E+04
         0.27000E+04
         0.27000E+04
         0.27000E+04
         0.27000E+04
         0.27000E+04
         0.27000E+04
         0.27000E+04
         0.27000E+04
         0.27000E+04
         0.27000E+04
         0.27000E+04
         0.27000E+04
         0.27000E+04
         0.27000E+04
         0.27000E+04
         0.27000E+04
         0.27000E+04
         0.27000E+04
         0.27000E+04
         0.27000E+04
         0.27000E+04
         0.27000E+04
         0.27000E+04
         0.27000E+04
         0.27000E+04
         0.27000E+04
         0.27000E+04
         0.27000E+04
         0.27000E+04
         0.27000E+04
         0.27000E+04
         0.27000E+04
         0.27000E+04
         0.27000E+04
         0.27000E+04
         0.27000E+04
         0.27000E+04
         0.27000E+04
         0.27000E+04
         0.27000E+04
         0.27000E+04
         0.27000E+04
         0.27000E+04
         0.27000E+04
         0.27000E+04
         0.27000E+04
         0.27000E+04
         0.27000E+04
         0.27000E+04
         0.27000E+04
         0.27000E+04
         0.27000E+04
         0.27000E+04
         0.27000E+04
         0.27000E+04
         0.27000E+04
         0.27000E+04
         0.27000E+04
         0.27000E+04
         0.27000E+04
         0.27000E+04
         0.27000E+04
         0.27000E+04
         0.27000E+04
         0.27000E+04
         0.27000E+04
         0.27000E+04
         0.27000E+04
         0.27000E+04
         0.27000E+04
         0.27000E+04
         0.27000E+04
         0.27000E+04
         0.27000E+04
         0.27000E+04
         0.27000E+04
         0.27000E+04
         0.27000E+04
         0.27000E+04
         0.27000E+04
         0.27000E+04
         0.27000E+04
         0.27000E+04
         0.27000E+04
         0.27000E+04
         0.27000E+04
         0.27000E+04
         0.27000E+04
         0.27000E+04
         0.27000E+04
         0.27000E+04
         0.27000E+04
         0.27000E+04
         0.27000E+04
         0.27000E+04
         0.27000E+04
         0.27000E+04
         0.27000E+04
         0.27000E+04
         0.27000E+04
         0.27000E+04
         0.27000E+04
         0.27000E+04
         0.27000E+04
         0.27000E+04
         0.27000E+04
         0.27000E+04
         0.27000E+04
         0.27000E+04
         0.27000E+04
         0.27000E+04
         0.27000E+04
         0.27000E+04
         0.27000E+04
         0.27000E+04
         0.27000E+04
         0.27000E+04
         0.27000E+04
         0.27000E+04
         0.27000E+04
         0.27000E+04
         0.27000E+04
         0.27000E+04
         0.27000E+04
         0.27000E+04
         0.27000E+04
         0.27000E+04
         0.27000E+04
         0.27000E+04
         0.27000E+04
         0.27000E+04
         0.27000E+04
         0.27000E+04
         0.27000E+04
         0.27000E+04
         0.27000E+04
         0.27000E+04
         0.27000E+04
         0.27000E+04
         0.27000E+04
         0.27000E+04
         0.27000E+04
         0.27000E+04
         0.27000E+04
         0.27000E+04
         0.27000E+04
         0.27000E+04
         0.27000E+04
         0.27000E+04
         0.27000E+04
         0.27000E+04
         0.27000E+04
         0.27000E+04
         0.27000E+04
         0.27000E+04
         0.27000E+04
         0.27000E+04
         0.27000E+04
         0.27000E+04
         0.27000E+04
         0.27000E+04
         0.27000E+04
         0.27000E+04
         0.27000E+04
         0.27000E+04
         0.27000E+04
         0.27000E+04
         0.27000E+04
         0.27000E+04
         0.27000E+04
         0.27000E+04
         0.27000E+04
         0.27000E+04
         0.27000E+04
         0.27000E+04
         0.27000E+04
         0.27000E+04
         0.27000E+04
         0.27000E+04
         0.27000E+04
         0.27000E+04
         0.27000E+04
         0.27000E+04
         0.27000E+04
         0.27000E+04
         0.27000E+04
         0.27000E+04
         0.27000E+04
         0.27000E+04
         0.27000E+04
         0.27000E+04
         0.27000E+04
         0.27000E+04
         0.27000E+04
         0.27000E+04
         0.27000E+04
         0.27000E+04
         0.27000E+04
         0.27000E+04
         0.27000E+04
         0.27000E+04
         0.27000E+04
         0.27000E+04
         0.27000E+04
         0.27000E+04
         0.27000E+04
         0.27000E+04
         0.27000E+04
         0.27000E+04
         0.27000E+04
         0.27000E+04
         0.27000E+04
         0.27000E+04
         0.27000E+04
         0.27000E+04
         0.27000E+04
         0.27000E+04
         0.27000E+04
         0.27000E+04
         0.27000E+04
         0.27000E+04
         0.27000E+04
         0.27000E+04
         0.27000E+04
         0.27000E+04
         0.27000E+04
         0.27000E+04
         0.27000E+04
         0.27000E+04
         0.27000E+04
         0.27000E+04
         0.27000E+04
         0.27000E+04
         0.27000E+04
         0.27000E+04
         0.27000E+04
         0.27000E+04
         0.27000E+04
         0.27000E+04
         0.27000E+04
         0.27000E+04
         0.27000E+04
         0.27000E+04
         0.27000E+04
         0.27000E+04
         0.27000E+04
         0.27000E+04
         0.27000E+04
         0.27000E+04
         0.27000E+04
         0.27000E+04
         0.27000E+04
         0.27000E+04
         0.27000E+04
         0.27000E+04
         0.27000E+04
         0.27000E+04
         0.27000E+04
         0.27000E+04
         0.27000E+04
         0.27000E+04
         0.27000E+04
         0.27000E+04
         0.27000E+04
         0.27000E+04
         0.27000E+04
         0.27000E+04
         0.27000E+04
         0.27000E+04
         0.27000E+04
         0.27000E+04
         0.27000E+04
         0.27000E+04
         0.27000E+04
         0.27000E+04
         0.27000E+04
         0.27000E+04
         0.27000E+04
         0.27000E+04
         0.27000E+04
         0.27000E+04
         0.27000E+04
         0.27000E+04
         0.27000E+04
         0.27000E+04
         0.27000E+04
         0.27000E+04
         0.27000E+04
         0.27000E+04
         0.27000E+04
         0.27000E+04
         0.27000E+04
         0.27000E+04
         0.27000E+04
         0.27000E+04
         0.27000E+04
         0.27000E+04
         0.27000E+04
         0.27000E+04
         0.27000E+04
         0.27000E+04
         0.27000E+04
         0.27000E+04
         0.27000E+04
         0.27000E+04
         0.27000E+04
         0.27000E+04
         0.27000E+04
         0.27000E+04
         0.27000E+04
         0.27000E+04
         0.27000E+04
         0.27000E+04
         0.27000E+04
         0.27000E+04
         0.27000E+04
         0.27000E+04
         0.27000E+04
         0.27000E+04
         0.27000E+04
         0.27000E+04
         0.27000E+04
         0.27000E+04
         0.27000E+04
         0.27000E+04
         0.27000E+04
         0.27000E+04
         0.27000E+04
         0.27000E+04
         0.27000E+04
         0.27000E+04
         0.27000E+04
         0.27000E+04
         0.27000E+04
         0.27000E+04
         0.27000E+04
         0.27000E+04
         0.27000E+04
         0.27000E+04
         0.27000E+04
         0.27000E+04
         0.27000E+04
         0.27000E+04
         0.27000E+04
         0.27000E+04
         0.27000E+04
         0.27000E+04
         0.27000E+04
         0.27000E+04
         0.27000E+04
         0.27000E+04
         0.27000E+04
         0.27000E+04
         0.27000E+04
         0.27000E+04
         0.27000E+04
         0.27000E+04
         0.27000E+04
         0.27000E+04
         0.27000E+04
         0.27000E+04
         0.27000E+04
         0.27000E+04
         0.27000E+04
         0.27000E+04
         0.27000E+04
         0.27000E+04
         0.27000E+04
         0.27000E+04
         0.27000E+04
         0.27000E+04
         0.27000E+04
         0.27000E+04
         0.27000E+04
         0.27000E+04
         0.27000E+04
         0.27000E+04
         0.27000E+04
         0.27000E+04
         0.27000E+04
         0.27000E+04
         0.27000E+04
         0.27000E+04
         0.27000E+04
         0.27000E+04
         0.27000E+04
         0.27000E+04
         0.27000E+04
         0.27000E+04
         0.27000E+04
         0.27000E+04
         0.27000E+04
         0.27000E+04
         0.27000E+04
         0.27000E+04
         0.27000E+04
         0.27000E+04
         0.27000E+04
         0.27000E+04
         0.27000E+04
         0.27000E+04
         0.27000E+04
         0.27000E+04
         0.27000E+04
         0.27000E+04
         0.27000E+04
         0.27000E+04
         0.27000E+04
         0.27000E+04
         0.27000E+04
         0.27000E+04
         0.27000E+04
         0.27000E+04
         0.27000E+04
         0.27000E+04
         0.27000E+04
         0.27000E+04
         0.27000E+04
         0.27000E+04
         0.27000E+04
         0.27000E+04
         0.27000E+04
         0.27000E+04
         0.27000E+04
         0.27000E+04
         0.27000E+04
         0.27000E+04
         0.27000E+04
         0.27000E+04
         0.27000E+04
         0.27000E+04
         0.27000E+04
         0.27000E+04
         0.27000E+04
         0.27000E+04
         0.27000E+04
         0.27000E+04
         0.27000E+04
         0.27000E+04
         0.27000E+04
         0.27000E+04
         0.27000E+04
         0.27000E+04
         0.27000E+04
         0.27000E+04
         0.27000E+04
         0.27000E+04
         0.27000E+04
         0.27000E+04
         0.27000E+04
         0.27000E+04
         0.27000E+04
         0.27000E+04
         0.27000E+04
         0.27000E+04
         0.27000E+04
         0.27000E+04
         0.27000E+04
         0.27000E+04
         0.27000E+04
         0.27000E+04
         0.27000E+04
         0.27000E+04
         0.27000E+04
         0.27000E+04
         0.27000E+04
         0.27000E+04
         0.27000E+04
         0.27000E+04
         0.27000E+04
         0.27000E+04
         0.27000E+04
         0.27000E+04
         0.27000E+04
         0.27000E+04
         0.27000E+04
         0.27000E+04
         0.27000E+04
         0.27000E+04
         0.27000E+04
         0.27000E+04
         0.27000E+04
         0.27000E+04
         0.27000E+04
         0.27000E+04
         0.27000E+04
         0.27000E+04
         0.27000E+04
         0.27000E+04
         0.27000E+04
         0.27000E+04
         0.27000E+04
         0.27000E+04
         0.27000E+04
         0.27000E+04
         0.27000E+04
         0.27000E+04
         0.27000E+04
         0.27000E+04
         0.27000E+04
         0.27000E+04
         0.27000E+04
         0.27000E+04
         0.27000E+04
         0.27000E+04
         0.27000E+04
         0.27000E+04
         0.27000E+04
         0.27000E+04
         0.27000E+04
         0.27000E+04
         0.27000E+04
         0.27000E+04
         0.27000E+04
         0.27000E+04
         0.27000E+04
         0.27000E+04
         0.27000E+04
         0.27000E+04
         0.27000E+04
         0.27000E+04
         0.27000E+04
         0.27000E+04
         0.27000E+04
         0.27000E+04
         0.27000E+04
         0.27000E+04
         0.27000E+04
         0.27000E+04
         0.27000E+04
         0.27000E+04
         0.27000E+04
         0.27000E+04
         0.27000E+04
         0.27000E+04
         0.27000E+04
         0.27000E+04
         0.27000E+04
         0.27000E+04
         0.27000E+04
         0.27000E+04
         0.27000E+04
         0.27000E+04
         0.27000E+04
         0.27000E+04
         0.27000E+04
         0.27000E+04
         0.27000E+04
         0.27000E+04
         0.27000E+04
         0.27000E+04
         0.27000E+04
         0.27000E+04
         0.27000E+04
         0.27000E+04
         0.27000E+04
         0.27000E+04
         0.27000E+04
         0.27000E+04
         0.27000E+04
         0.27000E+04
         0.27000E+04
         0.27000E+04
         0.27000E+04
         0.27000E+04
         0.27000E+04
         0.27000E+04
         0.27000E+04
         0.27000E+04
         0.27000E+04
         0.27000E+04
         0.27000E+04
         0.27000E+04
         0.27000E+04
         0.27000E+04
         0.27000E+04
         0.27000E+04
         0.27000E+04
         0.27000E+04
         0.27000E+04
         0.27000E+04
         0.27000E+04
         0.27000E+04
         0.27000E+04
         0.27000E+04
         0.27000E+04
         0.27000E+04
         0.27000E+04
         0.27000E+04
         0.27000E+04
         0.27000E+04
         0.27000E+04
         0.27000E+04
         0.27000E+04
         0.27000E+04
         0.27000E+04
         0.27000E+04
         0.27000E+04
         0.27000E+04
         0.27000E+04
         0.27000E+04
         0.27000E+04
         0.27000E+04
         0.27000E+04
         0.27000E+04
         0.27000E+04
         0.27000E+04
         0.27000E+04
         0.27000E+04
         0.27000E+04
         0.27000E+04
         0.27000E+04
         0.27000E+04
         0.27000E+04
         0.27000E+04
         0.27000E+04
         0.27000E+04
         0.27000E+04
         0.27000E+04
         0.27000E+04
         0.27000E+04
         0.27000E+04
         0.27000E+04
         0.27000E+04
         0.27000E+04
         0.27000E+04
         0.27000E+04
         0.27000E+04
         0.27000E+04
         0.27000E+04
         0.27000E+04
         0.27000E+04
         0.27000E+04
         0.27000E+04
         0.27000E+04
         0.27000E+04
         0.27000E+04
         0.27000E+04
         0.27000E+04
         0.27000E+04
         0.27000E+04
         0.27000E+04
         0.27000E+04
         0.27000E+04
         0.27000E+04
         0.27000E+04
         0.27000E+04
         0.27000E+04
         0.27000E+04
         0.27000E+04
         0.27000E+04
         0.27000E+04
         0.27000E+04
         0.27000E+04
         0.27000E+04
         0.27000E+04
         0.27000E+04
         0.27000E+04
         0.27000E+04
         0.27000E+04
         0.27000E+04
         0.27000E+04
         0.27000E+04
         0.27000E+04
         0.27000E+04
         0.27000E+04
         0.27000E+04
         0.27000E+04
         0.27000E+04
         0.27000E+04
         0.27000E+04
         0.27000E+04
         0.27000E+04
         0.27000E+04
         0.27000E+04
         0.27000E+04
         0.27000E+04
         0.27000E+04
         0.27000E+04
         0.27000E+04
         0.27000E+04
         0.27000E+04
         0.27000E+04
         0.27000E+04
         0.27000E+04
         0.27000E+04
         0.27000E+04
         0.27000E+04
         0.27000E+04
         0.27000E+04
         0.27000E+04
         0.27000E+04
         0.27000E+04
         0.27000E+04
         0.27000E+04
         0.27000E+04
         0.27000E+04
         0.27000E+04
         0.27000E+04
         0.27000E+04
         0.27000E+04
         0.27000E+04
         0.27000E+04
         0.27000E+04
         0.27000E+04
         0.27000E+04
         0.27000E+04
         0.27000E+04
         0.27000E+04
         0.27000E+04
         0.27000E+04
         0.27000E+04
         0.27000E+04
         0.27000E+04
         0.27000E+04
         0.27000E+04
         0.27000E+04
         0.27000E+04
         0.27000E+04
         0.27000E+04
         0.27000E+04
         0.27000E+04
         0.27000E+04
         0.27000E+04
         0.27000E+04
         0.27000E+04
         0.27000E+04
         0.27000E+04
         0.27000E+04
         0.27000E+04
         0.27000E+04
         0.27000E+04
         0.27000E+04
         0.27000E+04
         0.27000E+04
         0.27000E+04
         0.27000E+04
         0.27000E+04
         0.27000E+04
         0.27000E+04
         0.27000E+04
         0.27000E+04
         0.27000E+04
         0.27000E+04
         0.27000E+04
         0.27000E+04
         0.27000E+04
         0.27000E+04
         0.27000E+04
         0.27000E+04
         0.27000E+04
         0.27000E+04
         0.27000E+04
         0.27000E+04
         0.27000E+04
         0.27000E+04
         0.27000E+04
         0.27000E+04
         0.27000E+04
         0.27000E+04
         0.27000E+04
         0.27000E+04
         0.27000E+04
         0.27000E+04
         0.27000E+04
         0.27000E+04
         0.27000E+04
         0.27000E+04
         0.27000E+04
         0.27000E+04
         0.27000E+04
         0.27000E+04
         0.27000E+04
         0.27000E+04
         0.27000E+04
         0.27000E+04
         0.27000E+04
         0.27000E+04
         0.27000E+04
         0.27000E+04
         0.27000E+04
         0.27000E+04
         0.27000E+04
         0.27000E+04
         0.27000E+04
         0.27000E+04
         0.27000E+04
         0.27000E+04
         0.27000E+04
         0.27000E+04
         0.27000E+04
         0.27000E+04
         0.27000E+04
         0.27000E+04
         0.27000E+04
         0.27000E+04
         0.27000E+04
         0.27000E+04
         0.27000E+04
         0.27000E+04
         0.27000E+04
         0.27000E+04
         0.27000E+04
         0.27000E+04
         0.27000E+04
         0.27000E+04
         0.27000E+04
         0.27000E+04
         0.27000E+04
         0.27000E+04
         0.27000E+04
         0.27000E+04
         0.27000E+04
         0.27000E+04
         0.27000E+04
         0.27000E+04
         0.27000E+04
         0.27000E+04
         0.27000E+04
         0.27000E+04
         0.27000E+04
         0.27000E+04
         0.27000E+04
         0.27000E+04
         0.27000E+04
         0.27000E+04
         0.27000E+04
         0.27000E+04
         0.27000E+04
         0.27000E+04
         0.27000E+04
         0.27000E+04
         0.27000E+04
         0.27000E+04
         0.27000E+04
         0.27000E+04
         0.27000E+04
         0.27000E+04
         0.27000E+04
         0.27000E+04
         0.27000E+04
         0.27000E+04
         0.27000E+04
         0.27000E+04
         0.27000E+04
         0.27000E+04
         0.27000E+04
         0.27000E+04
         0.27000E+04
         0.27000E+04
         0.27000E+04
         0.27000E+04
         0.27000E+04
         0.27000E+04
         0.27000E+04
         0.27000E+04
         0.27000E+04
         0.27000E+04
         0.27000E+04
         0.27000E+04
         0.27000E+04
         0.27000E+04
         0.27000E+04
         0.27000E+04
         0.27000E+04
         0.27000E+04
         0.27000E+04
         0.27000E+04
         0.27000E+04
         0.27000E+04
         0.27000E+04
         0.27000E+04
         0.27000E+04
         0.27000E+04
         0.27000E+04
         0.27000E+04
         0.27000E+04
         0.27000E+04
         0.27000E+04
         0.27000E+04
         0.27000E+04
         0.27000E+04
         0.27000E+04
         0.27000E+04
         0.27000E+04
         0.27000E+04
         0.27000E+04
         0.27000E+04
         0.27000E+04
         0.27000E+04
         0.27000E+04
         0.27000E+04
         0.27000E+04
         0.27000E+04
         0.27000E+04
         0.27000E+04
         0.27000E+04
         0.27000E+04
         0.27000E+04
         0.27000E+04
         0.27000E+04
         0.27000E+04
         0.27000E+04
         0.27000E+04
         0.27000E+04
         0.27000E+04
         0.27000E+04
         0.27000E+04
         0.27000E+04
         0.27000E+04
         0.27000E+04
         0.27000E+04
         0.27000E+04
         0.27000E+04
         0.27000E+04
         0.27000E+04
         0.27000E+04
         0.27000E+04
         0.27000E+04
         0.27000E+04
         0.27000E+04
         0.27000E+04
         0.27000E+04
         0.27000E+04
         0.27000E+04
         0.27000E+04
         0.27000E+04
         0.27000E+04
         0.27000E+04
         0.27000E+04
         0.27000E+04
         0.27000E+04
         0.27000E+04
         0.27000E+04
         0.27000E+04
         0.27000E+04
         0.27000E+04
         0.27000E+04
         0.27000E+04
         0.27000E+04
         0.27000E+04
         0.27000E+04
         0.27000E+04
         0.27000E+04
         0.27000E+04
         0.27000E+04
         0.27000E+04
         0.27000E+04
         0.27000E+04
         0.27000E+04
         0.27000E+04
         0.27000E+04
         0.27000E+04
         0.27000E+04
         0.27000E+04
         0.27000E+04
         0.27000E+04
         0.27000E+04
         0.27000E+04
         0.27000E+04
         0.27000E+04
         0.27000E+04
         0.27000E+04
         0.27000E+04
         0.27000E+04
         0.27000E+04
         0.27000E+04
         0.27000E+04
         0.27000E+04
         0.27000E+04
         0.27000E+04
         0.27000E+04
         0.27000E+04
         0.27000E+04
         0.27000E+04
         0.27000E+04
         0.27000E+04
         0.27000E+04
         0.27000E+04
         0.27000E+04
         0.27000E+04
         0.27000E+04
         0.27000E+04
         0.27000E+04
         0.27000E+04
         0.27000E+04
         0.27000E+04
         0.27000E+04
         0.27000E+04
         0.27000E+04
         0.27000E+04
         0.27000E+04
         0.27000E+04
         0.27000E+04
         0.27000E+04
         0.27000E+04
         0.27000E+04
         0.27000E+04
         0.27000E+04
         0.27000E+04
         0.27000E+04
         0.27000E+04
         0.27000E+04
         0.27000E+04
         0.27000E+04
         0.27000E+04
         0.27000E+04
         0.27000E+04
         0.27000E+04
         0.27000E+04
         0.27000E+04
         0.27000E+04
         0.27000E+04
         0.27000E+04
         0.27000E+04
         0.27000E+04
         0.27000E+04
         0.27000E+04
         0.27000E+04
         0.27000E+04
         0.27000E+04
         0.27000E+04
         0.27000E+04
         0.27000E+04
         0.27000E+04
         0.27000E+04
         0.27000E+04
         0.27000E+04
         0.27000E+04
         0.27000E+04
         0.27000E+04
         0.27000E+04
         0.27000E+04
         0.27000E+04
         0.27000E+04
         0.27000E+04
         0.27000E+04
         0.27000E+04
         0.27000E+04
         0.27000E+04
         0.27000E+04
         0.27000E+04
         0.27000E+04
         0.27000E+04
         0.27000E+04
         0.27000E+04
         0.27000E+04
         0.27000E+04
         0.27000E+04
         0.27000E+04
         0.27000E+04
         0.27000E+04
         0.27000E+04
         0.27000E+04
         0.27000E+04
         0.27000E+04
         0.27000E+04
         0.27000E+04
         0.27000E+04
         0.27000E+04
         0.27000E+04
         0.27000E+04
         0.27000E+04
         0.27000E+04
         0.27000E+04
         0.27000E+04
         0.27000E+04
         0.27000E+04
         0.27000E+04
         0.27000E+04
         0.27000E+04
         0.27000E+04
         0.27000E+04
         0.27000E+04
         0.27000E+04
         0.27000E+04
         0.27000E+04
         0.27000E+04
         0.27000E+04
         0.27000E+04
         0.27000E+04
         0.27000E+04
         0.27000E+04
         0.27000E+04
         0.27000E+04
         0.27000E+04
         0.27000E+04
         0.27000E+04
         0.27000E+04
         0.27000E+04
         0.27000E+04
         0.27000E+04
         0.27000E+04
         0.27000E+04
         0.27000E+04
         0.27000E+04
         0.27000E+04
         0.27000E+04
         0.27000E+04
         0.27000E+04
         0.27000E+04
         0.27000E+04
         0.27000E+04
         0.27000E+04
         0.27000E+04
         0.27000E+04
         0.27000E+04
         0.27000E+04
         0.27000E+04
         0.27000E+04
         0.27000E+04
         0.27000E+04
         0.27000E+04
         0.27000E+04
         0.27000E+04
         0.27000E+04
         0.27000E+04
         0.27000E+04
         0.27000E+04
         0.27000E+04
         0.27000E+04
         0.27000E+04
         0.27000E+04
         0.27000E+04
         0.27000E+04
         0.27000E+04
         0.27000E+04
         0.27000E+04
         0.27000E+04
         0.27000E+04
         0.27000E+04
         0.27000E+04
         0.27000E+04
         0.27000E+04
         0.27000E+04
         0.27000E+04
         0.27000E+04
         0.27000E+04
         0.27000E+04
         0.27000E+04
         0.27000E+04
         0.27000E+04
         0.27000E+04
         0.27000E+04
         0.27000E+04
         0.27000E+04
         0.27000E+04
         0.27000E+04
         0.27000E+04
         0.27000E+04
         0.27000E+04
         0.27000E+04
         0.27000E+04
         0.27000E+04
         0.27000E+04
         0.27000E+04
         0.27000E+04
         0.27000E+04
         0.27000E+04
         0.27000E+04
         0.27000E+04
         0.27000E+04
         0.27000E+04
         0.27000E+04
         0.27000E+04
         0.27000E+04
         0.27000E+04
         0.27000E+04
         0.27000E+04
         0.27000E+04
         0.27000E+04
         0.27000E+04
         0.27000E+04
         0.27000E+04
         0.27000E+04
         0.27000E+04
         0.27000E+04
         0.27000E+04
         0.27000E+04
         0.27000E+04
         0.27000E+04
         0.27000E+04
         0.27000E+04
         0.27000E+04
         0.27000E+04
         0.27000E+04
         0.27000E+04
         0.27000E+04
         0.27000E+04
         0.27000E+04
         0.27000E+04
         0.27000E+04
         0.27000E+04
         0.27000E+04
         0.27000E+04
         0.27000E+04
         0.27000E+04
         0.27000E+04
         0.27000E+04
         0.27000E+04
         0.27000E+04
         0.27000E+04
         0.27000E+04
         0.27000E+04
         0.27000E+04
         0.27000E+04
         0.27000E+04
         0.27000E+04
         0.27000E+04
         0.27000E+04
         0.27000E+04
         0.27000E+04
         0.27000E+04
         0.27000E+04
         0.27000E+04
         0.27000E+04
         0.27000E+04
         0.27000E+04
         0.27000E+04
         0.27000E+04
         0.27000E+04
         0.27000E+04
         0.27000E+04
         0.27000E+04
         0.27000E+04
         0.27000E+04
         0.27000E+04
         0.27000E+04
         0.27000E+04
         0.27000E+04
         0.27000E+04
         0.27000E+04
         0.27000E+04
         0.27000E+04
         0.27000E+04
